<?xml version="1.0"?>
<VTKFile type="UnstructuredGrid" version="0.1" byte_order="LittleEndian">
<UnstructuredGrid>
<Piece NumberOfPoints="30881" NumberOfCells="10862">
<Points>
<DataArray type="Float64" NumberOfComponents="3" format="ascii">
-0.49999999999999828 -0.48677703703187492 0 -0.5 -0.5 0 -0.48129281494584059 -0.49338851851593718 0 -0.5 -0.5 0 -0.48129281494584059 -0.49338851851593718 0 -0.46258562989168328 -0.5 0 -0.49999999999999828 -0.48677703703187492 0 -0.48129281494584059 -0.49338851851593718 0 -0.49999999999999828 -0.48677703703187492 0 -0.4824545428279598 -0.47451624516148783 0 -0.48129281494584059 -0.49338851851593718 0 -0.49999999999999828 -0.48677703703187492 0 -0.4824545428279598 -0.47451624516148783 0 -0.5 -0.46599539173150673 0 -0.4824545428279598 -0.47451624516148783 0 -0.46853075243710779 -0.48354990242643758 0 -0.46411508256092049 -0.46598235294430129 0 -0.4824545428279598 -0.47451624516148783 0 -0.48129281494584059 -0.49338851851593718 0 -0.46853075243710779 -0.48354990242643758 0 -0.48129281494584059 -0.49338851851593718 0 -0.46258562989168328 -0.5 0 -0.48129281494584059 -0.49338851851593718 0 -0.46258562989168328 -0.5 0 -0.46853075243710779 -0.48354990242643758 0 -0.46258562989168328 -0.5 0 -0.46853075243710779 -0.48354990242643758 0 -0.45147378687733691 -0.48362213557840178 0 -0.46853075243710779 -0.48354990242643758 0 -0.45147378687733691 -0.48362213557840178 0 -0.46411508256092049 -0.46598235294430129 0 -0.4457251648104853 -0.47020164095208389 0 -0.45147378687733691 -0.48362213557840178 0 -0.46411508256092049 -0.46598235294430129 0 -0.4457251648104853 -0.47020164095208389 0 -0.45147378687733691 -0.48362213557840178 0 -0.43513446131126993 -0.48199891714758791 0 -0.45147378687733691 -0.48362213557840178 0 -0.43275163025255442 -0.5 0 -0.43513446131126993 -0.48199891714758791 0 -0.46258562989168328 -0.5 0 -0.45147378687733691 -0.48362213557840178 0 -0.43275163025255442 -0.5 0 -0.4467190029717853 -0.45478934699519452 0 -0.4422915115958943 -0.43555510214664611 0 -0.43246707723660932 -0.44794326854796312 0 -0.4457251648104853 -0.47020164095208389 0 -0.4467190029717853 -0.45478934699519452 0 -0.46411508256092049 -0.46598235294430129 0 -0.4457251648104853 -0.47020164095208389 0 -0.4467190029717853 -0.45478934699519452 0 -0.43016578207734568 -0.46313500011938619 0 -0.4467190029717853 -0.45478934699519452 0 -0.46411508256092049 -0.46598235294430129 0 -0.47114575579794699 -0.4403844242888923 0 -0.4467190029717853 -0.45478934699519452 0 -0.47114575579794699 -0.4403844242888923 0 -0.4422915115958943 -0.43555510214664611 0 -0.47114575579794699 -0.4403844242888923 0 -0.4422915115958943 -0.43555510214664611 0 -0.46411508256092049 -0.46598235294430129 0 -0.47114575579794699 -0.4403844242888923 0 -0.48354307623736548 -0.45841843211146538 0 -0.4824545428279598 -0.47451624516148783 0 -0.46411508256092049 -0.46598235294430129 0 -0.48354307623736548 -0.45841843211146538 0 -0.4824545428279598 -0.47451624516148783 0 -0.48354307623736548 -0.45841843211146538 0 -0.5 -0.46599539173150673 0 -0.48354307623736548 -0.45841843211146538 0 -0.5 -0.46599539173150673 0 -0.49999999999999972 -0.44521374643113848 0 -0.47114575579794699 -0.4403844242888923 0 -0.49999999999999972 -0.44521374643113848 0 -0.47114575579794699 -0.4403844242888923 0 -0.49999999999999972 -0.44521374643113848 0 -0.48704432221743971 -0.42935617662229603 0 -0.47114575579794699 -0.4403844242888923 0 -0.48354307623736548 -0.45841843211146538 0 -0.49999999999999972 -0.44521374643113848 0 -0.49999999999999972 -0.44521374643113848 0 -0.48704432221743971 -0.42935617662229603 0 -0.5 -0.41591957503128979 0 -0.48704432221743971 -0.42935617662229603 0 -0.5 -0.41591957503128979 0 -0.47703153307181151 -0.41590696073786332 0 -0.5 -0.41591957503128979 0 -0.47703153307181151 -0.41590696073786332 0 -0.48817838912021821 -0.4022119694541284 0 -0.47114575579794699 -0.4403844242888923 0 -0.48704432221743971 -0.42935617662229603 0 -0.47703153307181151 -0.41590696073786332 0 -0.5 -0.38662540363144121 0 -0.47568202340906118 -0.39039593841591919 0 -0.4947615751445838 -0.37332156409002909 0 -0.47568202340906118 -0.39039593841591919 0 -0.4947615751445838 -0.37332156409002909 0 -0.5 -0.38662540363144121 0 -0.48817838912021821 -0.4022119694541284 0 -0.47568202340906118 -0.39039593841591919 0 -0.5 -0.41591957503128979 0 -0.5 -0.38662540363144121 0 -0.48817838912021821 -0.4022119694541284 0 -0.47703153307181151 -0.41590696073786332 0 -0.48817838912021821 -0.4022119694541284 0 -0.47568202340906118 -0.39039593841591919 0 -0.47703153307181151 -0.41590696073786332 0 -0.47568202340906118 -0.39039593841591919 0 -0.45660247167353862 -0.40747031274180939 0 -0.47568202340906118 -0.39039593841591919 0 -0.48030931097003587 -0.37191064435083931 0 -0.46669490250066459 -0.37481721741951951 0 -0.47568202340906118 -0.39039593841591919 0 -0.4947615751445838 -0.37332156409002909 0 -0.48030931097003587 -0.37191064435083931 0 -0.45332061783919553 -0.38729481725706361 0 -0.46669490250066459 -0.37481721741951951 0 -0.45095991715087752 -0.36968037302039969 0 -0.47568202340906118 -0.39039593841591919 0 -0.45332061783919553 -0.38729481725706361 0 -0.46669490250066459 -0.37481721741951951 0 -0.47568202340906118 -0.39039593841591919 0 -0.45660247167353862 -0.40747031274180939 0 -0.47568202340906118 -0.39039593841591919 0 -0.45332061783919553 -0.38729481725706361 0 -0.45660247167353862 -0.40747031274180939 0 -0.44332653075004852 -0.401690115615219 0 -0.44646247228389868 -0.41654464256061052 0 -0.42870657106664078 -0.39987574649354879 0 -0.45332061783919553 -0.38729481725706361 0 -0.44332653075004852 -0.401690115615219 0 -0.43479631603355468 -0.39077639303142497 0 -0.45332061783919553 -0.38729481725706361 0 -0.44332653075004852 -0.401690115615219 0 -0.45660247167353862 -0.40747031274180939 0 -0.45332061783919553 -0.38729481725706361 0 -0.43421362475025049 -0.37527491429266319 0 -0.43479631603355468 -0.39077639303142497 0 -0.45332061783919553 -0.38729481725706361 0 -0.43421362475025049 -0.37527491429266319 0 -0.45095991715087752 -0.36968037302039969 0 -0.47114575579794699 -0.4403844242888923 0 -0.45663439814062529 -0.42533932462455271 0 -0.4422915115958943 -0.43555510214664611 0 -0.47114575579794699 -0.4403844242888923 0 -0.47703153307181151 -0.41590696073786332 0 -0.45663439814062529 -0.42533932462455271 0 -0.45663439814062529 -0.42533932462455271 0 -0.45660247167353862 -0.40747031274180939 0 -0.44646247228389868 -0.41654464256061052 0 -0.47703153307181151 -0.41590696073786332 0 -0.45663439814062529 -0.42533932462455271 0 -0.45660247167353862 -0.40747031274180939 0 -0.44332653075004852 -0.401690115615219 0 -0.45660247167353862 -0.40747031274180939 0 -0.44646247228389868 -0.41654464256061052 0 -0.45660247167353862 -0.40747031274180939 0 -0.44646247228389868 -0.41654464256061052 0 -0.44646247228389868 -0.41654464256061052 0 -0.4375229199380159 -0.42454468706769971 0 -0.45663439814062529 -0.42533932462455271 0 -0.4375229199380159 -0.42454468706769971 0 -0.4422915115958943 -0.43555510214664611 0 -0.45663439814062529 -0.42533932462455271 0 -0.44646247228389868 -0.41654464256061052 0 -0.4375229199380159 -0.42454468706769971 0 -0.4375229199380159 -0.42454468706769971 0 -0.4422915115958943 -0.43555510214664611 0 -0.43077617074680319 -0.43406335077952207 0 -0.43077617074680319 -0.43406335077952207 0 -0.42550232634077589 -0.42345940056268039 0 -0.41950844772475421 -0.43888456563633732 0 -0.4375229199380159 -0.42454468706769971 0 -0.43077617074680319 -0.43406335077952207 0 -0.42550232634077589 -0.42345940056268039 0 -0.44646247228389868 -0.41654464256061052 0 -0.41657232816672918 -0.41306671883907142 0 -0.42870657106664078 -0.39987574649354879 0 -0.44646247228389868 -0.41654464256061052 0 -0.4375229199380159 -0.42454468706769971 0 -0.42550232634077589 -0.42345940056268039 0 -0.44646247228389868 -0.41654464256061052 0 -0.42550232634077589 -0.42345940056268039 0 -0.41657232816672918 -0.41306671883907142 0 -0.44646247228389868 -0.41654464256061052 0 -0.41657232816672918 -0.41306671883907142 0 -0.42550232634077589 -0.42345940056268039 0 -0.41657232816672918 -0.41306671883907142 0 -0.41333489101611293 -0.42699700567040988 0 -0.41657232816672918 -0.41306671883907142 0 -0.41333489101611293 -0.42699700567040988 0 -0.39893236021425188 -0.42931692235905211 0 -0.41333489101611293 -0.42699700567040988 0 -0.39893236021425188 -0.42931692235905211 0 -0.41950844772475421 -0.43888456563633732 0 -0.42550232634077589 -0.42345940056268039 0 -0.41333489101611293 -0.42699700567040988 0 -0.41950844772475421 -0.43888456563633732 0 -0.43421362475025049 -0.37527491429266319 0 -0.42478231784314502 -0.38643128255249681 0 -0.41656514696884139 -0.37636588688318029 0 -0.43421362475025049 -0.37527491429266319 0 -0.42478231784314502 -0.38643128255249681 0 -0.43479631603355468 -0.39077639303142497 0 -0.42478231784314502 -0.38643128255249681 0 -0.43479631603355468 -0.39077639303142497 0 -0.42870657106664078 -0.39987574649354879 0 -0.44332653075004852 -0.401690115615219 0 -0.43479631603355468 -0.39077639303142497 0 -0.42870657106664078 -0.39987574649354879 0 -0.41657232816672918 -0.41306671883907142 0 -0.40962993039643741 -0.3898634720616666 0 -0.3946356370269814 -0.39577424904278191 0 -0.42478231784314502 -0.38643128255249681 0 -0.42870657106664078 -0.39987574649354879 0 -0.40962993039643741 -0.3898634720616666 0 -0.41657232816672918 -0.41306671883907142 0 -0.42870657106664078 -0.39987574649354879 0 -0.40962993039643741 -0.3898634720616666 0 -0.42478231784314502 -0.38643128255249681 0 -0.40962993039643741 -0.3898634720616666 0 -0.41656514696884139 -0.37636588688318029 0 -0.40962993039643741 -0.3898634720616666 0 -0.41656514696884139 -0.37636588688318029 0 -0.40465459864295228 -0.37650109000307358 0 -0.39431275766669582 -0.38061373190328529 0 -0.40465459864295228 -0.37650109000307358 0 -0.3968495855878465 -0.36923685638487008 0 -0.40962993039643741 -0.3898634720616666 0 -0.39431275766669582 -0.38061373190328529 0 -0.40465459864295228 -0.37650109000307358 0 -0.40962993039643741 -0.3898634720616666 0 -0.39431275766669582 -0.38061373190328529 0 -0.3946356370269814 -0.39577424904278191 0 -0.3946356370269814 -0.39577424904278191 0 -0.38704143117499401 -0.40999023144455299 0 -0.37464038230528551 -0.396492613407532 0 -0.3946356370269814 -0.39577424904278191 0 -0.37522403377147279 -0.38060127254172499 0 -0.37464038230528551 -0.396492613407532 0 -0.39431275766669582 -0.38061373190328529 0 -0.3946356370269814 -0.39577424904278191 0 -0.37522403377147279 -0.38060127254172499 0 -0.39431275766669582 -0.38061373190328529 0 -0.37522403377147279 -0.38060127254172499 0 -0.38569326772338258 -0.37053454129240582 0 -0.41657232816672918 -0.41306671883907142 0 -0.39893236021425188 -0.42931692235905211 0 -0.38704143117499401 -0.40999023144455299 0 -0.41657232816672918 -0.41306671883907142 0 -0.3946356370269814 -0.39577424904278191 0 -0.38704143117499401 -0.40999023144455299 0 -0.41657232816672918 -0.41306671883907142 0 -0.38704143117499401 -0.40999023144455299 0 -0.38704143117499401 -0.40999023144455299 0 -0.38131756488089769 -0.42670085612339947 0 -0.36377437909963828 -0.41972983174959272 0 -0.38131756488089769 -0.42670085612339947 0 -0.38339996822118783 -0.44368928783448319 0 -0.36866352395763108 -0.4313760290561211 0 -0.39893236021425188 -0.42931692235905211 0 -0.38131756488089769 -0.42670085612339947 0 -0.38339996822118783 -0.44368928783448319 0 -0.39893236021425188 -0.42931692235905211 0 -0.38704143117499401 -0.40999023144455299 0 -0.38131756488089769 -0.42670085612339947 0 -0.38339996822118783 -0.44368928783448319 0 -0.40446438048225181 -0.45117017211807442 0 -0.3895931593355052 -0.46351353191466821 0 -0.39893236021425188 -0.42931692235905211 0 -0.38339996822118783 -0.44368928783448319 0 -0.40446438048225181 -0.45117017211807442 0 -0.40446438048225181 -0.45117017211807442 0 -0.3895931593355052 -0.46351353191466821 0 -0.40280611050484572 -0.47090640128894168 0 -0.38339996822118783 -0.44368928783448319 0 -0.3895931593355052 -0.46351353191466821 0 -0.37415472949075129 -0.45946062715310632 0 -0.3895931593355052 -0.46351353191466821 0 -0.38039451612360919 -0.47713749807852829 0 -0.37415472949075129 -0.45946062715310632 0 -0.38039451612360919 -0.47713749807852829 0 -0.39198476482648659 -0.49312537606366408 0 -0.39366244928105898 -0.47747566409097131 0 -0.3895931593355052 -0.46351353191466821 0 -0.38039451612360919 -0.47713749807852829 0 -0.39366244928105898 -0.47747566409097131 0 -0.39198476482648659 -0.49312537606366408 0 -0.37055643484088358 -0.49425936316784103 0 -0.39198476482648659 -0.49312537606366408 0 -0.40291763061342539 -0.5 0 -0.37308363097429631 -0.50000000000000244 0 -0.39198476482648659 -0.49312537606366408 0 -0.37055643484088358 -0.49425936316784103 0 -0.37308363097429631 -0.50000000000000244 0 -0.38039451612360919 -0.47713749807852829 0 -0.39198476482648659 -0.49312537606366408 0 -0.37055643484088358 -0.49425936316784103 0 -0.39198476482648659 -0.49312537606366408 0 -0.41341309481208982 -0.49199138895948757 0 -0.39198476482648659 -0.49312537606366408 0 -0.39366244928105898 -0.47747566409097131 0 -0.40353369561484831 -0.48269551310905429 0 -0.39198476482648659 -0.49312537606366408 0 -0.40291763061342539 -0.5 0 -0.41341309481208982 -0.49199138895948757 0 -0.39198476482648659 -0.49312537606366408 0 -0.40353369561484831 -0.48269551310905429 0 -0.41341309481208982 -0.49199138895948757 0 -0.3895931593355052 -0.46351353191466821 0 -0.39366244928105898 -0.47747566409097131 0 -0.40280611050484572 -0.47090640128894168 0 -0.39366244928105898 -0.47747566409097131 0 -0.40353369561484831 -0.48269551310905429 0 -0.40280611050484572 -0.47090640128894168 0 -0.40280611050484572 -0.47090640128894168 0 -0.41792735015940108 -0.47619959015896091 0 -0.41524515795200517 -0.46243146669528151 0 -0.40353369561484831 -0.48269551310905429 0 -0.41792735015940108 -0.47619959015896091 0 -0.41341309481208982 -0.49199138895948757 0 -0.40353369561484831 -0.48269551310905429 0 -0.40280611050484572 -0.47090640128894168 0 -0.41792735015940108 -0.47619959015896091 0 -0.41792735015940108 -0.47619959015896091 0 -0.41341309481208982 -0.49199138895948757 0 -0.42480663413382869 -0.48754747406650911 0 -0.40291763061342539 -0.5 0 -0.41341309481208982 -0.49199138895948757 0 -0.43275163025255442 -0.5 0 -0.41341309481208982 -0.49199138895948757 0 -0.42480663413382869 -0.48754747406650911 0 -0.43275163025255442 -0.5 0 -0.42480663413382869 -0.48754747406650911 0 -0.43275163025255442 -0.5 0 -0.43513446131126993 -0.48199891714758791 0 -0.4457251648104853 -0.47020164095208389 0 -0.43513446131126993 -0.48199891714758791 0 -0.43016578207734568 -0.46313500011938619 0 -0.41792735015940108 -0.47619959015896091 0 -0.43513446131126993 -0.48199891714758791 0 -0.43016578207734568 -0.46313500011938619 0 -0.41792735015940108 -0.47619959015896091 0 -0.42480663413382869 -0.48754747406650911 0 -0.43513446131126993 -0.48199891714758791 0 -0.4467190029717853 -0.45478934699519452 0 -0.43016578207734568 -0.46313500011938619 0 -0.43246707723660932 -0.44794326854796312 0 -0.43016578207734568 -0.46313500011938619 0 -0.42051073979218989 -0.45215097324273301 0 -0.41524515795200517 -0.46243146669528151 0 -0.43016578207734568 -0.46313500011938619 0 -0.43246707723660932 -0.44794326854796312 0 -0.42051073979218989 -0.45215097324273301 0 -0.4422915115958943 -0.43555510214664611 0 -0.43077617074680319 -0.43406335077952207 0 -0.43246707723660932 -0.44794326854796312 0 -0.43077617074680319 -0.43406335077952207 0 -0.43246707723660932 -0.44794326854796312 0 -0.41950844772475421 -0.43888456563633732 0 -0.43246707723660932 -0.44794326854796312 0 -0.42051073979218989 -0.45215097324273301 0 -0.41950844772475421 -0.43888456563633732 0 -0.39893236021425188 -0.42931692235905211 0 -0.40446438048225181 -0.45117017211807442 0 -0.41950844772475421 -0.43888456563633732 0 -0.40446438048225181 -0.45117017211807442 0 -0.42051073979218989 -0.45215097324273301 0 -0.41950844772475421 -0.43888456563633732 0 -0.40446438048225181 -0.45117017211807442 0 -0.42051073979218989 -0.45215097324273301 0 -0.41524515795200517 -0.46243146669528151 0 -0.40446438048225181 -0.45117017211807442 0 -0.40280611050484572 -0.47090640128894168 0 -0.41524515795200517 -0.46243146669528151 0 -0.41792735015940108 -0.47619959015896091 0 -0.43016578207734568 -0.46313500011938619 0 -0.41524515795200517 -0.46243146669528151 0 -0.45018232007011222 -0.256765034028549 0 -0.429874989515865 -0.26165756953837482 0 -0.43598079583492633 -0.24721882136819351 0 -0.45018232007011222 -0.256765034028549 0 -0.43765198640052377 -0.27443700488157741 0 -0.429874989515865 -0.26165756953837482 0 -0.45018232007011222 -0.256765034028549 0 -0.43598079583492633 -0.24721882136819351 0 -0.45139902778349827 -0.24711062934306771 0 -0.45018232007011222 -0.256765034028549 0 -0.43765198640052377 -0.27443700488157741 0 -0.46196722525855399 -0.27174391220054139 0 -0.43765198640052377 -0.27443700488157741 0 -0.46196722525855399 -0.27174391220054139 0 -0.4476129789611048 -0.29283803371489903 0 -0.46196722525855399 -0.27174391220054139 0 -0.48050148842732221 -0.25523221810557922 0 -0.46267023581878858 -0.24817136713935201 0 -0.45018232007011222 -0.256765034028549 0 -0.46196722525855399 -0.27174391220054139 0 -0.46267023581878858 -0.24817136713935201 0 -0.45018232007011222 -0.256765034028549 0 -0.46267023581878858 -0.24817136713935201 0 -0.45139902778349827 -0.24711062934306771 0 -0.48050148842732221 -0.25523221810557922 0 -0.5 -0.26944871803204617 0 -0.5 -0.2401545466321974 0 -0.48050148842732221 -0.25523221810557922 0 -0.5 -0.26944871803204617 0 -0.48245797385404121 -0.28063059353633901 0 -0.46196722525855399 -0.27174391220054139 0 -0.48050148842732221 -0.25523221810557922 0 -0.48245797385404121 -0.28063059353633901 0 -0.46196722525855399 -0.27174391220054139 0 -0.48245797385404121 -0.28063059353633901 0 -0.46937090116945868 -0.29821258941183898 0 -0.48245797385404121 -0.28063059353633901 0 -0.5 -0.29874288943189498 0 -0.46937090116945868 -0.29821258941183898 0 -0.5 -0.26944871803204617 0 -0.48245797385404121 -0.28063059353633901 0 -0.5 -0.29874288943189498 0 -0.5 -0.29874288943189498 0 -0.46937090116945868 -0.29821258941183898 0 -0.47623524987602139 -0.32201367690444971 0 -0.46937090116945868 -0.29821258941183898 0 -0.4476129789611048 -0.29283803371489903 0 -0.45018982867155483 -0.32180400573951162 0 -0.46196722525855399 -0.27174391220054139 0 -0.46937090116945868 -0.29821258941183898 0 -0.4476129789611048 -0.29283803371489903 0 -0.43765198640052377 -0.27443700488157741 0 -0.4476129789611048 -0.29283803371489903 0 -0.43236213870239748 -0.29002705800971151 0 -0.4476129789611048 -0.29283803371489903 0 -0.45018982867155483 -0.32180400573951162 0 -0.4314578060398388 -0.3048790663939604 0 -0.45018982867155483 -0.32180400573951162 0 -0.4314578060398388 -0.3048790663939604 0 -0.45018982867155483 -0.32180400573951162 0 -0.46157657978994598 -0.34139555482026068 0 -0.43521386225128428 -0.33802231259611382 0 -0.46157657978994598 -0.34139555482026068 0 -0.43521386225128428 -0.33802231259611382 0 -0.45018982867155483 -0.32180400573951162 0 -0.46157657978994598 -0.34139555482026068 0 -0.47623524987602139 -0.32201367690444971 0 -0.46937090116945868 -0.29821258941183898 0 -0.45018982867155483 -0.32180400573951162 0 -0.47623524987602139 -0.32201367690444971 0 -0.5 -0.29874288943189498 0 -0.47623524987602139 -0.32201367690444971 0 -0.5 -0.32803706083174372 0 -0.47623524987602139 -0.32201367690444971 0 -0.5 -0.32803706083174372 0 -0.48561656391384522 -0.34384835974822991 0 -0.5 -0.32803706083174372 0 -0.5 -0.35733123223159241 0 -0.48561656391384522 -0.34384835974822991 0 -0.46157657978994598 -0.34139555482026068 0 -0.47623524987602139 -0.32201367690444971 0 -0.48561656391384522 -0.34384835974822991 0 -0.46157657978994598 -0.34139555482026068 0 -0.47568148196104371 -0.35852722048879659 0 -0.48561656391384522 -0.34384835974822991 0 -0.47568148196104371 -0.35852722048879659 0 -0.48561656391384522 -0.34384835974822991 0 -0.48768886795130861 -0.36141736908419309 0 -0.5 -0.35733123223159241 0 -0.48561656391384522 -0.34384835974822991 0 -0.48768886795130861 -0.36141736908419309 0 -0.5 -0.35733123223159241 0 -0.4947615751445838 -0.37332156409002909 0 -0.48768886795130861 -0.36141736908419309 0 -0.5 -0.38662540363144121 0 -0.5 -0.35733123223159241 0 -0.4947615751445838 -0.37332156409002909 0 -0.4947615751445838 -0.37332156409002909 0 -0.48768886795130861 -0.36141736908419309 0 -0.48030931097003587 -0.37191064435083931 0 -0.47568148196104371 -0.35852722048879659 0 -0.48030931097003587 -0.37191064435083931 0 -0.46669490250066459 -0.37481721741951951 0 -0.47568148196104371 -0.35852722048879659 0 -0.48768886795130861 -0.36141736908419309 0 -0.48030931097003587 -0.37191064435083931 0 -0.46669490250066459 -0.37481721741951951 0 -0.45985290530711531 -0.35919053618658509 0 -0.45095991715087752 -0.36968037302039969 0 -0.47568148196104371 -0.35852722048879659 0 -0.46669490250066459 -0.37481721741951951 0 -0.45985290530711531 -0.35919053618658509 0 -0.46157657978994598 -0.34139555482026068 0 -0.47568148196104371 -0.35852722048879659 0 -0.45985290530711531 -0.35919053618658509 0 -0.46157657978994598 -0.34139555482026068 0 -0.45985290530711531 -0.35919053618658509 0 -0.44091292170358748 -0.35617636658334351 0 -0.46157657978994598 -0.34139555482026068 0 -0.44091292170358748 -0.35617636658334351 0 -0.43521386225128428 -0.33802231259611382 0 -0.43421362475025049 -0.37527491429266319 0 -0.44091292170358748 -0.35617636658334351 0 -0.45095991715087752 -0.36968037302039969 0 -0.45985290530711531 -0.35919053618658509 0 -0.44091292170358748 -0.35617636658334351 0 -0.45095991715087752 -0.36968037302039969 0 -0.43421362475025049 -0.37527491429266319 0 -0.41656514696884139 -0.37636588688318029 0 -0.42218579342164808 -0.36334977441807748 0 -0.43421362475025049 -0.37527491429266319 0 -0.44091292170358748 -0.35617636658334351 0 -0.42218579342164808 -0.36334977441807748 0 -0.44091292170358748 -0.35617636658334351 0 -0.42218579342164808 -0.36334977441807748 0 -0.42066840753926321 -0.34864312644900147 0 -0.44091292170358748 -0.35617636658334351 0 -0.42066840753926321 -0.34864312644900147 0 -0.43521386225128428 -0.33802231259611382 0 -0.42218579342164808 -0.36334977441807748 0 -0.42066840753926321 -0.34864312644900147 0 -0.40690054455725883 -0.35815659477868023 0 -0.40690054455725883 -0.35815659477868023 0 -0.40885114471262263 -0.334649070371968 0 -0.42066840753926321 -0.34864312644900147 0 -0.40690054455725883 -0.35815659477868023 0 -0.40885114471262263 -0.334649070371968 0 -0.42218579342164808 -0.36334977441807748 0 -0.40690054455725883 -0.35815659477868023 0 -0.40625971269279348 -0.36587953617857771 0 -0.40690054455725883 -0.35815659477868023 0 -0.40625971269279348 -0.36587953617857771 0 -0.41656514696884139 -0.37636588688318029 0 -0.42218579342164808 -0.36334977441807748 0 -0.40625971269279348 -0.36587953617857771 0 -0.42218579342164808 -0.36334977441807748 0 -0.40690054455725883 -0.35815659477868023 0 -0.41656514696884139 -0.37636588688318029 0 -0.40465459864295228 -0.37650109000307358 0 -0.40625971269279348 -0.36587953617857771 0 -0.40465459864295228 -0.37650109000307358 0 -0.40625971269279348 -0.36587953617857771 0 -0.3968495855878465 -0.36923685638487008 0 -0.40690054455725883 -0.35815659477868023 0 -0.40029228617445223 -0.36350286704594809 0 -0.3911593018599101 -0.36073848084166482 0 -0.40625971269279348 -0.36587953617857771 0 -0.40029228617445223 -0.36350286704594809 0 -0.3968495855878465 -0.36923685638487008 0 -0.40690054455725883 -0.35815659477868023 0 -0.40625971269279348 -0.36587953617857771 0 -0.40029228617445223 -0.36350286704594809 0 -0.3911593018599101 -0.36073848084166482 0 -0.3968495855878465 -0.36923685638487008 0 -0.38569326772338258 -0.37053454129240582 0 -0.40029228617445223 -0.36350286704594809 0 -0.3911593018599101 -0.36073848084166482 0 -0.3968495855878465 -0.36923685638487008 0 -0.39431275766669582 -0.38061373190328529 0 -0.3968495855878465 -0.36923685638487008 0 -0.38569326772338258 -0.37053454129240582 0 -0.3911593018599101 -0.36073848084166482 0 -0.38569326772338258 -0.37053454129240582 0 -0.37568472164775779 -0.36524225821647011 0 -0.37522403377147279 -0.38060127254172499 0 -0.38569326772338258 -0.37053454129240582 0 -0.37568472164775779 -0.36524225821647011 0 -0.3911593018599101 -0.36073848084166482 0 -0.37568472164775779 -0.36524225821647011 0 -0.38024887903539811 -0.3491016629308506 0 -0.40690054455725883 -0.35815659477868023 0 -0.3911593018599101 -0.36073848084166482 0 -0.38024887903539811 -0.3491016629308506 0 -0.40690054455725883 -0.35815659477868023 0 -0.38024887903539811 -0.3491016629308506 0 -0.39533213247953691 -0.34338662223350158 0 -0.40690054455725883 -0.35815659477868023 0 -0.39533213247953691 -0.34338662223350158 0 -0.40885114471262263 -0.334649070371968 0 -0.40690054455725883 -0.35815659477868023 0 -0.38024887903539811 -0.3491016629308506 0 -0.39533213247953691 -0.34338662223350158 0 -0.38532796161286798 -0.33163916085250739 0 -0.40885114471262263 -0.334649070371968 0 -0.38532796161286798 -0.33163916085250739 0 -0.40885114471262263 -0.334649070371968 0 -0.38024887903539811 -0.3491016629308506 0 -0.39533213247953691 -0.34338662223350158 0 -0.38532796161286798 -0.33163916085250739 0 -0.38024887903539811 -0.3491016629308506 0 -0.38532796161286798 -0.33163916085250739 0 -0.37024470816872912 -0.33735420154985679 0 -0.38532796161286798 -0.33163916085250739 0 -0.37601492727600683 -0.3197696392392384 0 -0.39293033406270472 -0.31505081143976649 0 -0.37601492727600683 -0.3197696392392384 0 -0.39293033406270472 -0.31505081143976649 0 -0.37651642550459341 -0.307078797330949 0 -0.38532796161286798 -0.33163916085250739 0 -0.39293033406270472 -0.31505081143976649 0 -0.40885114471262263 -0.334649070371968 0 -0.39293033406270472 -0.31505081143976649 0 -0.40885114471262263 -0.334649070371968 0 -0.41078846406037228 -0.3113015987101887 0 -0.40885114471262263 -0.334649070371968 0 -0.42554877913925399 -0.3223331804902434 0 -0.41078846406037228 -0.3113015987101887 0 -0.40885114471262263 -0.334649070371968 0 -0.41078846406037228 -0.3113015987101887 0 -0.42066840753926321 -0.34864312644900147 0 -0.40885114471262263 -0.334649070371968 0 -0.43521386225128428 -0.33802231259611382 0 -0.40885114471262263 -0.334649070371968 0 -0.43521386225128428 -0.33802231259611382 0 -0.40885114471262263 -0.334649070371968 0 -0.43521386225128428 -0.33802231259611382 0 -0.42554877913925399 -0.3223331804902434 0 -0.42554877913925399 -0.3223331804902434 0 -0.4314578060398388 -0.3048790663939604 0 -0.41078846406037228 -0.3113015987101887 0 -0.45018982867155483 -0.32180400573951162 0 -0.43521386225128428 -0.33802231259611382 0 -0.42554877913925399 -0.3223331804902434 0 -0.45018982867155483 -0.32180400573951162 0 -0.42554877913925399 -0.3223331804902434 0 -0.4314578060398388 -0.3048790663939604 0 -0.4476129789611048 -0.29283803371489903 0 -0.4314578060398388 -0.3048790663939604 0 -0.43236213870239748 -0.29002705800971151 0 -0.4314578060398388 -0.3048790663939604 0 -0.43236213870239748 -0.29002705800971151 0 -0.41272578340812272 -0.2879541270484095 0 -0.4314578060398388 -0.3048790663939604 0 -0.41272578340812272 -0.2879541270484095 0 -0.43765198640052377 -0.27443700488157741 0 -0.43236213870239748 -0.29002705800971151 0 -0.41272578340812272 -0.2879541270484095 0 -0.4314578060398388 -0.3048790663939604 0 -0.41272578340812272 -0.2879541270484095 0 -0.41078846406037228 -0.3113015987101887 0 -0.41272578340812272 -0.2879541270484095 0 -0.41078846406037228 -0.3113015987101887 0 -0.41272578340812272 -0.2879541270484095 0 -0.41078846406037228 -0.3113015987101887 0 -0.39233272698174793 -0.29435547039456872 0 -0.39293033406270472 -0.31505081143976649 0 -0.41078846406037228 -0.3113015987101887 0 -0.39233272698174793 -0.29435547039456872 0 -0.39293033406270472 -0.31505081143976649 0 -0.37651642550459341 -0.307078797330949 0 -0.39233272698174793 -0.29435547039456872 0 -0.39233272698174793 -0.29435547039456872 0 -0.39278725088820249 -0.26993907014966689 0 -0.37040839911066209 -0.28171057629616708 0 -0.37651642550459341 -0.307078797330949 0 -0.39233272698174793 -0.29435547039456872 0 -0.37040839911066209 -0.28171057629616708 0 -0.41272578340812272 -0.2879541270484095 0 -0.39233272698174793 -0.29435547039456872 0 -0.39278725088820249 -0.26993907014966689 0 -0.41272578340812272 -0.2879541270484095 0 -0.39278725088820249 -0.26993907014966689 0 -0.39278725088820249 -0.26993907014966689 0 -0.37040839911066209 -0.28171057629616708 0 -0.39278725088820249 -0.26993907014966689 0 -0.37533687834285862 -0.25417213976024849 0 -0.37040839911066209 -0.28171057629616708 0 -0.39278725088820249 -0.26993907014966689 0 -0.37533687834285862 -0.25417213976024849 0 -0.39826986996263802 -0.25360934065352753 0 -0.39278725088820249 -0.26993907014966689 0 -0.37533687834285862 -0.25417213976024849 0 -0.39278725088820249 -0.26993907014966689 0 -0.39826986996263802 -0.25360934065352753 0 -0.41519883225968468 -0.25815034790020708 0 -0.39278725088820249 -0.26993907014966689 0 -0.41519883225968468 -0.25815034790020708 0 -0.39826986996263802 -0.25360934065352753 0 -0.41519883225968468 -0.25815034790020708 0 -0.41615383063077721 -0.2466412503256647 0 -0.41519883225968468 -0.25815034790020708 0 -0.41615383063077721 -0.2466412503256647 0 -0.41272578340812272 -0.2879541270484095 0 -0.41519883225968468 -0.25815034790020708 0 -0.41272578340812272 -0.2879541270484095 0 -0.41519883225968468 -0.25815034790020708 0 -0.429874989515865 -0.26165756953837482 0 -0.41272578340812272 -0.2879541270484095 0 -0.39278725088820249 -0.26993907014966689 0 -0.41519883225968468 -0.25815034790020708 0 -0.43765198640052377 -0.27443700488157741 0 -0.41272578340812272 -0.2879541270484095 0 -0.429874989515865 -0.26165756953837482 0 -0.41519883225968468 -0.25815034790020708 0 -0.43598079583492633 -0.24721882136819351 0 -0.41519883225968468 -0.25815034790020708 0 -0.429874989515865 -0.26165756953837482 0 -0.43598079583492633 -0.24721882136819351 0 -0.41519883225968468 -0.25815034790020708 0 -0.43598079583492633 -0.24721882136819351 0 -0.41615383063077721 -0.2466412503256647 0 -0.31968345090478489 -0.25798973640781447 0 -0.33623326073948312 -0.25365348176558788 0 -0.32213598881581812 -0.2442700999577708 0 -0.31968345090478489 -0.25798973640781447 0 -0.31319680135340772 -0.27337899374224139 0 -0.30564385326437488 -0.26015983685037081 0 -0.31968345090478489 -0.25798973640781447 0 -0.31319680135340772 -0.27337899374224139 0 -0.33256675641106698 -0.27199424518209242 0 -0.31319680135340772 -0.27337899374224139 0 -0.33256675641106698 -0.27199424518209242 0 -0.3219330120753135 -0.28752383142540722 0 -0.33256675641106698 -0.27199424518209242 0 -0.33623326073948312 -0.25365348176558788 0 -0.35329637777243872 -0.26495799818728782 0 -0.31968345090478489 -0.25798973640781447 0 -0.33256675641106698 -0.27199424518209242 0 -0.33623326073948312 -0.25365348176558788 0 -0.33623326073948312 -0.25365348176558788 0 -0.35329637777243872 -0.26495799818728782 0 -0.35305879752332059 -0.24486073726717009 0 -0.37533687834285862 -0.25417213976024849 0 -0.35329637777243872 -0.26495799818728782 0 -0.35305879752332059 -0.24486073726717009 0 -0.37533687834285862 -0.25417213976024849 0 -0.35329637777243872 -0.26495799818728782 0 -0.37040839911066209 -0.28171057629616708 0 -0.35329637777243872 -0.26495799818728782 0 -0.34802954733312141 -0.29348208244266671 0 -0.37040839911066209 -0.28171057629616708 0 -0.33256675641106698 -0.27199424518209242 0 -0.35329637777243872 -0.26495799818728782 0 -0.34802954733312141 -0.29348208244266671 0 -0.34802954733312141 -0.29348208244266671 0 -0.37040839911066209 -0.28171057629616708 0 -0.37651642550459341 -0.307078797330949 0 -0.37040839911066209 -0.28171057629616708 0 -0.36249180620921062 -0.30132401124355712 0 -0.34802954733312141 -0.29348208244266671 0 -0.37040839911066209 -0.28171057629616708 0 -0.36249180620921062 -0.30132401124355712 0 -0.37651642550459341 -0.307078797330949 0 -0.36249180620921062 -0.30132401124355712 0 -0.36514172279026702 -0.314674684486903 0 -0.36249180620921062 -0.30132401124355712 0 -0.35217384865543538 -0.31302074178168637 0 -0.36514172279026702 -0.314674684486903 0 -0.34802954733312141 -0.29348208244266671 0 -0.33894022777705518 -0.31261958861733652 0 -0.35217384865543538 -0.31302074178168637 0 -0.34802954733312141 -0.29348208244266671 0 -0.36249180620921062 -0.30132401124355712 0 -0.35217384865543538 -0.31302074178168637 0 -0.34802954733312141 -0.29348208244266671 0 -0.32565069555558063 -0.30525358858916618 0 -0.33894022777705518 -0.31261958861733652 0 -0.34802954733312141 -0.29348208244266671 0 -0.32565069555558063 -0.30525358858916618 0 -0.32565069555558063 -0.30525358858916618 0 -0.32940773276489932 -0.31652548782855527 0 -0.33894022777705518 -0.31261958861733652 0 -0.33256675641106698 -0.27199424518209242 0 -0.34802954733312141 -0.29348208244266671 0 -0.3219330120753135 -0.28752383142540722 0 -0.34802954733312141 -0.29348208244266671 0 -0.3219330120753135 -0.28752383142540722 0 -0.32565069555558063 -0.30525358858916618 0 -0.3219330120753135 -0.28752383142540722 0 -0.31228269981280887 -0.29918463989613459 0 -0.30483638085835207 -0.28788342401786787 0 -0.31319680135340772 -0.27337899374224139 0 -0.3219330120753135 -0.28752383142540722 0 -0.30483638085835207 -0.28788342401786787 0 -0.32565069555558063 -0.30525358858916618 0 -0.30327184377803978 -0.31702509473566581 0 -0.31228269981280887 -0.29918463989613459 0 -0.3219330120753135 -0.28752383142540722 0 -0.32565069555558063 -0.30525358858916618 0 -0.31228269981280887 -0.29918463989613459 0 -0.32565069555558063 -0.30525358858916618 0 -0.30327184377803978 -0.31702509473566581 0 -0.31475841231360341 -0.32260943229412947 0 -0.32694554799167658 -0.33099179923519167 0 -0.33828159541335823 -0.32561934181358893 0 -0.32565069555558063 -0.30525358858916618 0 -0.31475841231360341 -0.32260943229412947 0 -0.30327184377803978 -0.31702509473566581 0 -0.31475841231360341 -0.32260943229412947 0 -0.33828159541335823 -0.32561934181358893 0 -0.32940773276489932 -0.31652548782855527 0 -0.32565069555558063 -0.30525358858916618 0 -0.31475841231360341 -0.32260943229412947 0 -0.32940773276489932 -0.31652548782855527 0 -0.31475841231360341 -0.32260943229412947 0 -0.33828159541335823 -0.32561934181358893 0 -0.31475841231360341 -0.32260943229412947 0 -0.31372637242327511 -0.33497634201883658 0 -0.32694554799167658 -0.33099179923519167 0 -0.32694554799167658 -0.33099179923519167 0 -0.32737612656656928 -0.35021722948502532 0 -0.3170311031704231 -0.34491623006635341 0 -0.31372637242327511 -0.33497634201883658 0 -0.32694554799167658 -0.33099179923519167 0 -0.3170311031704231 -0.34491623006635341 0 -0.31372637242327511 -0.33497634201883658 0 -0.3170311031704231 -0.34491623006635341 0 -0.30849554643820359 -0.34481279163420842 0 -0.32694554799167658 -0.33099179923519167 0 -0.33828159541335823 -0.32561934181358893 0 -0.35359721351353718 -0.34004673108302108 0 -0.32694554799167658 -0.33099179923519167 0 -0.35359721351353718 -0.34004673108302108 0 -0.33765025977867152 -0.34480892108230998 0 -0.32694554799167658 -0.33099179923519167 0 -0.35359721351353718 -0.34004673108302108 0 -0.32694554799167658 -0.33099179923519167 0 -0.33765025977867152 -0.34480892108230998 0 -0.32737612656656928 -0.35021722948502532 0 -0.33828159541335823 -0.32561934181358893 0 -0.32940773276489932 -0.31652548782855527 0 -0.33894022777705518 -0.31261958861733652 0 -0.33828159541335823 -0.32561934181358893 0 -0.33894022777705518 -0.31261958861733652 0 -0.35217384865543538 -0.31302074178168637 0 -0.33828159541335823 -0.32561934181358893 0 -0.3618047785131131 -0.32862925133304821 0 -0.33828159541335823 -0.32561934181358893 0 -0.35217384865543538 -0.31302074178168637 0 -0.3618047785131131 -0.32862925133304821 0 -0.38532796161286798 -0.33163916085250739 0 -0.37601492727600683 -0.3197696392392384 0 -0.3618047785131131 -0.32862925133304821 0 -0.35217384865543538 -0.31302074178168637 0 -0.36514172279026702 -0.314674684486903 0 -0.3618047785131131 -0.32862925133304821 0 -0.37601492727600683 -0.3197696392392384 0 -0.36514172279026702 -0.314674684486903 0 -0.3618047785131131 -0.32862925133304821 0 -0.37601492727600683 -0.3197696392392384 0 -0.37651642550459341 -0.307078797330949 0 -0.36514172279026702 -0.314674684486903 0 -0.38532796161286798 -0.33163916085250739 0 -0.37024470816872912 -0.33735420154985679 0 -0.3618047785131131 -0.32862925133304821 0 -0.37024470816872912 -0.33735420154985679 0 -0.3618047785131131 -0.32862925133304821 0 -0.35359721351353718 -0.34004673108302108 0 -0.38532796161286798 -0.33163916085250739 0 -0.3618047785131131 -0.32862925133304821 0 -0.38024887903539811 -0.3491016629308506 0 -0.37024470816872912 -0.33735420154985679 0 -0.35359721351353718 -0.34004673108302108 0 -0.33828159541335823 -0.32561934181358893 0 -0.3618047785131131 -0.32862925133304821 0 -0.35359721351353718 -0.34004673108302108 0 -0.35359721351353718 -0.34004673108302108 0 -0.36247207576052709 -0.35740109745143939 0 -0.34268215104290278 -0.35797992452600158 0 -0.35359721351353718 -0.34004673108302108 0 -0.34268215104290278 -0.35797992452600158 0 -0.33765025977867152 -0.34480892108230998 0 -0.37568472164775779 -0.36524225821647011 0 -0.38024887903539811 -0.3491016629308506 0 -0.36247207576052709 -0.35740109745143939 0 -0.38024887903539811 -0.3491016629308506 0 -0.35359721351353718 -0.34004673108302108 0 -0.36247207576052709 -0.35740109745143939 0 -0.38024887903539811 -0.3491016629308506 0 -0.35359721351353718 -0.34004673108302108 0 -0.37522403377147279 -0.38060127254172499 0 -0.37568472164775779 -0.36524225821647011 0 -0.35964608014779109 -0.37334112637938882 0 -0.37568472164775779 -0.36524225821647011 0 -0.36247207576052709 -0.35740109745143939 0 -0.35964608014779109 -0.37334112637938882 0 -0.36247207576052709 -0.35740109745143939 0 -0.35964608014779109 -0.37334112637938882 0 -0.34268215104290278 -0.35797992452600158 0 -0.35964608014779109 -0.37334112637938882 0 -0.34268215104290278 -0.35797992452600158 0 -0.34254000635277743 -0.38197763020755832 0 -0.34268215104290278 -0.35797992452600158 0 -0.32737612656656928 -0.35021722948502532 0 -0.32270418411731933 -0.37181077970513959 0 -0.34268215104290278 -0.35797992452600158 0 -0.32270418411731933 -0.37181077970513959 0 -0.34254000635277743 -0.38197763020755832 0 -0.34268215104290278 -0.35797992452600158 0 -0.34254000635277743 -0.38197763020755832 0 -0.34268215104290278 -0.35797992452600158 0 -0.33765025977867152 -0.34480892108230998 0 -0.32737612656656928 -0.35021722948502532 0 -0.32737612656656928 -0.35021722948502532 0 -0.31662274924076123 -0.35606216629487569 0 -0.32270418411731933 -0.37181077970513959 0 -0.32737612656656928 -0.35021722948502532 0 -0.3170311031704231 -0.34491623006635341 0 -0.31662274924076123 -0.35606216629487569 0 -0.3170311031704231 -0.34491623006635341 0 -0.31662274924076123 -0.35606216629487569 0 -0.30902027636205309 -0.35243705172998302 0 -0.31662274924076123 -0.35606216629487569 0 -0.32270418411731933 -0.37181077970513959 0 -0.30796050174877349 -0.36016317053514468 0 -0.32270418411731933 -0.37181077970513959 0 -0.29719619905707523 -0.36594012765828582 0 -0.30796050174877349 -0.36016317053514468 0 -0.32270418411731933 -0.37181077970513959 0 -0.29719619905707523 -0.36594012765828582 0 -0.3103864423796594 -0.37828470113645102 0 -0.32270418411731933 -0.37181077970513959 0 -0.29719619905707523 -0.36594012765828582 0 -0.29719619905707523 -0.36594012765828582 0 -0.29943295026653399 -0.35953932364306618 0 -0.30796050174877349 -0.36016317053514468 0 -0.29719619905707523 -0.36594012765828582 0 -0.29584447723995128 -0.37444813956539807 0 -0.3103864423796594 -0.37828470113645102 0 -0.31662274924076123 -0.35606216629487569 0 -0.30796050174877349 -0.36016317053514468 0 -0.30902027636205309 -0.35243705172998302 0 -0.30796050174877349 -0.36016317053514468 0 -0.30902027636205309 -0.35243705172998302 0 -0.30278665144889838 -0.35518957417951802 0 -0.3170311031704231 -0.34491623006635341 0 -0.30902027636205309 -0.35243705172998302 0 -0.30849554643820359 -0.34481279163420842 0 -0.30902027636205309 -0.35243705172998302 0 -0.30849554643820359 -0.34481279163420842 0 -0.30076474035813339 -0.34759465108555682 0 -0.30849554643820359 -0.34481279163420842 0 -0.30076474035813339 -0.34759465108555682 0 -0.30398917998114899 -0.33934800480643368 0 -0.30902027636205309 -0.35243705172998302 0 -0.30076474035813339 -0.34759465108555682 0 -0.30278665144889838 -0.35518957417951802 0 -0.29943295026653399 -0.35953932364306618 0 -0.30796050174877349 -0.36016317053514468 0 -0.30278665144889838 -0.35518957417951802 0 -0.30076474035813339 -0.34759465108555682 0 -0.30278665144889838 -0.35518957417951802 0 -0.29719830368448108 -0.35301728683459582 0 -0.29943295026653399 -0.35953932364306618 0 -0.30278665144889838 -0.35518957417951802 0 -0.29719830368448108 -0.35301728683459582 0 -0.29943295026653399 -0.35953932364306618 0 -0.29719830368448108 -0.35301728683459582 0 -0.29016743694869812 -0.35649807524262711 0 -0.29016743694869812 -0.35649807524262711 0 -0.28284547851944208 -0.35047845284871731 0 -0.27168821399683141 -0.36006947561143121 0 -0.29719830368448108 -0.35301728683459582 0 -0.29016743694869812 -0.35649807524262711 0 -0.2925915294609488 -0.34919256188026188 0 -0.2925915294609488 -0.34919256188026188 0 -0.28611540962297188 -0.3426453659285974 0 -0.29619358151489988 -0.34015641309103278 0 -0.30076474035813339 -0.34759465108555682 0 -0.29719830368448108 -0.35301728683459582 0 -0.2925915294609488 -0.34919256188026188 0 -0.30076474035813339 -0.34759465108555682 0 -0.2925915294609488 -0.34919256188026188 0 -0.29619358151489988 -0.34015641309103278 0 -0.2925915294609488 -0.34919256188026188 0 -0.28284547851944208 -0.35047845284871731 0 -0.28611540962297188 -0.3426453659285974 0 -0.28284547851944208 -0.35047845284871731 0 -0.27676447355633299 -0.3457480812413124 0 -0.28611540962297188 -0.3426453659285974 0 -0.29016743694869812 -0.35649807524262711 0 -0.2925915294609488 -0.34919256188026188 0 -0.28284547851944208 -0.35047845284871731 0 -0.29202770366946113 -0.36668513997228358 0 -0.27168821399683141 -0.36006947561143121 0 -0.28307956849111848 -0.3828068929804474 0 -0.29719619905707523 -0.36594012765828582 0 -0.27168821399683141 -0.36006947561143121 0 -0.29202770366946113 -0.36668513997228358 0 -0.28307956849111848 -0.3828068929804474 0 -0.29202770366946113 -0.36668513997228358 0 -0.29584447723995128 -0.37444813956539807 0 -0.28307956849111848 -0.3828068929804474 0 -0.29719619905707523 -0.36594012765828582 0 -0.29016743694869812 -0.35649807524262711 0 -0.27168821399683141 -0.36006947561143121 0 -0.29719619905707523 -0.36594012765828582 0 -0.29202770366946113 -0.36668513997228358 0 -0.27168821399683141 -0.36006947561143121 0 -0.29719619905707523 -0.36594012765828582 0 -0.29943295026653399 -0.35953932364306618 0 -0.29016743694869812 -0.35649807524262711 0 -0.29719619905707523 -0.36594012765828582 0 -0.29202770366946113 -0.36668513997228358 0 -0.29584447723995128 -0.37444813956539807 0 -0.27168821399683141 -0.36006947561143121 0 -0.28307956849111848 -0.3828068929804474 0 -0.27168821399683141 -0.36006947561143121 0 -0.28307956849111848 -0.3828068929804474 0 -0.26050234447883253 -0.38027693877573482 0 -0.27168821399683141 -0.36006947561143121 0 -0.25721723303835431 -0.36623646057876708 0 -0.26050234447883253 -0.38027693877573482 0 -0.27168821399683141 -0.36006947561143121 0 -0.25721723303835431 -0.36623646057876708 0 -0.24850069890613241 -0.35473287875334369 0 -0.25721723303835431 -0.36623646057876708 0 -0.24817767477162081 -0.36986654917455902 0 -0.24850069890613241 -0.35473287875334369 0 -0.25721723303835431 -0.36623646057876708 0 -0.26050234447883253 -0.38027693877573482 0 -0.24817767477162081 -0.36986654917455902 0 -0.27168821399683141 -0.36006947561143121 0 -0.25445926970156468 -0.34270101061729968 0 -0.24850069890613241 -0.35473287875334369 0 -0.27168821399683141 -0.36006947561143121 0 -0.26120815563270988 -0.3391510272218049 0 -0.25445926970156468 -0.34270101061729968 0 -0.27168821399683141 -0.36006947561143121 0 -0.24850069890613241 -0.35473287875334369 0 -0.27168821399683141 -0.36006947561143121 0 -0.27676447355633299 -0.3457480812413124 0 -0.26120815563270988 -0.3391510272218049 0 -0.27168821399683141 -0.36006947561143121 0 -0.26120815563270988 -0.3391510272218049 0 -0.28284547851944208 -0.35047845284871731 0 -0.27168821399683141 -0.36006947561143121 0 -0.27676447355633299 -0.3457480812413124 0 -0.27676447355633299 -0.3457480812413124 0 -0.27858368134566353 -0.33798527866036399 0 -0.28611540962297188 -0.3426453659285974 0 -0.27676447355633299 -0.3457480812413124 0 -0.27858368134566353 -0.33798527866036399 0 -0.26120815563270988 -0.3391510272218049 0 -0.28089299200049878 -0.32879660088216478 0 -0.26120815563270988 -0.3391510272218049 0 -0.28089299200049878 -0.32879660088216478 0 -0.26120815563270988 -0.3391510272218049 0 -0.26730676106940449 -0.32685643845792262 0 -0.27858368134566353 -0.33798527866036399 0 -0.28089299200049878 -0.32879660088216478 0 -0.26120815563270988 -0.3391510272218049 0 -0.26120815563270988 -0.3391510272218049 0 -0.26057751607960811 -0.32279583566460812 0 -0.26730676106940449 -0.32685643845792262 0 -0.26120815563270988 -0.3391510272218049 0 -0.25273748935779161 -0.32224337373924072 0 -0.26120815563270988 -0.3391510272218049 0 -0.25207330520806498 -0.33378255792528982 0 -0.25273748935779161 -0.32224337373924072 0 -0.26120815563270988 -0.3391510272218049 0 -0.25445926970156468 -0.34270101061729968 0 -0.25207330520806498 -0.33378255792528982 0 -0.25445926970156468 -0.34270101061729968 0 -0.2460450098649074 -0.33743905859998191 0 -0.26120815563270988 -0.3391510272218049 0 -0.25207330520806498 -0.33378255792528982 0 -0.25445926970156468 -0.34270101061729968 0 -0.25273748935779161 -0.32224337373924072 0 -0.26050456352867191 -0.3149367065078193 0 -0.24426682308287331 -0.30533572025667649 0 -0.26120815563270988 -0.3391510272218049 0 -0.25273748935779161 -0.32224337373924072 0 -0.26057751607960811 -0.32279583566460812 0 -0.26057751607960811 -0.32279583566460812 0 -0.26050456352867191 -0.3149367065078193 0 -0.26730676106940449 -0.32685643845792262 0 -0.25273748935779161 -0.32224337373924072 0 -0.26057751607960811 -0.32279583566460812 0 -0.26050456352867191 -0.3149367065078193 0 -0.28089299200049878 -0.32879660088216478 0 -0.26050456352867191 -0.3149367065078193 0 -0.27445713665833338 -0.31633796571173628 0 -0.28089299200049878 -0.32879660088216478 0 -0.26050456352867191 -0.3149367065078193 0 -0.26050456352867191 -0.3149367065078193 0 -0.27445713665833338 -0.31633796571173628 0 -0.26793999894844561 -0.31004618489902153 0 -0.28089299200049878 -0.32879660088216478 0 -0.26050456352867191 -0.3149367065078193 0 -0.26730676106940449 -0.32685643845792262 0 -0.28089299200049878 -0.32879660088216478 0 -0.27445713665833338 -0.31633796571173628 0 -0.28125105682705043 -0.31976055402590231 0 -0.27445713665833338 -0.31633796571173628 0 -0.28252008875028978 -0.31254235777143202 0 -0.28125105682705043 -0.31976055402590231 0 -0.28252008875028978 -0.31254235777143202 0 -0.28823329624350208 -0.31711313423980658 0 -0.29327146190654751 -0.30876504511160502 0 -0.28089299200049878 -0.32879660088216478 0 -0.28823329624350208 -0.31711313423980658 0 -0.30327184377803978 -0.31702509473566581 0 -0.28089299200049878 -0.32879660088216478 0 -0.29457520052377689 -0.33013191680287202 0 -0.30327184377803978 -0.31702509473566581 0 -0.28089299200049878 -0.32879660088216478 0 -0.30327184377803978 -0.31702509473566581 0 -0.28252008875028978 -0.31254235777143202 0 -0.28125105682705043 -0.31976055402590231 0 -0.28823329624350208 -0.31711313423980658 0 -0.28823329624350208 -0.31711313423980658 0 -0.30327184377803978 -0.31702509473566581 0 -0.29327146190654751 -0.30876504511160502 0 -0.28089299200049878 -0.32879660088216478 0 -0.28125105682705043 -0.31976055402590231 0 -0.28823329624350208 -0.31711313423980658 0 -0.28089299200049878 -0.32879660088216478 0 -0.28793737591580382 -0.33358531802794061 0 -0.27858368134566353 -0.33798527866036399 0 -0.28089299200049878 -0.32879660088216478 0 -0.28793737591580382 -0.33358531802794061 0 -0.28089299200049878 -0.32879660088216478 0 -0.28793737591580382 -0.33358531802794061 0 -0.29457520052377689 -0.33013191680287202 0 -0.27858368134566353 -0.33798527866036399 0 -0.28793737591580382 -0.33358531802794061 0 -0.28611540962297188 -0.3426453659285974 0 -0.28793737591580382 -0.33358531802794061 0 -0.28611540962297188 -0.3426453659285974 0 -0.29619358151489988 -0.34015641309103278 0 -0.28793737591580382 -0.33358531802794061 0 -0.29619358151489988 -0.34015641309103278 0 -0.29457520052377689 -0.33013191680287202 0 -0.29619358151489988 -0.34015641309103278 0 -0.29457520052377689 -0.33013191680287202 0 -0.30458020940964259 -0.3310961572775562 0 -0.30076474035813339 -0.34759465108555682 0 -0.29619358151489988 -0.34015641309103278 0 -0.30398917998114899 -0.33934800480643368 0 -0.29619358151489988 -0.34015641309103278 0 -0.30458020940964259 -0.3310961572775562 0 -0.30398917998114899 -0.33934800480643368 0 -0.31372637242327511 -0.33497634201883658 0 -0.30849554643820359 -0.34481279163420842 0 -0.30398917998114899 -0.33934800480643368 0 -0.31475841231360341 -0.32260943229412947 0 -0.31372637242327511 -0.33497634201883658 0 -0.30458020940964259 -0.3310961572775562 0 -0.31372637242327511 -0.33497634201883658 0 -0.30458020940964259 -0.3310961572775562 0 -0.30398917998114899 -0.33934800480643368 0 -0.31475841231360341 -0.32260943229412947 0 -0.30458020940964259 -0.3310961572775562 0 -0.30327184377803978 -0.31702509473566581 0 -0.29457520052377689 -0.33013191680287202 0 -0.30458020940964259 -0.3310961572775562 0 -0.30327184377803978 -0.31702509473566581 0 -0.30327184377803978 -0.31702509473566581 0 -0.30068554560480582 -0.30112982209441241 0 -0.31228269981280887 -0.29918463989613459 0 -0.30327184377803978 -0.31702509473566581 0 -0.30068554560480582 -0.30112982209441241 0 -0.29327146190654751 -0.30876504511160502 0 -0.30068554560480582 -0.30112982209441241 0 -0.30483638085835207 -0.28788342401786787 0 -0.28888361246081401 -0.29493054457851903 0 -0.30068554560480582 -0.30112982209441241 0 -0.31228269981280887 -0.29918463989613459 0 -0.30483638085835207 -0.28788342401786787 0 -0.28888361246081401 -0.29493054457851903 0 -0.28078806465599399 -0.28300047521785149 0 -0.29451735460655398 -0.27472288856989607 0 -0.30483638085835207 -0.28788342401786787 0 -0.28888361246081401 -0.29493054457851903 0 -0.29451735460655398 -0.27472288856989607 0 -0.28888361246081401 -0.29493054457851903 0 -0.28295382644196537 -0.3038897035906043 0 -0.27388309143310768 -0.29511411685975181 0 -0.28888361246081401 -0.29493054457851903 0 -0.28295382644196537 -0.3038897035906043 0 -0.29327146190654751 -0.30876504511160502 0 -0.30068554560480582 -0.30112982209441241 0 -0.28888361246081401 -0.29493054457851903 0 -0.29327146190654751 -0.30876504511160502 0 -0.28252008875028978 -0.31254235777143202 0 -0.28295382644196537 -0.3038897035906043 0 -0.29327146190654751 -0.30876504511160502 0 -0.27445713665833338 -0.31633796571173628 0 -0.28252008875028978 -0.31254235777143202 0 -0.27524002690986649 -0.30828041126704497 0 -0.28252008875028978 -0.31254235777143202 0 -0.28295382644196537 -0.3038897035906043 0 -0.27524002690986649 -0.30828041126704497 0 -0.28295382644196537 -0.3038897035906043 0 -0.27524002690986649 -0.30828041126704497 0 -0.27388309143310768 -0.29511411685975181 0 -0.26808679199009749 -0.30362992927208171 0 -0.26252268864995981 -0.29761987486456531 0 -0.27388309143310768 -0.29511411685975181 0 -0.27524002690986649 -0.30828041126704497 0 -0.26808679199009749 -0.30362992927208171 0 -0.27388309143310768 -0.29511411685975181 0 -0.27445713665833338 -0.31633796571173628 0 -0.27524002690986649 -0.30828041126704497 0 -0.26793999894844561 -0.31004618489902153 0 -0.27524002690986649 -0.30828041126704497 0 -0.26808679199009749 -0.30362992927208171 0 -0.26793999894844561 -0.31004618489902153 0 -0.26808679199009749 -0.30362992927208171 0 -0.26793999894844561 -0.31004618489902153 0 -0.26278193746552841 -0.30551063084933561 0 -0.26050456352867191 -0.3149367065078193 0 -0.25485564421046719 -0.30132045870319019 0 -0.24011613505684479 -0.30107681213347393 0 -0.26050456352867191 -0.3149367065078193 0 -0.24011613505684479 -0.30107681213347393 0 -0.26050456352867191 -0.3149367065078193 0 -0.26278193746552841 -0.30551063084933561 0 -0.25485564421046719 -0.30132045870319019 0 -0.26050456352867191 -0.3149367065078193 0 -0.26793999894844561 -0.31004618489902153 0 -0.26278193746552841 -0.30551063084933561 0 -0.26278193746552841 -0.30551063084933561 0 -0.26252268864995981 -0.29761987486456531 0 -0.25485564421046719 -0.30132045870319019 0 -0.26252268864995981 -0.29761987486456531 0 -0.25485564421046719 -0.30132045870319019 0 -0.2567143935458242 -0.29223768812186002 0 -0.26808679199009749 -0.30362992927208171 0 -0.26278193746552841 -0.30551063084933561 0 -0.26252268864995981 -0.29761987486456531 0 -0.25608276685525683 -0.28295324223861612 0 -0.2567143935458242 -0.29223768812186002 0 -0.24732420154209239 -0.29033586459568173 0 -0.25485564421046719 -0.30132045870319019 0 -0.2567143935458242 -0.29223768812186002 0 -0.24732420154209239 -0.29033586459568173 0 -0.26252268864995981 -0.29761987486456531 0 -0.2567143935458242 -0.29223768812186002 0 -0.26350989061834318 -0.28909490770035701 0 -0.25608276685525683 -0.28295324223861612 0 -0.26350989061834318 -0.28909490770035701 0 -0.26907982973782107 -0.2804670883869903 0 -0.25608276685525683 -0.28295324223861612 0 -0.2567143935458242 -0.29223768812186002 0 -0.26350989061834318 -0.28909490770035701 0 -0.26350989061834318 -0.28909490770035701 0 -0.27388309143310768 -0.29511411685975181 0 -0.26907982973782107 -0.2804670883869903 0 -0.26252268864995981 -0.29761987486456531 0 -0.26350989061834318 -0.28909490770035701 0 -0.27388309143310768 -0.29511411685975181 0 -0.28888361246081401 -0.29493054457851903 0 -0.27388309143310768 -0.29511411685975181 0 -0.28078806465599399 -0.28300047521785149 0 -0.27388309143310768 -0.29511411685975181 0 -0.28078806465599399 -0.28300047521785149 0 -0.26907982973782107 -0.2804670883869903 0 -0.27772768471542669 -0.26767482265106679 0 -0.26907982973782107 -0.2804670883869903 0 -0.25958550566062261 -0.27102626557679149 0 -0.28078806465599399 -0.28300047521785149 0 -0.27772768471542669 -0.26767482265106679 0 -0.26907982973782107 -0.2804670883869903 0 -0.25608276685525683 -0.28295324223861612 0 -0.26907982973782107 -0.2804670883869903 0 -0.25958550566062261 -0.27102626557679149 0 -0.25608276685525683 -0.28295324223861612 0 -0.25958550566062261 -0.27102626557679149 0 -0.2444485511135471 -0.27534046621033159 0 -0.26398002587916253 -0.25656090854441049 0 -0.24465976002352091 -0.25387891845332877 0 -0.25992972331208369 -0.2410680052130979 0 -0.25958550566062261 -0.27102626557679149 0 -0.26398002587916253 -0.25656090854441049 0 -0.24465976002352091 -0.25387891845332877 0 -0.27772768471542669 -0.26767482265106679 0 -0.26398002587916253 -0.25656090854441049 0 -0.27722523139620658 -0.24922189107985179 0 -0.27772768471542669 -0.26767482265106679 0 -0.25958550566062261 -0.27102626557679149 0 -0.26398002587916253 -0.25656090854441049 0 -0.27772768471542669 -0.26767482265106679 0 -0.29131753467172561 -0.25675805269722002 0 -0.27722523139620658 -0.24922189107985179 0 -0.28078806465599399 -0.28300047521785149 0 -0.27772768471542669 -0.26767482265106679 0 -0.29451735460655398 -0.27472288856989607 0 -0.27772768471542669 -0.26767482265106679 0 -0.29131753467172561 -0.25675805269722002 0 -0.29451735460655398 -0.27472288856989607 0 -0.31319680135340772 -0.27337899374224139 0 -0.29451735460655398 -0.27472288856989607 0 -0.30564385326437488 -0.26015983685037081 0 -0.31319680135340772 -0.27337899374224139 0 -0.30483638085835207 -0.28788342401786787 0 -0.29451735460655398 -0.27472288856989607 0 -0.29131753467172561 -0.25675805269722002 0 -0.29451735460655398 -0.27472288856989607 0 -0.30564385326437488 -0.26015983685037081 0 -0.29131753467172561 -0.25675805269722002 0 -0.30564385326437488 -0.26015983685037081 0 -0.30769212114973271 -0.24578220261295139 0 -0.31968345090478489 -0.25798973640781447 0 -0.30564385326437488 -0.26015983685037081 0 -0.30769212114973271 -0.24578220261295139 0 -0.34207866423036198 -0.45986413066326443 0 -0.33141508850449702 -0.45187214799378478 0 -0.32594289259428999 -0.46085836632795257 0 -0.34207866423036198 -0.45986413066326443 0 -0.32594289259428999 -0.46085836632795257 0 -0.33264581849560632 -0.47431014716802089 0 -0.34207866423036198 -0.45986413066326443 0 -0.34225571697252682 -0.42997304157067162 0 -0.34207866423036198 -0.45986413066326443 0 -0.33358626016413989 -0.44229992863572659 0 -0.33141508850449702 -0.45187214799378478 0 -0.34207866423036198 -0.45986413066326443 0 -0.33358626016413989 -0.44229992863572659 0 -0.34225571697252682 -0.42997304157067162 0 -0.33358626016413989 -0.44229992863572659 0 -0.33141508850449702 -0.45187214799378478 0 -0.32300139100864811 -0.44723989508536771 0 -0.33358626016413989 -0.44229992863572659 0 -0.32300139100864811 -0.44723989508536771 0 -0.32413493920603592 -0.43586432580396972 0 -0.32300139100864811 -0.44723989508536771 0 -0.31385630152515048 -0.44199725430357722 0 -0.32413493920603592 -0.43586432580396972 0 -0.32300139100864811 -0.44723989508536771 0 -0.31385630152515048 -0.44199725430357722 0 -0.31044958537109257 -0.45255960714027171 0 -0.32594289259428999 -0.46085836632795257 0 -0.31333683559556219 -0.46686726284272168 0 -0.31044958537109257 -0.45255960714027171 0 -0.32594289259428999 -0.46085836632795257 0 -0.31333683559556219 -0.46686726284272168 0 -0.32224857144892449 -0.47649828689453749 0 -0.32300139100864811 -0.44723989508536771 0 -0.32594289259428999 -0.46085836632795257 0 -0.31044958537109257 -0.45255960714027171 0 -0.33141508850449702 -0.45187214799378478 0 -0.32300139100864811 -0.44723989508536771 0 -0.32594289259428999 -0.46085836632795257 0 -0.31333683559556219 -0.46686726284272168 0 -0.32224857144892449 -0.47649828689453749 0 -0.30503152439861497 -0.48190266549989857 0 -0.32224857144892449 -0.47649828689453749 0 -0.32279626626388608 -0.48781718170045291 0 -0.30503152439861497 -0.48190266549989857 0 -0.32594289259428999 -0.46085836632795257 0 -0.32224857144892449 -0.47649828689453749 0 -0.33264581849560632 -0.47431014716802089 0 -0.32224857144892449 -0.47649828689453749 0 -0.32279626626388608 -0.48781718170045291 0 -0.33105735271625752 -0.4845747321984929 0 -0.32006214434654462 -0.5 0 -0.32279626626388608 -0.48781718170045291 0 -0.30503152439861497 -0.48190266549989857 0 -0.32006214434654462 -0.5 0 -0.32279626626388608 -0.48781718170045291 0 -0.33558173840908911 -0.49611022390933512 0 -0.32006214434654462 -0.5 0 -0.33558173840908911 -0.49611022390933512 0 -0.34657288766042038 -0.5 0 -0.33558173840908911 -0.49611022390933512 0 -0.34190161148819742 -0.48975521975585701 0 -0.35306908662498632 -0.4951847935385878 0 -0.32279626626388608 -0.48781718170045291 0 -0.33558173840908911 -0.49611022390933512 0 -0.33105735271625752 -0.4845747321984929 0 -0.33558173840908911 -0.49611022390933512 0 -0.33105735271625752 -0.4845747321984929 0 -0.34190161148819742 -0.48975521975585701 0 -0.34207866423036198 -0.45986413066326443 0 -0.34190161148819742 -0.48975521975585701 0 -0.34207866423036198 -0.45986413066326443 0 -0.34190161148819742 -0.48975521975585701 0 -0.33264581849560632 -0.47431014716802089 0 -0.33105735271625752 -0.4845747321984929 0 -0.34190161148819742 -0.48975521975585701 0 -0.33264581849560632 -0.47431014716802089 0 -0.32224857144892449 -0.47649828689453749 0 -0.33105735271625752 -0.4845747321984929 0 -0.33264581849560632 -0.47431014716802089 0 -0.34190161148819742 -0.48975521975585701 0 -0.35001641252228072 -0.47142734906239081 0 -0.35328963507943428 -0.48328499015431992 0 -0.34207866423036198 -0.45986413066326443 0 -0.34190161148819742 -0.48975521975585701 0 -0.35001641252228072 -0.47142734906239081 0 -0.35328963507943428 -0.48328499015431992 0 -0.35950950469085041 -0.48638993404071668 0 -0.36112286221809747 -0.47283058930211808 0 -0.35001641252228072 -0.47142734906239081 0 -0.35328963507943428 -0.48328499015431992 0 -0.36112286221809747 -0.47283058930211808 0 -0.33558173840908911 -0.49611022390933512 0 -0.35306908662498632 -0.4951847935385878 0 -0.33558173840908911 -0.49611022390933512 0 -0.34657288766042038 -0.5 0 -0.35306908662498632 -0.4951847935385878 0 -0.34657288766042038 -0.5 0 -0.35306908662498632 -0.4951847935385878 0 -0.37308363097429631 -0.50000000000000244 0 -0.34190161148819742 -0.48975521975585701 0 -0.35328963507943428 -0.48328499015431992 0 -0.35306908662498632 -0.4951847935385878 0 -0.35328963507943428 -0.48328499015431992 0 -0.35306908662498632 -0.4951847935385878 0 -0.35950950469085041 -0.48638993404071668 0 -0.35306908662498632 -0.4951847935385878 0 -0.35950950469085041 -0.48638993404071668 0 -0.37055643484088358 -0.49425936316784103 0 -0.35306908662498632 -0.4951847935385878 0 -0.37055643484088358 -0.49425936316784103 0 -0.35950950469085041 -0.48638993404071668 0 -0.37055643484088358 -0.49425936316784103 0 -0.36112286221809747 -0.47283058930211808 0 -0.35306908662498632 -0.4951847935385878 0 -0.37055643484088358 -0.49425936316784103 0 -0.37308363097429631 -0.50000000000000244 0 -0.37055643484088358 -0.49425936316784103 0 -0.37308363097429631 -0.50000000000000244 0 -0.38039451612360919 -0.47713749807852829 0 -0.37055643484088358 -0.49425936316784103 0 -0.36112286221809747 -0.47283058930211808 0 -0.37055643484088358 -0.49425936316784103 0 -0.36112286221809747 -0.47283058930211808 0 -0.38039451612360919 -0.47713749807852829 0 -0.36112286221809747 -0.47283058930211808 0 -0.37415472949075129 -0.45946062715310632 0 -0.37415472949075129 -0.45946062715310632 0 -0.3629811744391212 -0.45722253899736259 0 -0.36406731613876331 -0.44506275929787698 0 -0.36112286221809747 -0.47283058930211808 0 -0.37415472949075129 -0.45946062715310632 0 -0.3629811744391212 -0.45722253899736259 0 -0.36112286221809747 -0.47283058930211808 0 -0.3629811744391212 -0.45722253899736259 0 -0.35168928959531232 -0.4514018154363949 0 -0.36112286221809747 -0.47283058930211808 0 -0.35168928959531232 -0.4514018154363949 0 -0.35001641252228072 -0.47142734906239081 0 -0.36112286221809747 -0.47283058930211808 0 -0.35168928959531232 -0.4514018154363949 0 -0.34207866423036198 -0.45986413066326443 0 -0.35001641252228072 -0.47142734906239081 0 -0.35168928959531232 -0.4514018154363949 0 -0.35168928959531232 -0.4514018154363949 0 -0.34225571697252682 -0.42997304157067162 0 -0.35168928959531232 -0.4514018154363949 0 -0.36406731613876331 -0.44506275929787698 0 -0.34225571697252682 -0.42997304157067162 0 -0.34207866423036198 -0.45986413066326443 0 -0.35168928959531232 -0.4514018154363949 0 -0.34225571697252682 -0.42997304157067162 0 -0.38339996822118783 -0.44368928783448319 0 -0.36406731613876331 -0.44506275929787698 0 -0.36866352395763108 -0.4313760290561211 0 -0.38339996822118783 -0.44368928783448319 0 -0.37415472949075129 -0.45946062715310632 0 -0.36406731613876331 -0.44506275929787698 0 -0.3629811744391212 -0.45722253899736259 0 -0.35168928959531232 -0.4514018154363949 0 -0.36406731613876331 -0.44506275929787698 0 -0.38131756488089769 -0.42670085612339947 0 -0.36866352395763108 -0.4313760290561211 0 -0.36377437909963828 -0.41972983174959272 0 -0.38704143117499401 -0.40999023144455299 0 -0.3575105341832589 -0.40691374405003478 0 -0.38704143117499401 -0.40999023144455299 0 -0.36377437909963828 -0.41972983174959272 0 -0.3575105341832589 -0.40691374405003478 0 -0.35062038894632092 -0.41624612172537079 0 -0.34239786166265201 -0.40597533588911489 0 -0.34225571697252682 -0.42997304157067162 0 -0.36377437909963828 -0.41972983174959272 0 -0.3575105341832589 -0.40691374405003478 0 -0.35062038894632092 -0.41624612172537079 0 -0.3575105341832589 -0.40691374405003478 0 -0.35062038894632092 -0.41624612172537079 0 -0.34239786166265201 -0.40597533588911489 0 -0.36406731613876331 -0.44506275929787698 0 -0.36866352395763108 -0.4313760290561211 0 -0.34225571697252682 -0.42997304157067162 0 -0.36866352395763108 -0.4313760290561211 0 -0.36377437909963828 -0.41972983174959272 0 -0.34225571697252682 -0.42997304157067162 0 -0.36377437909963828 -0.41972983174959272 0 -0.35062038894632092 -0.41624612172537079 0 -0.34225571697252682 -0.42997304157067162 0 -0.37522403377147279 -0.38060127254172499 0 -0.37464038230528551 -0.396492613407532 0 -0.35879027536972019 -0.3891835699585654 0 -0.37522403377147279 -0.38060127254172499 0 -0.35964608014779109 -0.37334112637938882 0 -0.35879027536972019 -0.3891835699585654 0 -0.38704143117499401 -0.40999023144455299 0 -0.3575105341832589 -0.40691374405003478 0 -0.37464038230528551 -0.396492613407532 0 -0.3575105341832589 -0.40691374405003478 0 -0.37464038230528551 -0.396492613407532 0 -0.35879027536972019 -0.3891835699585654 0 -0.3575105341832589 -0.40691374405003478 0 -0.35030966939210212 -0.39601257002631829 0 -0.35879027536972019 -0.3891835699585654 0 -0.35030966939210212 -0.39601257002631829 0 -0.34254000635277743 -0.38197763020755832 0 -0.34239786166265201 -0.40597533588911489 0 -0.3575105341832589 -0.40691374405003478 0 -0.35030966939210212 -0.39601257002631829 0 -0.34239786166265201 -0.40597533588911489 0 -0.35964608014779109 -0.37334112637938882 0 -0.35879027536972019 -0.3891835699585654 0 -0.34254000635277743 -0.38197763020755832 0 -0.35030966939210212 -0.39601257002631829 0 -0.35879027536972019 -0.3891835699585654 0 -0.34254000635277743 -0.38197763020755832 0 -0.32270418411731933 -0.37181077970513959 0 -0.34254000635277743 -0.38197763020755832 0 -0.32435131947256218 -0.38428518727128619 0 -0.34254000635277743 -0.38197763020755832 0 -0.33211028503505757 -0.39455092735479258 0 -0.32435131947256218 -0.38428518727128619 0 -0.34254000635277743 -0.38197763020755832 0 -0.33211028503505757 -0.39455092735479258 0 -0.34239786166265201 -0.40597533588911489 0 -0.34254000635277743 -0.38197763020755832 0 -0.34239786166265201 -0.40597533588911489 0 -0.33211028503505757 -0.39455092735479258 0 -0.32627218782356721 -0.40254155632103228 0 -0.33325599186729038 -0.40952977136485508 0 -0.33211028503505757 -0.39455092735479258 0 -0.34239786166265201 -0.40597533588911489 0 -0.33325599186729038 -0.40952977136485508 0 -0.32627218782356721 -0.40254155632103228 0 -0.31778611784491262 -0.39429551077659458 0 -0.31836523457261151 -0.40628576827473822 0 -0.31778611784491262 -0.39429551077659458 0 -0.31836523457261151 -0.40628576827473822 0 -0.30856762168503782 -0.40330407176644772 0 -0.33211028503505757 -0.39455092735479258 0 -0.32627218782356721 -0.40254155632103228 0 -0.31778611784491262 -0.39429551077659458 0 -0.33211028503505757 -0.39455092735479258 0 -0.31778611784491262 -0.39429551077659458 0 -0.32435131947256218 -0.38428518727128619 0 -0.31778611784491262 -0.39429551077659458 0 -0.32435131947256218 -0.38428518727128619 0 -0.3103864423796594 -0.37828470113645102 0 -0.32270418411731933 -0.37181077970513959 0 -0.32435131947256218 -0.38428518727128619 0 -0.3103864423796594 -0.37828470113645102 0 -0.34225571697252682 -0.42997304157067162 0 -0.32127707919304882 -0.42450406978857058 0 -0.32413493920603592 -0.43586432580396972 0 -0.33358626016413989 -0.44229992863572659 0 -0.34225571697252682 -0.42997304157067162 0 -0.32413493920603592 -0.43586432580396972 0 -0.34225571697252682 -0.42997304157067162 0 -0.32547848823970138 -0.41505510354763547 0 -0.32127707919304882 -0.42450406978857058 0 -0.34225571697252682 -0.42997304157067162 0 -0.33325599186729038 -0.40952977136485508 0 -0.34239786166265201 -0.40597533588911489 0 -0.34225571697252682 -0.42997304157067162 0 -0.34225571697252682 -0.42997304157067162 0 -0.33325599186729038 -0.40952977136485508 0 -0.32547848823970138 -0.41505510354763547 0 -0.34239786166265201 -0.40597533588911489 0 -0.34225571697252682 -0.42997304157067162 0 -0.33325599186729038 -0.40952977136485508 0 -0.32627218782356721 -0.40254155632103228 0 -0.33325599186729038 -0.40952977136485508 0 -0.32547848823970138 -0.41505510354763547 0 -0.32547848823970138 -0.41505510354763547 0 -0.3149711123139971 -0.41411215899080989 0 -0.32127707919304882 -0.42450406978857058 0 -0.32627218782356721 -0.40254155632103228 0 -0.32547848823970138 -0.41505510354763547 0 -0.31836523457261151 -0.40628576827473822 0 -0.32547848823970138 -0.41505510354763547 0 -0.31836523457261151 -0.40628576827473822 0 -0.3149711123139971 -0.41411215899080989 0 -0.31836523457261151 -0.40628576827473822 0 -0.3149711123139971 -0.41411215899080989 0 -0.30856762168503782 -0.40330407176644772 0 -0.3149711123139971 -0.41411215899080989 0 -0.32127707919304882 -0.42450406978857058 0 -0.31068047406536009 -0.42124040027518911 0 -0.32127707919304882 -0.42450406978857058 0 -0.31073004788055869 -0.43167813375356229 0 -0.31068047406536009 -0.42124040027518911 0 -0.32127707919304882 -0.42450406978857058 0 -0.32413493920603592 -0.43586432580396972 0 -0.31073004788055869 -0.43167813375356229 0 -0.31385630152515048 -0.44199725430357722 0 -0.32413493920603592 -0.43586432580396972 0 -0.31073004788055869 -0.43167813375356229 0 -0.31073004788055869 -0.43167813375356229 0 -0.29829421210859891 -0.43220714453990322 0 -0.30286215921622678 -0.44210958888768459 0 -0.31073004788055869 -0.43167813375356229 0 -0.29829421210859891 -0.43220714453990322 0 -0.30293836312512551 -0.42244552438862548 0 -0.29829421210859891 -0.43220714453990322 0 -0.30293836312512551 -0.42244552438862548 0 -0.29038846928103268 -0.42353273433611682 0 -0.31073004788055869 -0.43167813375356229 0 -0.30293836312512551 -0.42244552438862548 0 -0.31068047406536009 -0.42124040027518911 0 -0.3149711123139971 -0.41411215899080989 0 -0.31068047406536009 -0.42124040027518911 0 -0.30545777612822328 -0.41428354029227837 0 -0.30293836312512551 -0.42244552438862548 0 -0.31068047406536009 -0.42124040027518911 0 -0.30545777612822328 -0.41428354029227837 0 -0.3149711123139971 -0.41411215899080989 0 -0.30545777612822328 -0.41428354029227837 0 -0.30856762168503782 -0.40330407176644772 0 -0.30545777612822328 -0.41428354029227837 0 -0.30856762168503782 -0.40330407176644772 0 -0.30079847364115991 -0.40578130343003371 0 -0.30545777612822328 -0.41428354029227837 0 -0.2987732092282892 -0.41413177709842958 0 -0.30079847364115991 -0.40578130343003371 0 -0.30293836312512551 -0.42244552438862548 0 -0.2987732092282892 -0.41413177709842958 0 -0.29038846928103268 -0.42353273433611682 0 -0.30293836312512551 -0.42244552438862548 0 -0.2987732092282892 -0.41413177709842958 0 -0.30293836312512551 -0.42244552438862548 0 -0.30545777612822328 -0.41428354029227837 0 -0.2987732092282892 -0.41413177709842958 0 -0.30545777612822328 -0.41428354029227837 0 -0.2987732092282892 -0.41413177709842958 0 -0.2987732092282892 -0.41413177709842958 0 -0.29092638885970451 -0.39846933503943821 0 -0.2987732092282892 -0.41413177709842958 0 -0.28243901841779939 -0.41376093348156762 0 -0.29092638885970451 -0.39846933503943821 0 -0.2987732092282892 -0.41413177709842958 0 -0.28243901841779939 -0.41376093348156762 0 -0.29038846928103268 -0.42353273433611682 0 -0.2987732092282892 -0.41413177709842958 0 -0.28243901841779939 -0.41376093348156762 0 -0.28243901841779939 -0.41376093348156762 0 -0.29038846928103268 -0.42353273433611682 0 -0.27500508569675858 -0.42792788340523652 0 -0.29038846928103268 -0.42353273433611682 0 -0.27500508569675858 -0.42792788340523652 0 -0.28620792983366777 -0.44117103379144762 0 -0.29829421210859891 -0.43220714453990322 0 -0.29038846928103268 -0.42353273433611682 0 -0.28620792983366777 -0.44117103379144762 0 -0.31778611784491262 -0.39429551077659458 0 -0.3103864423796594 -0.37828470113645102 0 -0.30424293331838692 -0.39073887816822978 0 -0.29584447723995128 -0.37444813956539807 0 -0.29713407365637251 -0.38186722723828942 0 -0.3103864423796594 -0.37828470113645102 0 -0.29713407365637251 -0.38186722723828942 0 -0.30424293331838692 -0.39073887816822978 0 -0.29406976999373469 -0.38920344929064732 0 -0.29713407365637251 -0.38186722723828942 0 -0.3103864423796594 -0.37828470113645102 0 -0.30424293331838692 -0.39073887816822978 0 -0.29998863005712628 -0.39809616774203599 0 -0.30424293331838692 -0.39073887816822978 0 -0.30856762168503782 -0.40330407176644772 0 -0.29998863005712628 -0.39809616774203599 0 -0.30424293331838692 -0.39073887816822978 0 -0.29406976999373469 -0.38920344929064732 0 -0.31778611784491262 -0.39429551077659458 0 -0.30424293331838692 -0.39073887816822978 0 -0.30856762168503782 -0.40330407176644772 0 -0.29998863005712628 -0.39809616774203599 0 -0.30079847364115991 -0.40578130343003371 0 -0.29092638885970451 -0.39846933503943821 0 -0.29998863005712628 -0.39809616774203599 0 -0.30856762168503782 -0.40330407176644772 0 -0.30079847364115991 -0.40578130343003371 0 -0.2987732092282892 -0.41413177709842958 0 -0.30079847364115991 -0.40578130343003371 0 -0.29092638885970451 -0.39846933503943821 0 -0.29092638885970451 -0.39846933503943821 0 -0.28307956849111848 -0.3828068929804474 0 -0.29092638885970451 -0.39846933503943821 0 -0.28307956849111848 -0.3828068929804474 0 -0.27459219804921331 -0.39809849142257658 0 -0.28243901841779939 -0.41376093348156762 0 -0.29092638885970451 -0.39846933503943821 0 -0.27459219804921331 -0.39809849142257658 0 -0.29998863005712628 -0.39809616774203599 0 -0.29092638885970451 -0.39846933503943821 0 -0.29406976999373469 -0.38920344929064732 0 -0.29092638885970451 -0.39846933503943821 0 -0.29406976999373469 -0.38920344929064732 0 -0.28307956849111848 -0.3828068929804474 0 -0.29713407365637251 -0.38186722723828942 0 -0.29406976999373469 -0.38920344929064732 0 -0.28307956849111848 -0.3828068929804474 0 -0.29584447723995128 -0.37444813956539807 0 -0.29713407365637251 -0.38186722723828942 0 -0.28307956849111848 -0.3828068929804474 0 -0.28307956849111848 -0.3828068929804474 0 -0.27459219804921331 -0.39809849142257658 0 -0.26050234447883253 -0.38027693877573482 0 -0.28307956849111848 -0.3828068929804474 0 -0.27459219804921331 -0.39809849142257658 0 -0.27459219804921331 -0.39809849142257658 0 -0.26610482760730952 -0.4133900898647066 0 -0.27459219804921331 -0.39809849142257658 0 -0.26088670843651829 -0.40068536336094251 0 -0.26610482760730952 -0.4133900898647066 0 -0.26088670843651829 -0.40068536336094251 0 -0.26050234447883253 -0.38027693877573482 0 -0.2487824818667288 -0.3954643368039899 0 -0.27459219804921331 -0.39809849142257658 0 -0.26088670843651829 -0.40068536336094251 0 -0.26050234447883253 -0.38027693877573482 0 -0.26088670843651829 -0.40068536336094251 0 -0.24694430377570939 -0.41295507854145541 0 -0.2487824818667288 -0.3954643368039899 0 -0.27500508569675858 -0.42792788340523652 0 -0.25298523514652932 -0.43702750984159111 0 -0.27028712802556781 -0.44002206955302048 0 -0.27500508569675858 -0.42792788340523652 0 -0.27028712802556781 -0.44002206955302048 0 -0.28620792983366777 -0.44117103379144762 0 -0.28243901841779939 -0.41376093348156762 0 -0.27500508569675858 -0.42792788340523652 0 -0.26610482760730952 -0.4133900898647066 0 -0.28243901841779939 -0.41376093348156762 0 -0.27459219804921331 -0.39809849142257658 0 -0.26610482760730952 -0.4133900898647066 0 -0.28243901841779939 -0.41376093348156762 0 -0.26610482760730952 -0.4133900898647066 0 -0.26610482760730952 -0.4133900898647066 0 -0.24694430377570939 -0.41295507854145541 0 -0.26610482760730952 -0.4133900898647066 0 -0.25298523514652932 -0.43702750984159111 0 -0.24694430377570939 -0.41295507854145541 0 -0.26088670843651829 -0.40068536336094251 0 -0.26610482760730952 -0.4133900898647066 0 -0.24694430377570939 -0.41295507854145541 0 -0.27500508569675858 -0.42792788340523652 0 -0.26610482760730952 -0.4133900898647066 0 -0.25298523514652932 -0.43702750984159111 0 -0.26610482760730952 -0.4133900898647066 0 -0.25298523514652932 -0.43702750984159111 0 -0.25298523514652932 -0.43702750984159111 0 -0.25823473398406083 -0.46259190486934387 0 -0.27139768853026319 -0.45350369328431828 0 -0.25298523514652932 -0.43702750984159111 0 -0.27139768853026319 -0.45350369328431828 0 -0.27028712802556781 -0.44002206955302048 0 -0.25298523514652932 -0.43702750984159111 0 -0.25823473398406083 -0.46259190486934387 0 -0.2398656426857485 -0.46066492981847512 0 -0.27139768853026319 -0.45350369328431828 0 -0.28665438526504589 -0.45880473289459528 0 -0.27499686831673542 -0.4693274569635677 0 -0.25823473398406083 -0.46259190486934387 0 -0.27139768853026319 -0.45350369328431828 0 -0.27499686831673542 -0.4693274569635677 0 -0.27139768853026319 -0.45350369328431828 0 -0.27028712802556781 -0.44002206955302048 0 -0.28620792983366777 -0.44117103379144762 0 -0.28620792983366777 -0.44117103379144762 0 -0.29665932401628559 -0.4519210782245337 0 -0.28665438526504589 -0.45880473289459528 0 -0.28620792983366777 -0.44117103379144762 0 -0.29665932401628559 -0.4519210782245337 0 -0.30286215921622678 -0.44210958888768459 0 -0.27139768853026319 -0.45350369328431828 0 -0.28620792983366777 -0.44117103379144762 0 -0.28665438526504589 -0.45880473289459528 0 -0.29829421210859891 -0.43220714453990322 0 -0.28620792983366777 -0.44117103379144762 0 -0.30286215921622678 -0.44210958888768459 0 -0.28665438526504589 -0.45880473289459528 0 -0.28928475434474438 -0.47221518125428918 0 -0.27499686831673542 -0.4693274569635677 0 -0.28665438526504589 -0.45880473289459528 0 -0.30029558254474148 -0.46389675841394568 0 -0.28928475434474438 -0.47221518125428918 0 -0.29665932401628559 -0.4519210782245337 0 -0.28665438526504589 -0.45880473289459528 0 -0.30029558254474148 -0.46389675841394568 0 -0.29665932401628559 -0.4519210782245337 0 -0.30029558254474148 -0.46389675841394568 0 -0.31044958537109257 -0.45255960714027171 0 -0.31333683559556219 -0.46686726284272168 0 -0.30029558254474148 -0.46389675841394568 0 -0.31044958537109257 -0.45255960714027171 0 -0.31385630152515048 -0.44199725430357722 0 -0.31044958537109257 -0.45255960714027171 0 -0.30286215921622678 -0.44210958888768459 0 -0.31385630152515048 -0.44199725430357722 0 -0.31073004788055869 -0.43167813375356229 0 -0.30286215921622678 -0.44210958888768459 0 -0.29665932401628559 -0.4519210782245337 0 -0.31044958537109257 -0.45255960714027171 0 -0.30286215921622678 -0.44210958888768459 0 -0.32006214434654462 -0.5 0 -0.30503152439861497 -0.48190266549989857 0 -0.29355140103266869 -0.5 0 -0.30029558254474148 -0.46389675841394568 0 -0.30503152439861497 -0.48190266549989857 0 -0.28928475434474438 -0.47221518125428918 0 -0.31333683559556219 -0.46686726284272168 0 -0.30029558254474148 -0.46389675841394568 0 -0.30503152439861497 -0.48190266549989857 0 -0.30503152439861497 -0.48190266549989857 0 -0.28928475434474438 -0.47221518125428918 0 -0.27944541119858413 -0.48714429249943858 0 -0.30503152439861497 -0.48190266549989857 0 -0.29355140103266869 -0.5 0 -0.27944541119858413 -0.48714429249943858 0 -0.26704065771879287 -0.5 0 -0.27944541119858413 -0.48714429249943858 0 -0.26377894750559139 -0.4817410620592058 0 -0.29355140103266869 -0.5 0 -0.26704065771879287 -0.5 0 -0.27944541119858413 -0.48714429249943858 0 -0.27944541119858413 -0.48714429249943858 0 -0.27499686831673542 -0.4693274569635677 0 -0.26377894750559139 -0.4817410620592058 0 -0.28928475434474438 -0.47221518125428918 0 -0.27944541119858413 -0.48714429249943858 0 -0.27499686831673542 -0.4693274569635677 0 -0.25823473398406083 -0.46259190486934387 0 -0.27499686831673542 -0.4693274569635677 0 -0.26377894750559139 -0.4817410620592058 0 -0.25823473398406083 -0.46259190486934387 0 -0.26377894750559139 -0.4817410620592058 0 -0.24769273461092009 -0.47775775457152359 0 -0.26704065771879287 -0.5 0 -0.26377894750559139 -0.4817410620592058 0 -0.24052991440491719 -0.5 0 -0.26377894750559139 -0.4817410620592058 0 -0.24052991440491719 -0.5 0 -0.24769273461092009 -0.47775775457152359 0 -0.24052991440491719 -0.5 0 -0.24769273461092009 -0.47775775457152359 0 -0.2238647917587385 -0.47868470982513422 0 -0.24769273461092009 -0.47775775457152359 0 -0.2238647917587385 -0.47868470982513422 0 -0.2253613830811457 -0.45761053917550981 0 -0.24052991440491719 -0.5 0 -0.2238647917587385 -0.47868470982513422 0 -0.2140191710910414 -0.49999999999999972 0 -0.25298523514652932 -0.43702750984159111 0 -0.23591515519085041 -0.44398209369878189 0 -0.2398656426857485 -0.46066492981847512 0 -0.25298523514652932 -0.43702750984159111 0 -0.2398656426857485 -0.46066492981847512 0 -0.25823473398406083 -0.46259190486934387 0 -0.24769273461092009 -0.47775775457152359 0 -0.2398656426857485 -0.46066492981847512 0 -0.24769273461092009 -0.47775775457152359 0 -0.2398656426857485 -0.46066492981847512 0 -0.2253613830811457 -0.45761053917550981 0 -0.24769273461092009 -0.47775775457152359 0 -0.2253613830811457 -0.45761053917550981 0 -0.2238647917587385 -0.47868470982513422 0 -0.2253613830811457 -0.45761053917550981 0 -0.20999779143719291 -0.46083672605530768 0 -0.23591515519085041 -0.44398209369878189 0 -0.2398656426857485 -0.46066492981847512 0 -0.2253613830811457 -0.45761053917550981 0 -0.23591515519085041 -0.44398209369878189 0 -0.2253613830811457 -0.45761053917550981 0 -0.22549954629610269 -0.43500765649169948 0 -0.2253613830811457 -0.45761053917550981 0 -0.20999779143719291 -0.46083672605530768 0 -0.2030300315513712 -0.43746332377949593 0 -0.2253613830811457 -0.45761053917550981 0 -0.2030300315513712 -0.43746332377949593 0 -0.20999779143719291 -0.46083672605530768 0 -0.19715634076338631 -0.4518064782969281 0 -0.2030300315513712 -0.43746332377949593 0 -0.2253613830811457 -0.45761053917550981 0 -0.2030300315513712 -0.43746332377949593 0 -0.22549954629610269 -0.43500765649169948 0 -0.20999779143719291 -0.46083672605530768 0 -0.19715634076338631 -0.4518064782969281 0 -0.2055877559272139 -0.47590323914846377 0 -0.19715634076338631 -0.4518064782969281 0 -0.2055877559272139 -0.47590323914846377 0 -0.19179305986328829 -0.46711759196808689 0 -0.19715634076338631 -0.4518064782969281 0 -0.2055877559272139 -0.47590323914846377 0 -0.19179305986328829 -0.46711759196808689 0 -0.19715634076338631 -0.4518064782969281 0 -0.184822707974968 -0.45592422963236362 0 -0.19715634076338631 -0.4518064782969281 0 -0.2030300315513712 -0.43746332377949593 0 -0.18872492559955881 -0.42770971744539221 0 -0.19715634076338631 -0.4518064782969281 0 -0.18872492559955881 -0.42770971744539221 0 -0.19715634076338631 -0.4518064782969281 0 -0.1870173619903012 -0.44414077979923022 0 -0.18872492559955881 -0.42770971744539221 0 -0.19715634076338631 -0.4518064782969281 0 -0.184822707974968 -0.45592422963236362 0 -0.1870173619903012 -0.44414077979923022 0 -0.2140191710910414 -0.49999999999999972 0 -0.2055877559272139 -0.47590323914846377 0 -0.2140191710910414 -0.49999999999999972 0 -0.2055877559272139 -0.47590323914846377 0 -0.1915741566131953 -0.48274482478870012 0 -0.2238647917587385 -0.47868470982513422 0 -0.2140191710910414 -0.49999999999999972 0 -0.2055877559272139 -0.47590323914846377 0 -0.2238647917587385 -0.47868470982513422 0 -0.20999779143719291 -0.46083672605530768 0 -0.2055877559272139 -0.47590323914846377 0 -0.19179305986328829 -0.46711759196808689 0 -0.2055877559272139 -0.47590323914846377 0 -0.1915741566131953 -0.48274482478870012 0 -0.19179305986328829 -0.46711759196808689 0 -0.1915741566131953 -0.48274482478870012 0 -0.17982433803767831 -0.46920918797397909 0 -0.2140191710910414 -0.49999999999999972 0 -0.1915741566131953 -0.48274482478870012 0 -0.1841956238768391 -0.5 0 -0.1915741566131953 -0.48274482478870012 0 -0.1841956238768391 -0.5 0 -0.17247084166804699 -0.48396500267038112 0 -0.1841956238768391 -0.5 0 -0.17247084166804699 -0.48396500267038112 0 -0.15437207666263669 -0.50000000000000022 0 -0.15669106487963419 -0.47716915445828201 0 -0.17247084166804699 -0.48396500267038112 0 -0.15437207666263669 -0.50000000000000022 0 -0.15669106487963419 -0.47716915445828201 0 -0.17247084166804699 -0.48396500267038112 0 -0.1680230602922401 -0.4683158249620154 0 -0.17247084166804699 -0.48396500267038112 0 -0.17982433803767831 -0.46920918797397909 0 -0.1680230602922401 -0.4683158249620154 0 -0.1915741566131953 -0.48274482478870012 0 -0.17247084166804699 -0.48396500267038112 0 -0.17982433803767831 -0.46920918797397909 0 -0.19179305986328829 -0.46711759196808689 0 -0.17982433803767831 -0.46920918797397909 0 -0.184822707974968 -0.45592422963236362 0 -0.17982433803767831 -0.46920918797397909 0 -0.184822707974968 -0.45592422963236362 0 -0.17211900377920919 -0.45689747079087062 0 -0.17982433803767831 -0.46920918797397909 0 -0.17211900377920919 -0.45689747079087062 0 -0.1680230602922401 -0.4683158249620154 0 -0.1870173619903012 -0.44414077979923022 0 -0.17843006300647921 -0.44542980211747812 0 -0.1823118302108766 -0.43680876328769058 0 -0.184822707974968 -0.45592422963236362 0 -0.1870173619903012 -0.44414077979923022 0 -0.17843006300647921 -0.44542980211747812 0 -0.17211900377920919 -0.45689747079087062 0 -0.17843006300647921 -0.44542980211747812 0 -0.16919262628862339 -0.44362555979768409 0 -0.184822707974968 -0.45592422963236362 0 -0.17211900377920919 -0.45689747079087062 0 -0.17843006300647921 -0.44542980211747812 0 -0.17843006300647921 -0.44542980211747812 0 -0.16919262628862339 -0.44362555979768409 0 -0.17507497024716731 -0.42995475378866199 0 -0.1590100530966318 -0.45433830891656402 0 -0.148881704538534 -0.44296791951084241 0 -0.1613290413136293 -0.43150746337484569 0 -0.1590100530966318 -0.45433830891656402 0 -0.1613290413136293 -0.43150746337484569 0 -0.16919262628862339 -0.44362555979768409 0 -0.1590100530966318 -0.45433830891656402 0 -0.1613290413136293 -0.43150746337484569 0 -0.17211900377920919 -0.45689747079087062 0 -0.16919262628862339 -0.44362555979768409 0 -0.1590100530966318 -0.45433830891656402 0 -0.15669106487963419 -0.47716915445828201 0 -0.1680230602922401 -0.4683158249620154 0 -0.1590100530966318 -0.45433830891656402 0 -0.15669106487963419 -0.47716915445828201 0 -0.1590100530966318 -0.45433830891656402 0 -0.17211900377920919 -0.45689747079087062 0 -0.1680230602922401 -0.4683158249620154 0 -0.1590100530966318 -0.45433830891656402 0 -0.15669106487963419 -0.47716915445828201 0 -0.1590100530966318 -0.45433830891656402 0 -0.1472923250818238 -0.46077477567243558 0 -0.1590100530966318 -0.45433830891656402 0 -0.1472923250818238 -0.46077477567243558 0 -0.148881704538534 -0.44296791951084241 0 -0.1472923250818238 -0.46077477567243558 0 -0.148881704538534 -0.44296791951084241 0 -0.13194602454298601 -0.43962244526902572 0 -0.13194602454298601 -0.43962244526902572 0 -0.13077987840644981 -0.46069854066347632 0 -0.11615585050415531 -0.45102464773050138 0 -0.1472923250818238 -0.46077477567243558 0 -0.13194602454298601 -0.43962244526902572 0 -0.1472923250818238 -0.46077477567243558 0 -0.13077987840644981 -0.46069854066347632 0 -0.13742439756140509 -0.48004162281001828 0 -0.1472923250818238 -0.46077477567243558 0 -0.13194602454298601 -0.43962244526902572 0 -0.13077987840644981 -0.46069854066347632 0 -0.13742439756140509 -0.48004162281001828 0 -0.12108079434187891 -0.47202921183540031 0 -0.1206292342060253 -0.48641385964910883 0 -0.13077987840644981 -0.46069854066347632 0 -0.13742439756140509 -0.48004162281001828 0 -0.12108079434187891 -0.47202921183540031 0 -0.13742439756140509 -0.48004162281001828 0 -0.131118449396015 -0.5 0 -0.1206292342060253 -0.48641385964910883 0 -0.15669106487963419 -0.47716915445828201 0 -0.13742439756140509 -0.48004162281001828 0 -0.15437207666263669 -0.50000000000000022 0 -0.15669106487963419 -0.47716915445828201 0 -0.15437207666263669 -0.50000000000000022 0 -0.13742439756140509 -0.48004162281001828 0 -0.131118449396015 -0.5 0 -0.15437207666263669 -0.50000000000000022 0 -0.15669106487963419 -0.47716915445828201 0 -0.1472923250818238 -0.46077477567243558 0 -0.13742439756140509 -0.48004162281001828 0 -0.13678826443221431 -0.39755243580027871 0 -0.14931675495270949 -0.41057852288770358 0 -0.15761740849691311 -0.38818340141201402 0 -0.1369224961495438 -0.38192389563367207 0 -0.13678826443221431 -0.39755243580027871 0 -0.15761740849691311 -0.38818340141201402 0 -0.1369224961495438 -0.38192389563367207 0 -0.15761740849691311 -0.38818340141201402 0 -0.148308101659717 -0.36695316985008092 0 -0.1369224961495438 -0.38192389563367207 0 -0.12526638733901391 -0.39147447277512609 0 -0.13678826443221431 -0.39755243580027871 0 -0.1369224961495438 -0.38192389563367207 0 -0.1303219987982592 -0.3665496015062627 0 -0.12201267174342199 -0.37938718301114999 0 -0.1369224961495438 -0.38192389563367207 0 -0.12526638733901391 -0.39147447277512609 0 -0.12201267174342199 -0.37938718301114999 0 -0.12526638733901391 -0.39147447277512609 0 -0.13678826443221431 -0.39755243580027871 0 -0.12592730430259419 -0.40432488328170318 0 -0.13678826443221431 -0.39755243580027871 0 -0.12592730430259419 -0.40432488328170318 0 -0.1345256340888337 -0.41538851269275129 0 -0.13678826443221431 -0.39755243580027871 0 -0.1345256340888337 -0.41538851269275129 0 -0.14931675495270949 -0.41057852288770358 0 -0.12592730430259419 -0.40432488328170318 0 -0.1345256340888337 -0.41538851269275129 0 -0.1165997240041481 -0.41847011486561592 0 -0.13194602454298601 -0.43962244526902572 0 -0.1345256340888337 -0.41538851269275129 0 -0.14483107865759889 -0.42859660432134139 0 -0.13194602454298601 -0.43962244526902572 0 -0.1345256340888337 -0.41538851269275129 0 -0.1165997240041481 -0.41847011486561592 0 -0.148881704538534 -0.44296791951084241 0 -0.14483107865759889 -0.42859660432134139 0 -0.1613290413136293 -0.43150746337484569 0 -0.148881704538534 -0.44296791951084241 0 -0.13194602454298601 -0.43962244526902572 0 -0.14483107865759889 -0.42859660432134139 0 -0.14483107865759889 -0.42859660432134139 0 -0.14931675495270949 -0.41057852288770358 0 -0.1613290413136293 -0.43150746337484569 0 -0.1345256340888337 -0.41538851269275129 0 -0.14483107865759889 -0.42859660432134139 0 -0.14931675495270949 -0.41057852288770358 0 -0.16364802953062679 -0.40867661783312748 0 -0.1613290413136293 -0.43150746337484569 0 -0.14931675495270949 -0.41057852288770358 0 -0.16364802953062679 -0.40867661783312748 0 -0.1613290413136293 -0.43150746337484569 0 -0.16364802953062679 -0.40867661783312748 0 -0.1613290413136293 -0.43150746337484569 0 -0.17507497024716731 -0.42995475378866199 0 -0.16919262628862339 -0.44362555979768409 0 -0.1613290413136293 -0.43150746337484569 0 -0.17507497024716731 -0.42995475378866199 0 -0.1870173619903012 -0.44414077979923022 0 -0.1823118302108766 -0.43680876328769058 0 -0.18872492559955881 -0.42770971744539221 0 -0.17843006300647921 -0.44542980211747812 0 -0.17507497024716731 -0.42995475378866199 0 -0.1823118302108766 -0.43680876328769058 0 -0.17507497024716731 -0.42995475378866199 0 -0.1806986800215967 -0.4173161083834821 0 -0.18872492559955881 -0.42770971744539221 0 -0.17507497024716731 -0.42995475378866199 0 -0.1823118302108766 -0.43680876328769058 0 -0.18872492559955881 -0.42770971744539221 0 -0.1806986800215967 -0.4173161083834821 0 -0.18228064084688081 -0.39610998094782668 0 -0.19209360216251761 -0.40824625574224149 0 -0.16364802953062679 -0.40867661783312748 0 -0.17507497024716731 -0.42995475378866199 0 -0.1806986800215967 -0.4173161083834821 0 -0.16364802953062679 -0.40867661783312748 0 -0.1806986800215967 -0.4173161083834821 0 -0.18228064084688081 -0.39610998094782668 0 -0.16364802953062679 -0.40867661783312748 0 -0.18228064084688081 -0.39610998094782668 0 -0.15761740849691311 -0.38818340141201402 0 -0.14931675495270949 -0.41057852288770358 0 -0.16364802953062679 -0.40867661783312748 0 -0.15761740849691311 -0.38818340141201402 0 -0.15761740849691311 -0.38818340141201402 0 -0.183603859264966 -0.3766054584014627 0 -0.1661931572416451 -0.36889933283976362 0 -0.18228064084688081 -0.39610998094782668 0 -0.15761740849691311 -0.38818340141201402 0 -0.183603859264966 -0.3766054584014627 0 -0.18228064084688081 -0.39610998094782668 0 -0.183603859264966 -0.3766054584014627 0 -0.20216487974800659 -0.3829991661375407 0 -0.18228064084688081 -0.39610998094782668 0 -0.20343785588976751 -0.39944649130885712 0 -0.19209360216251761 -0.40824625574224149 0 -0.18228064084688081 -0.39610998094782668 0 -0.20216487974800659 -0.3829991661375407 0 -0.20343785588976751 -0.39944649130885712 0 -0.20343785588976751 -0.39944649130885712 0 -0.21350444502423929 -0.40864471589815532 0 -0.22035180610084079 -0.39356726900625483 0 -0.20216487974800659 -0.3829991661375407 0 -0.20343785588976751 -0.39944649130885712 0 -0.22035180610084079 -0.39356726900625483 0 -0.20216487974800659 -0.3829991661375407 0 -0.22035180610084079 -0.39356726900625483 0 -0.219169022554425 -0.37113875127287832 0 -0.1806986800215967 -0.4173161083834821 0 -0.2030300315513712 -0.43746332377949593 0 -0.18872492559955881 -0.42770971744539221 0 -0.1806986800215967 -0.4173161083834821 0 -0.2030300315513712 -0.43746332377949593 0 -0.2030300315513712 -0.43746332377949593 0 -0.19369636752838881 -0.41903658901391427 0 -0.2031687955665597 -0.42354741618771741 0 -0.1806986800215967 -0.4173161083834821 0 -0.2030300315513712 -0.43746332377949593 0 -0.19369636752838881 -0.41903658901391427 0 -0.19369636752838881 -0.41903658901391427 0 -0.20299923128825029 -0.41376529568937459 0 -0.2031687955665597 -0.42354741618771741 0 -0.1806986800215967 -0.4173161083834821 0 -0.19369636752838881 -0.41903658901391427 0 -0.19209360216251761 -0.40824625574224149 0 -0.19369636752838881 -0.41903658901391427 0 -0.19209360216251761 -0.40824625574224149 0 -0.20299923128825029 -0.41376529568937459 0 -0.20343785588976751 -0.39944649130885712 0 -0.19209360216251761 -0.40824625574224149 0 -0.20299923128825029 -0.41376529568937459 0 -0.20343785588976751 -0.39944649130885712 0 -0.20299923128825029 -0.41376529568937459 0 -0.21350444502423929 -0.40864471589815532 0 -0.21350444502423929 -0.40864471589815532 0 -0.21294955189822859 -0.42392445626808489 0 -0.2277837799441092 -0.41252006721820539 0 -0.20299923128825029 -0.41376529568937459 0 -0.2031687955665597 -0.42354741618771741 0 -0.21294955189822859 -0.42392445626808489 0 -0.20299923128825029 -0.41376529568937459 0 -0.21350444502423929 -0.40864471589815532 0 -0.21294955189822859 -0.42392445626808489 0 -0.2030300315513712 -0.43746332377949593 0 -0.21294955189822859 -0.42392445626808489 0 -0.22549954629610269 -0.43500765649169948 0 -0.2030300315513712 -0.43746332377949593 0 -0.2031687955665597 -0.42354741618771741 0 -0.21294955189822859 -0.42392445626808489 0 -0.23591515519085041 -0.44398209369878189 0 -0.22549954629610269 -0.43500765649169948 0 -0.23735783041644329 -0.42609093398936743 0 -0.22549954629610269 -0.43500765649169948 0 -0.2277837799441092 -0.41252006721820539 0 -0.23735783041644329 -0.42609093398936743 0 -0.21294955189822859 -0.42392445626808489 0 -0.22549954629610269 -0.43500765649169948 0 -0.2277837799441092 -0.41252006721820539 0 -0.2277837799441092 -0.41252006721820539 0 -0.24694430377570939 -0.41295507854145541 0 -0.2277837799441092 -0.41252006721820539 0 -0.24694430377570939 -0.41295507854145541 0 -0.23735783041644329 -0.42609093398936743 0 -0.2277837799441092 -0.41252006721820539 0 -0.24694430377570939 -0.41295507854145541 0 -0.2359891007147569 -0.39914414181493052 0 -0.25298523514652932 -0.43702750984159111 0 -0.24694430377570939 -0.41295507854145541 0 -0.23735783041644329 -0.42609093398936743 0 -0.25298523514652932 -0.43702750984159111 0 -0.23591515519085041 -0.44398209369878189 0 -0.23735783041644329 -0.42609093398936743 0 -0.22035180610084079 -0.39356726900625483 0 -0.23802591309349369 -0.38358476956933441 0 -0.219169022554425 -0.37113875127287832 0 -0.22035180610084079 -0.39356726900625483 0 -0.2359891007147569 -0.39914414181493052 0 -0.23802591309349369 -0.38358476956933441 0 -0.21350444502423929 -0.40864471589815532 0 -0.2277837799441092 -0.41252006721820539 0 -0.22035180610084079 -0.39356726900625483 0 -0.2277837799441092 -0.41252006721820539 0 -0.22035180610084079 -0.39356726900625483 0 -0.2359891007147569 -0.39914414181493052 0 -0.2359891007147569 -0.39914414181493052 0 -0.2487824818667288 -0.3954643368039899 0 -0.23802591309349369 -0.38358476956933441 0 -0.24694430377570939 -0.41295507854145541 0 -0.2359891007147569 -0.39914414181493052 0 -0.2487824818667288 -0.3954643368039899 0 -0.26050234447883253 -0.38027693877573482 0 -0.2487824818667288 -0.3954643368039899 0 -0.23802591309349369 -0.38358476956933441 0 -0.26050234447883253 -0.38027693877573482 0 -0.23802591309349369 -0.38358476956933441 0 -0.24817767477162081 -0.36986654917455902 0 -0.23802591309349369 -0.38358476956933441 0 -0.24817767477162081 -0.36986654917455902 0 -0.23583729862822109 -0.36574384613307409 0 -0.24817767477162081 -0.36986654917455902 0 -0.23583729862822109 -0.36574384613307409 0 -0.24850069890613241 -0.35473287875334369 0 -0.23583729862822109 -0.36574384613307409 0 -0.219169022554425 -0.37113875127287832 0 -0.22531318381543361 -0.34939628189525529 0 -0.23802591309349369 -0.38358476956933441 0 -0.23583729862822109 -0.36574384613307409 0 -0.219169022554425 -0.37113875127287832 0 -0.22531318381543361 -0.34939628189525529 0 -0.24850069890613241 -0.35473287875334369 0 -0.24219101746094579 -0.34438554910399921 0 -0.23583729862822109 -0.36574384613307409 0 -0.22531318381543361 -0.34939628189525529 0 -0.24850069890613241 -0.35473287875334369 0 -0.22531318381543361 -0.34939628189525529 0 -0.24850069890613241 -0.35473287875334369 0 -0.25445926970156468 -0.34270101061729968 0 -0.24850069890613241 -0.35473287875334369 0 -0.24219101746094579 -0.34438554910399921 0 -0.25445926970156468 -0.34270101061729968 0 -0.24219101746094579 -0.34438554910399921 0 -0.2460450098649074 -0.33743905859998191 0 -0.25207330520806498 -0.33378255792528982 0 -0.2460450098649074 -0.33743905859998191 0 -0.24306356592407591 -0.32787829483024122 0 -0.2348359590034956 -0.33686915078515089 0 -0.24306356592407591 -0.32787829483024122 0 -0.23163603200856511 -0.32708080208212859 0 -0.2460450098649074 -0.33743905859998191 0 -0.2348359590034956 -0.33686915078515089 0 -0.24306356592407591 -0.32787829483024122 0 -0.24219101746094579 -0.34438554910399921 0 -0.2460450098649074 -0.33743905859998191 0 -0.2348359590034956 -0.33686915078515089 0 -0.25273748935779161 -0.32224337373924072 0 -0.24326482791746179 -0.31394285089519419 0 -0.24426682308287331 -0.30533572025667649 0 -0.25273748935779161 -0.32224337373924072 0 -0.24426682308287331 -0.30533572025667649 0 -0.25273748935779161 -0.32224337373924072 0 -0.24326482791746179 -0.31394285089519419 0 -0.2440208243134171 -0.32058552998791068 0 -0.25273748935779161 -0.32224337373924072 0 -0.24306356592407591 -0.32787829483024122 0 -0.2440208243134171 -0.32058552998791068 0 -0.25207330520806498 -0.33378255792528982 0 -0.25273748935779161 -0.32224337373924072 0 -0.24306356592407591 -0.32787829483024122 0 -0.24306356592407591 -0.32787829483024122 0 -0.2440208243134171 -0.32058552998791068 0 -0.23701741405433899 -0.31827760048696663 0 -0.24306356592407591 -0.32787829483024122 0 -0.23701741405433899 -0.31827760048696663 0 -0.23163603200856511 -0.32708080208212859 0 -0.24326482791746179 -0.31394285089519419 0 -0.23701741405433899 -0.31827760048696663 0 -0.2384772558931193 -0.30928307653082621 0 -0.24326482791746179 -0.31394285089519419 0 -0.2440208243134171 -0.32058552998791068 0 -0.23701741405433899 -0.31827760048696663 0 -0.22244826701882919 -0.32070202864358233 0 -0.22802593536356699 -0.30882837184141948 0 -0.21110805984082151 -0.30983785689108939 0 -0.23701741405433899 -0.31827760048696663 0 -0.22244826701882919 -0.32070202864358233 0 -0.22802593536356699 -0.30882837184141948 0 -0.23701741405433899 -0.31827760048696663 0 -0.23163603200856511 -0.32708080208212859 0 -0.22244826701882919 -0.32070202864358233 0 -0.23163603200856511 -0.32708080208212859 0 -0.22244826701882919 -0.32070202864358233 0 -0.22079431421521131 -0.33353493235345111 0 -0.22531318381543361 -0.34939628189525529 0 -0.2348359590034956 -0.33686915078515089 0 -0.22079431421521131 -0.33353493235345111 0 -0.22531318381543361 -0.34939628189525529 0 -0.24219101746094579 -0.34438554910399921 0 -0.2348359590034956 -0.33686915078515089 0 -0.2348359590034956 -0.33686915078515089 0 -0.23163603200856511 -0.32708080208212859 0 -0.22079431421521131 -0.33353493235345111 0 -0.22079431421521131 -0.33353493235345111 0 -0.20839645480677241 -0.32403064402179738 0 -0.20212566872473489 -0.34405968503716688 0 -0.22531318381543361 -0.34939628189525529 0 -0.22079431421521131 -0.33353493235345111 0 -0.20212566872473489 -0.34405968503716688 0 -0.22244826701882919 -0.32070202864358233 0 -0.20839645480677241 -0.32403064402179738 0 -0.21110805984082151 -0.30983785689108939 0 -0.22244826701882919 -0.32070202864358233 0 -0.22079431421521131 -0.33353493235345111 0 -0.20839645480677241 -0.32403064402179738 0 -0.20839645480677241 -0.32403064402179738 0 -0.19575919956014079 -0.31702437624003538 0 -0.21110805984082151 -0.30983785689108939 0 -0.20839645480677241 -0.32403064402179738 0 -0.19575919956014079 -0.31702437624003538 0 -0.19562896033857519 -0.33020038185646122 0 -0.19575919956014079 -0.31702437624003538 0 -0.19562896033857519 -0.33020038185646122 0 -0.18477851095256179 -0.32477614194451959 0 -0.20212566872473489 -0.34405968503716688 0 -0.1789381536340362 -0.33872308817907848 0 -0.19562896033857519 -0.33020038185646122 0 -0.20212566872473489 -0.34405968503716688 0 -0.1789381536340362 -0.33872308817907848 0 -0.20839645480677241 -0.32403064402179738 0 -0.19562896033857519 -0.33020038185646122 0 -0.20212566872473489 -0.34405968503716688 0 -0.20212566872473489 -0.34405968503716688 0 -0.2037839996862793 -0.36234410805543599 0 -0.1863350517553729 -0.35962674217565882 0 -0.20212566872473489 -0.34405968503716688 0 -0.1863350517553729 -0.35962674217565882 0 -0.1789381536340362 -0.33872308817907848 0 -0.183603859264966 -0.3766054584014627 0 -0.20216487974800659 -0.3829991661375407 0 -0.2037839996862793 -0.36234410805543599 0 -0.183603859264966 -0.3766054584014627 0 -0.2037839996862793 -0.36234410805543599 0 -0.1863350517553729 -0.35962674217565882 0 -0.219169022554425 -0.37113875127287832 0 -0.22531318381543361 -0.34939628189525529 0 -0.2037839996862793 -0.36234410805543599 0 -0.20216487974800659 -0.3829991661375407 0 -0.219169022554425 -0.37113875127287832 0 -0.2037839996862793 -0.36234410805543599 0 -0.22531318381543361 -0.34939628189525529 0 -0.20212566872473489 -0.34405968503716688 0 -0.2037839996862793 -0.36234410805543599 0 -0.22531318381543361 -0.34939628189525529 0 -0.20212566872473489 -0.34405968503716688 0 -0.24465976002352091 -0.25387891845332877 0 -0.23199225124923151 -0.26692477658714647 0 -0.21854221021918649 -0.25236034283526498 0 -0.23199225124923151 -0.26692477658714647 0 -0.21864709985809599 -0.27150291036173302 0 -0.21854221021918649 -0.25236034283526498 0 -0.24465976002352091 -0.25387891845332877 0 -0.2444485511135471 -0.27534046621033159 0 -0.23199225124923151 -0.26692477658714647 0 -0.25958550566062261 -0.27102626557679149 0 -0.24465976002352091 -0.25387891845332877 0 -0.2444485511135471 -0.27534046621033159 0 -0.2444485511135471 -0.27534046621033159 0 -0.23199225124923151 -0.26692477658714647 0 -0.23366363503180709 -0.28154124507507411 0 -0.2197277065850177 -0.2872169177591285 0 -0.23366363503180709 -0.28154124507507411 0 -0.21864709985809599 -0.27150291036173302 0 -0.23199225124923151 -0.26692477658714647 0 -0.23366363503180709 -0.28154124507507411 0 -0.21864709985809599 -0.27150291036173302 0 -0.2197277065850177 -0.2872169177591285 0 -0.23366363503180709 -0.28154124507507411 0 -0.24011613505684479 -0.30107681213347393 0 -0.2197277065850177 -0.2872169177591285 0 -0.24011613505684479 -0.30107681213347393 0 -0.2197277065850177 -0.2872169177591285 0 -0.24011613505684479 -0.30107681213347393 0 -0.2201073871300871 -0.30044142834658671 0 -0.2444485511135471 -0.27534046621033159 0 -0.23366363503180709 -0.28154124507507411 0 -0.24732420154209239 -0.29033586459568173 0 -0.23366363503180709 -0.28154124507507411 0 -0.24732420154209239 -0.29033586459568173 0 -0.24011613505684479 -0.30107681213347393 0 -0.25608276685525683 -0.28295324223861612 0 -0.2444485511135471 -0.27534046621033159 0 -0.24732420154209239 -0.29033586459568173 0 -0.26050456352867191 -0.3149367065078193 0 -0.24011613505684479 -0.30107681213347393 0 -0.24426682308287331 -0.30533572025667649 0 -0.25485564421046719 -0.30132045870319019 0 -0.24732420154209239 -0.29033586459568173 0 -0.24011613505684479 -0.30107681213347393 0 -0.24011613505684479 -0.30107681213347393 0 -0.2384772558931193 -0.30928307653082621 0 -0.22802593536356699 -0.30882837184141948 0 -0.24326482791746179 -0.31394285089519419 0 -0.24426682308287331 -0.30533572025667649 0 -0.2384772558931193 -0.30928307653082621 0 -0.24011613505684479 -0.30107681213347393 0 -0.24426682308287331 -0.30533572025667649 0 -0.2384772558931193 -0.30928307653082621 0 -0.23701741405433899 -0.31827760048696663 0 -0.2384772558931193 -0.30928307653082621 0 -0.22802593536356699 -0.30882837184141948 0 -0.22802593536356699 -0.30882837184141948 0 -0.2201073871300871 -0.30044142834658671 0 -0.21110805984082151 -0.30983785689108939 0 -0.24011613505684479 -0.30107681213347393 0 -0.22802593536356699 -0.30882837184141948 0 -0.2201073871300871 -0.30044142834658671 0 -0.2201073871300871 -0.30044142834658671 0 -0.21110805984082151 -0.30983785689108939 0 -0.20155909880418441 -0.29524718310782239 0 -0.21110805984082151 -0.30983785689108939 0 -0.2000775247532616 -0.30687463122530689 0 -0.20155909880418441 -0.29524718310782239 0 -0.19575919956014079 -0.31702437624003538 0 -0.21110805984082151 -0.30983785689108939 0 -0.2000775247532616 -0.30687463122530689 0 -0.18961770926909149 -0.30481471110084102 0 -0.20155909880418441 -0.29524718310782239 0 -0.1798976030385912 -0.29461474791537873 0 -0.19575919956014079 -0.31702437624003538 0 -0.2000775247532616 -0.30687463122530689 0 -0.18961770926909149 -0.30481471110084102 0 -0.19575919956014079 -0.31702437624003538 0 -0.18961770926909149 -0.30481471110084102 0 -0.1803928959391416 -0.31521744924658562 0 -0.2000775247532616 -0.30687463122530689 0 -0.18961770926909149 -0.30481471110084102 0 -0.20155909880418441 -0.29524718310782239 0 -0.19933927811319041 -0.27335702338478318 0 -0.1798976030385912 -0.29461474791537873 0 -0.20155909880418441 -0.29524718310782239 0 -0.19933927811319041 -0.27335702338478318 0 -0.1798976030385912 -0.29461474791537873 0 -0.2197277065850177 -0.2872169177591285 0 -0.20155909880418441 -0.29524718310782239 0 -0.19933927811319041 -0.27335702338478318 0 -0.2197277065850177 -0.2872169177591285 0 -0.2201073871300871 -0.30044142834658671 0 -0.20155909880418441 -0.29524718310782239 0 -0.21864709985809599 -0.27150291036173302 0 -0.19933927811319041 -0.27335702338478318 0 -0.21854221021918649 -0.25236034283526498 0 -0.2197277065850177 -0.2872169177591285 0 -0.21864709985809599 -0.27150291036173302 0 -0.19933927811319041 -0.27335702338478318 0 -0.2197277065850177 -0.2872169177591285 0 -0.19933927811319041 -0.27335702338478318 0 -0.19672455084482071 -0.27157955221738023 0 -0.19563648814007639 -0.2627950405098789 0 -0.1773613401945949 -0.28300380337564962 0 -0.19672455084482071 -0.27157955221738023 0 -0.19933927811319041 -0.27335702338478318 0 -0.1773613401945949 -0.28300380337564962 0 -0.19672455084482071 -0.27157955221738023 0 -0.19933927811319041 -0.27335702338478318 0 -0.19563648814007639 -0.2627950405098789 0 -0.19672455084482071 -0.27157955221738023 0 -0.19933927811319041 -0.27335702338478318 0 -0.19933927811319041 -0.27335702338478318 0 -0.19563648814007639 -0.2627950405098789 0 -0.2024770003035091 -0.25628481747185139 0 -0.19563648814007639 -0.2627950405098789 0 -0.19160736129165659 -0.25262396586623759 0 -0.18182513936558051 -0.25739227955256888 0 -0.19563648814007639 -0.2627950405098789 0 -0.19160736129165659 -0.25262396586623759 0 -0.2024770003035091 -0.25628481747185139 0 -0.19160736129165659 -0.25262396586623759 0 -0.2024770003035091 -0.25628481747185139 0 -0.19988453840298659 -0.24176205441804 0 -0.19933927811319041 -0.27335702338478318 0 -0.2024770003035091 -0.25628481747185139 0 -0.21854221021918649 -0.25236034283526498 0 -0.2024770003035091 -0.25628481747185139 0 -0.21854221021918649 -0.25236034283526498 0 -0.19988453840298659 -0.24176205441804 0 -0.19933927811319041 -0.27335702338478318 0 -0.21854221021918649 -0.25236034283526498 0 -0.16270034237907721 -0.26451024010365409 0 -0.1689202540561075 -0.25519621835756329 0 -0.15263230708737521 -0.24356194903458239 0 -0.16270034237907721 -0.26451024010365409 0 -0.15585924966824549 -0.27338725763800159 0 -0.15263230708737521 -0.24356194903458239 0 -0.16270034237907721 -0.26451024010365409 0 -0.1689202540561075 -0.25519621835756329 0 -0.17291740387759841 -0.2648938158906885 0 -0.1689202540561075 -0.25519621835756329 0 -0.18182513936558051 -0.25739227955256888 0 -0.1745260775709061 -0.24562280720632229 0 -0.19160736129165659 -0.25262396586623759 0 -0.18182513936558051 -0.25739227955256888 0 -0.1745260775709061 -0.24562280720632229 0 -0.19563648814007639 -0.2627950405098789 0 -0.18182513936558051 -0.25739227955256888 0 -0.18269465011250469 -0.26841637399603913 0 -0.1689202540561075 -0.25519621835756329 0 -0.18182513936558051 -0.25739227955256888 0 -0.17291740387759841 -0.2648938158906885 0 -0.18182513936558051 -0.25739227955256888 0 -0.17291740387759841 -0.2648938158906885 0 -0.18269465011250469 -0.26841637399603913 0 -0.19563648814007639 -0.2627950405098789 0 -0.18269465011250469 -0.26841637399603913 0 -0.1773613401945949 -0.28300380337564962 0 -0.17291740387759841 -0.2648938158906885 0 -0.17526212336935321 -0.27297056277525461 0 -0.1680750992927145 -0.27556825783864097 0 -0.19563648814007639 -0.2627950405098789 0 -0.1773613401945949 -0.28300380337564962 0 -0.17291740387759841 -0.2648938158906885 0 -0.17526212336935321 -0.27297056277525461 0 -0.18269465011250469 -0.26841637399603913 0 -0.17526212336935321 -0.27297056277525461 0 -0.18269465011250469 -0.26841637399603913 0 -0.1773613401945949 -0.28300380337564962 0 -0.17526212336935321 -0.27297056277525461 0 -0.1680750992927145 -0.27556825783864097 0 -0.1773613401945949 -0.28300380337564962 0 -0.1680750992927145 -0.27556825783864097 0 -0.1682011228878135 -0.28257539269247411 0 -0.1773613401945949 -0.28300380337564962 0 -0.1680750992927145 -0.27556825783864097 0 -0.1622412594804854 -0.28273310688964581 0 -0.1682011228878135 -0.28257539269247411 0 -0.16270034237907721 -0.26451024010365409 0 -0.17291740387759841 -0.2648938158906885 0 -0.1680750992927145 -0.27556825783864097 0 -0.16270034237907721 -0.26451024010365409 0 -0.1680750992927145 -0.27556825783864097 0 -0.16179622859894191 -0.27503335760685149 0 -0.16270034237907721 -0.26451024010365409 0 -0.16179622859894191 -0.27503335760685149 0 -0.15585924966824549 -0.27338725763800159 0 -0.16179622859894191 -0.27503335760685149 0 -0.1622412594804854 -0.28273310688964581 0 -0.15585924966824549 -0.27338725763800159 0 -0.1680750992927145 -0.27556825783864097 0 -0.16179622859894191 -0.27503335760685149 0 -0.1622412594804854 -0.28273310688964581 0 -0.1622412594804854 -0.28273310688964581 0 -0.16512679258345911 -0.28899640266596011 0 -0.15908619224911419 -0.30321256624142101 0 -0.1622412594804854 -0.28273310688964581 0 -0.15908619224911419 -0.30321256624142101 0 -0.15585924966824549 -0.27338725763800159 0 -0.15908619224911419 -0.30321256624142101 0 -0.15585924966824549 -0.27338725763800159 0 -0.16512679258345911 -0.28899640266596011 0 -0.1773613401945949 -0.28300380337564962 0 -0.15908619224911419 -0.30321256624142101 0 -0.1773613401945949 -0.28300380337564962 0 -0.15908619224911419 -0.30321256624142101 0 -0.16512679258345911 -0.28899640266596011 0 -0.1682011228878135 -0.28257539269247411 0 -0.1773613401945949 -0.28300380337564962 0 -0.1622412594804854 -0.28273310688964581 0 -0.16512679258345911 -0.28899640266596011 0 -0.1682011228878135 -0.28257539269247411 0 -0.1773613401945949 -0.28300380337564962 0 -0.1798976030385912 -0.29461474791537873 0 -0.15908619224911419 -0.30321256624142101 0 -0.19933927811319041 -0.27335702338478318 0 -0.1773613401945949 -0.28300380337564962 0 -0.1798976030385912 -0.29461474791537873 0 -0.1798976030385912 -0.29461474791537873 0 -0.17759103405270391 -0.30762984517719472 0 -0.16045592796399111 -0.3158724724459735 0 -0.18961770926909149 -0.30481471110084102 0 -0.1798976030385912 -0.29461474791537873 0 -0.17759103405270391 -0.30762984517719472 0 -0.18961770926909149 -0.30481471110084102 0 -0.17759103405270391 -0.30762984517719472 0 -0.1803928959391416 -0.31521744924658562 0 -0.1798976030385912 -0.29461474791537873 0 -0.16045592796399111 -0.3158724724459735 0 -0.1798976030385912 -0.29461474791537873 0 -0.15908619224911419 -0.30321256624142101 0 -0.16045592796399111 -0.3158724724459735 0 -0.15908619224911419 -0.30321256624142101 0 -0.16045592796399111 -0.3158724724459735 0 -0.1471380549162328 -0.30532142906175452 0 -0.14032160831301491 -0.30752887986621158 0 -0.14130665940473261 -0.32287327510069419 0 -0.15908619224911419 -0.30321256624142101 0 -0.1471380549162328 -0.30532142906175452 0 -0.14130665940473261 -0.32287327510069419 0 -0.15908619224911419 -0.30321256624142101 0 -0.1471380549162328 -0.30532142906175452 0 -0.1510678287434867 -0.29559461902651829 0 -0.14390798587081549 -0.29739780507392732 0 -0.1471380549162328 -0.30532142906175452 0 -0.1510678287434867 -0.29559461902651829 0 -0.14390798587081549 -0.29739780507392732 0 -0.1471380549162328 -0.30532142906175452 0 -0.14032160831301491 -0.30752887986621158 0 -0.14032160831301491 -0.30752887986621158 0 -0.13439128381467691 -0.29991683468539793 0 -0.13033731665847181 -0.31286393971371201 0 -0.13439128381467691 -0.29991683468539793 0 -0.13033731665847181 -0.31286393971371201 0 -0.12304085188452731 -0.29931348820209958 0 -0.14390798587081549 -0.29739780507392732 0 -0.14032160831301491 -0.30752887986621158 0 -0.13439128381467691 -0.29991683468539793 0 -0.14390798587081549 -0.29739780507392732 0 -0.13439128381467691 -0.29991683468539793 0 -0.14011095662501261 -0.28947786809128212 0 -0.13439128381467691 -0.29991683468539793 0 -0.14011095662501261 -0.28947786809128212 0 -0.12994370463312691 -0.28995419054763111 0 -0.13439128381467691 -0.29991683468539793 0 -0.12994370463312691 -0.28995419054763111 0 -0.12304085188452731 -0.29931348820209958 0 -0.12994370463312691 -0.28995419054763111 0 -0.13687965345326569 -0.27993872332247433 0 -0.1257911728949061 -0.280427018304516 0 -0.12994370463312691 -0.28995419054763111 0 -0.1257911728949061 -0.280427018304516 0 -0.1194571486541455 -0.28746452468861589 0 -0.14011095662501261 -0.28947786809128212 0 -0.12994370463312691 -0.28995419054763111 0 -0.13687965345326569 -0.27993872332247433 0 -0.15908619224911419 -0.30321256624142101 0 -0.15162645984294551 -0.28670064183700439 0 -0.15585924966824549 -0.27338725763800159 0 -0.14011095662501261 -0.28947786809128212 0 -0.1458827091329962 -0.28225219708249882 0 -0.13687965345326569 -0.27993872332247433 0 -0.15908619224911419 -0.30321256624142101 0 -0.1510678287434867 -0.29559461902651829 0 -0.15162645984294551 -0.28670064183700439 0 -0.1458827091329962 -0.28225219708249882 0 -0.1468811506158991 -0.28912565090950809 0 -0.15162645984294551 -0.28670064183700439 0 -0.14011095662501261 -0.28947786809128212 0 -0.1458827091329962 -0.28225219708249882 0 -0.1468811506158991 -0.28912565090950809 0 -0.14390798587081549 -0.29739780507392732 0 -0.1468811506158991 -0.28912565090950809 0 -0.1510678287434867 -0.29559461902651829 0 -0.14390798587081549 -0.29739780507392732 0 -0.14011095662501261 -0.28947786809128212 0 -0.1468811506158991 -0.28912565090950809 0 -0.1468811506158991 -0.28912565090950809 0 -0.1510678287434867 -0.29559461902651829 0 -0.15162645984294551 -0.28670064183700439 0 -0.1458827091329962 -0.28225219708249882 0 -0.15162645984294551 -0.28670064183700439 0 -0.15098162864793119 -0.27663156012407891 0 -0.15162645984294551 -0.28670064183700439 0 -0.15098162864793119 -0.27663156012407891 0 -0.15585924966824549 -0.27338725763800159 0 -0.15098162864793119 -0.27663156012407891 0 -0.1522527558101047 -0.27366235468835692 0 -0.14903370440966179 -0.27344637702894548 0 -0.15098162864793119 -0.27663156012407891 0 -0.1522527558101047 -0.27366235468835692 0 -0.15585924966824549 -0.27338725763800159 0 -0.14903370440966179 -0.27344637702894548 0 -0.1531364405145805 -0.27118422396240138 0 -0.14385763015454139 -0.26954128824380802 0 -0.1522527558101047 -0.27366235468835692 0 -0.15585924966824549 -0.27338725763800159 0 -0.1531364405145805 -0.27118422396240138 0 -0.1522527558101047 -0.27366235468835692 0 -0.14903370440966179 -0.27344637702894548 0 -0.1531364405145805 -0.27118422396240138 0 -0.14903370440966179 -0.27344637702894548 0 -0.14385763015454139 -0.26954128824380802 0 -0.1442805510697899 -0.27562940435382949 0 -0.14385763015454139 -0.26954128824380802 0 -0.1442805510697899 -0.27562940435382949 0 -0.13835653564694769 -0.27242798417408381 0 -0.1458827091329962 -0.28225219708249882 0 -0.1442805510697899 -0.27562940435382949 0 -0.13687965345326569 -0.27993872332247433 0 -0.15098162864793119 -0.27663156012407891 0 -0.14903370440966179 -0.27344637702894548 0 -0.1442805510697899 -0.27562940435382949 0 -0.1458827091329962 -0.28225219708249882 0 -0.15098162864793119 -0.27663156012407891 0 -0.1442805510697899 -0.27562940435382949 0 -0.13687965345326569 -0.27993872332247433 0 -0.12970248462840331 -0.2717774759070859 0 -0.13835653564694769 -0.27242798417408381 0 -0.1442805510697899 -0.27562940435382949 0 -0.13687965345326569 -0.27993872332247433 0 -0.13835653564694769 -0.27242798417408381 0 -0.13687965345326569 -0.27993872332247433 0 -0.1257911728949061 -0.280427018304516 0 -0.12970248462840331 -0.2717774759070859 0 -0.12970248462840331 -0.2717774759070859 0 -0.13570208279224111 -0.26528350045903498 0 -0.12855037573501921 -0.26115248962005239 0 -0.14385763015454139 -0.26954128824380802 0 -0.13835653564694769 -0.27242798417408381 0 -0.13570208279224111 -0.26528350045903498 0 -0.12970248462840331 -0.2717774759070859 0 -0.13835653564694769 -0.27242798417408381 0 -0.13570208279224111 -0.26528350045903498 0 -0.13570208279224111 -0.26528350045903498 0 -0.12855037573501921 -0.26115248962005239 0 -0.1377523016625678 -0.25581657194563601 0 -0.14385763015454139 -0.26954128824380802 0 -0.13570208279224111 -0.26528350045903498 0 -0.1377523016625678 -0.25581657194563601 0 -0.12855037573501921 -0.26115248962005239 0 -0.1377523016625678 -0.25581657194563601 0 -0.1223681628105569 -0.24044891992886891 0 -0.1531364405145805 -0.27118422396240138 0 -0.1377523016625678 -0.25581657194563601 0 -0.15263230708737521 -0.24356194903458239 0 -0.15585924966824549 -0.27338725763800159 0 -0.1531364405145805 -0.27118422396240138 0 -0.15263230708737521 -0.24356194903458239 0 -0.15585924966824549 -0.27338725763800159 0 -0.15263230708737521 -0.24356194903458239 0 -0.1531364405145805 -0.27118422396240138 0 -0.1377523016625678 -0.25581657194563601 0 -0.1531364405145805 -0.27118422396240138 0 -0.14385763015454139 -0.26954128824380802 0 -0.1377523016625678 -0.25581657194563601 0 -0.1661931572416451 -0.36889933283976362 0 -0.1633245426028184 -0.34238590264286861 0 -0.15433175674287769 -0.35458729317269139 0 -0.1661931572416451 -0.36889933283976362 0 -0.1633245426028184 -0.34238590264286861 0 -0.1661931572416451 -0.36889933283976362 0 -0.17388048196752651 -0.3522733272046466 0 -0.1633245426028184 -0.34238590264286861 0 -0.1661931572416451 -0.36889933283976362 0 -0.15433175674287769 -0.35458729317269139 0 -0.148308101659717 -0.36695316985008092 0 -0.15761740849691311 -0.38818340141201402 0 -0.1661931572416451 -0.36889933283976362 0 -0.148308101659717 -0.36695316985008092 0 -0.183603859264966 -0.3766054584014627 0 -0.1661931572416451 -0.36889933283976362 0 -0.1863350517553729 -0.35962674217565882 0 -0.1661931572416451 -0.36889933283976362 0 -0.1863350517553729 -0.35962674217565882 0 -0.17388048196752651 -0.3522733272046466 0 -0.1863350517553729 -0.35962674217565882 0 -0.17388048196752651 -0.3522733272046466 0 -0.1789381536340362 -0.33872308817907848 0 -0.17388048196752651 -0.3522733272046466 0 -0.1789381536340362 -0.33872308817907848 0 -0.1633245426028184 -0.34238590264286861 0 -0.19562896033857519 -0.33020038185646122 0 -0.1789381536340362 -0.33872308817907848 0 -0.18477851095256179 -0.32477614194451959 0 -0.1789381536340362 -0.33872308817907848 0 -0.18477851095256179 -0.32477614194451959 0 -0.1735479853981102 -0.32728394705986258 0 -0.1789381536340362 -0.33872308817907848 0 -0.1735479853981102 -0.32728394705986258 0 -0.1633245426028184 -0.34238590264286861 0 -0.17759103405270391 -0.30762984517719472 0 -0.1803928959391416 -0.31521744924658562 0 -0.16045592796399111 -0.3158724724459735 0 -0.19575919956014079 -0.31702437624003538 0 -0.1803928959391416 -0.31521744924658562 0 -0.18477851095256179 -0.32477614194451959 0 -0.1803928959391416 -0.31521744924658562 0 -0.18477851095256179 -0.32477614194451959 0 -0.1735479853981102 -0.32728394705986258 0 -0.1803928959391416 -0.31521744924658562 0 -0.1735479853981102 -0.32728394705986258 0 -0.16045592796399111 -0.3158724724459735 0 -0.1735479853981102 -0.32728394705986258 0 -0.16045592796399111 -0.3158724724459735 0 -0.1633245426028184 -0.34238590264286861 0 -0.16045592796399111 -0.3158724724459735 0 -0.1633245426028184 -0.34238590264286861 0 -0.1476770575246594 -0.3298450188736391 0 -0.16045592796399111 -0.3158724724459735 0 -0.1633245426028184 -0.34238590264286861 0 -0.1633245426028184 -0.34238590264286861 0 -0.15030263560259111 -0.34285112818916452 0 -0.1476770575246594 -0.3298450188736391 0 -0.1476770575246594 -0.3298450188736391 0 -0.14130665940473261 -0.32287327510069419 0 -0.13989838249203351 -0.33226752099114382 0 -0.1476770575246594 -0.3298450188736391 0 -0.14096893258994439 -0.33934882548262568 0 -0.13989838249203351 -0.33226752099114382 0 -0.15030263560259111 -0.34285112818916452 0 -0.1476770575246594 -0.3298450188736391 0 -0.14096893258994439 -0.33934882548262568 0 -0.15908619224911419 -0.30321256624142101 0 -0.14130665940473261 -0.32287327510069419 0 -0.16045592796399111 -0.3158724724459735 0 -0.1476770575246594 -0.3298450188736391 0 -0.14130665940473261 -0.32287327510069419 0 -0.15908619224911419 -0.30321256624142101 0 -0.16045592796399111 -0.3158724724459735 0 -0.14130665940473261 -0.32287327510069419 0 -0.16045592796399111 -0.3158724724459735 0 -0.1476770575246594 -0.3298450188736391 0 -0.14130665940473261 -0.32287327510069419 0 -0.12766342535057629 -0.32481504462803062 0 -0.13033731665847181 -0.31286393971371201 0 -0.14032160831301491 -0.30752887986621158 0 -0.14130665940473261 -0.32287327510069419 0 -0.13033731665847181 -0.31286393971371201 0 -0.14130665940473261 -0.32287327510069419 0 -0.12766342535057629 -0.32481504462803062 0 -0.12902917457320359 -0.33644978787578289 0 -0.12766342535057629 -0.32481504462803062 0 -0.12902917457320359 -0.33644978787578289 0 -0.123033176677132 -0.34308019655903149 0 -0.14096893258994439 -0.33934882548262568 0 -0.12902917457320359 -0.33644978787578289 0 -0.13366226850604379 -0.34759248760944123 0 -0.14096893258994439 -0.33934882548262568 0 -0.13989838249203351 -0.33226752099114382 0 -0.12902917457320359 -0.33644978787578289 0 -0.14130665940473261 -0.32287327510069419 0 -0.12902917457320359 -0.33644978787578289 0 -0.14130665940473261 -0.32287327510069419 0 -0.13989838249203351 -0.33226752099114382 0 -0.12902917457320359 -0.33644978787578289 0 -0.12902917457320359 -0.33644978787578289 0 -0.123033176677132 -0.34308019655903149 0 -0.12902917457320359 -0.33644978787578289 0 -0.13366226850604379 -0.34759248760944123 0 -0.123033176677132 -0.34308019655903149 0 -0.13366226850604379 -0.34759248760944123 0 -0.1303219987982592 -0.3665496015062627 0 -0.123033176677132 -0.34308019655903149 0 -0.1303219987982592 -0.3665496015062627 0 -0.123033176677132 -0.34308019655903149 0 -0.13366226850604379 -0.34759248760944123 0 -0.1435303466076166 -0.35184693234157938 0 -0.1303219987982592 -0.3665496015062627 0 -0.14096893258994439 -0.33934882548262568 0 -0.13366226850604379 -0.34759248760944123 0 -0.1435303466076166 -0.35184693234157938 0 -0.15030263560259111 -0.34285112818916452 0 -0.14096893258994439 -0.33934882548262568 0 -0.1435303466076166 -0.35184693234157938 0 -0.1435303466076166 -0.35184693234157938 0 -0.15433175674287769 -0.35458729317269139 0 -0.148308101659717 -0.36695316985008092 0 -0.1633245426028184 -0.34238590264286861 0 -0.15030263560259111 -0.34285112818916452 0 -0.15433175674287769 -0.35458729317269139 0 -0.15030263560259111 -0.34285112818916452 0 -0.1435303466076166 -0.35184693234157938 0 -0.15433175674287769 -0.35458729317269139 0 -0.1435303466076166 -0.35184693234157938 0 -0.148308101659717 -0.36695316985008092 0 -0.1303219987982592 -0.3665496015062627 0 -0.1369224961495438 -0.38192389563367207 0 -0.148308101659717 -0.36695316985008092 0 -0.1303219987982592 -0.3665496015062627 0 -0.1303219987982592 -0.3665496015062627 0 -0.1159926709000937 -0.36685414663024191 0 -0.11895596668836859 -0.34683008488337108 0 -0.1303219987982592 -0.3665496015062627 0 -0.1159926709000937 -0.36685414663024191 0 -0.12201267174342199 -0.37938718301114999 0 -0.1024060606807759 -0.36205135125861898 0 -0.1016559479587178 -0.38500202459504551 0 -0.1159926709000937 -0.36685414663024191 0 -0.1024060606807759 -0.36205135125861898 0 -0.1094440337948836 -0.37923577087639421 0 -0.1024060606807759 -0.36205135125861898 0 -0.1016559479587178 -0.38500202459504551 0 -0.095426438310298192 -0.37780241062099151 0 -0.1024060606807759 -0.36205135125861898 0 -0.090139611558562177 -0.37333304007799939 0 -0.095426438310298192 -0.37780241062099151 0 -0.1024060606807759 -0.36205135125861898 0 -0.093943439343664059 -0.36410026383479388 0 -0.090139611558562177 -0.37333304007799939 0 -0.1024060606807759 -0.36205135125861898 0 -0.093943439343664059 -0.36410026383479388 0 -0.095626283443773746 -0.35612124291623848 0 -0.1024060606807759 -0.36205135125861898 0 -0.090139611558562177 -0.37333304007799939 0 -0.1024060606807759 -0.36205135125861898 0 -0.1029439411344124 -0.34559419992324319 0 -0.1024060606807759 -0.36205135125861898 0 -0.1029439411344124 -0.34559419992324319 0 -0.11895596668836859 -0.34683008488337108 0 -0.1024060606807759 -0.36205135125861898 0 -0.095626283443773746 -0.35612124291623848 0 -0.1029439411344124 -0.34559419992324319 0 -0.095626283443773746 -0.35612124291623848 0 -0.1029439411344124 -0.34559419992324319 0 -0.093212578299404075 -0.34130700998995739 0 -0.1159926709000937 -0.36685414663024191 0 -0.1024060606807759 -0.36205135125861898 0 -0.11895596668836859 -0.34683008488337108 0 -0.1024060606807759 -0.36205135125861898 0 -0.11895596668836859 -0.34683008488337108 0 -0.1303219987982592 -0.3665496015062627 0 -0.11895596668836859 -0.34683008488337108 0 -0.123033176677132 -0.34308019655903149 0 -0.1029439411344124 -0.34559419992324319 0 -0.11895596668836859 -0.34683008488337108 0 -0.123033176677132 -0.34308019655903149 0 -0.11895596668836859 -0.34683008488337108 0 -0.123033176677132 -0.34308019655903149 0 -0.1029439411344124 -0.34559419992324319 0 -0.1137910684918501 -0.33520612369310882 0 -0.123033176677132 -0.34308019655903149 0 -0.123033176677132 -0.34308019655903149 0 -0.1159692764993048 -0.31568518943543378 0 -0.1137910684918501 -0.33520612369310882 0 -0.123033176677132 -0.34308019655903149 0 -0.1159692764993048 -0.31568518943543378 0 -0.12766342535057629 -0.32481504462803062 0 -0.123033176677132 -0.34308019655903149 0 -0.1159692764993048 -0.31568518943543378 0 -0.1137910684918501 -0.33520612369310882 0 -0.1159692764993048 -0.31568518943543378 0 -0.1034818215880495 -0.3291370485878673 0 -0.12766342535057629 -0.32481504462803062 0 -0.13033731665847181 -0.31286393971371201 0 -0.1159692764993048 -0.31568518943543378 0 -0.1159692764993048 -0.31568518943543378 0 -0.10079975883819629 -0.31506063040533638 0 -0.1034818215880495 -0.3291370485878673 0 -0.10079975883819629 -0.31506063040533638 0 -0.093212578299404075 -0.34130700998995739 0 -0.10079975883819629 -0.31506063040533638 0 -0.093212578299404075 -0.34130700998995739 0 -0.087373844159168004 -0.3291061545470132 0 -0.10079975883819629 -0.31506063040533638 0 -0.1034818215880495 -0.3291370485878673 0 -0.093212578299404075 -0.34130700998995739 0 -0.1029439411344124 -0.34559419992324319 0 -0.1034818215880495 -0.3291370485878673 0 -0.1029439411344124 -0.34559419992324319 0 -0.1034818215880495 -0.3291370485878673 0 -0.093212578299404075 -0.34130700998995739 0 -0.1029439411344124 -0.34559419992324319 0 -0.1137910684918501 -0.33520612369310882 0 -0.1034818215880495 -0.3291370485878673 0 -0.093212578299404075 -0.34130700998995739 0 -0.087373844159168004 -0.3291061545470132 0 -0.080908772255243899 -0.33898270124258217 0 -0.087373844159168004 -0.3291061545470132 0 -0.080908772255243899 -0.33898270124258217 0 -0.077490532230771417 -0.32991328235931511 0 -0.093212578299404075 -0.34130700998995739 0 -0.080908772255243899 -0.33898270124258217 0 -0.080378844364046895 -0.35001101873094542 0 -0.10079975883819629 -0.31506063040533638 0 -0.085305929108392881 -0.31951846990187233 0 -0.091873739319295072 -0.31122357941036211 0 -0.10079975883819629 -0.31506063040533638 0 -0.087373844159168004 -0.3291061545470132 0 -0.085305929108392881 -0.31951846990187233 0 -0.085305929108392881 -0.31951846990187233 0 -0.076805788315873161 -0.32077910918615782 0 -0.077490532230771417 -0.32991328235931511 0 -0.087373844159168004 -0.3291061545470132 0 -0.085305929108392881 -0.31951846990187233 0 -0.077490532230771417 -0.32991328235931511 0 -0.085305929108392881 -0.31951846990187233 0 -0.076805788315873161 -0.32077910918615782 0 -0.078544889372492196 -0.31002595631180607 0 -0.085305929108392881 -0.31951846990187233 0 -0.091873739319295072 -0.31122357941036211 0 -0.078544889372492196 -0.31002595631180607 0 -0.066882954587322394 -0.32486941793266988 0 -0.078544889372492196 -0.31002595631180607 0 -0.05424539878688571 -0.319762651601179 0 -0.078544889372492196 -0.31002595631180607 0 -0.05424539878688571 -0.319762651601179 0 -0.076805788315873161 -0.32077910918615782 0 -0.066882954587322394 -0.32486941793266988 0 -0.078544889372492196 -0.31002595631180607 0 -0.076805788315873161 -0.32077910918615782 0 -0.066882954587322394 -0.32486941793266988 0 -0.077490532230771417 -0.32991328235931511 0 -0.066882954587322394 -0.32486941793266988 0 -0.070160141916437824 -0.34098238217286791 0 -0.054527031800802053 -0.34042178362413461 0 -0.066882954587322394 -0.32486941793266988 0 -0.077490532230771417 -0.32991328235931511 0 -0.070160141916437824 -0.34098238217286791 0 -0.080908772255243899 -0.33898270124258217 0 -0.077490532230771417 -0.32991328235931511 0 -0.070160141916437824 -0.34098238217286791 0 -0.080908772255243899 -0.33898270124258217 0 -0.070160141916437824 -0.34098238217286791 0 -0.080378844364046895 -0.35001101873094542 0 -0.070160141916437824 -0.34098238217286791 0 -0.066522813126512412 -0.35680227137673098 0 -0.054527031800802053 -0.34042178362413461 0 -0.070160141916437824 -0.34098238217286791 0 -0.066522813126512412 -0.35680227137673098 0 -0.080378844364046895 -0.35001101873094542 0 -0.066522813126512412 -0.35680227137673098 0 -0.076582500297099523 -0.36039923154202719 0 -0.080378844364046895 -0.35001101873094542 0 -0.066522813126512412 -0.35680227137673098 0 -0.073802945937226916 -0.36723024648585417 0 -0.058387822440418388 -0.36975607908058028 0 -0.073802945937226916 -0.36723024648585417 0 -0.058387822440418388 -0.36975607908058028 0 -0.08170780991661282 -0.38109255286014232 0 -0.066522813126512412 -0.35680227137673098 0 -0.073802945937226916 -0.36723024648585417 0 -0.076582500297099523 -0.36039923154202719 0 -0.073802945937226916 -0.36723024648585417 0 -0.076582500297099523 -0.36039923154202719 0 -0.085625397760611066 -0.36755338957457828 0 -0.085625397760611066 -0.36755338957457828 0 -0.087954911787112483 -0.37534235041220648 0 -0.08170780991661282 -0.38109255286014232 0 -0.073802945937226916 -0.36723024648585417 0 -0.085625397760611066 -0.36755338957457828 0 -0.08170780991661282 -0.38109255286014232 0 -0.085625397760611066 -0.36755338957457828 0 -0.08170780991661282 -0.38109255286014232 0 -0.093943439343664059 -0.36410026383479388 0 -0.085625397760611066 -0.36755338957457828 0 -0.090139611558562177 -0.37333304007799939 0 -0.093943439343664059 -0.36410026383479388 0 -0.090139611558562177 -0.37333304007799939 0 -0.085625397760611066 -0.36755338957457828 0 -0.090139611558562177 -0.37333304007799939 0 -0.087954911787112483 -0.37534235041220648 0 -0.085625397760611066 -0.36755338957457828 0 -0.087954911787112483 -0.37534235041220648 0 -0.090139611558562177 -0.37333304007799939 0 -0.087954911787112483 -0.37534235041220648 0 -0.093943439343664059 -0.36410026383479388 0 -0.095626283443773746 -0.35612124291623848 0 -0.085625397760611066 -0.36755338957457828 0 -0.093212578299404075 -0.34130700998995739 0 -0.085625397760611066 -0.36755338957457828 0 -0.076582500297099523 -0.36039923154202719 0 -0.085625397760611066 -0.36755338957457828 0 -0.080378844364046895 -0.35001101873094542 0 -0.093212578299404075 -0.34130700998995739 0 -0.085625397760611066 -0.36755338957457828 0 -0.080378844364046895 -0.35001101873094542 0 -0.085625397760611066 -0.36755338957457828 0 -0.080378844364046895 -0.35001101873094542 0 -0.095626283443773746 -0.35612124291623848 0 -0.093212578299404075 -0.34130700998995739 0 -0.085625397760611066 -0.36755338957457828 0 -0.10474757541744149 -0.26087495970427582 0 -0.090174700483665673 -0.26498018187443112 0 -0.1005321994236209 -0.2431127607729493 0 -0.10474757541744149 -0.26087495970427582 0 -0.11757885349586771 -0.25701660664448461 0 -0.1005321994236209 -0.2431127607729493 0 -0.12855037573501921 -0.26115248962005239 0 -0.11757885349586771 -0.25701660664448461 0 -0.1127895441811773 -0.27358429336009982 0 -0.12855037573501921 -0.26115248962005239 0 -0.11757885349586771 -0.25701660664448461 0 -0.1223681628105569 -0.24044891992886891 0 -0.10474757541744149 -0.26087495970427582 0 -0.11757885349586771 -0.25701660664448461 0 -0.1127895441811773 -0.27358429336009982 0 -0.11757885349586771 -0.25701660664448461 0 -0.1127895441811773 -0.27358429336009982 0 -0.1257911728949061 -0.280427018304516 0 -0.12970248462840331 -0.2717774759070859 0 -0.1127895441811773 -0.27358429336009982 0 -0.12855037573501921 -0.26115248962005239 0 -0.1127895441811773 -0.27358429336009982 0 -0.12970248462840331 -0.2717774759070859 0 -0.12855037573501921 -0.26115248962005239 0 -0.1127895441811773 -0.27358429336009982 0 -0.1257911728949061 -0.280427018304516 0 -0.1127895441811773 -0.27358429336009982 0 -0.1194571486541455 -0.28746452468861589 0 -0.1127895441811773 -0.27358429336009982 0 -0.1083869393769897 -0.28881425082071571 0 -0.1127895441811773 -0.27358429336009982 0 -0.093274829049746905 -0.28897707944045958 0 -0.090174700483665673 -0.26498018187443112 0 -0.10474757541744149 -0.26087495970427582 0 -0.1127895441811773 -0.27358429336009982 0 -0.090174700483665673 -0.26498018187443112 0 -0.1127895441811773 -0.27358429336009982 0 -0.1067008731150054 -0.28283902414649681 0 -0.093274829049746905 -0.28897707944045958 0 -0.1127895441811773 -0.27358429336009982 0 -0.093274829049746905 -0.28897707944045958 0 -0.1083869393769897 -0.28881425082071571 0 -0.102844379958099 -0.30028926102243358 0 -0.093274829049746905 -0.28897707944045958 0 -0.1127895441811773 -0.27358429336009982 0 -0.1083869393769897 -0.28881425082071571 0 -0.1067008731150054 -0.28283902414649681 0 -0.1083869393769897 -0.28881425082071571 0 -0.1067008731150054 -0.28283902414649681 0 -0.1083869393769897 -0.28881425082071571 0 -0.1067008731150054 -0.28283902414649681 0 -0.093274829049746905 -0.28897707944045958 0 -0.1127895441811773 -0.27358429336009982 0 -0.1083869393769897 -0.28881425082071571 0 -0.1194571486541455 -0.28746452468861589 0 -0.12994370463312691 -0.28995419054763111 0 -0.1194571486541455 -0.28746452468861589 0 -0.12304085188452731 -0.29931348820209958 0 -0.1083869393769897 -0.28881425082071571 0 -0.1194571486541455 -0.28746452468861589 0 -0.12304085188452731 -0.29931348820209958 0 -0.1159692764993048 -0.31568518943543378 0 -0.1083869393769897 -0.28881425082071571 0 -0.12304085188452731 -0.29931348820209958 0 -0.1159692764993048 -0.31568518943543378 0 -0.1083869393769897 -0.28881425082071571 0 -0.13033731665847181 -0.31286393971371201 0 -0.1159692764993048 -0.31568518943543378 0 -0.12304085188452731 -0.29931348820209958 0 -0.1159692764993048 -0.31568518943543378 0 -0.10079975883819629 -0.31506063040533638 0 -0.1083869393769897 -0.28881425082071571 0 -0.10079975883819629 -0.31506063040533638 0 -0.1083869393769897 -0.28881425082071571 0 -0.10079975883819629 -0.31506063040533638 0 -0.1083869393769897 -0.28881425082071571 0 -0.102844379958099 -0.30028926102243358 0 -0.10079975883819629 -0.31506063040533638 0 -0.102844379958099 -0.30028926102243358 0 -0.091873739319295072 -0.31122357941036211 0 -0.078544889372492196 -0.31002595631180607 0 -0.073760113918316481 -0.30436986552081963 0 -0.093274829049746905 -0.28897707944045958 0 -0.102844379958099 -0.30028926102243358 0 -0.078544889372492196 -0.31002595631180607 0 -0.093274829049746905 -0.28897707944045958 0 -0.102844379958099 -0.30028926102243358 0 -0.091873739319295072 -0.31122357941036211 0 -0.078544889372492196 -0.31002595631180607 0 -0.102844379958099 -0.30028926102243358 0 -0.078544889372492196 -0.31002595631180607 0 -0.078544889372492196 -0.31002595631180607 0 -0.073760113918316481 -0.30436986552081963 0 -0.05424539878688571 -0.319762651601179 0 -0.073760113918316481 -0.30436986552081963 0 -0.05424539878688571 -0.319762651601179 0 -0.073760113918316481 -0.30436986552081963 0 -0.071188273097670243 -0.28513602236808322 0 -0.055748641784298267 -0.30178875706485681 0 -0.073760113918316481 -0.30436986552081963 0 -0.071188273097670243 -0.28513602236808322 0 -0.093274829049746905 -0.28897707944045958 0 -0.073760113918316481 -0.30436986552081963 0 -0.093274829049746905 -0.28897707944045958 0 -0.071188273097670243 -0.28513602236808322 0 -0.093274829049746905 -0.28897707944045958 0 -0.090174700483665673 -0.26498018187443112 0 -0.071188273097670243 -0.28513602236808322 0 -0.063484538676239377 -0.26413124226689111 0 -0.090174700483665673 -0.26498018187443112 0 -0.063484538676239377 -0.26413124226689111 0 -0.076282262678724011 -0.24169347649274159 0 -0.063484538676239377 -0.26413124226689111 0 -0.090174700483665673 -0.26498018187443112 0 -0.076282262678724011 -0.24169347649274159 0 -0.036942597034766073 -0.27265489088473938 0 -0.050686814673754729 -0.28656900804104057 0 -0.0185119813334658 -0.28327625011988139 0 -0.038581934025118947 -0.25114857380685968 0 -0.038334603868346327 -0.2604973367990705 0 -0.03064478186574425 -0.25326356670072259 0 -0.038334603868346327 -0.2604973367990705 0 -0.029413390480137139 -0.26518294325465769 0 -0.03064478186574425 -0.25326356670072259 0 -0.038334603868346327 -0.2604973367990705 0 -0.046517308340487992 -0.25474718453952289 0 -0.048289188575406587 -0.26955092917192058 0 -0.038581934025118947 -0.25114857380685968 0 -0.038334603868346327 -0.2604973367990705 0 -0.046517308340487992 -0.25474718453952289 0 -0.063484538676239377 -0.26413124226689111 0 -0.046517308340487992 -0.25474718453952289 0 -0.0567919256119837 -0.24387644547435741 0 -0.063484538676239377 -0.26413124226689111 0 -0.046517308340487992 -0.25474718453952289 0 -0.048289188575406587 -0.26955092917192058 0 -0.063484538676239377 -0.26413124226689111 0 -0.050686814673754729 -0.28656900804104057 0 -0.071188273097670243 -0.28513602236808322 0 -0.063484538676239377 -0.26413124226689111 0 -0.050686814673754729 -0.28656900804104057 0 -0.063484538676239377 -0.26413124226689111 0 -0.048289188575406587 -0.26955092917192058 0 -0.050686814673754729 -0.28656900804104057 0 -0.048289188575406587 -0.26955092917192058 0 -0.036942597034766073 -0.27265489088473938 0 -0.050686814673754729 -0.28656900804104057 0 -0.038334603868346327 -0.2604973367990705 0 -0.048289188575406587 -0.26955092917192058 0 -0.036942597034766073 -0.27265489088473938 0 -0.038334603868346327 -0.2604973367990705 0 -0.036942597034766073 -0.27265489088473938 0 -0.029413390480137139 -0.26518294325465769 0 -0.050686814673754729 -0.28656900804104057 0 -0.037889090671270123 -0.30900677381518998 0 -0.0185119813334658 -0.28327625011988139 0 -0.071188273097670243 -0.28513602236808322 0 -0.050686814673754729 -0.28656900804104057 0 -0.055748641784298267 -0.30178875706485681 0 -0.073760113918316481 -0.30436986552081963 0 -0.055748641784298267 -0.30178875706485681 0 -0.05424539878688571 -0.319762651601179 0 -0.055748641784298267 -0.30178875706485681 0 -0.037889090671270123 -0.30900677381518998 0 -0.05424539878688571 -0.319762651601179 0 -0.050686814673754729 -0.28656900804104057 0 -0.055748641784298267 -0.30178875706485681 0 -0.037889090671270123 -0.30900677381518998 0 -0.050686814673754729 -0.28656900804104057 0 -0.037889090671270123 -0.30900677381518998 0 -0.037889090671270123 -0.30900677381518998 0 -0.014390974368570029 -0.31032982847088841 0 -0.0185119813334658 -0.28327625011988139 0 -0.014390974368570029 -0.31032982847088841 0 0.001904989571353899 -0.32214434476741449 0 0.0019518825097332619 -0.30029273945570772 0 -0.014390974368570029 -0.31032982847088841 0 -0.0185119813334658 -0.28327625011988139 0 0.0019518825097332619 -0.30029273945570772 0 -0.0185119813334658 -0.28327625011988139 0 -0.0020851015340006161 -0.28052611142458661 0 0.0019518825097332619 -0.30029273945570772 0 -0.014390974368570029 -0.31032982847088841 0 -0.0185119813334658 -0.28327625011988139 0 -0.036942597034766073 -0.27265489088473938 0 -0.0185119813334658 -0.28327625011988139 0 -0.029413390480137139 -0.26518294325465769 0 -0.0185119813334658 -0.28327625011988139 0 -0.02263298829836323 -0.25622267176887481 0 -0.029413390480137139 -0.26518294325465769 0 -0.0185119813334658 -0.28327625011988139 0 -0.02263298829836323 -0.25622267176887481 0 -0.0185119813334658 -0.28327625011988139 0 -0.0093077836028632385 -0.27105033158696179 0 -0.02263298829836323 -0.25622267176887481 0 -0.0185119813334658 -0.28327625011988139 0 -0.0020851015340006161 -0.28052611142458661 0 -0.0093077836028632385 -0.27105033158696179 0 -0.0020851015340006161 -0.28052611142458661 0 -0.0093077836028632385 -0.27105033158696179 0 0.0055944649301708496 -0.26664830233551728 0 -0.014059514610042069 -0.25416210053859828 0 -0.02263298829836323 -0.25622267176887481 0 0.0055944649301708496 -0.26664830233551728 0 -0.0093077836028632385 -0.27105033158696179 0 -0.02263298829836323 -0.25622267176887481 0 0.0055944649301708496 -0.26664830233551728 0 -0.02263298829836323 -0.25622267176887481 0 0.0055944649301708496 -0.26664830233551728 0 -0.014059514610042069 -0.25416210053859828 0 -0.0080727856436109482 -0.2481099565327444 0 0.0055944649301708496 -0.26664830233551728 0 -0.014059514610042069 -0.25416210053859828 0 -0.01887874476148543 -0.24814250919209771 0 -0.0080727856436109482 -0.2481099565327444 0 -0.014059514610042069 -0.25416210053859828 0 -0.02263298829836323 -0.25622267176887481 0 -0.02285766608625657 -0.25474770747244752 0 -0.014059514610042069 -0.25416210053859828 0 -0.02285766608625657 -0.25474770747244752 0 -0.01887874476148543 -0.24814250919209771 0 -0.02285766608625657 -0.25474770747244752 0 -0.026067501294639708 -0.24850247980592871 0 -0.01887874476148543 -0.24814250919209771 0 -0.02263298829836323 -0.25622267176887481 0 -0.02285766608625657 -0.25474770747244752 0 -0.02263298829836323 -0.25622267176887481 0 -0.029413390480137139 -0.26518294325465769 0 -0.03064478186574425 -0.25326356670072259 0 -0.02263298829836323 -0.25622267176887481 0 -0.03064478186574425 -0.25326356670072259 0 -0.02263298829836323 -0.25622267176887481 0 -0.02285766608625657 -0.25474770747244752 0 -0.03064478186574425 -0.25326356670072259 0 -0.02285766608625657 -0.25474770747244752 0 -0.03064478186574425 -0.25326356670072259 0 -0.026067501294639708 -0.24850247980592871 0 -0.040780788735907937 -0.34809370153295588 0 -0.035070660285960877 -0.35841379707961513 0 -0.051335308585544609 -0.35442186843706669 0 -0.040780788735907937 -0.34809370153295588 0 -0.033802973987086503 -0.33588719504380232 0 -0.029167969020145641 -0.35132386348016093 0 -0.040780788735907937 -0.34809370153295588 0 -0.035070660285960877 -0.35841379707961513 0 -0.029167969020145641 -0.35132386348016093 0 -0.035070660285960877 -0.35841379707961513 0 -0.040000350022935588 -0.37213681664196291 0 -0.021437446366364531 -0.36359117576668931 0 -0.035070660285960877 -0.35841379707961513 0 -0.058387822440418388 -0.36975607908058028 0 -0.035070660285960877 -0.35841379707961513 0 -0.040000350022935588 -0.37213681664196291 0 -0.058387822440418388 -0.36975607908058028 0 -0.040000350022935588 -0.37213681664196291 0 -0.058387822440418388 -0.36975607908058028 0 -0.058563253679506787 -0.38068245751723601 0 -0.035070660285960877 -0.35841379707961513 0 -0.058387822440418388 -0.36975607908058028 0 -0.051335308585544609 -0.35442186843706669 0 -0.066522813126512412 -0.35680227137673098 0 -0.058387822440418388 -0.36975607908058028 0 -0.051335308585544609 -0.35442186843706669 0 -0.066522813126512412 -0.35680227137673098 0 -0.051335308585544609 -0.35442186843706669 0 -0.054527031800802053 -0.34042178362413461 0 -0.040780788735907937 -0.34809370153295588 0 -0.051335308585544609 -0.35442186843706669 0 -0.054527031800802053 -0.34042178362413461 0 -0.066882954587322394 -0.32486941793266988 0 -0.054527031800802053 -0.34042178362413461 0 -0.05424539878688571 -0.319762651601179 0 -0.054527031800802053 -0.34042178362413461 0 -0.05424539878688571 -0.319762651601179 0 -0.033802973987086503 -0.33588719504380232 0 -0.05424539878688571 -0.319762651601179 0 -0.039668382727836717 -0.32560359559526031 0 -0.05424539878688571 -0.319762651601179 0 -0.033802973987086503 -0.33588719504380232 0 -0.037889090671270123 -0.30900677381518998 0 -0.025091366668787349 -0.3314445395893405 0 -0.05424539878688571 -0.319762651601179 0 -0.039668382727836717 -0.32560359559526031 0 -0.033802973987086503 -0.33588719504380232 0 -0.037889090671270123 -0.30900677381518998 0 -0.05424539878688571 -0.319762651601179 0 -0.039668382727836717 -0.32560359559526031 0 -0.037889090671270123 -0.30900677381518998 0 -0.039668382727836717 -0.32560359559526031 0 -0.025091366668787349 -0.3314445395893405 0 -0.040780788735907937 -0.34809370153295588 0 -0.054527031800802053 -0.34042178362413461 0 -0.033802973987086503 -0.33588719504380232 0 -0.039668382727836717 -0.32560359559526031 0 -0.025091366668787349 -0.3314445395893405 0 -0.039668382727836717 -0.32560359559526031 0 -0.033802973987086503 -0.33588719504380232 0 -0.025091366668787349 -0.3314445395893405 0 -0.025091366668787349 -0.3314445395893405 0 -0.01336054918728761 -0.35201173848642592 0 -0.033802973987086503 -0.33588719504380232 0 -0.025091366668787349 -0.3314445395893405 0 -0.01336054918728761 -0.35201173848642592 0 -0.025091366668787349 -0.3314445395893405 0 -0.01532372128421448 -0.33535839064186268 0 -0.01336054918728761 -0.35201173848642592 0 -0.025091366668787349 -0.3314445395893405 0 -0.022734703789933738 -0.32728556430890232 0 -0.01532372128421448 -0.33535839064186268 0 -0.025091366668787349 -0.3314445395893405 0 -0.01532372128421448 -0.33535839064186268 0 -0.022734703789933738 -0.32728556430890232 0 -0.01532372128421448 -0.33535839064186268 0 -0.037889090671270123 -0.30900677381518998 0 -0.014390974368570029 -0.31032982847088841 0 -0.022734703789933738 -0.32728556430890232 0 -0.037889090671270123 -0.30900677381518998 0 -0.025091366668787349 -0.3314445395893405 0 -0.022734703789933738 -0.32728556430890232 0 -0.014390974368570029 -0.31032982847088841 0 -0.022734703789933738 -0.32728556430890232 0 -0.01532372128421448 -0.33535839064186268 0 -0.014390974368570029 -0.31032982847088841 0 -0.010269967403673339 -0.33738340682189533 0 -0.014390974368570029 -0.31032982847088841 0 -0.010269967403673339 -0.33738340682189533 0 -0.01532372128421448 -0.33535839064186268 0 -0.014390974368570029 -0.31032982847088841 0 -0.010269967403673339 -0.33738340682189533 0 0.001904989571353899 -0.32214434476741449 0 -0.010269967403673339 -0.33738340682189533 0 -0.0096343958099064687 -0.34155580596031437 0 0.0075807645751098419 -0.34453611388615663 0 -0.010269967403673339 -0.33738340682189533 0 0.0075807645751098419 -0.34453611388615663 0 -0.0096343958099064687 -0.34155580596031437 0 -0.01532372128421448 -0.33535839064186268 0 -0.01336054918728761 -0.35201173848642592 0 -0.010269967403673339 -0.33738340682189533 0 -0.0096343958099064687 -0.34155580596031437 0 -0.010269967403673339 -0.33738340682189533 0 -0.0096343958099064687 -0.34155580596031437 0 -0.01532372128421448 -0.33535839064186268 0 -0.0096343958099064687 -0.34155580596031437 0 -0.01532372128421448 -0.33535839064186268 0 -0.010269967403673339 -0.33738340682189533 0 -0.01532372128421448 -0.33535839064186268 0 -0.010269967403673339 -0.33738340682189533 0 0.0034794820758208261 -0.33361449123698089 0 0.001904989571353899 -0.32214434476741449 0 -0.0096343958099064687 -0.34155580596031437 0 -0.0070150904897389628 -0.35875101633193152 0 -0.0096343958099064687 -0.34155580596031437 0 -0.0070150904897389628 -0.35875101633193152 0 -0.01336054918728761 -0.35201173848642592 0 -0.0096343958099064687 -0.34155580596031437 0 -0.0070150904897389628 -0.35875101633193152 0 0.0099352179383349771 -0.36287309999936251 0 -0.033802973987086503 -0.33588719504380232 0 -0.01336054918728761 -0.35201173848642592 0 -0.029167969020145641 -0.35132386348016093 0 -0.01336054918728761 -0.35201173848642592 0 -0.029167969020145641 -0.35132386348016093 0 -0.021437446366364531 -0.36359117576668931 0 -0.033802973987086503 -0.33588719504380232 0 -0.01336054918728761 -0.35201173848642592 0 -0.035070660285960877 -0.35841379707961513 0 -0.029167969020145641 -0.35132386348016093 0 -0.021437446366364531 -0.36359117576668931 0 -0.040000350022935588 -0.37213681664196291 0 -0.021437446366364531 -0.36359117576668931 0 -0.02618172091304426 -0.37743656618445498 0 -0.021437446366364531 -0.36359117576668931 0 -0.002178803782163227 -0.37161627006544062 0 -0.02618172091304426 -0.37743656618445498 0 -0.040000350022935588 -0.37213681664196291 0 -0.021437446366364531 -0.36359117576668931 0 -0.01336054918728761 -0.35201173848642592 0 -0.021437446366364531 -0.36359117576668931 0 -0.002178803782163227 -0.37161627006544062 0 -0.01336054918728761 -0.35201173848642592 0 -0.002178803782163227 -0.37161627006544062 0 -0.0070150904897389628 -0.35875101633193152 0 -0.01336054918728761 -0.35201173848642592 0 -0.002178803782163227 -0.37161627006544062 0 -0.002178803782163227 -0.37161627006544062 0 -0.026336278995230201 -0.38905167830789189 0 -0.002178803782163227 -0.37161627006544062 0 -0.0066930742226519926 -0.39143820132839208 0 -0.026336278995230201 -0.38905167830789189 0 -0.0066930742226519926 -0.39143820132839208 0 -0.001728596279610697 -0.40597762003102339 0 -0.017737199096442072 -0.40073047040120602 0 -0.0066930742226519926 -0.39143820132839208 0 -0.017737199096442072 -0.40073047040120602 0 -0.026336278995230201 -0.38905167830789189 0 -0.017737199096442072 -0.40073047040120602 0 -0.026336278995230201 -0.38905167830789189 0 -0.033287388117186109 -0.40399871831440642 0 -0.002178803782163227 -0.37161627006544062 0 -0.026336278995230201 -0.38905167830789189 0 -0.02618172091304426 -0.37743656618445498 0 -0.026336278995230201 -0.38905167830789189 0 -0.02618172091304426 -0.37743656618445498 0 -0.033482850758781962 -0.383939184607547 0 -0.02618172091304426 -0.37743656618445498 0 -0.042372487296275553 -0.37905951185084519 0 -0.033482850758781962 -0.383939184607547 0 -0.02618172091304426 -0.37743656618445498 0 -0.042372487296275553 -0.37905951185084519 0 -0.040000350022935588 -0.37213681664196291 0 -0.02618172091304426 -0.37743656618445498 0 -0.042372487296275553 -0.37905951185084519 0 -0.042372487296275553 -0.37905951185084519 0 -0.039040915830577852 -0.39020898208699611 0 -0.049048127186911553 -0.38756594990863991 0 -0.042372487296275553 -0.37905951185084519 0 -0.039040915830577852 -0.39020898208699611 0 -0.033482850758781962 -0.383939184607547 0 -0.026336278995230201 -0.38905167830789189 0 -0.039040915830577852 -0.39020898208699611 0 -0.033482850758781962 -0.383939184607547 0 -0.026336278995230201 -0.38905167830789189 0 -0.050493754208297943 -0.40648708655034188 0 -0.039040915830577852 -0.39020898208699611 0 -0.048181286987745188 -0.3967611761759377 0 -0.050493754208297943 -0.40648708655034188 0 -0.026336278995230201 -0.38905167830789189 0 -0.039040915830577852 -0.39020898208699611 0 -0.050493754208297943 -0.40648708655034188 0 -0.026336278995230201 -0.38905167830789189 0 -0.033287388117186109 -0.40399871831440642 0 -0.050493754208297943 -0.40648708655034188 0 -0.039040915830577852 -0.39020898208699611 0 -0.048181286987745188 -0.3967611761759377 0 -0.049048127186911553 -0.38756594990863991 0 -0.048181286987745188 -0.3967611761759377 0 -0.055512870853615448 -0.39455951290216967 0 -0.049048127186911553 -0.38756594990863991 0 -0.055512870853615448 -0.39455951290216967 0 -0.052509649903146327 -0.40794203844841681 0 -0.074281153156084773 -0.38791836881244668 0 -0.048181286987745188 -0.3967611761759377 0 -0.055512870853615448 -0.39455951290216967 0 -0.050493754208297943 -0.40648708655034188 0 -0.055512870853615448 -0.39455951290216967 0 -0.052509649903146327 -0.40794203844841681 0 -0.050493754208297943 -0.40648708655034188 0 -0.048181286987745188 -0.3967611761759377 0 -0.050493754208297943 -0.40648708655034188 0 -0.040000350022935588 -0.37213681664196291 0 -0.042372487296275553 -0.37905951185084519 0 -0.058563253679506787 -0.38068245751723601 0 -0.042372487296275553 -0.37905951185084519 0 -0.058563253679506787 -0.38068245751723601 0 -0.040000350022935588 -0.37213681664196291 0 -0.058563253679506787 -0.38068245751723601 0 -0.042372487296275553 -0.37905951185084519 0 -0.058563253679506787 -0.38068245751723601 0 -0.049048127186911553 -0.38756594990863991 0 -0.055512870853615448 -0.39455951290216967 0 -0.058563253679506787 -0.38068245751723601 0 -0.049048127186911553 -0.38756594990863991 0 -0.055571169944573007 -0.4278419796903028 0 -0.060002998013559863 -0.44648162232419802 0 -0.069408814394604765 -0.42365151461769918 0 -0.055571169944573007 -0.4278419796903028 0 -0.060002998013559863 -0.44648162232419802 0 -0.055571169944573007 -0.4278419796903028 0 -0.04142135733128624 -0.43391233418184683 0 -0.048623679129421588 -0.44273110985945369 0 -0.055571169944573007 -0.4278419796903028 0 -0.059775586818595829 -0.41787661413097049 0 -0.069408814394604765 -0.42365151461769918 0 -0.055571169944573007 -0.4278419796903028 0 -0.059775586818595829 -0.41787661413097049 0 -0.052509649903146327 -0.40794203844841681 0 -0.055571169944573007 -0.4278419796903028 0 -0.052509649903146327 -0.40794203844841681 0 -0.038621424185474637 -0.4207153063468223 0 -0.055571169944573007 -0.4278419796903028 0 -0.052509649903146327 -0.40794203844841681 0 -0.052509649903146327 -0.40794203844841681 0 -0.070248957975066639 -0.42074520084202788 0 -0.059775586818595829 -0.41787661413097049 0 -0.052509649903146327 -0.40794203844841681 0 -0.070248957975066639 -0.42074520084202788 0 -0.052509649903146327 -0.40794203844841681 0 -0.050493754208297943 -0.40648708655034188 0 -0.041470954428671609 -0.41006675355118111 0 -0.052509649903146327 -0.40794203844841681 0 -0.050493754208297943 -0.40648708655034188 0 -0.052509649903146327 -0.40794203844841681 0 -0.038621424185474637 -0.4207153063468223 0 -0.033287388117186109 -0.40399871831440642 0 -0.050493754208297943 -0.40648708655034188 0 -0.041470954428671609 -0.41006675355118111 0 -0.052509649903146327 -0.40794203844841681 0 -0.041470954428671609 -0.41006675355118111 0 -0.038621424185474637 -0.4207153063468223 0 -0.033287388117186109 -0.40399871831440642 0 -0.041470954428671609 -0.41006675355118111 0 -0.027792962261932352 -0.41547375898907968 0 -0.041470954428671609 -0.41006675355118111 0 -0.038621424185474637 -0.4207153063468223 0 -0.027792962261932352 -0.41547375898907968 0 -0.055571169944573007 -0.4278419796903028 0 -0.038621424185474637 -0.4207153063468223 0 -0.04142135733128624 -0.43391233418184683 0 -0.038621424185474637 -0.4207153063468223 0 -0.026103506495360269 -0.43222827563723731 0 -0.038621424185474637 -0.4207153063468223 0 -0.04142135733128624 -0.43391233418184683 0 -0.026103506495360269 -0.43222827563723731 0 -0.04142135733128624 -0.43391233418184683 0 -0.026103506495360269 -0.43222827563723731 0 -0.035662081446574762 -0.44437129177822371 0 -0.026103506495360269 -0.43222827563723731 0 -0.027792962261932352 -0.41547375898907968 0 -0.009537301248459449 -0.42510302968362512 0 -0.026103506495360269 -0.43222827563723731 0 -0.009537301248459449 -0.42510302968362512 0 -0.019709463090837601 -0.44530454005801179 0 -0.038621424185474637 -0.4207153063468223 0 -0.026103506495360269 -0.43222827563723731 0 -0.027792962261932352 -0.41547375898907968 0 -0.017737199096442072 -0.40073047040120602 0 -0.027792962261932352 -0.41547375898907968 0 -0.009537301248459449 -0.42510302968362512 0 -0.017737199096442072 -0.40073047040120602 0 -0.033287388117186109 -0.40399871831440642 0 -0.027792962261932352 -0.41547375898907968 0 -0.001728596279610697 -0.40597762003102339 0 -0.017737199096442072 -0.40073047040120602 0 -0.009537301248459449 -0.42510302968362512 0 -0.017737199096442072 -0.40073047040120602 0 -0.009537301248459449 -0.42510302968362512 0 -0.001728596279610697 -0.40597762003102339 0 -0.009537301248459449 -0.42510302968362512 0 0.0082246319185010179 -0.41465428951275207 0 -0.009537301248459449 -0.42510302968362512 0 -0.0013374034004768371 -0.44947558896604423 0 -0.009537301248459449 -0.42510302968362512 0 -0.0013374034004768371 -0.44947558896604423 0 0.01039378864355619 -0.42848339288335913 0 -0.009537301248459449 -0.42510302968362512 0 -0.0013374034004768371 -0.44947558896604423 0 -0.019709463090837601 -0.44530454005801179 0 -0.0013374034004768371 -0.44947558896604423 0 -0.014612752260004851 -0.46155177919014362 0 -0.019709463090837601 -0.44530454005801179 0 -0.0013374034004768371 -0.44947558896604423 0 -0.014612752260004851 -0.46155177919014362 0 0.0068624944475057766 -0.47384814824846327 0 -0.014612752260004851 -0.46155177919014362 0 -0.028521420705905499 -0.4674310816654948 0 -0.030789477839635839 -0.45543267362212791 0 -0.014612752260004851 -0.46155177919014362 0 -0.030789477839635839 -0.45543267362212791 0 -0.019709463090837601 -0.44530454005801179 0 -0.030789477839635839 -0.45543267362212791 0 -0.019709463090837601 -0.44530454005801179 0 -0.035662081446574762 -0.44437129177822371 0 -0.026103506495360269 -0.43222827563723731 0 -0.019709463090837601 -0.44530454005801179 0 -0.035662081446574762 -0.44437129177822371 0 -0.015217900669161011 -0.5 0 -0.01418124297067914 -0.47781864258071971 0 0.0024053695883212941 -0.48891336768777249 0 -0.01418124297067914 -0.47781864258071971 0 0.0068624944475057766 -0.47384814824846327 0 0.0024053695883212941 -0.48891336768777249 0 -0.014612752260004851 -0.46155177919014362 0 -0.01418124297067914 -0.47781864258071971 0 0.0068624944475057766 -0.47384814824846327 0 -0.014612752260004851 -0.46155177919014362 0 -0.028521420705905499 -0.4674310816654948 0 -0.01418124297067914 -0.47781864258071971 0 -0.028521420705905499 -0.4674310816654948 0 -0.01418124297067914 -0.47781864258071971 0 -0.027752274071966478 -0.47742461628286209 0 -0.015217900669161011 -0.5 0 -0.027752274071966478 -0.47742461628286209 0 -0.038171784631523778 -0.48284131767108018 0 -0.015217900669161011 -0.5 0 -0.01418124297067914 -0.47781864258071971 0 -0.027752274071966478 -0.47742461628286209 0 -0.015217900669161011 -0.5 0 -0.043972809743024373 -0.5 0 -0.038171784631523778 -0.48284131767108018 0 -0.043972809743024373 -0.5 0 -0.038171784631523778 -0.48284131767108018 0 -0.049841179956411519 -0.48183723669954598 0 -0.038171784631523778 -0.48284131767108018 0 -0.048675315621036823 -0.47094071089761919 0 -0.038171784631523778 -0.48284131767108018 0 -0.048675315621036823 -0.47094071089761919 0 -0.049841179956411519 -0.48183723669954598 0 -0.027752274071966478 -0.47742461628286209 0 -0.038171784631523778 -0.48284131767108018 0 -0.038764373548703768 -0.47063519779216179 0 -0.028521420705905499 -0.4674310816654948 0 -0.027752274071966478 -0.47742461628286209 0 -0.038764373548703768 -0.47063519779216179 0 -0.038764373548703768 -0.47063519779216179 0 -0.048675315621036823 -0.47094071089761919 0 -0.045335619097383061 -0.46570514195792412 0 -0.038171784631523778 -0.48284131767108018 0 -0.038764373548703768 -0.47063519779216179 0 -0.048675315621036823 -0.47094071089761919 0 -0.048675315621036823 -0.47094071089761919 0 -0.055120034750126161 -0.47128965669693351 0 -0.049841179956411519 -0.48183723669954598 0 -0.048675315621036823 -0.47094071089761919 0 -0.055120034750126161 -0.47128965669693351 0 -0.057384894248553399 -0.46524593439390849 0 -0.055120034750126161 -0.47128965669693351 0 -0.059149819292987238 -0.47777467248794547 0 -0.064422500494955764 -0.4650694252783244 0 -0.059149819292987238 -0.47777467248794547 0 -0.049841179956411519 -0.48183723669954598 0 -0.058853327493046781 -0.48842932436532971 0 -0.055120034750126161 -0.47128965669693351 0 -0.059149819292987238 -0.47777467248794547 0 -0.049841179956411519 -0.48183723669954598 0 -0.059149819292987238 -0.47777467248794547 0 -0.058853327493046781 -0.48842932436532971 0 -0.068575109655922298 -0.48253471263916042 0 -0.043972809743024373 -0.5 0 -0.058853327493046781 -0.48842932436532971 0 -0.072727718816887776 -0.49999999999999672 0 -0.043972809743024373 -0.5 0 -0.049841179956411519 -0.48183723669954598 0 -0.058853327493046781 -0.48842932436532971 0 -0.045123684251444827 -0.45223268167437758 0 -0.035662081446574762 -0.44437129177822371 0 -0.048623679129421588 -0.44273110985945369 0 -0.04142135733128624 -0.43391233418184683 0 -0.035662081446574762 -0.44437129177822371 0 -0.048623679129421588 -0.44273110985945369 0 -0.030789477839635839 -0.45543267362212791 0 -0.045123684251444827 -0.45223268167437758 0 -0.035662081446574762 -0.44437129177822371 0 -0.030789477839635839 -0.45543267362212791 0 -0.045123684251444827 -0.45223268167437758 0 -0.04007978340352341 -0.46172459869688548 0 -0.028521420705905499 -0.4674310816654948 0 -0.030789477839635839 -0.45543267362212791 0 -0.04007978340352341 -0.46172459869688548 0 -0.028521420705905499 -0.4674310816654948 0 -0.038764373548703768 -0.47063519779216179 0 -0.04007978340352341 -0.46172459869688548 0 -0.038764373548703768 -0.47063519779216179 0 -0.04007978340352341 -0.46172459869688548 0 -0.045335619097383061 -0.46570514195792412 0 -0.04007978340352341 -0.46172459869688548 0 -0.045335619097383061 -0.46570514195792412 0 -0.047248161051959649 -0.4591011094540644 0 -0.045123684251444827 -0.45223268167437758 0 -0.04007978340352341 -0.46172459869688548 0 -0.047248161051959649 -0.4591011094540644 0 -0.045123684251444827 -0.45223268167437758 0 -0.050581796861615229 -0.45333412325219669 0 -0.047248161051959649 -0.4591011094540644 0 -0.050581796861615229 -0.45333412325219669 0 -0.047248161051959649 -0.4591011094540644 0 -0.051910461861691633 -0.46612409294888979 0 -0.051910461861691633 -0.46612409294888979 0 -0.05917884661055 -0.4590401041241583 0 -0.060002998013559863 -0.44648162232419802 0 -0.051910461861691633 -0.46612409294888979 0 -0.060002998013559863 -0.44648162232419802 0 -0.050581796861615229 -0.45333412325219669 0 -0.051910461861691633 -0.46612409294888979 0 -0.060002998013559863 -0.44648162232419802 0 -0.048675315621036823 -0.47094071089761919 0 -0.05917884661055 -0.4590401041241583 0 -0.048675315621036823 -0.47094071089761919 0 -0.051910461861691633 -0.46612409294888979 0 -0.05917884661055 -0.4590401041241583 0 -0.048675315621036823 -0.47094071089761919 0 -0.045335619097383061 -0.46570514195792412 0 -0.051910461861691633 -0.46612409294888979 0 -0.045335619097383061 -0.46570514195792412 0 -0.047248161051959649 -0.4591011094540644 0 -0.051910461861691633 -0.46612409294888979 0 -0.055120034750126161 -0.47128965669693351 0 -0.057384894248553399 -0.46524593439390849 0 -0.064422500494955764 -0.4650694252783244 0 -0.048675315621036823 -0.47094071089761919 0 -0.057384894248553399 -0.46524593439390849 0 -0.05917884661055 -0.4590401041241583 0 -0.057384894248553399 -0.46524593439390849 0 -0.05917884661055 -0.4590401041241583 0 -0.059237257045792073 -0.46090013765886428 0 -0.064422500494955764 -0.4650694252783244 0 -0.057384894248553399 -0.46524593439390849 0 -0.059237257045792073 -0.46090013765886428 0 -0.064422500494955764 -0.4650694252783244 0 -0.057384894248553399 -0.46524593439390849 0 -0.059237257045792073 -0.46090013765886428 0 -0.05917884661055 -0.4590401041241583 0 -0.059237257045792073 -0.46090013765886428 0 -0.062180371227510647 -0.45563934639583059 0 -0.064422500494955764 -0.4650694252783244 0 -0.059237257045792073 -0.46090013765886428 0 -0.05917884661055 -0.4590401041241583 0 -0.062180371227510647 -0.45563934639583059 0 -0.05917884661055 -0.4590401041241583 0 -0.062180371227510647 -0.45563934639583059 0 -0.05917884661055 -0.4590401041241583 0 -0.061269440441321127 -0.45180810022505591 0 -0.05917884661055 -0.4590401041241583 0 -0.062180371227510647 -0.45563934639583059 0 -0.061269440441321127 -0.45180810022505591 0 -0.062180371227510647 -0.45563934639583059 0 -0.061269440441321127 -0.45180810022505591 0 -0.055571169944573007 -0.4278419796903028 0 -0.060002998013559863 -0.44648162232419802 0 -0.048623679129421588 -0.44273110985945369 0 -0.05917884661055 -0.4590401041241583 0 -0.061269440441321127 -0.45180810022505591 0 -0.060002998013559863 -0.44648162232419802 0 -0.061269440441321127 -0.45180810022505591 0 -0.060002998013559863 -0.44648162232419802 0 -0.050581796861615229 -0.45333412325219669 0 -0.060002998013559863 -0.44648162232419802 0 -0.048623679129421588 -0.44273110985945369 0 -0.045123684251444827 -0.45223268167437758 0 -0.050581796861615229 -0.45333412325219669 0 -0.048623679129421588 -0.44273110985945369 0 -0.061269440441321127 -0.45180810022505591 0 -0.069408814394604765 -0.42365151461769918 0 -0.062180371227510647 -0.45563934639583059 0 -0.061269440441321127 -0.45180810022505591 0 -0.077098496045509793 -0.43873696019506903 0 -0.062180371227510647 -0.45563934639583059 0 -0.077098496045509793 -0.43873696019506903 0 -0.073769461018799692 -0.45951707792468061 0 -0.061269440441321127 -0.45180810022505591 0 -0.077098496045509793 -0.43873696019506903 0 -0.069408814394604765 -0.42365151461769918 0 -0.061269440441321127 -0.45180810022505591 0 -0.060002998013559863 -0.44648162232419802 0 -0.069408814394604765 -0.42365151461769918 0 -0.062180371227510647 -0.45563934639583059 0 -0.077098496045509793 -0.43873696019506903 0 -0.062180371227510647 -0.45563934639583059 0 -0.064422500494955764 -0.4650694252783244 0 -0.062180371227510647 -0.45563934639583059 0 -0.064422500494955764 -0.4650694252783244 0 -0.073769461018799692 -0.45951707792468061 0 -0.084521355142842869 -0.45759592347480388 0 -0.086143661312174283 -0.48253471263916248 0 -0.099165393688022629 -0.46120376842987459 0 -0.073769461018799692 -0.45951707792468061 0 -0.084521355142842869 -0.45759592347480388 0 -0.086143661312174283 -0.48253471263916248 0 -0.084521355142842869 -0.45759592347480388 0 -0.089624247433654214 -0.44685599598904568 0 -0.099165393688022629 -0.46120376842987459 0 -0.077098496045509793 -0.43873696019506903 0 -0.084521355142842869 -0.45759592347480388 0 -0.089624247433654214 -0.44685599598904568 0 -0.077098496045509793 -0.43873696019506903 0 -0.073769461018799692 -0.45951707792468061 0 -0.084521355142842869 -0.45759592347480388 0 -0.089624247433654214 -0.44685599598904568 0 -0.099878095611554862 -0.4393977270813314 0 -0.089545628933694749 -0.43673796215895883 0 -0.077098496045509793 -0.43873696019506903 0 -0.089624247433654214 -0.44685599598904568 0 -0.089545628933694749 -0.43673796215895883 0 -0.072727718816887776 -0.49999999999999672 0 -0.068575109655922298 -0.48253471263916042 0 -0.058853327493046781 -0.48842932436532971 0 -0.072727718816887776 -0.49999999999999672 0 -0.068575109655922298 -0.48253471263916042 0 -0.072727718816887776 -0.49999999999999672 0 -0.068575109655922298 -0.48253471263916042 0 -0.086143661312174283 -0.48253471263916248 0 -0.064422500494955764 -0.4650694252783244 0 -0.068575109655922298 -0.48253471263916042 0 -0.059149819292987238 -0.47777467248794547 0 -0.064422500494955764 -0.4650694252783244 0 -0.068575109655922298 -0.48253471263916042 0 -0.064422500494955764 -0.4650694252783244 0 -0.073769461018799692 -0.45951707792468061 0 -0.086143661312174283 -0.48253471263916248 0 -0.064422500494955764 -0.4650694252783244 0 -0.068575109655922298 -0.48253471263916042 0 -0.086143661312174283 -0.48253471263916248 0 -0.064422500494955764 -0.4650694252783244 0 -0.086143661312174283 -0.48253471263916248 0 -0.072727718816887776 -0.49999999999999672 0 -0.086143661312174283 -0.48253471263916248 0 -0.090296270473140428 -0.5 0 -0.086143661312174283 -0.48253471263916248 0 -0.090296270473140428 -0.5 0 -0.10786482212939311 -0.50000000000000011 0 -0.086143661312174283 -0.48253471263916248 0 -0.10786482212939311 -0.50000000000000011 0 -0.086143661312174283 -0.48253471263916248 0 -0.10786482212939311 -0.50000000000000011 0 -0.1056577076014347 -0.47999846360012538 0 -0.086143661312174283 -0.48253471263916248 0 -0.1056577076014347 -0.47999846360012538 0 -0.099165393688022629 -0.46120376842987459 0 -0.1056577076014347 -0.47999846360012538 0 -0.12108079434187891 -0.47202921183540031 0 -0.099165393688022629 -0.46120376842987459 0 -0.1056577076014347 -0.47999846360012538 0 -0.12108079434187891 -0.47202921183540031 0 -0.1206292342060253 -0.48641385964910883 0 -0.131118449396015 -0.5 0 -0.10786482212939311 -0.50000000000000011 0 -0.1206292342060253 -0.48641385964910883 0 -0.10786482212939311 -0.50000000000000011 0 -0.1056577076014347 -0.47999846360012538 0 -0.1206292342060253 -0.48641385964910883 0 -0.099878095611554862 -0.4393977270813314 0 -0.099165393688022629 -0.46120376842987459 0 -0.099878095611554862 -0.4393977270813314 0 -0.099165393688022629 -0.46120376842987459 0 -0.11615585050415531 -0.45102464773050138 0 -0.089624247433654214 -0.44685599598904568 0 -0.099878095611554862 -0.4393977270813314 0 -0.099165393688022629 -0.46120376842987459 0 -0.12108079434187891 -0.47202921183540031 0 -0.099165393688022629 -0.46120376842987459 0 -0.11615585050415531 -0.45102464773050138 0 -0.13077987840644981 -0.46069854066347632 0 -0.12108079434187891 -0.47202921183540031 0 -0.11615585050415531 -0.45102464773050138 0 -0.13194602454298601 -0.43962244526902572 0 -0.11615585050415531 -0.45102464773050138 0 -0.1129403580353462 -0.43280081863281078 0 -0.099878095611554862 -0.4393977270813314 0 -0.11615585050415531 -0.45102464773050138 0 -0.1129403580353462 -0.43280081863281078 0 -0.13194602454298601 -0.43962244526902572 0 -0.1165997240041481 -0.41847011486561592 0 -0.13194602454298601 -0.43962244526902572 0 -0.1129403580353462 -0.43280081863281078 0 -0.1165997240041481 -0.41847011486561592 0 -0.1129403580353462 -0.43280081863281078 0 -0.1079125428112538 -0.41892639524425412 0 -0.1165997240041481 -0.41847011486561592 0 -0.099878095611554862 -0.4393977270813314 0 -0.100590797535087 -0.41759168573278821 0 -0.092016620863508841 -0.4218345739943074 0 -0.099878095611554862 -0.4393977270813314 0 -0.089545628933694749 -0.43673796215895883 0 -0.092016620863508841 -0.4218345739943074 0 -0.099878095611554862 -0.4393977270813314 0 -0.1129403580353462 -0.43280081863281078 0 -0.10283731640903 -0.42510314405888588 0 -0.099878095611554862 -0.4393977270813314 0 -0.100590797535087 -0.41759168573278821 0 -0.099878095611554862 -0.4393977270813314 0 -0.10283731640903 -0.42510314405888588 0 -0.100590797535087 -0.41759168573278821 0 -0.1129403580353462 -0.43280081863281078 0 -0.10283731640903 -0.42510314405888588 0 -0.1079125428112538 -0.41892639524425412 0 -0.100590797535087 -0.41759168573278821 0 -0.1012534234653099 -0.39731778446220639 0 -0.1165997240041481 -0.41847011486561592 0 -0.1012534234653099 -0.39731778446220639 0 -0.100590797535087 -0.41759168573278821 0 -0.094499944748829334 -0.39722631626938482 0 -0.088610052547492879 -0.41006814396079783 0 -0.100590797535087 -0.41759168573278821 0 -0.1079125428112538 -0.41892639524425412 0 -0.1012534234653099 -0.39731778446220639 0 -0.100590797535087 -0.41759168573278821 0 -0.094499944748829334 -0.39722631626938482 0 -0.1079125428112538 -0.41892639524425412 0 -0.1165997240041481 -0.41847011486561592 0 -0.1012534234653099 -0.39731778446220639 0 -0.10283731640903 -0.42510314405888588 0 -0.100590797535087 -0.41759168573278821 0 -0.1079125428112538 -0.41892639524425412 0 -0.10283731640903 -0.42510314405888588 0 -0.100590797535087 -0.41759168573278821 0 -0.12592730430259419 -0.40432488328170318 0 -0.1165997240041481 -0.41847011486561592 0 -0.1152538145686829 -0.39895411709426332 0 -0.1165997240041481 -0.41847011486561592 0 -0.1152538145686829 -0.39895411709426332 0 -0.1012534234653099 -0.39731778446220639 0 -0.12526638733901391 -0.39147447277512609 0 -0.12592730430259419 -0.40432488328170318 0 -0.1152538145686829 -0.39895411709426332 0 -0.12526638733901391 -0.39147447277512609 0 -0.1152538145686829 -0.39895411709426332 0 -0.1147112201852714 -0.38836266809632891 0 -0.1152538145686829 -0.39895411709426332 0 -0.1147112201852714 -0.38836266809632891 0 -0.1077648281157602 -0.39377477908459929 0 -0.12526638733901391 -0.39147447277512609 0 -0.12201267174342199 -0.37938718301114999 0 -0.1147112201852714 -0.38836266809632891 0 -0.1147112201852714 -0.38836266809632891 0 -0.1094440337948836 -0.37923577087639421 0 -0.1073228884697877 -0.3875649225559597 0 -0.1147112201852714 -0.38836266809632891 0 -0.1073228884697877 -0.3875649225559597 0 -0.1077648281157602 -0.39377477908459929 0 -0.12201267174342199 -0.37938718301114999 0 -0.1147112201852714 -0.38836266809632891 0 -0.1094440337948836 -0.37923577087639421 0 -0.1159926709000937 -0.36685414663024191 0 -0.12201267174342199 -0.37938718301114999 0 -0.1094440337948836 -0.37923577087639421 0 -0.1024060606807759 -0.36205135125861898 0 -0.1094440337948836 -0.37923577087639421 0 -0.1016559479587178 -0.38500202459504551 0 -0.1094440337948836 -0.37923577087639421 0 -0.1016559479587178 -0.38500202459504551 0 -0.1073228884697877 -0.3875649225559597 0 -0.1016559479587178 -0.38500202459504551 0 -0.1014693111655476 -0.390712419775258 0 -0.1016559479587178 -0.38500202459504551 0 -0.1073228884697877 -0.3875649225559597 0 -0.1014693111655476 -0.390712419775258 0 -0.1016559479587178 -0.38500202459504551 0 -0.091585827134305964 -0.3839926061052007 0 -0.1016559479587178 -0.38500202459504551 0 -0.1014693111655476 -0.390712419775258 0 -0.093729726096669103 -0.3869476153003294 0 -0.1016559479587178 -0.38500202459504551 0 -0.091585827134305964 -0.3839926061052007 0 -0.093729726096669103 -0.3869476153003294 0 -0.1014693111655476 -0.390712419775258 0 -0.093729726096669103 -0.3869476153003294 0 -0.1016559479587178 -0.38500202459504551 0 -0.095426438310298192 -0.37780241062099151 0 -0.091585827134305964 -0.3839926061052007 0 -0.100590797535087 -0.41759168573278821 0 -0.1012534234653099 -0.39731778446220639 0 -0.099487365185966847 -0.39952233119993291 0 -0.100590797535087 -0.41759168573278821 0 -0.094499944748829334 -0.39722631626938482 0 -0.099487365185966847 -0.39952233119993291 0 -0.1152538145686829 -0.39895411709426332 0 -0.1077648281157602 -0.39377477908459929 0 -0.1012534234653099 -0.39731778446220639 0 -0.1073228884697877 -0.3875649225559597 0 -0.1077648281157602 -0.39377477908459929 0 -0.1014693111655476 -0.390712419775258 0 -0.1077648281157602 -0.39377477908459929 0 -0.1012534234653099 -0.39731778446220639 0 -0.1014693111655476 -0.390712419775258 0 -0.1077648281157602 -0.39377477908459929 0 -0.1014693111655476 -0.390712419775258 0 -0.1012534234653099 -0.39731778446220639 0 -0.094499944748829334 -0.39722631626938482 0 -0.099487365185966847 -0.39952233119993291 0 -0.1012534234653099 -0.39731778446220639 0 -0.094499944748829334 -0.39722631626938482 0 -0.093729726096669103 -0.3869476153003294 0 -0.1012534234653099 -0.39731778446220639 0 -0.1014693111655476 -0.390712419775258 0 -0.093729726096669103 -0.3869476153003294 0 -0.1012534234653099 -0.39731778446220639 0 -0.093729726096669103 -0.3869476153003294 0 -0.1012534234653099 -0.39731778446220639 0 -0.1014693111655476 -0.390712419775258 0 -0.094499944748829334 -0.39722631626938482 0 -0.099487365185966847 -0.39952233119993291 0 -0.094499944748829334 -0.39722631626938482 0 -0.085553154766675646 -0.40134027138503481 0 -0.088610052547492879 -0.41006814396079783 0 -0.094499944748829334 -0.39722631626938482 0 -0.082560309743270749 -0.39172977139542609 0 -0.085553154766675646 -0.40134027138503481 0 -0.094499944748829334 -0.39722631626938482 0 -0.082560309743270749 -0.39172977139542609 0 -0.091033556626635648 -0.38563610430902873 0 -0.094499944748829334 -0.39722631626938482 0 -0.082560309743270749 -0.39172977139542609 0 -0.094499944748829334 -0.39722631626938482 0 -0.091033556626635648 -0.38563610430902873 0 -0.082560309743270749 -0.39172977139542609 0 -0.079097438192195432 -0.39013559964190198 0 -0.074673198083630793 -0.40544040024196493 0 -0.082560309743270749 -0.39172977139542609 0 -0.079097438192195432 -0.39013559964190198 0 -0.082560309743270749 -0.39172977139542609 0 -0.076542312027108539 -0.406336853914531 0 -0.082560309743270749 -0.39172977139542609 0 -0.085553154766675646 -0.40134027138503481 0 -0.076542312027108539 -0.406336853914531 0 -0.085553154766675646 -0.40134027138503481 0 -0.076542312027108539 -0.406336853914531 0 -0.088610052547492879 -0.41006814396079783 0 -0.090139611558562177 -0.37333304007799939 0 -0.088525620654428705 -0.37725057202694517 0 -0.088525620654428705 -0.37725057202694517 0 -0.087954911787112483 -0.37534235041220648 0 -0.08170780991661282 -0.38109255286014232 0 -0.090139611558562177 -0.37333304007799939 0 -0.088525620654428705 -0.37725057202694517 0 -0.087954911787112483 -0.37534235041220648 0 -0.088525620654428705 -0.37725057202694517 0 -0.087954911787112483 -0.37534235041220648 0 -0.090139611558562177 -0.37333304007799939 0 -0.095426438310298192 -0.37780241062099151 0 -0.088525620654428705 -0.37725057202694517 0 -0.088525620654428705 -0.37725057202694517 0 -0.091585827134305964 -0.3839926061052007 0 -0.095426438310298192 -0.37780241062099151 0 -0.088525620654428705 -0.37725057202694517 0 -0.091585827134305964 -0.3839926061052007 0 -0.088525620654428705 -0.37725057202694517 0 -0.086634605294488312 -0.38349630075200858 0 -0.088525620654428705 -0.37725057202694517 0 -0.086634605294488312 -0.38349630075200858 0 -0.091585827134305964 -0.3839926061052007 0 -0.082560309743270749 -0.39172977139542609 0 -0.086634605294488312 -0.38349630075200858 0 -0.091033556626635648 -0.38563610430902873 0 -0.094499944748829334 -0.39722631626938482 0 -0.091033556626635648 -0.38563610430902873 0 -0.093729726096669103 -0.3869476153003294 0 -0.086634605294488312 -0.38349630075200858 0 -0.091585827134305964 -0.3839926061052007 0 -0.086634605294488312 -0.38349630075200858 0 -0.091033556626635648 -0.38563610430902873 0 -0.086634605294488312 -0.38349630075200858 0 -0.091585827134305964 -0.3839926061052007 0 -0.091033556626635648 -0.38563610430902873 0 -0.091585827134305964 -0.3839926061052007 0 -0.091033556626635648 -0.38563610430902873 0 -0.093729726096669103 -0.3869476153003294 0 -0.091033556626635648 -0.38563610430902873 0 -0.093729726096669103 -0.3869476153003294 0 -0.091585827134305964 -0.3839926061052007 0 -0.093729726096669103 -0.3869476153003294 0 -0.091585827134305964 -0.3839926061052007 0 -0.091033556626635648 -0.38563610430902873 0 -0.082560309743270749 -0.39172977139542609 0 -0.086634605294488312 -0.38349630075200858 0 -0.082560309743270749 -0.39172977139542609 0 -0.086634605294488312 -0.38349630075200858 0 -0.081174899406055781 -0.38294902548401538 0 -0.082560309743270749 -0.39172977139542609 0 -0.079097438192195432 -0.39013559964190198 0 -0.081174899406055781 -0.38294902548401538 0 -0.079097438192195432 -0.39013559964190198 0 -0.081174899406055781 -0.38294902548401538 0 -0.074281153156084773 -0.38791836881244668 0 -0.079097438192195432 -0.39013559964190198 0 -0.081174899406055781 -0.38294902548401538 0 -0.086634605294488312 -0.38349630075200858 0 -0.081174899406055781 -0.38294902548401538 0 -0.088525620654428705 -0.37725057202694517 0 -0.086634605294488312 -0.38349630075200858 0 -0.08170780991661282 -0.38109255286014232 0 -0.086634605294488312 -0.38349630075200858 0 -0.081174899406055781 -0.38294902548401538 0 -0.08170780991661282 -0.38109255286014232 0 -0.086634605294488312 -0.38349630075200858 0 -0.08170780991661282 -0.38109255286014232 0 -0.081174899406055781 -0.38294902548401538 0 -0.08170780991661282 -0.38109255286014232 0 -0.087954911787112483 -0.37534235041220648 0 -0.08170780991661282 -0.38109255286014232 0 -0.055512870853615448 -0.39455951290216967 0 -0.058563253679506787 -0.38068245751723601 0 -0.074281153156084773 -0.38791836881244668 0 -0.058563253679506787 -0.38068245751723601 0 -0.074281153156084773 -0.38791836881244668 0 -0.058387822440418388 -0.36975607908058028 0 -0.08170780991661282 -0.38109255286014232 0 -0.058387822440418388 -0.36975607908058028 0 -0.081174899406055781 -0.38294902548401538 0 -0.08170780991661282 -0.38109255286014232 0 -0.058563253679506787 -0.38068245751723601 0 -0.081174899406055781 -0.38294902548401538 0 -0.074281153156084773 -0.38791836881244668 0 -0.058563253679506787 -0.38068245751723601 0 -0.081174899406055781 -0.38294902548401538 0 -0.058387822440418388 -0.36975607908058028 0 -0.058563253679506787 -0.38068245751723601 0 -0.081174899406055781 -0.38294902548401538 0 -0.081174899406055781 -0.38294902548401538 0 -0.074281153156084773 -0.38791836881244668 0 -0.079097438192195432 -0.39013559964190198 0 -0.074281153156084773 -0.38791836881244668 0 -0.079097438192195432 -0.39013559964190198 0 -0.074281153156084773 -0.38791836881244668 0 -0.074673198083630793 -0.40544040024196493 0 -0.052509649903146327 -0.40794203844841681 0 -0.074281153156084773 -0.38791836881244668 0 -0.052509649903146327 -0.40794203844841681 0 -0.074281153156084773 -0.38791836881244668 0 -0.074673198083630793 -0.40544040024196493 0 -0.082560309743270749 -0.39172977139542609 0 -0.074673198083630793 -0.40544040024196493 0 -0.076542312027108539 -0.406336853914531 0 -0.079097438192195432 -0.39013559964190198 0 -0.074673198083630793 -0.40544040024196493 0 -0.052509649903146327 -0.40794203844841681 0 -0.074673198083630793 -0.40544040024196493 0 -0.070248957975066639 -0.42074520084202788 0 -0.076542312027108539 -0.406336853914531 0 -0.070248957975066639 -0.42074520084202788 0 -0.074673198083630793 -0.40544040024196493 0 -0.070248957975066639 -0.42074520084202788 0 -0.074673198083630793 -0.40544040024196493 0 -0.076542312027108539 -0.406336853914531 0 -0.070248957975066639 -0.42074520084202788 0 -0.070248957975066639 -0.42074520084202788 0 -0.077246521605040669 -0.42579562012280953 0 -0.078194253298280558 -0.41865647959270891 0 -0.076542312027108539 -0.406336853914531 0 -0.070248957975066639 -0.42074520084202788 0 -0.078194253298280558 -0.41865647959270891 0 -0.059775586818595829 -0.41787661413097049 0 -0.070248957975066639 -0.42074520084202788 0 -0.069408814394604765 -0.42365151461769918 0 -0.060002998013559863 -0.44648162232419802 0 -0.069408814394604765 -0.42365151461769918 0 -0.070248957975066639 -0.42074520084202788 0 -0.069408814394604765 -0.42365151461769918 0 -0.077098496045509793 -0.43873696019506903 0 -0.069408814394604765 -0.42365151461769918 0 -0.077246521605040669 -0.42579562012280953 0 -0.070248957975066639 -0.42074520084202788 0 -0.069408814394604765 -0.42365151461769918 0 -0.077246521605040669 -0.42579562012280953 0 -0.070248957975066639 -0.42074520084202788 0 -0.077246521605040669 -0.42579562012280953 0 -0.077246521605040669 -0.42579562012280953 0 -0.082943237868067593 -0.4239856173255338 0 -0.078194253298280558 -0.41865647959270891 0 -0.077098496045509793 -0.43873696019506903 0 -0.082943237868067593 -0.4239856173255338 0 -0.092016620863508841 -0.4218345739943074 0 -0.077098496045509793 -0.43873696019506903 0 -0.089545628933694749 -0.43673796215895883 0 -0.092016620863508841 -0.4218345739943074 0 -0.077098496045509793 -0.43873696019506903 0 -0.092016620863508841 -0.4218345739943074 0 -0.077098496045509793 -0.43873696019506903 0 -0.077246521605040669 -0.42579562012280953 0 -0.082943237868067593 -0.4239856173255338 0 -0.100590797535087 -0.41759168573278821 0 -0.092016620863508841 -0.4218345739943074 0 -0.088610052547492879 -0.41006814396079783 0 -0.082943237868067593 -0.4239856173255338 0 -0.092016620863508841 -0.4218345739943074 0 -0.083714880680240453 -0.41622037016703428 0 -0.092016620863508841 -0.4218345739943074 0 -0.088610052547492879 -0.41006814396079783 0 -0.083714880680240453 -0.41622037016703428 0 -0.076542312027108539 -0.406336853914531 0 -0.088610052547492879 -0.41006814396079783 0 -0.083714880680240453 -0.41622037016703428 0 -0.076542312027108539 -0.406336853914531 0 -0.078194253298280558 -0.41865647959270891 0 -0.083714880680240453 -0.41622037016703428 0 -0.082943237868067593 -0.4239856173255338 0 -0.078194253298280558 -0.41865647959270891 0 -0.083714880680240453 -0.41622037016703428 0 -0.081808777729522386 -0.083143660930833002 0 -0.073985000225153141 -0.099795971436559522 0 -0.085935801107842547 -0.09579043756499836 0 -0.081808777729522386 -0.083143660930833002 0 -0.085935801107842547 -0.09579043756499836 0 -0.094306078709463503 -0.087148618235937392 0 -0.081808777729522386 -0.083143660930833002 0 -0.094306078709463503 -0.087148618235937392 0 -0.095869533599057435 -0.074719864200214883 0 -0.081808777729522386 -0.083143660930833002 0 -0.087640100333796281 -0.066301869750421821 0 -0.076351800502585221 -0.068318825045574613 0 -0.081808777729522386 -0.083143660930833002 0 -0.087640100333796281 -0.066301869750421821 0 -0.095869533599057435 -0.074719864200214883 0 -0.087640100333796281 -0.066301869750421821 0 -0.095869533599057435 -0.074719864200214883 0 -0.097041901727127691 -0.062312633498474219 0 -0.087640100333796281 -0.066301869750421821 0 -0.076351800502585221 -0.068318825045574613 0 -0.079773765115028039 -0.057914828426178573 0 -0.081808777729522386 -0.083143660930833002 0 -0.076351800502585221 -0.068318825045574613 0 -0.068001603171865072 -0.074911341683796137 0 -0.068001603171865072 -0.074911341683796137 0 -0.065822825648978775 -0.060485584973140792 0 -0.05753372126900759 -0.073422836261521005 0 -0.076351800502585221 -0.068318825045574613 0 -0.068001603171865072 -0.074911341683796137 0 -0.065822825648978775 -0.060485584973140792 0 -0.068001603171865072 -0.074911341683796137 0 -0.066670257350634976 -0.085780572793309681 0 -0.05753372126900759 -0.073422836261521005 0 -0.081808777729522386 -0.083143660930833002 0 -0.066670257350634976 -0.085780572793309681 0 -0.073985000225153141 -0.099795971436559522 0 -0.081808777729522386 -0.083143660930833002 0 -0.068001603171865072 -0.074911341683796137 0 -0.066670257350634976 -0.085780572793309681 0 -0.066670257350634976 -0.085780572793309681 0 -0.073985000225153141 -0.099795971436559522 0 -0.05982498813170789 -0.10249801488187529 0 -0.073985000225153141 -0.099795971436559522 0 -0.065415314349395459 -0.11473522154729129 0 -0.05982498813170789 -0.10249801488187529 0 -0.073985000225153141 -0.099795971436559522 0 -0.065415314349395459 -0.11473522154729129 0 -0.07727601190464152 -0.1134926659633375 0 -0.065415314349395459 -0.11473522154729129 0 -0.060446148579459319 -0.1303024678998376 0 -0.071674103496310607 -0.1250344835198243 0 -0.07727601190464152 -0.1134926659633375 0 -0.082994471061899833 -0.1234246307735777 0 -0.071674103496310607 -0.1250344835198243 0 -0.065415314349395459 -0.11473522154729129 0 -0.07727601190464152 -0.1134926659633375 0 -0.071674103496310607 -0.1250344835198243 0 -0.07727601190464152 -0.1134926659633375 0 -0.082994471061899833 -0.1234246307735777 0 -0.08680817640523622 -0.1078855820033275 0 -0.082994471061899833 -0.1234246307735777 0 -0.08680817640523622 -0.1078855820033275 0 -0.095277368860953449 -0.1178446661751102 0 -0.082994471061899833 -0.1234246307735777 0 -0.095277368860953449 -0.1178446661751102 0 -0.095971306836852913 -0.13086642389395989 0 -0.085935801107842547 -0.09579043756499836 0 -0.08680817640523622 -0.1078855820033275 0 -0.1020424425883536 -0.1015565670732166 0 -0.073985000225153141 -0.099795971436559522 0 -0.085935801107842547 -0.09579043756499836 0 -0.08680817640523622 -0.1078855820033275 0 -0.073985000225153141 -0.099795971436559522 0 -0.07727601190464152 -0.1134926659633375 0 -0.08680817640523622 -0.1078855820033275 0 -0.085935801107842547 -0.09579043756499836 0 -0.1020424425883536 -0.1015565670732166 0 -0.094306078709463503 -0.087148618235937392 0 -0.08680817640523622 -0.1078855820033275 0 -0.1020424425883536 -0.1015565670732166 0 -0.095277368860953449 -0.1178446661751102 0 -0.1020424425883536 -0.1015565670732166 0 -0.095277368860953449 -0.1178446661751102 0 -0.1085913382140784 -0.11903379143832921 0 -0.095277368860953449 -0.1178446661751102 0 -0.1085913382140784 -0.11903379143832921 0 -0.095971306836852913 -0.13086642389395989 0 -0.1085913382140784 -0.11903379143832921 0 -0.11893842975153809 -0.10446969177473921 0 -0.12736410167423581 -0.1213878944680517 0 -0.1020424425883536 -0.1015565670732166 0 -0.11893842975153809 -0.10446969177473921 0 -0.1189291253072135 -0.086669643832799348 0 -0.1020424425883536 -0.1015565670732166 0 -0.1085913382140784 -0.11903379143832921 0 -0.11893842975153809 -0.10446969177473921 0 -0.1189291253072135 -0.086669643832799348 0 -0.1056068239719813 -0.08097964138995771 0 -0.1139735316209595 -0.069866863539540053 0 -0.1020424425883536 -0.1015565670732166 0 -0.1189291253072135 -0.086669643832799348 0 -0.1056068239719813 -0.08097964138995771 0 -0.1020424425883536 -0.1015565670732166 0 -0.1056068239719813 -0.08097964138995771 0 -0.094306078709463503 -0.087148618235937392 0 -0.1056068239719813 -0.08097964138995771 0 -0.094306078709463503 -0.087148618235937392 0 -0.095869533599057435 -0.074719864200214883 0 -0.095869533599057435 -0.074719864200214883 0 -0.1039382096783972 -0.069282752438140638 0 -0.097041901727127691 -0.062312633498474219 0 -0.1056068239719813 -0.08097964138995771 0 -0.1039382096783972 -0.069282752438140638 0 -0.1139735316209595 -0.069866863539540053 0 -0.1056068239719813 -0.08097964138995771 0 -0.095869533599057435 -0.074719864200214883 0 -0.1039382096783972 -0.069282752438140638 0 -0.1039382096783972 -0.069282752438140638 0 -0.097041901727127691 -0.062312633498474219 0 -0.1071992574728602 -0.058534759562516372 0 -0.1039382096783972 -0.069282752438140638 0 -0.1139735316209595 -0.069866863539540053 0 -0.1071992574728602 -0.058534759562516372 0 -0.1189291253072135 -0.086669643832799348 0 -0.1139735316209595 -0.069866863539540053 0 -0.12930964035960699 -0.069761515268982097 0 -0.1139735316209595 -0.069866863539540053 0 -0.1161384697585349 -0.056806249932135858 0 -0.12930964035960699 -0.069761515268982097 0 -0.1161384697585349 -0.056806249932135858 0 -0.1208541397454049 -0.045822468476665427 0 -0.12930964035960699 -0.069761515268982097 0 -0.1248214427799455 -0.0491876577223027 0 -0.1208541397454049 -0.045822468476665427 0 -0.12930964035960699 -0.069761515268982097 0 -0.1161384697585349 -0.056806249932135858 0 -0.10991932193075039 -0.048940588969216672 0 -0.1071992574728602 -0.058534759562516372 0 -0.1139735316209595 -0.069866863539540053 0 -0.1161384697585349 -0.056806249932135858 0 -0.1071992574728602 -0.058534759562516372 0 -0.1161384697585349 -0.056806249932135858 0 -0.10991932193075039 -0.048940588969216672 0 -0.1149357203506014 -0.047989794102068162 0 -0.1161384697585349 -0.056806249932135858 0 -0.1149357203506014 -0.047989794102068162 0 -0.1208541397454049 -0.045822468476665427 0 -0.1248214427799455 -0.0491876577223027 0 -0.1208541397454049 -0.045822468476665427 0 -0.1246368416492639 -0.024787675353444869 0 -0.1128309499677153 -0.040389869030254703 0 -0.10841128816168021 -0.033720593740292633 0 -0.11239863913120279 -0.021883421684348751 0 -0.1208541397454049 -0.045822468476665427 0 -0.11239863913120279 -0.021883421684348751 0 -0.1208541397454049 -0.045822468476665427 0 -0.1128309499677153 -0.040389869030254703 0 -0.11239863913120279 -0.021883421684348751 0 -0.1248214427799455 -0.0491876577223027 0 -0.1246368416492639 -0.024787675353444869 0 -0.1149357203506014 -0.047989794102068162 0 -0.1208541397454049 -0.045822468476665427 0 -0.1128309499677153 -0.040389869030254703 0 -0.10991932193075039 -0.048940588969216672 0 -0.1149357203506014 -0.047989794102068162 0 -0.1128309499677153 -0.040389869030254703 0 -0.10991932193075039 -0.048940588969216672 0 -0.1128309499677153 -0.040389869030254703 0 -0.1049963107845597 -0.040407454994133042 0 -0.10991932193075039 -0.048940588969216672 0 -0.1049963107845597 -0.040407454994133042 0 -0.1002598709818909 -0.049694841596422852 0 -0.1049963107845597 -0.040407454994133042 0 -0.10841128816168021 -0.033720593740292633 0 -0.1012581714839781 -0.029848849592015819 0 -0.1128309499677153 -0.040389869030254703 0 -0.1049963107845597 -0.040407454994133042 0 -0.10841128816168021 -0.033720593740292633 0 -0.097298262181343159 -0.039849987036595598 0 -0.1012581714839781 -0.029848849592015819 0 -0.091929659262116575 -0.033133953101480262 0 -0.1049963107845597 -0.040407454994133042 0 -0.097298262181343159 -0.039849987036595598 0 -0.1012581714839781 -0.029848849592015819 0 -0.1049963107845597 -0.040407454994133042 0 -0.097298262181343159 -0.039849987036595598 0 -0.1002598709818909 -0.049694841596422852 0 -0.097298262181343159 -0.039849987036595598 0 -0.1002598709818909 -0.049694841596422852 0 -0.087030839425688053 -0.044306376809862227 0 -0.1002598709818909 -0.049694841596422852 0 -0.097041901727127691 -0.062312633498474219 0 -0.1071992574728602 -0.058534759562516372 0 -0.1002598709818909 -0.049694841596422852 0 -0.097041901727127691 -0.062312633498474219 0 -0.090164156554830718 -0.055563028782557922 0 -0.10991932193075039 -0.048940588969216672 0 -0.1002598709818909 -0.049694841596422852 0 -0.1071992574728602 -0.058534759562516372 0 -0.1244522405185825 -0.00038769298458709092 0 -0.11239863913120279 -0.021883421684348751 0 -0.10394313851700079 0.0020556251079679459 0 -0.1244522405185825 -0.00038769298458709092 0 -0.1246368416492639 -0.024787675353444869 0 -0.1244522405185825 -0.00038769298458709092 0 -0.11239863913120279 -0.021883421684348751 0 -0.1246368416492639 -0.024787675353444869 0 -0.1208541397454049 -0.045822468476665427 0 -0.11239863913120279 -0.021883421684348751 0 -0.1246368416492639 -0.024787675353444869 0 -0.10841128816168021 -0.033720593740292633 0 -0.11239863913120279 -0.021883421684348751 0 -0.1012581714839781 -0.029848849592015819 0 -0.1012581714839781 -0.029848849592015819 0 -0.090677970328949406 -0.022917020247476879 0 -0.091929659262116575 -0.033133953101480262 0 -0.1012581714839781 -0.029848849592015819 0 -0.1001126671493681 -0.016491083843961009 0 -0.090677970328949406 -0.022917020247476879 0 -0.1001126671493681 -0.016491083843961009 0 -0.092285416285709382 -0.0098617528039315269 0 -0.090677970328949406 -0.022917020247476879 0 -0.11239863913120279 -0.021883421684348751 0 -0.1012581714839781 -0.029848849592015819 0 -0.1001126671493681 -0.016491083843961009 0 -0.1001126671493681 -0.016491083843961009 0 -0.092285416285709382 -0.0098617528039315269 0 -0.10394313851700079 0.0020556251079679459 0 -0.11239863913120279 -0.021883421684348751 0 -0.1001126671493681 -0.016491083843961009 0 -0.10394313851700079 0.0020556251079679459 0 -0.092285416285709382 -0.0098617528039315269 0 -0.10394313851700079 0.0020556251079679459 0 -0.085958893623968774 0.001514634656162053 0 -0.11239863913120279 -0.021883421684348751 0 -0.10394313851700079 0.0020556251079679459 0 -0.092285416285709382 -0.0098617528039315269 0 -0.077949881484559239 -0.01307625006729682 0 -0.085958893623968774 0.001514634656162053 0 -0.092285416285709382 -0.0098617528039315269 0 -0.090677970328949406 -0.022917020247476879 0 -0.077949881484559239 -0.01307625006729682 0 -0.090677970328949406 -0.022917020247476879 0 -0.073841780976804383 -0.025706854857452392 0 -0.077949881484559239 -0.01307625006729682 0 -0.090677970328949406 -0.022917020247476879 0 -0.073841780976804383 -0.025706854857452392 0 -0.082102255714859004 -0.034759692131612618 0 -0.090677970328949406 -0.022917020247476879 0 -0.091929659262116575 -0.033133953101480262 0 -0.082102255714859004 -0.034759692131612618 0 -0.073841780976804383 -0.025706854857452392 0 -0.077949881484559239 -0.01307625006729682 0 -0.060674527584339763 -0.015412449877807689 0 -0.073841780976804383 -0.025706854857452392 0 -0.060674527584339763 -0.015412449877807689 0 -0.060703590497751453 -0.03101491529774986 0 -0.077949881484559239 -0.01307625006729682 0 -0.085958893623968774 0.001514634656162053 0 -0.065648076432031049 0.00090955339710942099 0 -0.077949881484559239 -0.01307625006729682 0 -0.060674527584339763 -0.015412449877807689 0 -0.065648076432031049 0.00090955339710942099 0 -0.079773765115028039 -0.057914828426178573 0 -0.087030839425688053 -0.044306376809862227 0 -0.074827122987446398 -0.047817820925290022 0 -0.079773765115028039 -0.057914828426178573 0 -0.090164156554830718 -0.055563028782557922 0 -0.087030839425688053 -0.044306376809862227 0 -0.087640100333796281 -0.066301869750421821 0 -0.079773765115028039 -0.057914828426178573 0 -0.090164156554830718 -0.055563028782557922 0 -0.087640100333796281 -0.066301869750421821 0 -0.097041901727127691 -0.062312633498474219 0 -0.090164156554830718 -0.055563028782557922 0 -0.1002598709818909 -0.049694841596422852 0 -0.090164156554830718 -0.055563028782557922 0 -0.087030839425688053 -0.044306376809862227 0 -0.097298262181343159 -0.039849987036595598 0 -0.087030839425688053 -0.044306376809862227 0 -0.091929659262116575 -0.033133953101480262 0 -0.087030839425688053 -0.044306376809862227 0 -0.091929659262116575 -0.033133953101480262 0 -0.082102255714859004 -0.034759692131612618 0 -0.087030839425688053 -0.044306376809862227 0 -0.082102255714859004 -0.034759692131612618 0 -0.074827122987446398 -0.047817820925290022 0 -0.082102255714859004 -0.034759692131612618 0 -0.070942460250367517 -0.03706080152277047 0 -0.074827122987446398 -0.047817820925290022 0 -0.073841780976804383 -0.025706854857452392 0 -0.082102255714859004 -0.034759692131612618 0 -0.070942460250367517 -0.03706080152277047 0 -0.073841780976804383 -0.025706854857452392 0 -0.070942460250367517 -0.03706080152277047 0 -0.060703590497751453 -0.03101491529774986 0 -0.070942460250367517 -0.03706080152277047 0 -0.061850736208416378 -0.044087883634974623 0 -0.060703590497751453 -0.03101491529774986 0 -0.070942460250367517 -0.03706080152277047 0 -0.074827122987446398 -0.047817820925290022 0 -0.061850736208416378 -0.044087883634974623 0 -0.074827122987446398 -0.047817820925290022 0 -0.065822825648978775 -0.060485584973140792 0 -0.061850736208416378 -0.044087883634974623 0 -0.079773765115028039 -0.057914828426178573 0 -0.074827122987446398 -0.047817820925290022 0 -0.065822825648978775 -0.060485584973140792 0 -0.076351800502585221 -0.068318825045574613 0 -0.079773765115028039 -0.057914828426178573 0 -0.065822825648978775 -0.060485584973140792 0 -0.065822825648978775 -0.060485584973140792 0 -0.051906109188989122 -0.051634581827710108 0 -0.055146373663134192 -0.063188587977351315 0 -0.065822825648978775 -0.060485584973140792 0 -0.051906109188989122 -0.051634581827710108 0 -0.061850736208416378 -0.044087883634974623 0 -0.051906109188989122 -0.051634581827710108 0 -0.044968642856814678 -0.064628327886466996 0 -0.055146373663134192 -0.063188587977351315 0 -0.061850736208416378 -0.044087883634974623 0 -0.048286593140243993 -0.039377229684959138 0 -0.060703590497751453 -0.03101491529774986 0 -0.051906109188989122 -0.051634581827710108 0 -0.061850736208416378 -0.044087883634974623 0 -0.048286593140243993 -0.039377229684959138 0 -0.048286593140243993 -0.039377229684959138 0 -0.039642814346724391 -0.052475069278980747 0 -0.030584103036016622 -0.035608219704199993 0 -0.039642814346724391 -0.052475069278980747 0 -0.024435088609687641 -0.049746151716912712 0 -0.030584103036016622 -0.035608219704199993 0 -0.048286593140243993 -0.039377229684959138 0 -0.044331283213942488 -0.020119990811347448 0 -0.030584103036016622 -0.035608219704199993 0 -0.039642814346724391 -0.052475069278980747 0 -0.03034189778213453 -0.060014988360291517 0 -0.024435088609687641 -0.049746151716912712 0 -0.039642814346724391 -0.052475069278980747 0 -0.03034189778213453 -0.060014988360291517 0 -0.044968642856814678 -0.064628327886466996 0 -0.051906109188989122 -0.051634581827710108 0 -0.039642814346724391 -0.052475069278980747 0 -0.044968642856814678 -0.064628327886466996 0 -0.051906109188989122 -0.051634581827710108 0 -0.048286593140243993 -0.039377229684959138 0 -0.039642814346724391 -0.052475069278980747 0 -0.060674527584339763 -0.015412449877807689 0 -0.044331283213942488 -0.020119990811347448 0 -0.045118160941850949 -0.00049033847668307538 0 -0.060674527584339763 -0.015412449877807689 0 -0.045118160941850949 -0.00049033847668307538 0 -0.065648076432031049 0.00090955339710942099 0 -0.048286593140243993 -0.039377229684959138 0 -0.060703590497751453 -0.03101491529774986 0 -0.044331283213942488 -0.020119990811347448 0 -0.060674527584339763 -0.015412449877807689 0 -0.060703590497751453 -0.03101491529774986 0 -0.044331283213942488 -0.020119990811347448 0 -0.044331283213942488 -0.020119990811347448 0 -0.027025641752002061 -0.0079319500279313396 0 -0.030584103036016622 -0.035608219704199993 0 -0.044331283213942488 -0.020119990811347448 0 -0.045118160941850949 -0.00049033847668307538 0 -0.027025641752002061 -0.0079319500279313396 0 -0.027025641752002061 -0.0079319500279313396 0 -0.0118242871531395 -0.020545428430059291 0 -0.0091716063734174208 -0.003332990253060792 0 -0.027025641752002061 -0.0079319500279313396 0 -0.0091716063734174208 -0.003332990253060792 0 -0.01566814095190756 0.010235570601176981 0 -0.027025641752002061 -0.0079319500279313396 0 -0.0118242871531395 -0.020545428430059291 0 -0.030584103036016622 -0.035608219704199993 0 -0.0118242871531395 -0.020545428430059291 0 -0.030584103036016622 -0.035608219704199993 0 -0.0118242871531395 -0.020545428430059291 0 0.006935528729737548 -0.0054826371559186567 0 0.0027408304473846411 -0.028176541972939319 0 -0.0118242871531395 -0.020545428430059291 0 -0.01026660782967455 -0.041229232136501717 0 0.0027408304473846411 -0.028176541972939319 0 -0.0118242871531395 -0.020545428430059291 0 -0.0091716063734174208 -0.003332990253060792 0 0.006935528729737548 -0.0054826371559186567 0 -0.0118242871531395 -0.020545428430059291 0 0.006935528729737548 -0.0054826371559186567 0 -0.024435088609687641 -0.049746151716912712 0 -0.01026660782967455 -0.041229232136501717 0 -0.01499476028908407 -0.06055090283160456 0 -0.03034189778213453 -0.060014988360291517 0 -0.01499476028908407 -0.06055090283160456 0 -0.03034189778213453 -0.060014988360291517 0 -0.024435088609687641 -0.049746151716912712 0 -0.01499476028908407 -0.06055090283160456 0 -0.024435088609687641 -0.049746151716912712 0 -0.030584103036016622 -0.035608219704199993 0 -0.01026660782967455 -0.041229232136501717 0 -0.0118242871531395 -0.020545428430059291 0 -0.030584103036016622 -0.035608219704199993 0 -0.01026660782967455 -0.041229232136501717 0 -0.01026660782967455 -0.041229232136501717 0 0.0096258971738255473 -0.043108802377643002 0 0.00035237720396625368 -0.061086817302918282 0 -0.01026660782967455 -0.041229232136501717 0 -0.01499476028908407 -0.06055090283160456 0 0.00035237720396625368 -0.061086817302918282 0 -0.01499476028908407 -0.06055090283160456 0 0.00035237720396625368 -0.061086817302918282 0 -0.011408129540087309 -0.083886203777590068 0 0.0065051428120863272 -0.082127796022149757 0 0.00035237720396625368 -0.061086817302918282 0 -0.011408129540087309 -0.083886203777590068 0 0.00035237720396625368 -0.061086817302918282 0 -0.01499476028908407 -0.06055090283160456 0 -0.011408129540087309 -0.083886203777590068 0 0.00035237720396625368 -0.061086817302918282 0 -0.011408129540087309 -0.083886203777590068 0 0.001856719827670471 -0.098182337095309047 0 0.0065051428120863272 -0.082127796022149757 0 -0.011408129540087309 -0.083886203777590068 0 -0.03053113156520738 -0.089911417014305078 0 -0.02316863628414112 -0.10668559025226169 0 -0.011408129540087309 -0.083886203777590068 0 -0.03053113156520738 -0.089911417014305078 0 -0.026049830403481512 -0.075342802050597457 0 -0.01499476028908407 -0.06055090283160456 0 -0.011408129540087309 -0.083886203777590068 0 -0.026049830403481512 -0.075342802050597457 0 -0.03034189778213453 -0.060014988360291517 0 -0.01499476028908407 -0.06055090283160456 0 -0.026049830403481512 -0.075342802050597457 0 -0.03034189778213453 -0.060014988360291517 0 -0.026049830403481512 -0.075342802050597457 0 -0.041349905228919973 -0.078428718904655664 0 -0.03034189778213453 -0.060014988360291517 0 -0.044968642856814678 -0.064628327886466996 0 -0.041349905228919973 -0.078428718904655664 0 -0.03053113156520738 -0.089911417014305078 0 -0.026049830403481512 -0.075342802050597457 0 -0.041349905228919973 -0.078428718904655664 0 -0.03053113156520738 -0.089911417014305078 0 -0.041349905228919973 -0.078428718904655664 0 -0.047432501145458397 -0.097370211357339573 0 -0.041349905228919973 -0.078428718904655664 0 -0.053879666709155317 -0.08598560359304859 0 -0.05753372126900759 -0.073422836261521005 0 -0.041349905228919973 -0.078428718904655664 0 -0.053879666709155317 -0.08598560359304859 0 -0.047432501145458397 -0.097370211357339573 0 -0.066670257350634976 -0.085780572793309681 0 -0.053879666709155317 -0.08598560359304859 0 -0.05982498813170789 -0.10249801488187529 0 -0.066670257350634976 -0.085780572793309681 0 -0.053879666709155317 -0.08598560359304859 0 -0.05753372126900759 -0.073422836261521005 0 -0.044968642856814678 -0.064628327886466996 0 -0.041349905228919973 -0.078428718904655664 0 -0.05753372126900759 -0.073422836261521005 0 -0.065822825648978775 -0.060485584973140792 0 -0.05753372126900759 -0.073422836261521005 0 -0.055146373663134192 -0.063188587977351315 0 -0.044968642856814678 -0.064628327886466996 0 -0.05753372126900759 -0.073422836261521005 0 -0.055146373663134192 -0.063188587977351315 0 -0.065415314349395459 -0.11473522154729129 0 -0.048239208743362072 -0.1165718691901324 0 -0.05982498813170789 -0.10249801488187529 0 -0.065415314349395459 -0.11473522154729129 0 -0.048239208743362072 -0.1165718691901324 0 -0.060446148579459319 -0.1303024678998376 0 -0.048239208743362072 -0.1165718691901324 0 -0.05982498813170789 -0.10249801488187529 0 -0.047432501145458397 -0.097370211357339573 0 -0.053879666709155317 -0.08598560359304859 0 -0.05982498813170789 -0.10249801488187529 0 -0.047432501145458397 -0.097370211357339573 0 -0.048239208743362072 -0.1165718691901324 0 -0.047432501145458397 -0.097370211357339573 0 -0.02316863628414112 -0.10668559025226169 0 -0.03053113156520738 -0.089911417014305078 0 -0.047432501145458397 -0.097370211357339573 0 -0.02316863628414112 -0.10668559025226169 0 -0.048239208743362072 -0.1165718691901324 0 -0.02316863628414112 -0.10668559025226169 0 -0.029948833034415319 -0.13246817914486481 0 -0.02316863628414112 -0.10668559025226169 0 -0.01250087523651249 -0.12826546419306251 0 -0.029948833034415319 -0.13246817914486481 0 -0.011408129540087309 -0.083886203777590068 0 -0.02316863628414112 -0.10668559025226169 0 -0.02316863628414112 -0.10668559025226169 0 0.0015243557028834459 -0.11711868301268021 0 0.001856719827670471 -0.098182337095309047 0 -0.011408129540087309 -0.083886203777590068 0 -0.02316863628414112 -0.10668559025226169 0 0.001856719827670471 -0.098182337095309047 0 -0.02316863628414112 -0.10668559025226169 0 -0.01250087523651249 -0.12826546419306251 0 0.0015243557028834459 -0.11711868301268021 0 -0.01250087523651249 -0.12826546419306251 0 -0.013317386200938249 -0.14799664519887931 0 0.0088678229424013627 -0.13941235935176011 0 -0.01250087523651249 -0.12826546419306251 0 0.0088678229424013627 -0.13941235935176011 0 0.0015243557028834459 -0.11711868301268021 0 -0.01250087523651249 -0.12826546419306251 0 -0.029948833034415319 -0.13246817914486481 0 -0.013317386200938249 -0.14799664519887931 0 -0.013317386200938249 -0.14799664519887931 0 -0.035502595344277812 -0.15658093104599841 0 -0.029948833034415319 -0.13246817914486481 0 -0.013317386200938249 -0.14799664519887931 0 -0.035502595344277812 -0.15658093104599841 0 -0.013317386200938249 -0.14799664519887931 0 0.0088678229424013627 -0.13941235935176011 0 -0.013317386200938249 -0.14799664519887931 0 0.0027310736070901482 -0.15493719994590471 0 0.0088678229424013627 -0.13941235935176011 0 -0.013317386200938249 -0.14799664519887931 0 -0.0013673002328405961 -0.1767093328090546 0 0.0027310736070901482 -0.15493719994590471 0 -0.013317386200938249 -0.14799664519887931 0 -0.0013673002328405961 -0.1767093328090546 0 -0.029934926785222919 -0.1776443960910804 0 -0.0013673002328405961 -0.1767093328090546 0 -0.0217915143334447 -0.19785215020996011 0 -0.0013673002328405961 -0.1767093328090546 0 -0.029934926785222919 -0.1776443960910804 0 -0.0217915143334447 -0.19785215020996011 0 -0.013317386200938249 -0.14799664519887931 0 -0.029934926785222919 -0.1776443960910804 0 -0.035502595344277812 -0.15658093104599841 0 -0.035502595344277812 -0.15658093104599841 0 -0.057687804487617317 -0.16516521689311761 0 -0.029934926785222919 -0.1776443960910804 0 -0.035502595344277812 -0.15658093104599841 0 -0.057687804487617317 -0.16516521689311761 0 -0.029934926785222919 -0.1776443960910804 0 -0.048583433801033478 -0.18728911877980611 0 -0.034676635542126917 -0.191298641696723 0 -0.029934926785222919 -0.1776443960910804 0 -0.048583433801033478 -0.18728911877980611 0 -0.057687804487617317 -0.16516521689311761 0 -0.048583433801033478 -0.18728911877980611 0 -0.057687804487617317 -0.16516521689311761 0 -0.063770138428779252 -0.18079669395549949 0 -0.035502595344277812 -0.15658093104599841 0 -0.057687804487617317 -0.16516521689311761 0 -0.06059931965736505 -0.14742373122833671 0 -0.035502595344277812 -0.15658093104599841 0 -0.06059931965736505 -0.14742373122833671 0 -0.046947221071775923 -0.13666943570183401 0 -0.048239208743362072 -0.1165718691901324 0 -0.046947221071775923 -0.13666943570183401 0 -0.060446148579459319 -0.1303024678998376 0 -0.06059931965736505 -0.14742373122833671 0 -0.046947221071775923 -0.13666943570183401 0 -0.060446148579459319 -0.1303024678998376 0 -0.048239208743362072 -0.1165718691901324 0 -0.029948833034415319 -0.13246817914486481 0 -0.046947221071775923 -0.13666943570183401 0 -0.029948833034415319 -0.13246817914486481 0 -0.035502595344277812 -0.15658093104599841 0 -0.046947221071775923 -0.13666943570183401 0 -0.03064478186574425 -0.25326356670072259 0 -0.026067501294639708 -0.24850247980592871 0 -0.033387688564450117 -0.24425465961654741 0 -0.026067501294639708 -0.24850247980592871 0 -0.02456862519526215 -0.24210395604782819 0 -0.033387688564450117 -0.24425465961654741 0 -0.02974340118516787 -0.23585106297766359 0 -0.02456862519526215 -0.24210395604782819 0 -0.02062871475200042 -0.2320366992723622 0 -0.02974340118516787 -0.23585106297766359 0 -0.02456862519526215 -0.24210395604782819 0 -0.033387688564450117 -0.24425465961654741 0 -0.02456862519526215 -0.24210395604782819 0 -0.01660477195623393 -0.2403164687020414 0 -0.02062871475200042 -0.2320366992723622 0 -0.02456862519526215 -0.24210395604782819 0 -0.01660477195623393 -0.2403164687020414 0 -0.01887874476148543 -0.24814250919209771 0 -0.026067501294639708 -0.24850247980592871 0 -0.02456862519526215 -0.24210395604782819 0 -0.01887874476148543 -0.24814250919209771 0 -0.01660477195623393 -0.2403164687020414 0 -0.01887874476148543 -0.24814250919209771 0 -0.0080727856436109482 -0.2481099565327444 0 -0.0080727856436109482 -0.2481099565327444 0 -0.0084819670471955304 -0.2367225590632196 0 0.0055632338660241776 -0.24332209518663511 0 -0.01660477195623393 -0.2403164687020414 0 -0.0084819670471955304 -0.2367225590632196 0 -0.02062871475200042 -0.2320366992723622 0 -0.01660477195623393 -0.2403164687020414 0 -0.0080727856436109482 -0.2481099565327444 0 -0.0084819670471955304 -0.2367225590632196 0 -0.0084819670471955304 -0.2367225590632196 0 -0.0075276580997289226 -0.21896018305478171 0 0.0032521440618358652 -0.23009641691855939 0 -0.0084819670471955304 -0.2367225590632196 0 -0.0075276580997289226 -0.21896018305478171 0 -0.02062871475200042 -0.2320366992723622 0 -0.0075276580997289226 -0.21896018305478171 0 -0.02062871475200042 -0.2320366992723622 0 -0.024832472176938718 -0.21885173135413241 0 -0.02974340118516787 -0.23585106297766359 0 -0.02062871475200042 -0.2320366992723622 0 -0.031998745265470661 -0.22641465662269231 0 -0.02062871475200042 -0.2320366992723622 0 -0.024832472176938718 -0.21885173135413241 0 -0.031998745265470661 -0.22641465662269231 0 -0.0075276580997289226 -0.21896018305478171 0 -0.024832472176938718 -0.21885173135413241 0 -0.0217915143334447 -0.19785215020996011 0 -0.024832472176938718 -0.21885173135413241 0 -0.0217915143334447 -0.19785215020996011 0 -0.042215728434048867 -0.21899496761086559 0 -0.0075276580997289226 -0.21896018305478171 0 -0.0217915143334447 -0.19785215020996011 0 0.003555539334036632 -0.19934620758084881 0 -0.0013673002328405961 -0.1767093328090546 0 -0.0217915143334447 -0.19785215020996011 0 0.003555539334036632 -0.19934620758084881 0 -0.029934926785222919 -0.1776443960910804 0 -0.0217915143334447 -0.19785215020996011 0 -0.034676635542126917 -0.191298641696723 0 -0.0217915143334447 -0.19785215020996011 0 -0.034676635542126917 -0.191298641696723 0 -0.04224094911505525 -0.20168175555289891 0 -0.048583433801033478 -0.18728911877980611 0 -0.034676635542126917 -0.191298641696723 0 -0.04224094911505525 -0.20168175555289891 0 -0.048583433801033478 -0.18728911877980611 0 -0.058327232484387218 -0.2013044317948425 0 -0.063770138428779252 -0.18079669395549949 0 -0.048583433801033478 -0.18728911877980611 0 -0.04224094911505525 -0.20168175555289891 0 -0.058327232484387218 -0.2013044317948425 0 -0.058327232484387218 -0.2013044317948425 0 -0.04785115009529034 -0.21335122322519601 0 -0.065984069430329237 -0.21594808513783789 0 -0.04224094911505525 -0.20168175555289891 0 -0.058327232484387218 -0.2013044317948425 0 -0.04785115009529034 -0.21335122322519601 0 -0.04785115009529034 -0.21335122322519601 0 -0.065984069430329237 -0.21594808513783789 0 -0.04785115009529034 -0.21335122322519601 0 -0.050089297127046031 -0.22131182591420251 0 -0.065984069430329237 -0.21594808513783789 0 -0.0217915143334447 -0.19785215020996011 0 -0.042215728434048867 -0.21899496761086559 0 -0.0217915143334447 -0.19785215020996011 0 -0.04224094911505525 -0.20168175555289891 0 -0.042215728434048867 -0.21899496761086559 0 -0.04224094911505525 -0.20168175555289891 0 -0.04785115009529034 -0.21335122322519601 0 -0.042215728434048867 -0.21899496761086559 0 -0.04785115009529034 -0.21335122322519601 0 -0.042215728434048867 -0.21899496761086559 0 -0.050089297127046031 -0.22131182591420251 0 -0.024832472176938718 -0.21885173135413241 0 -0.031998745265470661 -0.22641465662269231 0 -0.042215728434048867 -0.21899496761086559 0 -0.031998745265470661 -0.22641465662269231 0 -0.042215728434048867 -0.21899496761086559 0 -0.041320068815934301 -0.22639292378782619 0 -0.031998745265470661 -0.22641465662269231 0 -0.041320068815934301 -0.22639292378782619 0 -0.038133232148655979 -0.23444534332888789 0 -0.02974340118516787 -0.23585106297766359 0 -0.031998745265470661 -0.22641465662269231 0 -0.038133232148655979 -0.23444534332888789 0 -0.041320068815934301 -0.22639292378782619 0 -0.052151212760384272 -0.22988480121754831 0 -0.038133232148655979 -0.23444534332888789 0 -0.042215728434048867 -0.21899496761086559 0 -0.041320068815934301 -0.22639292378782619 0 -0.050089297127046031 -0.22131182591420251 0 -0.041320068815934301 -0.22639292378782619 0 -0.050089297127046031 -0.22131182591420251 0 -0.052151212760384272 -0.22988480121754831 0 -0.0567919256119837 -0.24387644547435741 0 -0.065984069430329237 -0.21594808513783789 0 -0.050089297127046031 -0.22131182591420251 0 -0.052151212760384272 -0.22988480121754831 0 -0.065984069430329237 -0.21594808513783789 0 -0.052151212760384272 -0.22988480121754831 0 -0.0567919256119837 -0.24387644547435741 0 -0.065984069430329237 -0.21594808513783789 0 -0.052151212760384272 -0.22988480121754831 0 -0.0567919256119837 -0.24387644547435741 0 -0.045207486351244337 -0.24272005325013779 0 -0.046517308340487992 -0.25474718453952289 0 -0.0567919256119837 -0.24387644547435741 0 -0.045207486351244337 -0.24272005325013779 0 -0.038581934025118947 -0.25114857380685968 0 -0.046517308340487992 -0.25474718453952289 0 -0.045207486351244337 -0.24272005325013779 0 -0.052151212760384272 -0.22988480121754831 0 -0.045207486351244337 -0.24272005325013779 0 -0.038133232148655979 -0.23444534332888789 0 -0.02974340118516787 -0.23585106297766359 0 -0.038133232148655979 -0.23444534332888789 0 -0.033387688564450117 -0.24425465961654741 0 -0.045207486351244337 -0.24272005325013779 0 -0.038133232148655979 -0.23444534332888789 0 -0.033387688564450117 -0.24425465961654741 0 -0.038581934025118947 -0.25114857380685968 0 -0.03064478186574425 -0.25326356670072259 0 -0.033387688564450117 -0.24425465961654741 0 -0.038581934025118947 -0.25114857380685968 0 -0.045207486351244337 -0.24272005325013779 0 -0.033387688564450117 -0.24425465961654741 0 -0.076282262678724011 -0.24169347649274159 0 -0.094544528280961701 -0.23130979592197831 0 -0.1005321994236209 -0.2431127607729493 0 -0.090174700483665673 -0.26498018187443112 0 -0.076282262678724011 -0.24169347649274159 0 -0.1005321994236209 -0.2431127607729493 0 -0.063484538676239377 -0.26413124226689111 0 -0.0567919256119837 -0.24387644547435741 0 -0.076282262678724011 -0.24169347649274159 0 -0.0567919256119837 -0.24387644547435741 0 -0.076282262678724011 -0.24169347649274159 0 -0.076216545617433393 -0.2267874217425101 0 -0.0567919256119837 -0.24387644547435741 0 -0.076216545617433393 -0.2267874217425101 0 -0.065984069430329237 -0.21594808513783789 0 -0.076216545617433393 -0.2267874217425101 0 -0.089079986681209755 -0.21925571071859279 0 -0.065984069430329237 -0.21594808513783789 0 -0.076282262678724011 -0.24169347649274159 0 -0.076216545617433393 -0.2267874217425101 0 -0.089079986681209755 -0.21925571071859279 0 -0.076282262678724011 -0.24169347649274159 0 -0.089079986681209755 -0.21925571071859279 0 -0.076282262678724011 -0.24169347649274159 0 -0.089079986681209755 -0.21925571071859279 0 -0.094544528280961701 -0.23130979592197831 0 -0.089079986681209755 -0.21925571071859279 0 -0.087982693832912948 -0.20610030108417279 0 -0.065984069430329237 -0.21594808513783789 0 -0.089079986681209755 -0.21925571071859279 0 -0.091681034097487346 -0.21469539259619891 0 -0.087982693832912948 -0.20610030108417279 0 -0.089079986681209755 -0.21925571071859279 0 -0.091681034097487346 -0.21469539259619891 0 -0.089079986681209755 -0.21925571071859279 0 -0.065984069430329237 -0.21594808513783789 0 -0.058327232484387218 -0.2013044317948425 0 -0.065984069430329237 -0.21594808513783789 0 -0.072928541530643487 -0.1948487939390374 0 -0.065984069430329237 -0.21594808513783789 0 -0.072928541530643487 -0.1948487939390374 0 -0.087982693832912948 -0.20610030108417279 0 -0.065984069430329237 -0.21594808513783789 0 -0.072928541530643487 -0.1948487939390374 0 -0.058327232484387218 -0.2013044317948425 0 -0.072928541530643487 -0.1948487939390374 0 -0.063770138428779252 -0.18079669395549949 0 -0.087982693832912948 -0.20610030108417279 0 -0.072928541530643487 -0.1948487939390374 0 -0.088647710124579282 -0.1895137930351245 0 -0.087982693832912948 -0.20610030108417279 0 -0.088647710124579282 -0.1895137930351245 0 -0.098413722631135098 -0.19641739989264009 0 -0.088647710124579282 -0.1895137930351245 0 -0.098413722631135098 -0.19641739989264009 0 -0.1039428787252024 -0.18306303235069041 0 -0.087982693832912948 -0.20610030108417279 0 -0.098413722631135098 -0.19641739989264009 0 -0.1018219586260966 -0.2062222809526808 0 -0.098413722631135098 -0.19641739989264009 0 -0.10967337184688419 -0.19718759204053191 0 -0.1018219586260966 -0.2062222809526808 0 -0.098413722631135098 -0.19641739989264009 0 -0.10967337184688419 -0.19718759204053191 0 -0.1039428787252024 -0.18306303235069041 0 -0.1039428787252024 -0.18306303235069041 0 -0.1280127438194481 -0.19237656196114411 0 -0.10967337184688419 -0.19718759204053191 0 -0.1178174188303993 -0.20556040013348681 0 -0.1280127438194481 -0.19237656196114411 0 -0.10967337184688419 -0.19718759204053191 0 -0.1039428787252024 -0.18306303235069041 0 -0.1280127438194481 -0.19237656196114411 0 -0.10967337184688419 -0.19718759204053191 0 -0.10961342770230489 -0.21003706569406461 0 -0.1178174188303993 -0.20556040013348681 0 -0.1178174188303993 -0.20556040013348681 0 -0.1109550451866443 -0.21888036136960631 0 -0.13246178853905299 -0.20873151589840269 0 -0.1109550451866443 -0.21888036136960631 0 -0.13246178853905299 -0.20873151589840269 0 -0.1109550451866443 -0.21888036136960631 0 -0.12407830270498089 -0.22426790937284519 0 -0.13246178853905299 -0.20873151589840269 0 -0.10961342770230489 -0.21003706569406461 0 -0.1178174188303993 -0.20556040013348681 0 -0.1109550451866443 -0.21888036136960631 0 -0.10961342770230489 -0.21003706569406461 0 -0.103172625086798 -0.22127395363072039 0 -0.1109550451866443 -0.21888036136960631 0 -0.10961342770230489 -0.21003706569406461 0 -0.1018219586260966 -0.2062222809526808 0 -0.103172625086798 -0.22127395363072039 0 -0.10967337184688419 -0.19718759204053191 0 -0.10961342770230489 -0.21003706569406461 0 -0.1018219586260966 -0.2062222809526808 0 -0.091681034097487346 -0.21469539259619891 0 -0.087982693832912948 -0.20610030108417279 0 -0.103172625086798 -0.22127395363072039 0 -0.089079986681209755 -0.21925571071859279 0 -0.091681034097487346 -0.21469539259619891 0 -0.103172625086798 -0.22127395363072039 0 -0.087982693832912948 -0.20610030108417279 0 -0.103172625086798 -0.22127395363072039 0 -0.087982693832912948 -0.20610030108417279 0 -0.1018219586260966 -0.2062222809526808 0 -0.103172625086798 -0.22127395363072039 0 -0.094544528280961701 -0.23130979592197831 0 -0.103172625086798 -0.22127395363072039 0 -0.1005321994236209 -0.2431127607729493 0 -0.089079986681209755 -0.21925571071859279 0 -0.103172625086798 -0.22127395363072039 0 -0.089079986681209755 -0.21925571071859279 0 -0.094544528280961701 -0.23130979592197831 0 -0.103172625086798 -0.22127395363072039 0 -0.103172625086798 -0.22127395363072039 0 -0.1223681628105569 -0.24044891992886891 0 -0.103172625086798 -0.22127395363072039 0 -0.12407830270498089 -0.22426790937284519 0 -0.1238233973506119 -0.23541481827178831 0 -0.103172625086798 -0.22127395363072039 0 -0.1223681628105569 -0.24044891992886891 0 -0.1238233973506119 -0.23541481827178831 0 -0.103172625086798 -0.22127395363072039 0 -0.12407830270498089 -0.22426790937284519 0 -0.103172625086798 -0.22127395363072039 0 -0.1109550451866443 -0.21888036136960631 0 -0.12407830270498089 -0.22426790937284519 0 -0.11757885349586771 -0.25701660664448461 0 -0.1223681628105569 -0.24044891992886891 0 -0.1005321994236209 -0.2431127607729493 0 -0.11757885349586771 -0.25701660664448461 0 -0.1223681628105569 -0.24044891992886891 0 -0.1223681628105569 -0.24044891992886891 0 -0.1238233973506119 -0.23541481827178831 0 -0.103172625086798 -0.22127395363072039 0 -0.1223681628105569 -0.24044891992886891 0 -0.1005321994236209 -0.2431127607729493 0 -0.088441251280713618 -0.1477167476767523 0 -0.085474651021334253 -0.13655174303235951 0 -0.077236065216807342 -0.1460130695171887 0 -0.088441251280713618 -0.1477167476767523 0 -0.077236065216807342 -0.1460130695171887 0 -0.072985053953480025 -0.15595005707556001 0 -0.088441251280713618 -0.1477167476767523 0 -0.093538562727787294 -0.15940564464812701 0 -0.098894310772838973 -0.14952020789867901 0 -0.088441251280713618 -0.1477167476767523 0 -0.085474651021334253 -0.13655174303235951 0 -0.095252038160572317 -0.1406191133899993 0 -0.085474651021334253 -0.13655174303235951 0 -0.095971306836852913 -0.13086642389395989 0 -0.095252038160572317 -0.1406191133899993 0 -0.082994471061899833 -0.1234246307735777 0 -0.085474651021334253 -0.13655174303235951 0 -0.095971306836852913 -0.13086642389395989 0 -0.082994471061899833 -0.1234246307735777 0 -0.085474651021334253 -0.13655174303235951 0 -0.073596501371478315 -0.1364787996572045 0 -0.085474651021334253 -0.13655174303235951 0 -0.073596501371478315 -0.1364787996572045 0 -0.077236065216807342 -0.1460130695171887 0 -0.06059931965736505 -0.14742373122833671 0 -0.060446148579459319 -0.1303024678998376 0 -0.073596501371478315 -0.1364787996572045 0 -0.082994471061899833 -0.1234246307735777 0 -0.073596501371478315 -0.1364787996572045 0 -0.071674103496310607 -0.1250344835198243 0 -0.060446148579459319 -0.1303024678998376 0 -0.073596501371478315 -0.1364787996572045 0 -0.071674103496310607 -0.1250344835198243 0 -0.06059931965736505 -0.14742373122833671 0 -0.073596501371478315 -0.1364787996572045 0 -0.077236065216807342 -0.1460130695171887 0 -0.057687804487617317 -0.16516521689311761 0 -0.06059931965736505 -0.14742373122833671 0 -0.072985053953480025 -0.15595005707556001 0 -0.06059931965736505 -0.14742373122833671 0 -0.077236065216807342 -0.1460130695171887 0 -0.072985053953480025 -0.15595005707556001 0 -0.057687804487617317 -0.16516521689311761 0 -0.079873013630956835 -0.17374950274023659 0 -0.057687804487617317 -0.16516521689311761 0 -0.072985053953480025 -0.15595005707556001 0 -0.079873013630956835 -0.17374950274023659 0 -0.072928541530643487 -0.1948487939390374 0 -0.079873013630956835 -0.17374950274023659 0 -0.057687804487617317 -0.16516521689311761 0 -0.063770138428779252 -0.18079669395549949 0 -0.079873013630956835 -0.17374950274023659 0 -0.072928541530643487 -0.1948487939390374 0 -0.063770138428779252 -0.18079669395549949 0 -0.079873013630956835 -0.17374950274023659 0 -0.072928541530643487 -0.1948487939390374 0 -0.088647710124579282 -0.1895137930351245 0 -0.079873013630956835 -0.17374950274023659 0 -0.079873013630956835 -0.17374950274023659 0 -0.1039428787252024 -0.18306303235069041 0 -0.088647710124579282 -0.1895137930351245 0 -0.079873013630956835 -0.17374950274023659 0 -0.1039428787252024 -0.18306303235069041 0 -0.088441251280713618 -0.1477167476767523 0 -0.079873013630956835 -0.17374950274023659 0 -0.079873013630956835 -0.17374950274023659 0 -0.093538562727787294 -0.15940564464812701 0 -0.098088850166783578 -0.16700629557107341 0 -0.088441251280713618 -0.1477167476767523 0 -0.079873013630956835 -0.17374950274023659 0 -0.093538562727787294 -0.15940564464812701 0 -0.088441251280713618 -0.1477167476767523 0 -0.072985053953480025 -0.15595005707556001 0 -0.079873013630956835 -0.17374950274023659 0 -0.093538562727787294 -0.15940564464812701 0 -0.098088850166783578 -0.16700629557107341 0 -0.1023953877876435 -0.15903546935389351 0 -0.098088850166783578 -0.16700629557107341 0 -0.1039428787252024 -0.18306303235069041 0 -0.1119878388851908 -0.16231915977259129 0 -0.098088850166783578 -0.16700629557107341 0 -0.1023953877876435 -0.15903546935389351 0 -0.1119878388851908 -0.16231915977259129 0 -0.079873013630956835 -0.17374950274023659 0 -0.098088850166783578 -0.16700629557107341 0 -0.1039428787252024 -0.18306303235069041 0 -0.1039428787252024 -0.18306303235069041 0 -0.11859204859796291 -0.17560578940816099 0 -0.1119878388851908 -0.16231915977259129 0 -0.1039428787252024 -0.18306303235069041 0 -0.11859204859796291 -0.17560578940816099 0 -0.1280127438194481 -0.19237656196114411 0 -0.1023953877876435 -0.15903546935389351 0 -0.1119878388851908 -0.16231915977259129 0 -0.1169630623746598 -0.14907522687480429 0 -0.11859204859796291 -0.17560578940816099 0 -0.1119878388851908 -0.16231915977259129 0 -0.12588679133122799 -0.1624874708491951 0 -0.1119878388851908 -0.16231915977259129 0 -0.1169630623746598 -0.14907522687480429 0 -0.12588679133122799 -0.1624874708491951 0 -0.1119878388851908 -0.16231915977259129 0 -0.1169630623746598 -0.14907522687480429 0 -0.1023953877876435 -0.15903546935389351 0 -0.1169630623746598 -0.14907522687480429 0 -0.098894310772838973 -0.14952020789867901 0 -0.1169630623746598 -0.14907522687480429 0 -0.098894310772838973 -0.14952020789867901 0 -0.1169630623746598 -0.14907522687480429 0 -0.098894310772838973 -0.14952020789867901 0 -0.1074786708911218 -0.1384404444482458 0 -0.088441251280713618 -0.1477167476767523 0 -0.098894310772838973 -0.14952020789867901 0 -0.095252038160572317 -0.1406191133899993 0 -0.098894310772838973 -0.14952020789867901 0 -0.095252038160572317 -0.1406191133899993 0 -0.1074786708911218 -0.1384404444482458 0 -0.093538562727787294 -0.15940564464812701 0 -0.1023953877876435 -0.15903546935389351 0 -0.098894310772838973 -0.14952020789867901 0 -0.1085913382140784 -0.11903379143832921 0 -0.095971306836852913 -0.13086642389395989 0 -0.1074786708911218 -0.1384404444482458 0 -0.095971306836852913 -0.13086642389395989 0 -0.095252038160572317 -0.1406191133899993 0 -0.1074786708911218 -0.1384404444482458 0 -0.1085913382140784 -0.11903379143832921 0 -0.1074786708911218 -0.1384404444482458 0 -0.12736410167423581 -0.1213878944680517 0 -0.1169630623746598 -0.14907522687480429 0 -0.1074786708911218 -0.1384404444482458 0 -0.12736410167423581 -0.1213878944680517 0 -0.1169630623746598 -0.14907522687480429 0 -0.12736410167423581 -0.1213878944680517 0 -0.13746664940214659 -0.13470709103134659 0 -0.12736410167423581 -0.1213878944680517 0 -0.14737054533773081 -0.1208951937003558 0 -0.1169630623746598 -0.14907522687480429 0 -0.13746664940214659 -0.13470709103134659 0 -0.12736410167423581 -0.1213878944680517 0 -0.1569759497016511 -0.14808982533941309 0 -0.14737054533773081 -0.1208951937003558 0 -0.13746664940214659 -0.13470709103134659 0 -0.1569759497016511 -0.14808982533941309 0 -0.14737054533773081 -0.1208951937003558 0 -0.1369695060381555 -0.1485825261071109 0 -0.1526603788815559 -0.1573596194762775 0 -0.1569759497016511 -0.14808982533941309 0 -0.13746664940214659 -0.13470709103134659 0 -0.1369695060381555 -0.1485825261071109 0 -0.1569759497016511 -0.14808982533941309 0 -0.1369695060381555 -0.1485825261071109 0 -0.1569759497016511 -0.14808982533941309 0 -0.1169630623746598 -0.14907522687480429 0 -0.1369695060381555 -0.1485825261071109 0 -0.1169630623746598 -0.14907522687480429 0 -0.1369695060381555 -0.1485825261071109 0 -0.12588679133122799 -0.1624874708491951 0 -0.1169630623746598 -0.14907522687480429 0 -0.13746664940214659 -0.13470709103134659 0 -0.1369695060381555 -0.1485825261071109 0 -0.11859204859796291 -0.17560578940816099 0 -0.12588679133122799 -0.1624874708491951 0 -0.13147554750711021 -0.17522771154146191 0 -0.12588679133122799 -0.1624874708491951 0 -0.13147554750711021 -0.17522771154146191 0 -0.14107140235061469 -0.16358211752318311 0 -0.13147554750711021 -0.17522771154146191 0 -0.14520517551865919 -0.17294749126987599 0 -0.14107140235061469 -0.16358211752318311 0 -0.1369695060381555 -0.1485825261071109 0 -0.12588679133122799 -0.1624874708491951 0 -0.14107140235061469 -0.16358211752318311 0 -0.11859204859796291 -0.17560578940816099 0 -0.13147554750711021 -0.17522771154146191 0 -0.1280127438194481 -0.19237656196114411 0 -0.13147554750711021 -0.17522771154146191 0 -0.1398254013782112 -0.18365029146927231 0 -0.1280127438194481 -0.19237656196114411 0 -0.13147554750711021 -0.17522771154146191 0 -0.1398254013782112 -0.18365029146927231 0 -0.14520517551865919 -0.17294749126987599 0 -0.1398254013782112 -0.18365029146927231 0 -0.14820117369214661 -0.18035874543477601 0 -0.1498687104188495 -0.18767128888863599 0 -0.1398254013782112 -0.18365029146927231 0 -0.14820117369214661 -0.18035874543477601 0 -0.14520517551865919 -0.17294749126987599 0 -0.14820117369214661 -0.18035874543477601 0 -0.14520517551865919 -0.17294749126987599 0 -0.1568216795970071 -0.17538216601134321 0 -0.14820117369214661 -0.18035874543477601 0 -0.15608754076248521 -0.18190001438557629 0 -0.1568216795970071 -0.17538216601134321 0 -0.14520517551865919 -0.17294749126987599 0 -0.15263532751206779 -0.16758471640843459 0 -0.1568216795970071 -0.17538216601134321 0 -0.14820117369214661 -0.18035874543477601 0 -0.15608754076248521 -0.18190001438557629 0 -0.1498687104188495 -0.18767128888863599 0 -0.15608754076248521 -0.18190001438557629 0 -0.1607184616130248 -0.18728683910860641 0 -0.1498687104188495 -0.18767128888863599 0 -0.1369695060381555 -0.1485825261071109 0 -0.14107140235061469 -0.16358211752318311 0 -0.1526603788815559 -0.1573596194762775 0 -0.14520517551865919 -0.17294749126987599 0 -0.14107140235061469 -0.16358211752318311 0 -0.15263532751206779 -0.16758471640843459 0 -0.15263532751206779 -0.16758471640843459 0 -0.1526603788815559 -0.1573596194762775 0 -0.16142564196989831 -0.16655703171874039 0 -0.14107140235061469 -0.16358211752318311 0 -0.15263532751206779 -0.16758471640843459 0 -0.1526603788815559 -0.1573596194762775 0 -0.1526603788815559 -0.1573596194762775 0 -0.16142564196989831 -0.16655703171874039 0 -0.16326087804426159 -0.16588359066980229 0 -0.16326087804426159 -0.16588359066980229 0 -0.1569759497016511 -0.14808982533941309 0 -0.1526603788815559 -0.1573596194762775 0 -0.16326087804426159 -0.16588359066980229 0 -0.1569759497016511 -0.14808982533941309 0 -0.1594122663447772 -0.17133307891758459 0 -0.16142564196989831 -0.16655703171874039 0 -0.16676641630013581 -0.17580840153182001 0 -0.15263532751206779 -0.16758471640843459 0 -0.1594122663447772 -0.17133307891758459 0 -0.16142564196989831 -0.16655703171874039 0 -0.16142564196989831 -0.16655703171874039 0 -0.16326087804426159 -0.16588359066980229 0 -0.16676641630013581 -0.17580840153182001 0 -0.15263532751206779 -0.16758471640843459 0 -0.1594122663447772 -0.17133307891758459 0 -0.1568216795970071 -0.17538216601134321 0 -0.16142564196989831 -0.16655703171874039 0 -0.16326087804426159 -0.16588359066980229 0 -0.16326087804426159 -0.16588359066980229 0 -0.16676641630013581 -0.17580840153182001 0 -0.1783922457352059 -0.17293489930968209 0 -0.16326087804426159 -0.16588359066980229 0 -0.16676641630013581 -0.17580840153182001 0 -0.15608754076248521 -0.18190001438557629 0 -0.1607184616130248 -0.18728683910860641 0 -0.16676641630013581 -0.17580840153182001 0 -0.15608754076248521 -0.18190001438557629 0 -0.1568216795970071 -0.17538216601134321 0 -0.16676641630013581 -0.17580840153182001 0 -0.1594122663447772 -0.17133307891758459 0 -0.1568216795970071 -0.17538216601134321 0 -0.16676641630013581 -0.17580840153182001 0 -0.1607184616130248 -0.18728683910860641 0 -0.16676641630013581 -0.17580840153182001 0 -0.17547527524387041 -0.1884338249559952 0 -0.17547527524387041 -0.1884338249559952 0 -0.1969820185962792 -0.17828497948479149 0 -0.1783922457352059 -0.17293489930968209 0 -0.17547527524387041 -0.1884338249559952 0 -0.1969820185962792 -0.17828497948479149 0 -0.16676641630013581 -0.17580840153182001 0 -0.1783922457352059 -0.17293489930968209 0 -0.17547527524387041 -0.1884338249559952 0 -0.16326087804426159 -0.16588359066980229 0 -0.18947664049148261 -0.1562636999060015 0 -0.16326087804426159 -0.16588359066980229 0 -0.18633417632017751 -0.14736681724080919 0 -0.18947664049148261 -0.1562636999060015 0 -0.16326087804426159 -0.16588359066980229 0 -0.1783922457352059 -0.17293489930968209 0 -0.18947664049148261 -0.1562636999060015 0 -0.18633417632017751 -0.14736681724080919 0 -0.16621773075288121 -0.1295318635244681 0 -0.18400621351090571 -0.1217110611121094 0 -0.16621773075288121 -0.1295318635244681 0 -0.1569759497016511 -0.14808982533941309 0 -0.14737054533773081 -0.1208951937003558 0 -0.18633417632017751 -0.14736681724080919 0 -0.16621773075288121 -0.1295318635244681 0 -0.1569759497016511 -0.14808982533941309 0 -0.18633417632017751 -0.14736681724080919 0 -0.1569759497016511 -0.14808982533941309 0 -0.16326087804426159 -0.16588359066980229 0 -0.18633417632017751 -0.14736681724080919 0 -0.1569759497016511 -0.14808982533941309 0 -0.1377523016625678 -0.25581657194563601 0 -0.15263230708737521 -0.24356194903458239 0 -0.13476861079800859 -0.2391754021203874 0 -0.15263230708737521 -0.24356194903458239 0 -0.13476861079800859 -0.2391754021203874 0 -0.14055595197029169 -0.22979662500526149 0 -0.1377523016625678 -0.25581657194563601 0 -0.1223681628105569 -0.24044891992886891 0 -0.13476861079800859 -0.2391754021203874 0 -0.1377523016625678 -0.25581657194563601 0 -0.1223681628105569 -0.24044891992886891 0 -0.1238233973506119 -0.23541481827178831 0 -0.13476861079800859 -0.2391754021203874 0 -0.13139441447274411 -0.22962184130071481 0 -0.1223681628105569 -0.24044891992886891 0 -0.1238233973506119 -0.23541481827178831 0 -0.13476861079800859 -0.2391754021203874 0 -0.13476861079800859 -0.2391754021203874 0 -0.14055595197029169 -0.22979662500526149 0 -0.13139441447274411 -0.22962184130071481 0 -0.12407830270498089 -0.22426790937284519 0 -0.1238233973506119 -0.23541481827178831 0 -0.13139441447274411 -0.22962184130071481 0 -0.12407830270498089 -0.22426790937284519 0 -0.13139441447274411 -0.22962184130071481 0 -0.13441394179160859 -0.22010184774946731 0 -0.14055595197029169 -0.22979662500526149 0 -0.13139441447274411 -0.22962184130071481 0 -0.13441394179160859 -0.22010184774946731 0 -0.14055595197029169 -0.22979662500526149 0 -0.13441394179160859 -0.22010184774946731 0 -0.14940536450650499 -0.21373664043116339 0 -0.15263230708737521 -0.24356194903458239 0 -0.14940536450650499 -0.21373664043116339 0 -0.15263230708737521 -0.24356194903458239 0 -0.14940536450650499 -0.21373664043116339 0 -0.16621803193972459 -0.22739125443424221 0 -0.15263230708737521 -0.24356194903458239 0 -0.14055595197029169 -0.22979662500526149 0 -0.14940536450650499 -0.21373664043116339 0 -0.14940536450650499 -0.21373664043116339 0 -0.13246178853905299 -0.20873151589840269 0 -0.1539685318914617 -0.1985826704271989 0 -0.13246178853905299 -0.20873151589840269 0 -0.1539685318914617 -0.1985826704271989 0 -0.13441394179160859 -0.22010184774946731 0 -0.14940536450650499 -0.21373664043116339 0 -0.13246178853905299 -0.20873151589840269 0 -0.12407830270498089 -0.22426790937284519 0 -0.13441394179160859 -0.22010184774946731 0 -0.13246178853905299 -0.20873151589840269 0 -0.1178174188303993 -0.20556040013348681 0 -0.13246178853905299 -0.20873151589840269 0 -0.1280127438194481 -0.19237656196114411 0 -0.13246178853905299 -0.20873151589840269 0 -0.1280127438194481 -0.19237656196114411 0 -0.14041115317576749 -0.19424917250638599 0 -0.1398254013782112 -0.18365029146927231 0 -0.1280127438194481 -0.19237656196114411 0 -0.14041115317576749 -0.19424917250638599 0 -0.13246178853905299 -0.20873151589840269 0 -0.14041115317576749 -0.19424917250638599 0 -0.1539685318914617 -0.1985826704271989 0 -0.14041115317576749 -0.19424917250638599 0 -0.1539685318914617 -0.1985826704271989 0 -0.1498687104188495 -0.18767128888863599 0 -0.1398254013782112 -0.18365029146927231 0 -0.14041115317576749 -0.19424917250638599 0 -0.1498687104188495 -0.18767128888863599 0 -0.1607184616130248 -0.18728683910860641 0 -0.1539685318914617 -0.1985826704271989 0 -0.1498687104188495 -0.18767128888863599 0 -0.1607184616130248 -0.18728683910860641 0 -0.1539685318914617 -0.1985826704271989 0 -0.17547527524387041 -0.1884338249559952 0 -0.1539685318914617 -0.1985826704271989 0 -0.17547527524387041 -0.1884338249559952 0 -0.16825702714884239 -0.20885775366498019 0 -0.1539685318914617 -0.1985826704271989 0 -0.17547527524387041 -0.1884338249559952 0 -0.17547527524387041 -0.1884338249559952 0 -0.18277425339256639 -0.2026996383603622 0 -0.16825702714884239 -0.20885775366498019 0 -0.17547527524387041 -0.1884338249559952 0 -0.18277425339256639 -0.2026996383603622 0 -0.1902080517791363 -0.1917922864575213 0 -0.18277425339256639 -0.2026996383603622 0 -0.16825702714884239 -0.20885775366498019 0 -0.18626938338499441 -0.22517712183416291 0 -0.14940536450650499 -0.21373664043116339 0 -0.1539685318914617 -0.1985826704271989 0 -0.16825702714884239 -0.20885775366498019 0 -0.14940536450650499 -0.21373664043116339 0 -0.16825702714884239 -0.20885775366498019 0 -0.16621803193972459 -0.22739125443424221 0 -0.16825702714884239 -0.20885775366498019 0 -0.16621803193972459 -0.22739125443424221 0 -0.18626938338499441 -0.22517712183416291 0 -0.16621803193972459 -0.22739125443424221 0 -0.18626938338499441 -0.22517712183416291 0 -0.1745260775709061 -0.24562280720632229 0 -0.18626938338499441 -0.22517712183416291 0 -0.1745260775709061 -0.24562280720632229 0 -0.19988453840298659 -0.24176205441804 0 -0.18626938338499441 -0.22517712183416291 0 -0.1745260775709061 -0.24562280720632229 0 -0.15263230708737521 -0.24356194903458239 0 -0.16621803193972459 -0.22739125443424221 0 -0.1745260775709061 -0.24562280720632229 0 -0.1689202540561075 -0.25519621835756329 0 -0.15263230708737521 -0.24356194903458239 0 -0.1745260775709061 -0.24562280720632229 0 -0.21854221021918649 -0.25236034283526498 0 -0.19988453840298659 -0.24176205441804 0 -0.21493562756427159 -0.22243862284749449 0 -0.19160736129165659 -0.25262396586623759 0 -0.1745260775709061 -0.24562280720632229 0 -0.19988453840298659 -0.24176205441804 0 -0.18626938338499441 -0.22517712183416291 0 -0.19988453840298659 -0.24176205441804 0 -0.21493562756427159 -0.22243862284749449 0 -0.21493562756427159 -0.22243862284749449 0 -0.19801268919908249 -0.2047314364620034 0 -0.21541309520260529 -0.20113031717637361 0 -0.18626938338499441 -0.22517712183416291 0 -0.19801268919908249 -0.2047314364620034 0 -0.18277425339256639 -0.2026996383603622 0 -0.18626938338499441 -0.22517712183416291 0 -0.19801268919908249 -0.2047314364620034 0 -0.18626938338499441 -0.22517712183416291 0 -0.21493562756427159 -0.22243862284749449 0 -0.19801268919908249 -0.2047314364620034 0 -0.19801268919908249 -0.2047314364620034 0 -0.1902080517791363 -0.1917922864575213 0 -0.20975599501317069 -0.18428575108984399 0 -0.18277425339256639 -0.2026996383603622 0 -0.19801268919908249 -0.2047314364620034 0 -0.1902080517791363 -0.1917922864575213 0 -0.21541309520260529 -0.20113031717637361 0 -0.20975599501317069 -0.18428575108984399 0 -0.229896455205026 -0.18225842567294781 0 -0.19801268919908249 -0.2047314364620034 0 -0.21541309520260529 -0.20113031717637361 0 -0.20975599501317069 -0.18428575108984399 0 -0.19801268919908249 -0.2047314364620034 0 -0.20975599501317069 -0.18428575108984399 0 -0.21541309520260529 -0.20113031717637361 0 -0.23384346774119599 -0.2034651679104556 0 -0.229896455205026 -0.18225842567294781 0 -0.24262172765942899 -0.19089247064050549 0 -0.25644706280453389 -0.1995927939493197 0 -0.25029992488695979 -0.1782534950292988 0 -0.24262172765942899 -0.19089247064050549 0 -0.23384346774119599 -0.2034651679104556 0 -0.25644706280453389 -0.1995927939493197 0 -0.24262172765942899 -0.19089247064050549 0 -0.23384346774119599 -0.2034651679104556 0 -0.229896455205026 -0.18225842567294781 0 -0.23384346774119599 -0.2034651679104556 0 -0.2377451423251814 -0.23136366228574551 0 -0.25674041691710447 -0.22108212323078871 0 -0.23384346774119599 -0.2034651679104556 0 -0.25674041691710447 -0.22108212323078871 0 -0.25644706280453389 -0.1995927939493197 0 -0.21493562756427159 -0.22243862284749449 0 -0.21541309520260529 -0.20113031717637361 0 -0.23384346774119599 -0.2034651679104556 0 -0.21493562756427159 -0.22243862284749449 0 -0.23384346774119599 -0.2034651679104556 0 -0.2377451423251814 -0.23136366228574551 0 -0.24465976002352091 -0.25387891845332877 0 -0.2377451423251814 -0.23136366228574551 0 -0.25992972331208369 -0.2410680052130979 0 -0.24465976002352091 -0.25387891845332877 0 -0.21854221021918649 -0.25236034283526498 0 -0.2377451423251814 -0.23136366228574551 0 -0.21854221021918649 -0.25236034283526498 0 -0.21493562756427159 -0.22243862284749449 0 -0.2377451423251814 -0.23136366228574551 0 -0.21854221021918649 -0.25236034283526498 0 -0.2377451423251814 -0.23136366228574551 0 -0.21569240293870359 -0.1466438091422006 0 -0.18947664049148261 -0.1562636999060015 0 -0.2105647825198341 -0.15627799774793921 0 -0.2105647825198341 -0.15627799774793921 0 -0.22149930082725899 -0.1638400657176845 0 -0.22047208921520459 -0.14652609931143951 0 -0.21569240293870359 -0.1466438091422006 0 -0.2105647825198341 -0.15627799774793921 0 -0.22047208921520459 -0.14652609931143951 0 -0.21569240293870359 -0.1466438091422006 0 -0.22047208921520459 -0.14652609931143951 0 -0.20228853596836749 -0.13187567246267581 0 -0.2244809527826766 -0.1321180186971766 0 -0.2129261089666101 -0.1196792574727195 0 -0.21569240293870359 -0.1466438091422006 0 -0.20228853596836749 -0.13187567246267581 0 -0.2244809527826766 -0.1321180186971766 0 -0.18633417632017751 -0.14736681724080919 0 -0.20228853596836749 -0.13187567246267581 0 -0.18400621351090571 -0.1217110611121094 0 -0.21569240293870359 -0.1466438091422006 0 -0.18947664049148261 -0.1562636999060015 0 -0.18633417632017751 -0.14736681724080919 0 -0.21569240293870359 -0.1466438091422006 0 -0.18947664049148261 -0.1562636999060015 0 -0.18633417632017751 -0.14736681724080919 0 -0.21569240293870359 -0.1466438091422006 0 -0.18633417632017751 -0.14736681724080919 0 -0.21569240293870359 -0.1466438091422006 0 -0.20228853596836749 -0.13187567246267581 0 -0.1783922457352059 -0.17293489930968209 0 -0.18947664049148261 -0.1562636999060015 0 -0.1969820185962792 -0.17828497948479149 0 -0.18947664049148261 -0.1562636999060015 0 -0.1969820185962792 -0.17828497948479149 0 -0.20568347912652049 -0.16811631466237001 0 -0.18947664049148261 -0.1562636999060015 0 -0.20568347912652049 -0.16811631466237001 0 -0.2105647825198341 -0.15627799774793921 0 -0.1902080517791363 -0.1917922864575213 0 -0.1969820185962792 -0.17828497948479149 0 -0.20975599501317069 -0.18428575108984399 0 -0.17547527524387041 -0.1884338249559952 0 -0.1902080517791363 -0.1917922864575213 0 -0.1969820185962792 -0.17828497948479149 0 -0.20975599501317069 -0.18428575108984399 0 -0.22149930082725899 -0.1638400657176845 0 -0.20975599501317069 -0.18428575108984399 0 -0.20568347912652049 -0.16811631466237001 0 -0.22149930082725899 -0.1638400657176845 0 -0.1969820185962792 -0.17828497948479149 0 -0.20975599501317069 -0.18428575108984399 0 -0.20568347912652049 -0.16811631466237001 0 -0.20568347912652049 -0.16811631466237001 0 -0.2105647825198341 -0.15627799774793921 0 -0.22149930082725899 -0.1638400657176845 0 -0.22149930082725899 -0.1638400657176845 0 -0.2402834514435094 -0.1667894474332684 0 -0.2341322288468432 -0.15422277024092529 0 -0.22149930082725899 -0.1638400657176845 0 -0.229896455205026 -0.18225842567294781 0 -0.2402834514435094 -0.1667894474332684 0 -0.20975599501317069 -0.18428575108984399 0 -0.22149930082725899 -0.1638400657176845 0 -0.229896455205026 -0.18225842567294781 0 -0.229896455205026 -0.18225842567294781 0 -0.2402834514435094 -0.1667894474332684 0 -0.25029992488695979 -0.1782534950292988 0 -0.24262172765942899 -0.19089247064050549 0 -0.229896455205026 -0.18225842567294781 0 -0.25029992488695979 -0.1782534950292988 0 -0.2402834514435094 -0.1667894474332684 0 -0.25029992488695979 -0.1782534950292988 0 -0.25761979100978533 -0.16665415002795461 0 -0.2402834514435094 -0.1667894474332684 0 -0.24825300788518309 -0.1555077779107997 0 -0.25761979100978533 -0.16665415002795461 0 -0.2402834514435094 -0.1667894474332684 0 -0.24825300788518309 -0.1555077779107997 0 -0.2341322288468432 -0.15422277024092529 0 -0.24825300788518309 -0.1555077779107997 0 -0.2405789555143194 -0.1375116727892334 0 -0.25601133851015478 -0.1487044986697981 0 -0.24825300788518309 -0.1555077779107997 0 -0.2341322288468432 -0.15422277024092529 0 -0.2405789555143194 -0.1375116727892334 0 -0.21569240293870359 -0.1466438091422006 0 -0.22047208921520459 -0.14652609931143951 0 -0.2405789555143194 -0.1375116727892334 0 -0.22149930082725899 -0.1638400657176845 0 -0.2341322288468432 -0.15422277024092529 0 -0.22047208921520459 -0.14652609931143951 0 -0.21569240293870359 -0.1466438091422006 0 -0.2405789555143194 -0.1375116727892334 0 -0.2341322288468432 -0.15422277024092529 0 -0.22047208921520459 -0.14652609931143951 0 -0.2405789555143194 -0.1375116727892334 0 -0.21569240293870359 -0.1466438091422006 0 -0.2244809527826766 -0.1321180186971766 0 -0.2405789555143194 -0.1375116727892334 0 -0.2244809527826766 -0.1321180186971766 0 -0.2405789555143194 -0.1375116727892334 0 -0.23651179230599079 -0.1199754775459997 0 -0.2405789555143194 -0.1375116727892334 0 -0.23651179230599079 -0.1199754775459997 0 -0.25054446979338107 -0.12912519928877991 0 -0.23651179230599079 -0.1199754775459997 0 -0.24959534238117709 -0.1078054475449232 0 -0.26009747564537128 -0.1202716976192799 0 -0.23651179230599079 -0.1199754775459997 0 -0.26009747564537128 -0.1202716976192799 0 -0.23651179230599079 -0.1199754775459997 0 -0.26009747564537128 -0.1202716976192799 0 -0.25054446979338107 -0.12912519928877991 0 -0.23651179230599079 -0.1199754775459997 0 -0.24959534238117709 -0.1078054475449232 0 -0.23746734258601571 -0.1067534300414448 0 -0.24098124084432149 -0.095291905336151436 0 -0.23746734258601571 -0.1067534300414448 0 -0.22473934926471251 -0.1042306158888877 0 -0.24959534238117709 -0.1078054475449232 0 -0.24098124084432149 -0.095291905336151436 0 -0.25687551172258971 -0.095275519396915032 0 -0.24959534238117709 -0.1078054475449232 0 -0.24098124084432149 -0.095291905336151436 0 -0.23746734258601571 -0.1067534300414448 0 -0.22473934926471251 -0.1042306158888877 0 -0.22774604229393439 -0.087804120453188278 0 -0.20897213189474381 -0.093424031558921927 0 -0.24098124084432149 -0.095291905336151436 0 -0.22473934926471251 -0.1042306158888877 0 -0.22774604229393439 -0.087804120453188278 0 -0.2244809527826766 -0.1321180186971766 0 -0.23651179230599079 -0.1199754775459997 0 -0.2129261089666101 -0.1196792574727195 0 -0.23651179230599079 -0.1199754775459997 0 -0.2129261089666101 -0.1196792574727195 0 -0.23651179230599079 -0.1199754775459997 0 -0.23746734258601571 -0.1067534300414448 0 -0.22473934926471251 -0.1042306158888877 0 -0.23651179230599079 -0.1199754775459997 0 -0.22473934926471251 -0.1042306158888877 0 -0.2129261089666101 -0.1196792574727195 0 -0.2466384096447127 -0.069214282175018252 0 -0.23144064811545881 -0.071679072189906365 0 -0.24006258296416741 -0.059977364163272567 0 -0.2466384096447127 -0.069214282175018252 0 -0.23867713564867771 -0.0818228939715063 0 -0.25106785873748549 -0.083001848322642804 0 -0.2466384096447127 -0.069214282175018252 0 -0.23867713564867771 -0.0818228939715063 0 -0.23144064811545881 -0.071679072189906365 0 -0.24098124084432149 -0.095291905336151436 0 -0.25106785873748549 -0.083001848322642804 0 -0.25687551172258971 -0.095275519396915032 0 -0.24098124084432149 -0.095291905336151436 0 -0.23867713564867771 -0.0818228939715063 0 -0.25106785873748549 -0.083001848322642804 0 -0.24098124084432149 -0.095291905336151436 0 -0.23867713564867771 -0.0818228939715063 0 -0.22774604229393439 -0.087804120453188278 0 -0.22048160989483939 -0.080833284582646742 0 -0.22774604229393439 -0.087804120453188278 0 -0.23144064811545881 -0.071679072189906365 0 -0.23867713564867771 -0.0818228939715063 0 -0.22774604229393439 -0.087804120453188278 0 -0.23144064811545881 -0.071679072189906365 0 -0.22048160989483939 -0.080833284582646742 0 -0.22774604229393439 -0.087804120453188278 0 -0.20897213189474381 -0.093424031558921927 0 -0.23144064811545881 -0.071679072189906365 0 -0.2137676172752207 -0.070425914128570383 0 -0.21856310265569601 -0.047427796698218422 0 -0.22048160989483939 -0.080833284582646742 0 -0.23144064811545881 -0.071679072189906365 0 -0.2137676172752207 -0.070425914128570383 0 -0.23144064811545881 -0.071679072189906365 0 -0.23092663332862359 -0.057189961691847993 0 -0.24006258296416741 -0.059977364163272567 0 -0.20335705558913081 -0.063140738221072371 0 -0.2137676172752207 -0.070425914128570383 0 -0.20224544779007569 -0.076575791796341275 0 -0.2137676172752207 -0.070425914128570383 0 -0.20897213189474381 -0.093424031558921927 0 -0.20224544779007569 -0.076575791796341275 0 -0.2137676172752207 -0.070425914128570383 0 -0.20897213189474381 -0.093424031558921927 0 -0.22048160989483939 -0.080833284582646742 0 -0.2137676172752207 -0.070425914128570383 0 -0.20897213189474381 -0.093424031558921927 0 -0.20897213189474381 -0.093424031558921927 0 -0.18864483179057751 -0.079783658531738119 0 -0.20224544779007569 -0.076575791796341275 0 -0.20897213189474381 -0.093424031558921927 0 -0.18864483179057751 -0.079783658531738119 0 -0.1843208979706715 -0.098582101900239388 0 -0.20335705558913081 -0.063140738221072371 0 -0.18864483179057751 -0.079783658531738119 0 -0.20224544779007569 -0.076575791796341275 0 -0.20335705558913081 -0.063140738221072371 0 -0.18864483179057751 -0.079783658531738119 0 -0.20335705558913081 -0.063140738221072371 0 -0.18864483179057751 -0.079783658531738119 0 -0.18476368522970901 -0.060313507398174523 0 -0.22473934926471251 -0.1042306158888877 0 -0.2129261089666101 -0.1196792574727195 0 -0.1994025973422491 -0.10829052452779669 0 -0.20228853596836749 -0.13187567246267581 0 -0.2129261089666101 -0.1196792574727195 0 -0.1994025973422491 -0.10829052452779669 0 -0.22473934926471251 -0.1042306158888877 0 -0.20897213189474381 -0.093424031558921927 0 -0.1994025973422491 -0.10829052452779669 0 -0.20897213189474381 -0.093424031558921927 0 -0.1994025973422491 -0.10829052452779669 0 -0.1843208979706715 -0.098582101900239388 0 -0.20228853596836749 -0.13187567246267581 0 -0.1994025973422491 -0.10829052452779669 0 -0.18400621351090571 -0.1217110611121094 0 -0.1994025973422491 -0.10829052452779669 0 -0.18400621351090571 -0.1217110611121094 0 -0.1843208979706715 -0.098582101900239388 0 -0.16621773075288121 -0.1295318635244681 0 -0.18400621351090571 -0.1217110611121094 0 -0.16647442841019139 -0.11035058163789351 0 -0.18400621351090571 -0.1217110611121094 0 -0.16647442841019139 -0.11035058163789351 0 -0.1843208979706715 -0.098582101900239388 0 -0.16621773075288121 -0.1295318635244681 0 -0.16647442841019139 -0.11035058163789351 0 -0.14737054533773081 -0.1208951937003558 0 -0.16647442841019139 -0.11035058163789351 0 -0.16521255597131029 -0.094363556792246006 0 -0.15171862691764881 -0.097019712797942706 0 -0.16647442841019139 -0.11035058163789351 0 -0.16521255597131029 -0.094363556792246006 0 -0.1843208979706715 -0.098582101900239388 0 -0.16521255597131029 -0.094363556792246006 0 -0.1843208979706715 -0.098582101900239388 0 -0.1718657805157274 -0.077566403117392158 0 -0.18864483179057751 -0.079783658531738119 0 -0.1843208979706715 -0.098582101900239388 0 -0.1718657805157274 -0.077566403117392158 0 -0.18864483179057751 -0.079783658531738119 0 -0.1718657805157274 -0.077566403117392158 0 -0.18476368522970901 -0.060313507398174523 0 -0.1718657805157274 -0.077566403117392158 0 -0.16766997596840549 -0.055069670457126463 0 -0.18476368522970901 -0.060313507398174523 0 -0.1718657805157274 -0.077566403117392158 0 -0.1555984100513392 -0.067553704814911478 0 -0.16766997596840549 -0.055069670457126463 0 -0.1718657805157274 -0.077566403117392158 0 -0.15451520526235171 -0.083858215916353424 0 -0.1555984100513392 -0.067553704814911478 0 -0.16521255597131029 -0.094363556792246006 0 -0.1718657805157274 -0.077566403117392158 0 -0.15451520526235171 -0.083858215916353424 0 -0.16521255597131029 -0.094363556792246006 0 -0.15451520526235171 -0.083858215916353424 0 -0.15171862691764881 -0.097019712797942706 0 -0.15451520526235171 -0.083858215916353424 0 -0.14334301715898221 -0.074859018030624863 0 -0.13903100861317999 -0.090330850909877913 0 -0.15451520526235171 -0.083858215916353424 0 -0.13903100861317999 -0.090330850909877913 0 -0.15171862691764881 -0.097019712797942706 0 -0.1377651409738101 -0.093700562061298426 0 -0.13903100861317999 -0.090330850909877913 0 -0.15171862691764881 -0.097019712797942706 0 -0.15451520526235171 -0.083858215916353424 0 -0.1555984100513392 -0.067553704814911478 0 -0.14334301715898221 -0.074859018030624863 0 -0.1555984100513392 -0.067553704814911478 0 -0.14334301715898221 -0.074859018030624863 0 -0.13945189113323761 -0.059806177835795588 0 -0.14334301715898221 -0.074859018030624863 0 -0.12930964035960699 -0.069761515268982097 0 -0.13945189113323761 -0.059806177835795588 0 -0.12930964035960699 -0.069761515268982097 0 -0.1377651409738101 -0.093700562061298426 0 -0.12930964035960699 -0.069761515268982097 0 -0.1377651409738101 -0.093700562061298426 0 -0.13903100861317999 -0.090330850909877913 0 -0.1189291253072135 -0.086669643832799348 0 -0.12930964035960699 -0.069761515268982097 0 -0.1377651409738101 -0.093700562061298426 0 -0.14334301715898221 -0.074859018030624863 0 -0.12930964035960699 -0.069761515268982097 0 -0.13903100861317999 -0.090330850909877913 0 -0.1377651409738101 -0.093700562061298426 0 -0.13903100861317999 -0.090330850909877913 0 -0.11893842975153809 -0.10446969177473921 0 -0.1377651409738101 -0.093700562061298426 0 -0.12736410167423581 -0.1213878944680517 0 -0.1377651409738101 -0.093700562061298426 0 -0.12736410167423581 -0.1213878944680517 0 -0.11893842975153809 -0.10446969177473921 0 -0.1189291253072135 -0.086669643832799348 0 -0.1377651409738101 -0.093700562061298426 0 -0.1377651409738101 -0.093700562061298426 0 -0.12736410167423581 -0.1213878944680517 0 -0.14737054533773081 -0.1208951937003558 0 -0.16647442841019139 -0.11035058163789351 0 -0.14737054533773081 -0.1208951937003558 0 -0.15171862691764881 -0.097019712797942706 0 -0.1377651409738101 -0.093700562061298426 0 -0.14737054533773081 -0.1208951937003558 0 -0.15171862691764881 -0.097019712797942706 0 -0.1377651409738101 -0.093700562061298426 0 -0.14737054533773081 -0.1208951937003558 0 -0.14925834278157041 -0.027771983247297551 0 -0.15381676672243971 -0.0048344028756085976 0 -0.16158573310271521 -0.019122381719964599 0 -0.14925834278157041 -0.027771983247297551 0 -0.15381676672243971 -0.0048344028756085976 0 -0.14925834278157041 -0.027771983247297551 0 -0.13622810944285851 -0.025664644749336048 0 -0.13728148428220571 -0.03631729474545041 0 -0.15381676672243971 -0.0048344028756085976 0 -0.13373576905839379 -0.01378162565115138 0 -0.13796817939809339 -7.5853332940862265e-05 0 -0.14925834278157041 -0.027771983247297551 0 -0.15381676672243971 -0.0048344028756085976 0 -0.13373576905839379 -0.01378162565115138 0 -0.1244522405185825 -0.00038769298458709092 0 -0.1246368416492639 -0.024787675353444869 0 -0.13373576905839379 -0.01378162565115138 0 -0.1244522405185825 -0.00038769298458709092 0 -0.13373576905839379 -0.01378162565115138 0 -0.13796817939809339 -7.5853332940862265e-05 0 -0.1244522405185825 -0.00038769298458709092 0 -0.13373576905839379 -0.01378162565115138 0 -0.1246368416492639 -0.024787675353444869 0 -0.13373576905839379 -0.01378162565115138 0 -0.13622810944285851 -0.025664644749336048 0 -0.14925834278157041 -0.027771983247297551 0 -0.13373576905839379 -0.01378162565115138 0 -0.13622810944285851 -0.025664644749336048 0 -0.1246368416492639 -0.024787675353444869 0 -0.13622810944285851 -0.025664644749336048 0 -0.13728148428220571 -0.03631729474545041 0 -0.1248214427799455 -0.0491876577223027 0 -0.1246368416492639 -0.024787675353444869 0 -0.13067566527459321 -0.039597081228004503 0 -0.1246368416492639 -0.024787675353444869 0 -0.13067566527459321 -0.039597081228004503 0 -0.13728148428220571 -0.03631729474545041 0 -0.1248214427799455 -0.0491876577223027 0 -0.13067566527459321 -0.039597081228004503 0 -0.1359628923869578 -0.048095697090820053 0 -0.13067566527459321 -0.039597081228004503 0 -0.13728148428220571 -0.03631729474545041 0 -0.1359628923869578 -0.048095697090820053 0 -0.13728148428220571 -0.03631729474545041 0 -0.1359628923869578 -0.048095697090820053 0 -0.14767594406259391 -0.049379474087132447 0 -0.1248214427799455 -0.0491876577223027 0 -0.12930964035960699 -0.069761515268982097 0 -0.13945189113323761 -0.059806177835795588 0 -0.1208541397454049 -0.045822468476665427 0 -0.12930964035960699 -0.069761515268982097 0 -0.1248214427799455 -0.0491876577223027 0 -0.1359628923869578 -0.048095697090820053 0 -0.13945189113323761 -0.059806177835795588 0 -0.1555984100513392 -0.067553704814911478 0 -0.13945189113323761 -0.059806177835795588 0 -0.14767594406259391 -0.049379474087132447 0 -0.1359628923869578 -0.048095697090820053 0 -0.13945189113323761 -0.059806177835795588 0 -0.14767594406259391 -0.049379474087132447 0 -0.14925834278157041 -0.027771983247297551 0 -0.14767594406259391 -0.049379474087132447 0 -0.16346190388351911 -0.035477368974388322 0 -0.14925834278157041 -0.027771983247297551 0 -0.13728148428220571 -0.03631729474545041 0 -0.14767594406259391 -0.049379474087132447 0 -0.14767594406259391 -0.049379474087132447 0 -0.16346190388351911 -0.035477368974388322 0 -0.16766997596840549 -0.055069670457126463 0 -0.16346190388351911 -0.035477368974388322 0 -0.16766997596840549 -0.055069670457126463 0 -0.1792130821544009 -0.041655239440509813 0 -0.1555984100513392 -0.067553704814911478 0 -0.14767594406259391 -0.049379474087132447 0 -0.16766997596840549 -0.055069670457126463 0 -0.16766997596840549 -0.055069670457126463 0 -0.18476368522970901 -0.060313507398174523 0 -0.1792130821544009 -0.041655239440509813 0 -0.18476368522970901 -0.060313507398174523 0 -0.1792130821544009 -0.041655239440509813 0 -0.19607578221694649 -0.043845816873478577 0 -0.16346190388351911 -0.035477368974388322 0 -0.1792130821544009 -0.041655239440509813 0 -0.1747539590121796 -0.02148713112583673 0 -0.1792130821544009 -0.041655239440509813 0 -0.1747539590121796 -0.02148713112583673 0 -0.18874747204970219 -0.028974905836781941 0 -0.1747539590121796 -0.02148713112583673 0 -0.18814241231787171 -0.014961103822567131 0 -0.18874747204970219 -0.028974905836781941 0 -0.14925834278157041 -0.027771983247297551 0 -0.16346190388351911 -0.035477368974388322 0 -0.16158573310271521 -0.019122381719964599 0 -0.16346190388351911 -0.035477368974388322 0 -0.1747539590121796 -0.02148713112583673 0 -0.16158573310271521 -0.019122381719964599 0 -0.1747539590121796 -0.02148713112583673 0 -0.16158573310271521 -0.019122381719964599 0 -0.1670666400728934 -0.0075955490013497832 0 -0.15381676672243971 -0.0048344028756085976 0 -0.1670666400728934 -0.0075955490013497832 0 -0.16872927738725291 0.0066655648670224509 0 -0.15381676672243971 -0.0048344028756085976 0 -0.16158573310271521 -0.019122381719964599 0 -0.1670666400728934 -0.0075955490013497832 0 -0.1670666400728934 -0.0075955490013497832 0 -0.1785064095432054 -0.0066611219507198768 0 -0.16872927738725291 0.0066655648670224509 0 -0.1747539590121796 -0.02148713112583673 0 -0.1670666400728934 -0.0075955490013497832 0 -0.1785064095432054 -0.0066611219507198768 0 -0.1747539590121796 -0.02148713112583673 0 -0.1785064095432054 -0.0066611219507198768 0 -0.18814241231787171 -0.014961103822567131 0 -0.1785064095432054 -0.0066611219507198768 0 -0.18814241231787171 -0.014961103822567131 0 -0.193034969706537 0.00064734206737222756 0 -0.20555212454711219 -0.022925237921517471 0 -0.20993853639106591 -0.0035380738047605968 0 -0.193034969706537 0.00064734206737222756 0 -0.18814241231787171 -0.014961103822567131 0 -0.20555212454711219 -0.022925237921517471 0 -0.193034969706537 0.00064734206737222756 0 -0.20555212454711219 -0.022925237921517471 0 -0.193034969706537 0.00064734206737222756 0 -0.20993853639106591 -0.0035380738047605968 0 -0.193034969706537 0.00064734206737222756 0 -0.18814241231787171 -0.014961103822567131 0 -0.18874747204970219 -0.028974905836781941 0 -0.20555212454711219 -0.022925237921517471 0 -0.20555212454711219 -0.022925237921517471 0 -0.21630961893328751 -0.01519709454307171 0 -0.22290571171937651 -0.026601576769118469 0 -0.20993853639106591 -0.0035380738047605968 0 -0.22684210307559549 -0.0077234896768903086 0 -0.21568563774484731 0.0082874278720449449 0 -0.20993853639106591 -0.0035380738047605968 0 -0.21630961893328751 -0.01519709454307171 0 -0.22684210307559549 -0.0077234896768903086 0 -0.20555212454711219 -0.022925237921517471 0 -0.20993853639106591 -0.0035380738047605968 0 -0.21630961893328751 -0.01519709454307171 0 -0.20993853639106591 -0.0035380738047605968 0 -0.22684210307559549 -0.0077234896768903086 0 -0.20335705558913081 -0.063140738221072371 0 -0.18476368522970901 -0.060313507398174523 0 -0.19607578221694649 -0.043845816873478577 0 -0.1792130821544009 -0.041655239440509813 0 -0.18874747204970219 -0.028974905836781941 0 -0.19607578221694649 -0.043845816873478577 0 -0.18874747204970219 -0.028974905836781941 0 -0.20555212454711219 -0.022925237921517471 0 -0.19607578221694649 -0.043845816873478577 0 -0.20555212454711219 -0.022925237921517471 0 -0.21856310265569601 -0.047427796698218422 0 -0.20555212454711219 -0.022925237921517471 0 -0.21856310265569601 -0.047427796698218422 0 -0.21896932036315811 -0.045479663861346789 0 -0.20555212454711219 -0.022925237921517471 0 -0.19607578221694649 -0.043845816873478577 0 -0.21856310265569601 -0.047427796698218422 0 -0.20555212454711219 -0.022925237921517471 0 -0.21896932036315811 -0.045479663861346789 0 -0.22290571171937651 -0.026601576769118469 0 -0.2137676172752207 -0.070425914128570383 0 -0.21856310265569601 -0.047427796698218422 0 -0.20335705558913081 -0.063140738221072371 0 -0.2137676172752207 -0.070425914128570383 0 -0.21856310265569601 -0.047427796698218422 0 -0.20335705558913081 -0.063140738221072371 0 -0.19607578221694649 -0.043845816873478577 0 -0.21856310265569601 -0.047427796698218422 0 -0.20335705558913081 -0.063140738221072371 0 -0.21856310265569601 -0.047427796698218422 0 -0.23144064811545881 -0.071679072189906365 0 -0.21856310265569601 -0.047427796698218422 0 -0.23092663332862359 -0.057189961691847993 0 -0.23144064811545881 -0.071679072189906365 0 -0.21856310265569601 -0.047427796698218422 0 -0.21856310265569601 -0.047427796698218422 0 -0.23092663332862359 -0.057189961691847993 0 -0.22458774444026389 -0.046948698447319907 0 -0.23092663332862359 -0.057189961691847993 0 -0.2320274706224234 -0.04981915803055513 0 -0.23892230415514151 -0.050781370399802413 0 -0.23092663332862359 -0.057189961691847993 0 -0.22458774444026389 -0.046948698447319907 0 -0.2320274706224234 -0.04981915803055513 0 -0.21896932036315811 -0.045479663861346789 0 -0.2306307955349908 -0.032287844280089482 0 -0.22290571171937651 -0.026601576769118469 0 -0.21896932036315811 -0.045479663861346789 0 -0.22290571171937651 -0.026601576769118469 0 -0.22458774444026389 -0.046948698447319907 0 -0.2320274706224234 -0.04981915803055513 0 -0.23529860714157019 -0.041169280456794459 0 -0.22458774444026389 -0.046948698447319907 0 -0.2306307955349908 -0.032287844280089482 0 -0.23529860714157019 -0.041169280456794459 0 -0.22458774444026389 -0.046948698447319907 0 -0.21896932036315811 -0.045479663861346789 0 -0.2306307955349908 -0.032287844280089482 0 -0.21856310265569601 -0.047427796698218422 0 -0.22458774444026389 -0.046948698447319907 0 -0.21896932036315811 -0.045479663861346789 0 -0.21856310265569601 -0.047427796698218422 0 -0.21896932036315811 -0.045479663861346789 0 -0.21896932036315811 -0.045479663861346789 0 -0.2306307955349908 -0.032287844280089482 0 -0.2306307955349908 -0.032287844280089482 0 -0.23529860714157019 -0.041169280456794459 0 -0.241537864008738 -0.030171217790278881 0 -0.24798951326795751 -0.035882587373858313 0 -0.23529860714157019 -0.041169280456794459 0 -0.241537864008738 -0.030171217790278881 0 -0.24798951326795751 -0.035882587373858313 0 -0.24357205858261219 -0.044359355700093257 0 -0.23529860714157019 -0.041169280456794459 0 -0.24798951326795751 -0.035882587373858313 0 -0.24357205858261219 -0.044359355700093257 0 -0.25238491957690051 -0.051022134359787842 0 -0.24357205858261219 -0.044359355700093257 0 -0.23529860714157019 -0.041169280456794459 0 -0.23892230415514151 -0.050781370399802413 0 -0.2466384096447127 -0.069214282175018252 0 -0.24006258296416741 -0.059977364163272567 0 -0.25238491957690051 -0.051022134359787842 0 -0.2320274706224234 -0.04981915803055513 0 -0.23529860714157019 -0.041169280456794459 0 -0.23892230415514151 -0.050781370399802413 0 -0.23892230415514151 -0.050781370399802413 0 -0.24006258296416741 -0.059977364163272567 0 -0.25238491957690051 -0.051022134359787842 0 -0.24357205858261219 -0.044359355700093257 0 -0.23892230415514151 -0.050781370399802413 0 -0.25238491957690051 -0.051022134359787842 0 -0.23092663332862359 -0.057189961691847993 0 -0.23892230415514151 -0.050781370399802413 0 -0.24006258296416741 -0.059977364163272567 0 -0.21630961893328751 -0.01519709454307171 0 -0.22684210307559549 -0.0077234896768903086 0 -0.22290571171937651 -0.026601576769118469 0 -0.22684210307559549 -0.0077234896768903086 0 -0.22290571171937651 -0.026601576769118469 0 -0.23226271327452069 -0.02198020745377605 0 -0.22684210307559549 -0.0077234896768903086 0 -0.22290571171937651 -0.026601576769118469 0 -0.2306307955349908 -0.032287844280089482 0 -0.22290571171937651 -0.026601576769118469 0 -0.23226271327452069 -0.02198020745377605 0 -0.22684210307559549 -0.0077234896768903086 0 -0.23226271327452069 -0.02198020745377605 0 -0.24229227070682269 -0.019096024698831499 0 -0.2306307955349908 -0.032287844280089482 0 -0.241537864008738 -0.030171217790278881 0 -0.24229227070682269 -0.019096024698831499 0 -0.2306307955349908 -0.032287844280089482 0 -0.23226271327452069 -0.02198020745377605 0 -0.24229227070682269 -0.019096024698831499 0 -0.2306307955349908 -0.032287844280089482 0 -0.24229227070682269 -0.019096024698831499 0 -0.24798951326795751 -0.035882587373858313 0 -0.241537864008738 -0.030171217790278881 0 -0.25387676547985721 -0.02452441136234379 0 -0.241537864008738 -0.030171217790278881 0 -0.24229227070682269 -0.019096024698831499 0 -0.25387676547985721 -0.02452441136234379 0 -0.24229227070682269 -0.019096024698831499 0 -0.24826461013585729 -0.013027819984466921 0 -0.25387676547985721 -0.02452441136234379 0 -0.22684210307559549 -0.0077234896768903086 0 -0.24826461013585729 -0.013027819984466921 0 -0.24598119983726671 0.0037338506766126851 0 -0.22684210307559549 -0.0077234896768903086 0 -0.24229227070682269 -0.019096024698831499 0 -0.24826461013585729 -0.013027819984466921 0 -0.22684210307559549 -0.0077234896768903086 0 -0.24826461013585729 -0.013027819984466921 0 -0.24826461013585729 -0.013027819984466921 0 -0.26003022337954462 -0.0038093911555793728 0 -0.24598119983726671 0.0037338506766126851 0 -0.24826461013585729 -0.013027819984466921 0 -0.26003022337954462 -0.0038093911555793728 0 -0.26968711719611937 -0.018332150292041979 0 -0.24826461013585729 -0.013027819984466921 0 -0.26968711719611937 -0.018332150292041979 0 -0.25387676547985721 -0.02452441136234379 0 -0.26968711719611937 -0.018332150292041979 0 -0.26155562347943467 -0.037861138146123199 0 -0.24826461013585729 -0.013027819984466921 0 -0.25387676547985721 -0.02452441136234379 0 -0.26968711719611937 -0.018332150292041979 0 -0.26968711719611937 -0.018332150292041979 0 -0.28953187906397732 -0.034281883787379987 0 -0.27524211720584768 -0.038538427260779863 0 -0.26003022337954462 -0.0038093911555793728 0 -0.26968711719611937 -0.018332150292041979 0 -0.27433688946420332 -0.0007833753365484626 0 -0.26968711719611937 -0.018332150292041979 0 -0.27433688946420332 -0.0007833753365484626 0 -0.28631392786639209 -0.0070506759659385472 0 -0.28631392786639209 -0.0070506759659385472 0 -0.29653674479957171 -0.021015146411400301 0 -0.3025805037907468 -0.0027432771802810229 0 -0.28631392786639209 -0.0070506759659385472 0 -0.3025805037907468 -0.0027432771802810229 0 -0.28842838408131971 0.0076205693905790281 0 -0.27433688946420332 -0.0007833753365484626 0 -0.28631392786639209 -0.0070506759659385472 0 -0.28842838408131971 0.0076205693905790281 0 -0.26968711719611937 -0.018332150292041979 0 -0.28631392786639209 -0.0070506759659385472 0 -0.29653674479957171 -0.021015146411400301 0 -0.26968711719611937 -0.018332150292041979 0 -0.29653674479957171 -0.021015146411400301 0 -0.28953187906397732 -0.034281883787379987 0 -0.29653674479957171 -0.021015146411400301 0 -0.28953187906397732 -0.034281883787379987 0 -0.31718310516035308 -0.038172790333745737 0 -0.29653674479957171 -0.021015146411400301 0 -0.31459326366374579 -0.01532774276474733 0 -0.31718310516035308 -0.038172790333745737 0 -0.29653674479957171 -0.021015146411400301 0 -0.3025805037907468 -0.0027432771802810229 0 -0.31459326366374579 -0.01532774276474733 0 -0.30229462048881822 -0.056161209871372138 0 -0.29850594913894141 -0.055440370537233663 0 -0.30849544073550722 -0.074776909133231664 0 -0.30229462048881822 -0.056161209871372138 0 -0.29366820665513949 -0.048519954280836622 0 -0.31370341578724742 -0.051143824177853653 0 -0.30229462048881822 -0.056161209871372138 0 -0.29850594913894141 -0.055440370537233663 0 -0.29366820665513949 -0.048519954280836622 0 -0.30229462048881822 -0.056161209871372138 0 -0.31629816603535338 -0.060261719535131632 0 -0.30229462048881822 -0.056161209871372138 0 -0.31178497446605258 -0.064623658022855565 0 -0.31629816603535338 -0.060261719535131632 0 -0.30229462048881822 -0.056161209871372138 0 -0.31370341578724742 -0.051143824177853653 0 -0.31629816603535338 -0.060261719535131632 0 -0.29366820665513949 -0.048519954280836622 0 -0.31718310516035308 -0.038172790333745737 0 -0.29366820665513949 -0.048519954280836622 0 -0.31718310516035308 -0.038172790333745737 0 -0.31370341578724742 -0.051143824177853653 0 -0.28953187906397732 -0.034281883787379987 0 -0.29366820665513949 -0.048519954280836622 0 -0.31718310516035308 -0.038172790333745737 0 -0.28953187906397732 -0.034281883787379987 0 -0.29366820665513949 -0.048519954280836622 0 -0.27524211720584768 -0.038538427260779863 0 -0.29366820665513949 -0.048519954280836622 0 -0.27015330814992611 -0.058867118227927437 0 -0.29366820665513949 -0.048519954280836622 0 -0.28660483069534037 -0.061918496488246169 0 -0.27015330814992611 -0.058867118227927437 0 -0.29850594913894141 -0.055440370537233663 0 -0.28660483069534037 -0.061918496488246169 0 -0.29557893925590151 -0.069462416794053169 0 -0.29850594913894141 -0.055440370537233663 0 -0.29366820665513949 -0.048519954280836622 0 -0.28660483069534037 -0.061918496488246169 0 -0.29366820665513949 -0.048519954280836622 0 -0.27015330814992611 -0.058867118227927437 0 -0.27524211720584768 -0.038538427260779863 0 -0.26968711719611937 -0.018332150292041979 0 -0.27524211720584768 -0.038538427260779863 0 -0.26155562347943467 -0.037861138146123199 0 -0.27015330814992611 -0.058867118227927437 0 -0.27524211720584768 -0.038538427260779863 0 -0.26155562347943467 -0.037861138146123199 0 -0.24798951326795751 -0.035882587373858313 0 -0.26155562347943467 -0.037861138146123199 0 -0.25238491957690051 -0.051022134359787842 0 -0.24798951326795751 -0.035882587373858313 0 -0.25387676547985721 -0.02452441136234379 0 -0.26155562347943467 -0.037861138146123199 0 -0.27015330814992611 -0.058867118227927437 0 -0.26155562347943467 -0.037861138146123199 0 -0.25238491957690051 -0.051022134359787842 0 -0.2466384096447127 -0.069214282175018252 0 -0.27015330814992611 -0.058867118227927437 0 -0.25238491957690051 -0.051022134359787842 0 -0.2466384096447127 -0.069214282175018252 0 -0.27015330814992611 -0.058867118227927437 0 -0.26102584033089798 -0.073534373921212107 0 -0.2466384096447127 -0.069214282175018252 0 -0.27015330814992611 -0.058867118227927437 0 -0.2466384096447127 -0.069214282175018252 0 -0.26102584033089798 -0.073534373921212107 0 -0.25106785873748549 -0.083001848322642804 0 -0.25106785873748549 -0.083001848322642804 0 -0.26431637422662529 -0.083961298504163229 0 -0.25687551172258971 -0.095275519396915032 0 -0.26431637422662529 -0.083961298504163229 0 -0.25687551172258971 -0.095275519396915032 0 -0.26922948176741379 -0.094556007429682482 0 -0.26102584033089798 -0.073534373921212107 0 -0.25106785873748549 -0.083001848322642804 0 -0.26431637422662529 -0.083961298504163229 0 -0.26431637422662529 -0.083961298504163229 0 -0.27622487875609619 -0.085738752979791055 0 -0.27411142324960069 -0.07331497732508381 0 -0.26431637422662529 -0.083961298504163229 0 -0.27622487875609619 -0.085738752979791055 0 -0.26922948176741379 -0.094556007429682482 0 -0.27622487875609619 -0.085738752979791055 0 -0.26922948176741379 -0.094556007429682482 0 -0.28208733676033698 -0.099544680508420066 0 -0.27622487875609619 -0.085738752979791055 0 -0.27411142324960069 -0.07331497732508381 0 -0.28634330733871821 -0.075869823829162894 0 -0.28660483069534037 -0.061918496488246169 0 -0.27015330814992611 -0.058867118227927437 0 -0.27411142324960069 -0.07331497732508381 0 -0.27015330814992611 -0.058867118227927437 0 -0.26102584033089798 -0.073534373921212107 0 -0.27411142324960069 -0.07331497732508381 0 -0.26102584033089798 -0.073534373921212107 0 -0.26431637422662529 -0.083961298504163229 0 -0.27411142324960069 -0.07331497732508381 0 -0.24959534238117709 -0.1078054475449232 0 -0.26009747564537128 -0.1202716976192799 0 -0.26511094786836592 -0.1069062435210571 0 -0.24959534238117709 -0.1078054475449232 0 -0.26511094786836592 -0.1069062435210571 0 -0.25687551172258971 -0.095275519396915032 0 -0.26511094786836592 -0.1069062435210571 0 -0.25687551172258971 -0.095275519396915032 0 -0.26922948176741379 -0.094556007429682482 0 -0.26511094786836592 -0.1069062435210571 0 -0.27676276389741278 -0.11052104179975 0 -0.28208733676033698 -0.099544680508420066 0 -0.26511094786836592 -0.1069062435210571 0 -0.26922948176741379 -0.094556007429682482 0 -0.28208733676033698 -0.099544680508420066 0 -0.26511094786836592 -0.1069062435210571 0 -0.28208733676033698 -0.099544680508420066 0 -0.26009747564537128 -0.1202716976192799 0 -0.28368315898475188 -0.1205679176925603 0 -0.26697405985724948 -0.1304210152969853 0 -0.26009747564537128 -0.1202716976192799 0 -0.27676276389741278 -0.11052104179975 0 -0.28368315898475188 -0.1205679176925603 0 -0.26009747564537128 -0.1202716976192799 0 -0.28368315898475188 -0.1205679176925603 0 -0.26009747564537128 -0.1202716976192799 0 -0.26511094786836592 -0.1069062435210571 0 -0.27676276389741278 -0.11052104179975 0 -0.28368315898475188 -0.1205679176925603 0 -0.30807566230962469 -0.12087427087378499 0 -0.28368315898475188 -0.1205679176925603 0 -0.29137344231852969 -0.1063755175941712 0 -0.30807566230962469 -0.12087427087378499 0 -0.27676276389741278 -0.11052104179975 0 -0.28368315898475188 -0.1205679176925603 0 -0.29137344231852969 -0.1063755175941712 0 -0.28368315898475188 -0.1205679176925603 0 -0.29137344231852969 -0.1063755175941712 0 -0.29137344231852969 -0.1063755175941712 0 -0.28208733676033698 -0.099544680508420066 0 -0.29906372565230788 -0.092183117495782341 0 -0.28208733676033698 -0.099544680508420066 0 -0.29906372565230788 -0.092183117495782341 0 -0.27676276389741278 -0.11052104179975 0 -0.29137344231852969 -0.1063755175941712 0 -0.28208733676033698 -0.099544680508420066 0 -0.29137344231852969 -0.1063755175941712 0 -0.29906372565230788 -0.092183117495782341 0 -0.30690970986333499 -0.10413412755240679 0 -0.29906372565230788 -0.092183117495782341 0 -0.31411573014289268 -0.085656035662949492 0 -0.29137344231852969 -0.1063755175941712 0 -0.30690970986333499 -0.10413412755240679 0 -0.29906372565230788 -0.092183117495782341 0 -0.28368315898475188 -0.1205679176925603 0 -0.30807566230962469 -0.12087427087378499 0 -0.30140371581860798 -0.1292511186866305 0 -0.29137344231852969 -0.1063755175941712 0 -0.30690970986333499 -0.10413412755240679 0 -0.30807566230962469 -0.12087427087378499 0 -0.29557893925590151 -0.069462416794053169 0 -0.28634330733871821 -0.075869823829162894 0 -0.29528406594296941 -0.079953964946478426 0 -0.28660483069534037 -0.061918496488246169 0 -0.29557893925590151 -0.069462416794053169 0 -0.28634330733871821 -0.075869823829162894 0 -0.28660483069534037 -0.061918496488246169 0 -0.27411142324960069 -0.07331497732508381 0 -0.28634330733871821 -0.075869823829162894 0 -0.27622487875609619 -0.085738752979791055 0 -0.28634330733871821 -0.075869823829162894 0 -0.28693891673241251 -0.08747755748016231 0 -0.28208733676033698 -0.099544680508420066 0 -0.28693891673241251 -0.08747755748016231 0 -0.29906372565230788 -0.092183117495782341 0 -0.27622487875609619 -0.085738752979791055 0 -0.28208733676033698 -0.099544680508420066 0 -0.28693891673241251 -0.08747755748016231 0 -0.28693891673241251 -0.08747755748016231 0 -0.29528406594296941 -0.079953964946478426 0 -0.29906372565230788 -0.092183117495782341 0 -0.28634330733871821 -0.075869823829162894 0 -0.28693891673241251 -0.08747755748016231 0 -0.29528406594296941 -0.079953964946478426 0 -0.29528406594296941 -0.079953964946478426 0 -0.29906372565230788 -0.092183117495782341 0 -0.30849544073550722 -0.074776909133231664 0 -0.29906372565230788 -0.092183117495782341 0 -0.30849544073550722 -0.074776909133231664 0 -0.29906372565230788 -0.092183117495782341 0 -0.30849544073550722 -0.074776909133231664 0 -0.31411573014289268 -0.085656035662949492 0 -0.29906372565230788 -0.092183117495782341 0 -0.31411573014289268 -0.085656035662949492 0 -0.30849544073550722 -0.074776909133231664 0 -0.31411573014289268 -0.085656035662949492 0 -0.30229462048881822 -0.056161209871372138 0 -0.30849544073550722 -0.074776909133231664 0 -0.31178497446605258 -0.064623658022855565 0 -0.29850594913894141 -0.055440370537233663 0 -0.29557893925590151 -0.069462416794053169 0 -0.30849544073550722 -0.074776909133231664 0 -0.30849544073550722 -0.074776909133231664 0 -0.31286059459191501 -0.066721027791507209 0 -0.29850594913894141 -0.055440370537233663 0 -0.30849544073550722 -0.074776909133231664 0 -0.29557893925590151 -0.069462416794053169 0 -0.29528406594296941 -0.079953964946478426 0 -0.30849544073550722 -0.074776909133231664 0 -0.30849544073550722 -0.074776909133231664 0 -0.31178497446605258 -0.064623658022855565 0 -0.31286059459191501 -0.066721027791507209 0 -0.31178497446605258 -0.064623658022855565 0 -0.31286059459191501 -0.066721027791507209 0 -0.31286059459191501 -0.066721027791507209 0 -0.32103296817657878 -0.082656476452658639 0 -0.31286059459191501 -0.066721027791507209 0 -0.32103296817657878 -0.082656476452658639 0 -0.32352590008436471 -0.062378140209921912 0 -0.31178497446605258 -0.064623658022855565 0 -0.31286059459191501 -0.066721027791507209 0 -0.31629816603535338 -0.060261719535131632 0 -0.30849544073550722 -0.074776909133231664 0 -0.31286059459191501 -0.066721027791507209 0 -0.32103296817657878 -0.082656476452658639 0 -0.31286059459191501 -0.066721027791507209 0 -0.31629816603535338 -0.060261719535131632 0 -0.31286059459191501 -0.066721027791507209 0 -0.31629816603535338 -0.060261719535131632 0 -0.32352590008436471 -0.062378140209921912 0 -0.32103296817657878 -0.082656476452658639 0 -0.33093834944883532 -0.101971145942244 0 -0.30849544073550722 -0.074776909133231664 0 -0.31411573014289268 -0.085656035662949492 0 -0.32103296817657878 -0.082656476452658639 0 -0.31411573014289268 -0.085656035662949492 0 -0.32103296817657878 -0.082656476452658639 0 -0.32329194788869442 -0.1034183298589804 0 -0.31411573014289268 -0.085656035662949492 0 -0.32103296817657878 -0.082656476452658639 0 -0.32103296817657878 -0.082656476452658639 0 -0.33692687914299491 -0.089632102483736459 0 -0.33093834944883532 -0.101971145942244 0 -0.32103296817657878 -0.082656476452658639 0 -0.33692687914299491 -0.089632102483736459 0 -0.3453529791357649 -0.07211045902320197 0 -0.32103296817657878 -0.082656476452658639 0 -0.3453529791357649 -0.07211045902320197 0 -0.32352590008436471 -0.062378140209921912 0 -0.34475717967991132 -0.068595070548471249 0 -0.3453529791357649 -0.07211045902320197 0 -0.32352590008436471 -0.062378140209921912 0 -0.34475717967991132 -0.068595070548471249 0 -0.32352590008436471 -0.062378140209921912 0 -0.32103296817657878 -0.082656476452658639 0 -0.3453529791357649 -0.07211045902320197 0 -0.30807566230962469 -0.12087427087378499 0 -0.32329194788869442 -0.1034183298589804 0 -0.33246816563449738 -0.1211806240550105 0 -0.30807566230962469 -0.12087427087378499 0 -0.33246816563449738 -0.1211806240550105 0 -0.30807566230962469 -0.12087427087378499 0 -0.32007374605487132 -0.12494213909402439 0 -0.33246816563449738 -0.1211806240550105 0 -0.30690970986333499 -0.10413412755240679 0 -0.30807566230962469 -0.12087427087378499 0 -0.32329194788869442 -0.1034183298589804 0 -0.32329194788869442 -0.1034183298589804 0 -0.33246816563449738 -0.1211806240550105 0 -0.32007374605487132 -0.12494213909402439 0 -0.33441303965894859 -0.1249452932850653 0 -0.30690970986333499 -0.10413412755240679 0 -0.31411573014289268 -0.085656035662949492 0 -0.32329194788869442 -0.1034183298589804 0 -0.32103296817657878 -0.082656476452658639 0 -0.32329194788869442 -0.1034183298589804 0 -0.33093834944883532 -0.101971145942244 0 -0.31411573014289268 -0.085656035662949492 0 -0.32329194788869442 -0.1034183298589804 0 -0.32329194788869442 -0.1034183298589804 0 -0.33093834944883532 -0.101971145942244 0 -0.33246816563449738 -0.1211806240550105 0 -0.33692687914299491 -0.089632102483736459 0 -0.33093834944883532 -0.101971145942244 0 -0.35038321981080389 -0.10179032851684799 0 -0.33093834944883532 -0.101971145942244 0 -0.34773438721257438 -0.1121772477149196 0 -0.35038321981080389 -0.10179032851684799 0 -0.33093834944883532 -0.101971145942244 0 -0.3408437307210912 -0.1212858154318297 0 -0.33093834944883532 -0.101971145942244 0 -0.3408437307210912 -0.1212858154318297 0 -0.33246816563449738 -0.1211806240550105 0 -0.33093834944883532 -0.101971145942244 0 -0.3408437307210912 -0.1212858154318297 0 -0.34773438721257438 -0.1121772477149196 0 -0.34272140335036932 -0.124947120862287 0 -0.3408437307210912 -0.1212858154318297 0 -0.33441303965894859 -0.1249452932850653 0 -0.3408437307210912 -0.1212858154318297 0 -0.33246816563449738 -0.1211806240550105 0 -0.34272140335036932 -0.124947120862287 0 -0.33441303965894859 -0.1249452932850653 0 -0.34272140335036932 -0.124947120862287 0 -0.3408437307210912 -0.1212858154318297 0 -0.32007374605487132 -0.12494213909402439 0 -0.33441303965894859 -0.1249452932850653 0 -0.33246816563449738 -0.1211806240550105 0 -0.3408437307210912 -0.1212858154318297 0 -0.33441303965894859 -0.1249452932850653 0 -0.33246816563449738 -0.1211806240550105 0 -0.33441303965894859 -0.1249452932850653 0 -0.33246816563449738 -0.1211806240550105 0 -0.34272140335036932 -0.124947120862287 0 -0.35433435295871402 -0.1214552484327875 0 -0.36893450279197471 -0.1249528869149899 0 -0.34272140335036932 -0.124947120862287 0 -0.36893450279197471 -0.1249528869149899 0 -0.3408437307210912 -0.1212858154318297 0 -0.35433435295871402 -0.1214552484327875 0 -0.3408437307210912 -0.1212858154318297 0 -0.35433435295871402 -0.1214552484327875 0 -0.34773438721257438 -0.1121772477149196 0 -0.34272140335036932 -0.124947120862287 0 -0.3408437307210912 -0.1212858154318297 0 -0.35433435295871402 -0.1214552484327875 0 -0.35433435295871402 -0.1214552484327875 0 -0.34773438721257438 -0.1121772477149196 0 -0.3623387343604032 -0.1125517513480446 0 -0.34773438721257438 -0.1121772477149196 0 -0.35038321981080389 -0.10179032851684799 0 -0.3623387343604032 -0.1125517513480446 0 -0.37380044498630338 -0.100392191664622 0 -0.3623387343604032 -0.1125517513480446 0 -0.3789649235099295 -0.11270856972454819 0 -0.35038321981080389 -0.10179032851684799 0 -0.37380044498630338 -0.100392191664622 0 -0.36747037526515469 -0.088210616938563927 0 -0.35038321981080389 -0.10179032851684799 0 -0.37380044498630338 -0.100392191664622 0 -0.3623387343604032 -0.1125517513480446 0 -0.3623387343604032 -0.1125517513480446 0 -0.36893450279197471 -0.1249528869149899 0 -0.3789649235099295 -0.11270856972454819 0 -0.35433435295871402 -0.1214552484327875 0 -0.3623387343604032 -0.1125517513480446 0 -0.36893450279197471 -0.1249528869149899 0 -0.34995192587724822 -0.070116192960804249 0 -0.35645509357982358 -0.081628608772215283 0 -0.36843110820579178 -0.075527255856609146 0 -0.34995192587724822 -0.070116192960804249 0 -0.36608399240098949 -0.063120758007335118 0 -0.35494834161021771 -0.06194377696909157 0 -0.34995192587724822 -0.070116192960804249 0 -0.36843110820579178 -0.075527255856609146 0 -0.34995192587724822 -0.070116192960804249 0 -0.36608399240098949 -0.063120758007335118 0 -0.34995192587724822 -0.070116192960804249 0 -0.34475717967991132 -0.068595070548471249 0 -0.35494834161021771 -0.06194377696909157 0 -0.34995192587724822 -0.070116192960804249 0 -0.34475717967991132 -0.068595070548471249 0 -0.34995192587724822 -0.070116192960804249 0 -0.34475717967991132 -0.068595070548471249 0 -0.3453529791357649 -0.07211045902320197 0 -0.34995192587724822 -0.070116192960804249 0 -0.3453529791357649 -0.07211045902320197 0 -0.34995192587724822 -0.070116192960804249 0 -0.3453529791357649 -0.07211045902320197 0 -0.35645509357982358 -0.081628608772215283 0 -0.34475717967991132 -0.068595070548471249 0 -0.3453529791357649 -0.07211045902320197 0 -0.35038321981080389 -0.10179032851684799 0 -0.35645509357982358 -0.081628608772215283 0 -0.36747037526515469 -0.088210616938563927 0 -0.35038321981080389 -0.10179032851684799 0 -0.3453529791357649 -0.07211045902320197 0 -0.35645509357982358 -0.081628608772215283 0 -0.33692687914299491 -0.089632102483736459 0 -0.35038321981080389 -0.10179032851684799 0 -0.3453529791357649 -0.07211045902320197 0 -0.35038321981080389 -0.10179032851684799 0 -0.3453529791357649 -0.07211045902320197 0 -0.36747037526515469 -0.088210616938563927 0 -0.36843110820579178 -0.075527255856609146 0 -0.38691029053433551 -0.080938318752413793 0 -0.35645509357982358 -0.081628608772215283 0 -0.36747037526515469 -0.088210616938563927 0 -0.36843110820579178 -0.075527255856609146 0 -0.34995192587724822 -0.070116192960804249 0 -0.36843110820579178 -0.075527255856609146 0 -0.36608399240098949 -0.063120758007335118 0 -0.36843110820579178 -0.075527255856609146 0 -0.36608399240098949 -0.063120758007335118 0 -0.37978412082390189 -0.068029865631836883 0 -0.36608399240098949 -0.063120758007335118 0 -0.37085155020467431 -0.050438611479832557 0 -0.38221605892473098 -0.056125323053866277 0 -0.36608399240098949 -0.063120758007335118 0 -0.38221605892473098 -0.056125323053866277 0 -0.37085155020467431 -0.050438611479832557 0 -0.36177701350261748 -0.054750595911384127 0 -0.36329546327126672 -0.041142767418341691 0 -0.36608399240098949 -0.063120758007335118 0 -0.36177701350261748 -0.054750595911384127 0 -0.35494834161021771 -0.06194377696909157 0 -0.36608399240098949 -0.063120758007335118 0 -0.37085155020467431 -0.050438611479832557 0 -0.36177701350261748 -0.054750595911384127 0 -0.36177701350261748 -0.054750595911384127 0 -0.35494834161021771 -0.06194377696909157 0 -0.35217159659032232 -0.05313626741746251 0 -0.34475717967991132 -0.068595070548471249 0 -0.35217159659032232 -0.05313626741746251 0 -0.34008173660725832 -0.04100860914713586 0 -0.36177701350261748 -0.054750595911384127 0 -0.35217159659032232 -0.05313626741746251 0 -0.36329546327126672 -0.041142767418341691 0 -0.34475717967991132 -0.068595070548471249 0 -0.35494834161021771 -0.06194377696909157 0 -0.35217159659032232 -0.05313626741746251 0 -0.35217159659032232 -0.05313626741746251 0 -0.35233090603521772 -0.034345905606361089 0 -0.36329546327126672 -0.041142767418341691 0 -0.35217159659032232 -0.05313626741746251 0 -0.35233090603521772 -0.034345905606361089 0 -0.34008173660725832 -0.04100860914713586 0 -0.35233090603521772 -0.034345905606361089 0 -0.34677261788783459 -0.022263095799622792 0 -0.34008173660725832 -0.04100860914713586 0 -0.35233090603521772 -0.034345905606361089 0 -0.36329546327126672 -0.041142767418341691 0 -0.36125368123050811 -0.029816691131076791 0 -0.36329546327126672 -0.041142767418341691 0 -0.37015544225173291 -0.03012439130571171 0 -0.36125368123050811 -0.029816691131076791 0 -0.37085155020467431 -0.050438611479832557 0 -0.36329546327126672 -0.041142767418341691 0 -0.37439980638912518 -0.038891661293645137 0 -0.36329546327126672 -0.041142767418341691 0 -0.37439980638912518 -0.038891661293645137 0 -0.37015544225173291 -0.03012439130571171 0 -0.37439980638912518 -0.038891661293645137 0 -0.37015544225173291 -0.03012439130571171 0 -0.37866743010551202 -0.02906954498465647 0 -0.37015544225173291 -0.03012439130571171 0 -0.37402384376206249 -0.023759624541515059 0 -0.37866743010551202 -0.02906954498465647 0 -0.37015544225173291 -0.03012439130571171 0 -0.37402384376206249 -0.023759624541515059 0 -0.36652472594663232 -0.022500501643346649 0 -0.37402384376206249 -0.023759624541515059 0 -0.37465439862472261 -0.016787835852634068 0 -0.36652472594663232 -0.022500501643346649 0 -0.37465439862472261 -0.016787835852634068 0 -0.36652472594663232 -0.022500501643346649 0 -0.3596530522362773 -0.017262546391789129 0 -0.36652472594663232 -0.022500501643346649 0 -0.3596530522362773 -0.017262546391789129 0 -0.35649867437881472 -0.022585523222405649 0 -0.36652472594663232 -0.022500501643346649 0 -0.36125368123050811 -0.029816691131076791 0 -0.35649867437881472 -0.022585523222405649 0 -0.37015544225173291 -0.03012439130571171 0 -0.36652472594663232 -0.022500501643346649 0 -0.36125368123050811 -0.029816691131076791 0 -0.37465439862472261 -0.016787835852634068 0 -0.3596530522362773 -0.017262546391789129 0 -0.34857824671955512 -0.007874197240844389 0 -0.37465439862472261 -0.016787835852634068 0 -0.3597652811465577 -0.0058215117475868012 0 -0.34857824671955512 -0.007874197240844389 0 -0.37465439862472261 -0.016787835852634068 0 -0.34857824671955512 -0.007874197240844389 0 -0.37126952376897032 -0.00085078512189483576 0 -0.36867541047690239 -0.006920070417115203 0 -0.36494834593608783 -0.001298186014321303 0 -0.37126952376897032 -0.00085078512189483576 0 -0.37464851222799189 -0.0076089195940836872 0 -0.37774077980655368 -0.001289555558904682 0 -0.37126952376897032 -0.00085078512189483576 0 -0.37464851222799189 -0.0076089195940836872 0 -0.36867541047690239 -0.006920070417115203 0 -0.37465439862472261 -0.016787835852634068 0 -0.36867541047690239 -0.006920070417115203 0 -0.3597652811465577 -0.0058215117475868012 0 -0.37465439862472261 -0.016787835852634068 0 -0.37464851222799189 -0.0076089195940836872 0 -0.36867541047690239 -0.006920070417115203 0 -0.36867541047690239 -0.006920070417115203 0 -0.3597652811465577 -0.0058215117475868012 0 -0.36494834593608783 -0.001298186014321303 0 -0.3597652811465577 -0.0058215117475868012 0 -0.36494834593608783 -0.001298186014321303 0 -0.35900139338342918 0.0020097317905480609 0 -0.3597652811465577 -0.0058215117475868012 0 -0.35221409618436439 -0.0049109655465913588 0 -0.34857824671955512 -0.007874197240844389 0 -0.3597652811465577 -0.0058215117475868012 0 -0.35509488683577939 -0.0004162838960613095 0 -0.35900139338342918 0.0020097317905480609 0 -0.3597652811465577 -0.0058215117475868012 0 -0.35509488683577939 -0.0004162838960613095 0 -0.35221409618436439 -0.0049109655465913588 0 -0.3596530522362773 -0.017262546391789129 0 -0.34857824671955512 -0.007874197240844389 0 -0.35200921551166209 -0.0165646739997149 0 -0.34857824671955512 -0.007874197240844389 0 -0.34618108527798752 -0.01472783018749277 0 -0.35200921551166209 -0.0165646739997149 0 -0.35233090603521772 -0.034345905606361089 0 -0.36125368123050811 -0.029816691131076791 0 -0.35649867437881472 -0.022585523222405649 0 -0.35233090603521772 -0.034345905606361089 0 -0.35649867437881472 -0.022585523222405649 0 -0.34677261788783459 -0.022263095799622792 0 -0.35649867437881472 -0.022585523222405649 0 -0.35200921551166209 -0.0165646739997149 0 -0.34677261788783459 -0.022263095799622792 0 -0.3596530522362773 -0.017262546391789129 0 -0.35649867437881472 -0.022585523222405649 0 -0.35200921551166209 -0.0165646739997149 0 -0.34618108527798752 -0.01472783018749277 0 -0.35200921551166209 -0.0165646739997149 0 -0.34677261788783459 -0.022263095799622792 0 -0.33540629353460438 -0.01342214774580049 0 -0.31718310516035308 -0.038172790333745737 0 -0.34008173660725832 -0.04100860914713586 0 -0.33540629353460438 -0.01342214774580049 0 -0.34008173660725832 -0.04100860914713586 0 -0.34677261788783459 -0.022263095799622792 0 -0.33540629353460438 -0.01342214774580049 0 -0.34008173660725832 -0.04100860914713586 0 -0.34618108527798752 -0.01472783018749277 0 -0.34677261788783459 -0.022263095799622792 0 -0.33540629353460438 -0.01342214774580049 0 -0.33540629353460438 -0.01342214774580049 0 -0.3204068892458079 -0.0014125807301150939 0 -0.33073085046195078 0.01416431365553468 0 -0.34857824671955512 -0.007874197240844389 0 -0.33540629353460438 -0.01342214774580049 0 -0.33073085046195078 0.01416431365553468 0 -0.34857824671955512 -0.007874197240844389 0 -0.34618108527798752 -0.01472783018749277 0 -0.33540629353460438 -0.01342214774580049 0 -0.3025805037907468 -0.0027432771802810229 0 -0.31459326366374579 -0.01532774276474733 0 -0.3204068892458079 -0.0014125807301150939 0 -0.33540629353460438 -0.01342214774580049 0 -0.31459326366374579 -0.01532774276474733 0 -0.3204068892458079 -0.0014125807301150939 0 -0.33540629353460438 -0.01342214774580049 0 -0.31459326366374579 -0.01532774276474733 0 -0.31718310516035308 -0.038172790333745737 0 -0.31718310516035308 -0.038172790333745737 0 -0.3268834079531176 -0.05023453433316457 0 -0.34008173660725832 -0.04100860914713586 0 -0.31718310516035308 -0.038172790333745737 0 -0.31370341578724742 -0.051143824177853653 0 -0.3268834079531176 -0.05023453433316457 0 -0.31370341578724742 -0.051143824177853653 0 -0.31629816603535338 -0.060261719535131632 0 -0.32352590008436471 -0.062378140209921912 0 -0.31629816603535338 -0.060261719535131632 0 -0.32352590008436471 -0.062378140209921912 0 -0.32352590008436471 -0.062378140209921912 0 -0.3268834079531176 -0.05023453433316457 0 -0.33381205608116321 -0.055554088559673351 0 -0.31370341578724742 -0.051143824177853653 0 -0.32352590008436471 -0.062378140209921912 0 -0.3268834079531176 -0.05023453433316457 0 -0.34475717967991132 -0.068595070548471249 0 -0.32352590008436471 -0.062378140209921912 0 -0.33381205608116321 -0.055554088559673351 0 -0.34475717967991132 -0.068595070548471249 0 -0.33381205608116321 -0.055554088559673351 0 -0.34008173660725832 -0.04100860914713586 0 -0.3268834079531176 -0.05023453433316457 0 -0.33381205608116321 -0.055554088559673351 0 -0.34008173660725832 -0.04100860914713586 0 -0.34475717967991132 -0.068595070548471249 0 -0.34008173660725832 -0.04100860914713586 0 -0.29131753467172561 -0.25675805269722002 0 -0.30769212114973271 -0.24578220261295139 0 -0.29241592956139478 -0.23974284613727589 0 -0.30769212114973271 -0.24578220261295139 0 -0.30829656048542242 -0.23127198481015249 0 -0.29241592956139478 -0.23974284613727589 0 -0.30829656048542242 -0.23127198481015249 0 -0.29279532374442052 -0.2217612167757172 0 -0.3129652712195421 -0.2114706657937139 0 -0.30829656048542242 -0.23127198481015249 0 -0.29279532374442052 -0.2217612167757172 0 -0.29241592956139478 -0.23974284613727589 0 -0.29279532374442052 -0.2217612167757172 0 -0.29241592956139478 -0.23974284613727589 0 -0.27798049023744681 -0.23352671123603991 0 -0.29279532374442052 -0.2217612167757172 0 -0.27798049023744681 -0.23352671123603991 0 -0.27449661508218531 -0.21747639879007349 0 -0.29131753467172561 -0.25675805269722002 0 -0.29241592956139478 -0.23974284613727589 0 -0.27722523139620658 -0.24922189107985179 0 -0.29241592956139478 -0.23974284613727589 0 -0.27722523139620658 -0.24922189107985179 0 -0.27798049023744681 -0.23352671123603991 0 -0.27722523139620658 -0.24922189107985179 0 -0.25992972331208369 -0.2410680052130979 0 -0.27798049023744681 -0.23352671123603991 0 -0.26398002587916253 -0.25656090854441049 0 -0.27722523139620658 -0.24922189107985179 0 -0.25992972331208369 -0.2410680052130979 0 -0.25992972331208369 -0.2410680052130979 0 -0.25674041691710447 -0.22108212323078871 0 -0.27798049023744681 -0.23352671123603991 0 -0.2377451423251814 -0.23136366228574551 0 -0.25992972331208369 -0.2410680052130979 0 -0.25674041691710447 -0.22108212323078871 0 -0.25674041691710447 -0.22108212323078871 0 -0.27798049023744681 -0.23352671123603991 0 -0.27449661508218531 -0.21747639879007349 0 -0.27449661508218531 -0.21747639879007349 0 -0.25644706280453389 -0.1995927939493197 0 -0.27817485521465529 -0.19463925610534399 0 -0.27449661508218531 -0.21747639879007349 0 -0.27817485521465529 -0.19463925610534399 0 -0.25674041691710447 -0.22108212323078871 0 -0.27449661508218531 -0.21747639879007349 0 -0.25644706280453389 -0.1995927939493197 0 -0.25644706280453389 -0.1995927939493197 0 -0.27817485521465529 -0.19463925610534399 0 -0.26629571781906192 -0.18034234132084431 0 -0.27817485521465529 -0.19463925610534399 0 -0.29367807880863189 -0.20345752952089671 0 -0.29386082525749962 -0.1848532680646672 0 -0.27449661508218531 -0.21747639879007349 0 -0.27817485521465529 -0.19463925610534399 0 -0.29367807880863189 -0.20345752952089671 0 -0.29279532374442052 -0.2217612167757172 0 -0.27449661508218531 -0.21747639879007349 0 -0.29367807880863189 -0.20345752952089671 0 -0.29279532374442052 -0.2217612167757172 0 -0.29367807880863189 -0.20345752952089671 0 -0.3129652712195421 -0.2114706657937139 0 -0.29367807880863189 -0.20345752952089671 0 -0.30717411826112789 -0.1920401195635244 0 -0.29386082525749962 -0.1848532680646672 0 -0.29367807880863189 -0.20345752952089671 0 -0.30717411826112789 -0.1920401195635244 0 -0.3129652712195421 -0.2114706657937139 0 -0.30551265723832022 -0.17938492804960809 0 -0.29677214667513702 -0.1677956617280158 0 -0.29386082525749962 -0.1848532680646672 0 -0.30717411826112789 -0.1920401195635244 0 -0.30551265723832022 -0.17938492804960809 0 -0.29386082525749962 -0.1848532680646672 0 -0.30717411826112789 -0.1920401195635244 0 -0.30551265723832022 -0.17938492804960809 0 -0.31489114071409963 -0.18333745750317351 0 -0.30551265723832022 -0.17938492804960809 0 -0.31220508881165993 -0.16846949012138551 0 -0.29677214667513702 -0.1677956617280158 0 -0.30551265723832022 -0.17938492804960809 0 -0.31220508881165993 -0.16846949012138551 0 -0.31489114071409963 -0.18333745750317351 0 -0.31220508881165993 -0.16846949012138551 0 -0.2949530938874384 -0.15245549241185349 0 -0.31498630483336881 -0.15987728715749039 0 -0.31220508881165993 -0.16846949012138551 0 -0.2949530938874384 -0.15245549241185349 0 -0.31220508881165993 -0.16846949012138551 0 -0.29677214667513702 -0.1677956617280158 0 -0.2949530938874384 -0.15245549241185349 0 -0.28185309534712533 -0.17180211342061449 0 -0.28553133547959519 -0.14896497073588499 0 -0.29677214667513702 -0.1677956617280158 0 -0.28185309534712533 -0.17180211342061449 0 -0.2949530938874384 -0.15245549241185349 0 -0.28185309534712533 -0.17180211342061449 0 -0.28553133547959519 -0.14896497073588499 0 -0.2949530938874384 -0.15245549241185349 0 -0.27817485521465529 -0.19463925610534399 0 -0.28185309534712533 -0.17180211342061449 0 -0.29386082525749962 -0.1848532680646672 0 -0.29677214667513702 -0.1677956617280158 0 -0.28185309534712533 -0.17180211342061449 0 -0.29386082525749962 -0.1848532680646672 0 -0.27817485521465529 -0.19463925610534399 0 -0.28185309534712533 -0.17180211342061449 0 -0.27817485521465529 -0.19463925610534399 0 -0.28185309534712533 -0.17180211342061449 0 -0.26629571781906192 -0.18034234132084431 0 -0.26629571781906192 -0.18034234132084431 0 -0.25029992488695979 -0.1782534950292988 0 -0.25761979100978533 -0.16665415002795461 0 -0.25644706280453389 -0.1995927939493197 0 -0.26629571781906192 -0.18034234132084431 0 -0.25029992488695979 -0.1782534950292988 0 -0.26629571781906192 -0.18034234132084431 0 -0.25761979100978533 -0.16665415002795461 0 -0.26933386928146391 -0.16300442301689841 0 -0.24825300788518309 -0.1555077779107997 0 -0.25761979100978533 -0.16665415002795461 0 -0.26108146703715113 -0.15708396540124031 0 -0.25761979100978533 -0.16665415002795461 0 -0.26108146703715113 -0.15708396540124031 0 -0.26933386928146391 -0.16300442301689841 0 -0.28185309534712533 -0.17180211342061449 0 -0.27598770130958522 -0.15333886838191951 0 -0.28553133547959519 -0.14896497073588499 0 -0.28185309534712533 -0.17180211342061449 0 -0.26629571781906192 -0.18034234132084431 0 -0.26933386928146391 -0.16300442301689841 0 -0.26108146703715113 -0.15708396540124031 0 -0.26933386928146391 -0.16300442301689841 0 -0.26726071412102442 -0.15087550168963329 0 -0.28185309534712533 -0.17180211342061449 0 -0.26933386928146391 -0.16300442301689841 0 -0.27598770130958522 -0.15333886838191951 0 -0.27598770130958522 -0.15333886838191951 0 -0.271177428866754 -0.14364721368904659 0 -0.28553133547959519 -0.14896497073588499 0 -0.271177428866754 -0.14364721368904659 0 -0.28662611268527088 -0.1421678116724244 0 -0.28553133547959519 -0.14896497073588499 0 -0.271177428866754 -0.14364721368904659 0 -0.28553133547959519 -0.14896497073588499 0 -0.271177428866754 -0.14364721368904659 0 -0.26726071412102442 -0.15087550168963329 0 -0.25891484533836889 -0.13910423861407881 0 -0.271177428866754 -0.14364721368904659 0 -0.26726071412102442 -0.15087550168963329 0 -0.27598770130958522 -0.15333886838191951 0 -0.271177428866754 -0.14364721368904659 0 -0.26726071412102442 -0.15087550168963329 0 -0.26933386928146391 -0.16300442301689841 0 -0.27598770130958522 -0.15333886838191951 0 -0.26726071412102442 -0.15087550168963329 0 -0.2405789555143194 -0.1375116727892334 0 -0.25601133851015478 -0.1487044986697981 0 -0.25891484533836889 -0.13910423861407881 0 -0.26108146703715113 -0.15708396540124031 0 -0.26726071412102442 -0.15087550168963329 0 -0.25601133851015478 -0.1487044986697981 0 -0.271177428866754 -0.14364721368904659 0 -0.25891484533836889 -0.13910423861407881 0 -0.26726071412102442 -0.15087550168963329 0 -0.25601133851015478 -0.1487044986697981 0 -0.25891484533836889 -0.13910423861407881 0 -0.24825300788518309 -0.1555077779107997 0 -0.26108146703715113 -0.15708396540124031 0 -0.25601133851015478 -0.1487044986697981 0 -0.26009747564537128 -0.1202716976192799 0 -0.25054446979338107 -0.12912519928877991 0 -0.26697405985724948 -0.1304210152969853 0 -0.25054446979338107 -0.12912519928877991 0 -0.25891484533836889 -0.13910423861407881 0 -0.26697405985724948 -0.1304210152969853 0 -0.2405789555143194 -0.1375116727892334 0 -0.25054446979338107 -0.12912519928877991 0 -0.25891484533836889 -0.13910423861407881 0 -0.28368315898475188 -0.1205679176925603 0 -0.271177428866754 -0.14364721368904659 0 -0.26697405985724948 -0.1304210152969853 0 -0.28368315898475188 -0.1205679176925603 0 -0.271177428866754 -0.14364721368904659 0 -0.28514813781506088 -0.1345929107172644 0 -0.28368315898475188 -0.1205679176925603 0 -0.271177428866754 -0.14364721368904659 0 -0.271177428866754 -0.14364721368904659 0 -0.25891484533836889 -0.13910423861407881 0 -0.26697405985724948 -0.1304210152969853 0 -0.271177428866754 -0.14364721368904659 0 -0.28514813781506088 -0.1345929107172644 0 -0.28662611268527088 -0.1421678116724244 0 -0.28368315898475188 -0.1205679176925603 0 -0.29492821592448881 -0.13453805291007029 0 -0.28514813781506088 -0.1345929107172644 0 -0.28368315898475188 -0.1205679176925603 0 -0.29492821592448881 -0.13453805291007029 0 -0.30140371581860798 -0.1292511186866305 0 -0.29492821592448881 -0.13453805291007029 0 -0.2912775948780732 -0.1389862943003273 0 -0.28514813781506088 -0.1345929107172644 0 -0.29657756063899582 -0.140013172184488 0 -0.29492821592448881 -0.13453805291007029 0 -0.2912775948780732 -0.1389862943003273 0 -0.2912775948780732 -0.1389862943003273 0 -0.28514813781506088 -0.1345929107172644 0 -0.28662611268527088 -0.1421678116724244 0 -0.28662611268527088 -0.1421678116724244 0 -0.28553133547959519 -0.14896497073588499 0 -0.28662611268527088 -0.1421678116724244 0 -0.28553133547959519 -0.14896497073588499 0 -0.28937009998544028 -0.14621975116982991 0 -0.28553133547959519 -0.14896497073588499 0 -0.2922536480049423 -0.1499497578362777 0 -0.28937009998544028 -0.14621975116982991 0 -0.28553133547959519 -0.14896497073588499 0 -0.2922536480049423 -0.1499497578362777 0 -0.2949530938874384 -0.15245549241185349 0 -0.28553133547959519 -0.14896497073588499 0 -0.2949530938874384 -0.15245549241185349 0 -0.2922536480049423 -0.1499497578362777 0 -0.2949530938874384 -0.15245549241185349 0 -0.29617843115691228 -0.14802272380236281 0 -0.2922536480049423 -0.1499497578362777 0 -0.2949530938874384 -0.15245549241185349 0 -0.2912775948780732 -0.1389862943003273 0 -0.28662611268527088 -0.1421678116724244 0 -0.29310794732654949 -0.1436195240173895 0 -0.28662611268527088 -0.1421678116724244 0 -0.28937009998544028 -0.14621975116982991 0 -0.29310794732654949 -0.1436195240173895 0 -0.2922536480049423 -0.1499497578362777 0 -0.28937009998544028 -0.14621975116982991 0 -0.29310794732654949 -0.1436195240173895 0 -0.29617843115691228 -0.14802272380236281 0 -0.29310794732654949 -0.1436195240173895 0 -0.29956135480037449 -0.14472193576336759 0 -0.2922536480049423 -0.1499497578362777 0 -0.29617843115691228 -0.14802272380236281 0 -0.29310794732654949 -0.1436195240173895 0 -0.29657756063899582 -0.140013172184488 0 -0.2912775948780732 -0.1389862943003273 0 -0.29310794732654949 -0.1436195240173895 0 -0.29657756063899582 -0.140013172184488 0 -0.29310794732654949 -0.1436195240173895 0 -0.29956135480037449 -0.14472193576336759 0 -0.29956135480037449 -0.14472193576336759 0 -0.30554397810907652 -0.146919348525368 0 -0.30456114821214081 -0.13888567554976469 0 -0.2949530938874384 -0.15245549241185349 0 -0.30620642865757891 -0.15285211384445899 0 -0.31498630483336881 -0.15987728715749039 0 -0.2949530938874384 -0.15245549241185349 0 -0.31498630483336881 -0.15987728715749039 0 -0.29657756063899582 -0.140013172184488 0 -0.29956135480037449 -0.14472193576336759 0 -0.30456114821214081 -0.13888567554976469 0 -0.29617843115691228 -0.14802272380236281 0 -0.29956135480037449 -0.14472193576336759 0 -0.30052761464898298 -0.14908162957255741 0 -0.29956135480037449 -0.14472193576336759 0 -0.30052761464898298 -0.14908162957255741 0 -0.30554397810907652 -0.146919348525368 0 -0.2949530938874384 -0.15245549241185349 0 -0.30052761464898298 -0.14908162957255741 0 -0.30620642865757891 -0.15285211384445899 0 -0.2949530938874384 -0.15245549241185349 0 -0.29617843115691228 -0.14802272380236281 0 -0.30052761464898298 -0.14908162957255741 0 -0.30052761464898298 -0.14908162957255741 0 -0.30620642865757891 -0.15285211384445899 0 -0.30554397810907652 -0.146919348525368 0 -0.30620642865757891 -0.15285211384445899 0 -0.31211863317072019 -0.1538765410016501 0 -0.31498630483336881 -0.15987728715749039 0 -0.30620642865757891 -0.15285211384445899 0 -0.31071230574427161 -0.15022116190891349 0 -0.30554397810907652 -0.146919348525368 0 -0.30620642865757891 -0.15285211384445899 0 -0.31071230574427161 -0.15022116190891349 0 -0.31211863317072019 -0.1538765410016501 0 -0.31246836027323899 -0.14497521722301901 0 -0.31246708178415561 -0.13872402753426441 0 -0.30456114821214081 -0.13888567554976469 0 -0.30554397810907652 -0.146919348525368 0 -0.31246836027323899 -0.14497521722301901 0 -0.30456114821214081 -0.13888567554976469 0 -0.31071230574427161 -0.15022116190891349 0 -0.30554397810907652 -0.146919348525368 0 -0.31246836027323899 -0.14497521722301901 0 -0.30140371581860798 -0.1292511186866305 0 -0.30456114821214081 -0.13888567554976469 0 -0.31280589771709483 -0.13181614145056869 0 -0.31246708178415561 -0.13872402753426441 0 -0.30456114821214081 -0.13888567554976469 0 -0.31280589771709483 -0.13181614145056869 0 -0.30807566230962469 -0.12087427087378499 0 -0.30140371581860798 -0.1292511186866305 0 -0.31280589771709483 -0.13181614145056869 0 -0.29657756063899582 -0.140013172184488 0 -0.29492821592448881 -0.13453805291007029 0 -0.30456114821214081 -0.13888567554976469 0 -0.29492821592448881 -0.13453805291007029 0 -0.30140371581860798 -0.1292511186866305 0 -0.30456114821214081 -0.13888567554976469 0 -0.3226930215385343 -0.13395567837890529 0 -0.31855308997834159 -0.13934265221991729 0 -0.32506280578504959 -0.14064102607364051 0 -0.3226930215385343 -0.13395567837890529 0 -0.32506280578504959 -0.14064102607364051 0 -0.33047387389575927 -0.1369340691945744 0 -0.3226930215385343 -0.13395567837890529 0 -0.32807010768985068 -0.12986880773923029 0 -0.33047387389575927 -0.1369340691945744 0 -0.32007374605487132 -0.12494213909402439 0 -0.33441303965894859 -0.1249452932850653 0 -0.32807010768985068 -0.12986880773923029 0 -0.32007374605487132 -0.12494213909402439 0 -0.3226930215385343 -0.13395567837890529 0 -0.32807010768985068 -0.12986880773923029 0 -0.32007374605487132 -0.12494213909402439 0 -0.3226930215385343 -0.13395567837890529 0 -0.31280589771709483 -0.13181614145056869 0 -0.30807566230962469 -0.12087427087378499 0 -0.32007374605487132 -0.12494213909402439 0 -0.31280589771709483 -0.13181614145056869 0 -0.3226930215385343 -0.13395567837890529 0 -0.31280589771709483 -0.13181614145056869 0 -0.31855308997834159 -0.13934265221991729 0 -0.31246708178415561 -0.13872402753426441 0 -0.31280589771709483 -0.13181614145056869 0 -0.31855308997834159 -0.13934265221991729 0 -0.31246836027323899 -0.14497521722301901 0 -0.31246708178415561 -0.13872402753426441 0 -0.31855308997834159 -0.13934265221991729 0 -0.31246836027323899 -0.14497521722301901 0 -0.31855308997834159 -0.13934265221991729 0 -0.32096396999162452 -0.14503749675666289 0 -0.31246836027323899 -0.14497521722301901 0 -0.31722412851074311 -0.15248258895007169 0 -0.32096396999162452 -0.14503749675666289 0 -0.31211863317072019 -0.1538765410016501 0 -0.31722412851074311 -0.15248258895007169 0 -0.31498630483336881 -0.15987728715749039 0 -0.31071230574427161 -0.15022116190891349 0 -0.31246836027323899 -0.14497521722301901 0 -0.31722412851074311 -0.15248258895007169 0 -0.31071230574427161 -0.15022116190891349 0 -0.31211863317072019 -0.1538765410016501 0 -0.31722412851074311 -0.15248258895007169 0 -0.32096396999162452 -0.14503749675666289 0 -0.32506280578504959 -0.14064102607364051 0 -0.33039285730051032 -0.1475567648151897 0 -0.31722412851074311 -0.15248258895007169 0 -0.32096396999162452 -0.14503749675666289 0 -0.33039285730051032 -0.1475567648151897 0 -0.31855308997834159 -0.13934265221991729 0 -0.32096396999162452 -0.14503749675666289 0 -0.32506280578504959 -0.14064102607364051 0 -0.33039285730051032 -0.1475567648151897 0 -0.33813688440009898 -0.15615522653291031 0 -0.34198145815712638 -0.1395953898376964 0 -0.32506280578504959 -0.14064102607364051 0 -0.33039285730051032 -0.1475567648151897 0 -0.33047387389575927 -0.1369340691945744 0 -0.31722412851074311 -0.15248258895007169 0 -0.33039285730051032 -0.1475567648151897 0 -0.33813688440009898 -0.15615522653291031 0 -0.33039285730051032 -0.1475567648151897 0 -0.34198145815712638 -0.1395953898376964 0 -0.33047387389575927 -0.1369340691945744 0 -0.33813688440009898 -0.15615522653291031 0 -0.34198145815712638 -0.1395953898376964 0 -0.34954987665533299 -0.15424548639031271 0 -0.34198145815712638 -0.1395953898376964 0 -0.3337346198504213 -0.1328358900141379 0 -0.33047387389575927 -0.1369340691945744 0 -0.32807010768985068 -0.12986880773923029 0 -0.3337346198504213 -0.1328358900141379 0 -0.33047387389575927 -0.1369340691945744 0 -0.33441303965894859 -0.1249452932850653 0 -0.32807010768985068 -0.12986880773923029 0 -0.3337346198504213 -0.1328358900141379 0 -0.33441303965894859 -0.1249452932850653 0 -0.34198145815712638 -0.1395953898376964 0 -0.34272140335036932 -0.124947120862287 0 -0.33441303965894859 -0.1249452932850653 0 -0.34198145815712638 -0.1395953898376964 0 -0.33441303965894859 -0.1249452932850653 0 -0.34198145815712638 -0.1395953898376964 0 -0.3337346198504213 -0.1328358900141379 0 -0.34272140335036932 -0.124947120862287 0 -0.35413341494744088 -0.14719959415449421 0 -0.34272140335036932 -0.124947120862287 0 -0.35599685079288468 -0.13305792836185981 0 -0.35413341494744088 -0.14719959415449421 0 -0.34272140335036932 -0.124947120862287 0 -0.34198145815712638 -0.1395953898376964 0 -0.35413341494744088 -0.14719959415449421 0 -0.34272140335036932 -0.124947120862287 0 -0.36893450279197471 -0.1249528869149899 0 -0.35599685079288468 -0.13305792836185981 0 -0.35599685079288468 -0.13305792836185981 0 -0.36484224068191412 -0.14157370685753851 0 -0.35413341494744088 -0.14719959415449421 0 -0.36893450279197471 -0.1249528869149899 0 -0.35599685079288468 -0.13305792836185981 0 -0.36484224068191412 -0.14157370685753851 0 -0.36893450279197471 -0.1249528869149899 0 -0.36484224068191412 -0.14157370685753851 0 -0.3777566452334315 -0.14913711856379011 0 -0.3679743334396014 -0.15408772885571331 0 -0.37696591512674532 -0.1609827341034305 0 -0.3777566452334315 -0.14913711856379011 0 -0.3679743334396014 -0.15408772885571331 0 -0.36484224068191412 -0.14157370685753851 0 -0.3777566452334315 -0.14913711856379011 0 -0.3679743334396014 -0.15408772885571331 0 -0.36484224068191412 -0.14157370685753851 0 -0.35413341494744088 -0.14719959415449421 0 -0.35413341494744088 -0.14719959415449421 0 -0.34954987665533299 -0.15424548639031271 0 -0.35445721343992059 -0.1619675590177023 0 -0.34198145815712638 -0.1395953898376964 0 -0.34954987665533299 -0.15424548639031271 0 -0.34198145815712638 -0.1395953898376964 0 -0.35413341494744088 -0.14719959415449421 0 -0.34954987665533299 -0.15424548639031271 0 -0.33813688440009898 -0.15615522653291031 0 -0.34954987665533299 -0.15424548639031271 0 -0.34648545334868369 -0.16311147615285329 0 -0.34648545334868369 -0.16311147615285329 0 -0.35788001493839611 -0.17576831496813999 0 -0.33501951577929873 -0.16729908190312789 0 -0.34954987665533299 -0.15424548639031271 0 -0.34648545334868369 -0.16311147615285329 0 -0.35445721343992059 -0.1619675590177023 0 -0.35413341494744088 -0.14719959415449421 0 -0.35445721343992059 -0.1619675590177023 0 -0.36554542654456429 -0.16945206744667471 0 -0.35788001493839611 -0.17576831496813999 0 -0.33501951577929873 -0.16729908190312789 0 -0.34648545334868369 -0.16311147615285329 0 -0.35445721343992059 -0.1619675590177023 0 -0.35788001493839611 -0.17576831496813999 0 -0.35445721343992059 -0.1619675590177023 0 -0.36554542654456429 -0.16945206744667471 0 -0.35788001493839611 -0.17576831496813999 0 -0.35413341494744088 -0.14719959415449421 0 -0.36554542654456429 -0.16945206744667471 0 -0.3679743334396014 -0.15408772885571331 0 -0.35413341494744088 -0.14719959415449421 0 -0.36554542654456429 -0.16945206744667471 0 -0.3679743334396014 -0.15408772885571331 0 -0.36554542654456429 -0.16945206744667471 0 -0.37696591512674532 -0.1609827341034305 0 -0.37016556171889331 -0.18126023377528719 0 -0.3536864721015115 -0.18284124587119119 0 -0.37235342842372432 -0.19838340983925429 0 -0.36554542654456429 -0.16945206744667471 0 -0.37016556171889331 -0.18126023377528719 0 -0.38426477739238413 -0.17192867897072969 0 -0.37016556171889331 -0.18126023377528719 0 -0.3536864721015115 -0.18284124587119119 0 -0.35788001493839611 -0.17576831496813999 0 -0.36554542654456429 -0.16945206744667471 0 -0.37016556171889331 -0.18126023377528719 0 -0.35788001493839611 -0.17576831496813999 0 -0.3536864721015115 -0.18284124587119119 0 -0.33501951577929873 -0.16729908190312789 0 -0.3536864721015115 -0.18284124587119119 0 -0.35788001493839611 -0.17576831496813999 0 -0.33501951577929873 -0.16729908190312789 0 -0.3536864721015115 -0.18284124587119119 0 -0.32945708373588178 -0.18448348783091689 0 -0.33501951577929873 -0.16729908190312789 0 -0.31722412851074311 -0.15248258895007169 0 -0.33813688440009898 -0.15615522653291031 0 -0.33501951577929873 -0.16729908190312789 0 -0.33813688440009898 -0.15615522653291031 0 -0.34648545334868369 -0.16311147615285329 0 -0.33501951577929873 -0.16729908190312789 0 -0.31722412851074311 -0.15248258895007169 0 -0.33501951577929873 -0.16729908190312789 0 -0.31722412851074311 -0.15248258895007169 0 -0.33501951577929873 -0.16729908190312789 0 -0.31498630483336881 -0.15987728715749039 0 -0.31220508881165993 -0.16846949012138551 0 -0.33501951577929873 -0.16729908190312789 0 -0.31498630483336881 -0.15987728715749039 0 -0.33501951577929873 -0.16729908190312789 0 -0.31498630483336881 -0.15987728715749039 0 -0.31220508881165993 -0.16846949012138551 0 -0.32945708373588178 -0.18448348783091689 0 -0.31489114071409963 -0.18333745750317351 0 -0.31220508881165993 -0.16846949012138551 0 -0.32945708373588178 -0.18448348783091689 0 -0.31220508881165993 -0.16846949012138551 0 -0.32945708373588178 -0.18448348783091689 0 -0.33501951577929873 -0.16729908190312789 0 -0.32945708373588178 -0.18448348783091689 0 -0.31489114071409963 -0.18333745750317351 0 -0.32010675552350842 -0.19230926195043291 0 -0.30717411826112789 -0.1920401195635244 0 -0.32010675552350842 -0.19230926195043291 0 -0.3129652712195421 -0.2114706657937139 0 -0.32945708373588178 -0.18448348783091689 0 -0.32010675552350842 -0.19230926195043291 0 -0.32566449460190838 -0.20326261146105551 0 -0.32010675552350842 -0.19230926195043291 0 -0.3129652712195421 -0.2114706657937139 0 -0.32566449460190838 -0.20326261146105551 0 -0.30717411826112789 -0.1920401195635244 0 -0.31489114071409963 -0.18333745750317351 0 -0.32010675552350842 -0.19230926195043291 0 -0.3129652712195421 -0.2114706657937139 0 -0.32566449460190838 -0.20326261146105551 0 -0.33208474862113468 -0.21873250337862821 0 -0.33208474862113468 -0.21873250337862821 0 -0.34670907866010381 -0.20049748554044841 0 -0.34896881396179619 -0.22434135344573131 0 -0.32566449460190838 -0.20326261146105551 0 -0.33208474862113468 -0.21873250337862821 0 -0.34670907866010381 -0.20049748554044841 0 -0.3536864721015115 -0.18284124587119119 0 -0.32945708373588178 -0.18448348783091689 0 -0.34670907866010381 -0.20049748554044841 0 -0.32945708373588178 -0.18448348783091689 0 -0.32566449460190838 -0.20326261146105551 0 -0.34670907866010381 -0.20049748554044841 0 -0.32945708373588178 -0.18448348783091689 0 -0.34670907866010381 -0.20049748554044841 0 -0.3536864721015115 -0.18284124587119119 0 -0.35917751319241631 -0.19955840612521841 0 -0.34670907866010381 -0.20049748554044841 0 -0.3536864721015115 -0.18284124587119119 0 -0.37235342842372432 -0.19838340983925429 0 -0.3536864721015115 -0.18284124587119119 0 -0.35917751319241631 -0.19955840612521841 0 -0.37235342842372432 -0.19838340983925429 0 -0.37235342842372432 -0.19838340983925429 0 -0.36396107358432572 -0.21651148324997979 0 -0.37772562505684643 -0.22219038377974651 0 -0.35917751319241631 -0.19955840612521841 0 -0.37235342842372432 -0.19838340983925429 0 -0.36396107358432572 -0.21651148324997979 0 -0.34670907866010381 -0.20049748554044841 0 -0.36396107358432572 -0.21651148324997979 0 -0.34896881396179619 -0.22434135344573131 0 -0.34670907866010381 -0.20049748554044841 0 -0.36396107358432572 -0.21651148324997979 0 -0.35917751319241631 -0.19955840612521841 0 -0.34670907866010381 -0.20049748554044841 0 -0.36396107358432572 -0.21651148324997979 0 -0.34896881396179619 -0.22434135344573131 0 -0.36764811873304098 -0.23322730847002751 0 -0.35305879752332059 -0.24486073726717009 0 -0.36396107358432572 -0.21651148324997979 0 -0.36764811873304098 -0.23322730847002751 0 -0.37772562505684643 -0.22219038377974651 0 -0.36396107358432572 -0.21651148324997979 0 -0.34896881396179619 -0.22434135344573131 0 -0.36764811873304098 -0.23322730847002751 0 -0.37533687834285862 -0.25417213976024849 0 -0.36764811873304098 -0.23322730847002751 0 -0.35305879752332059 -0.24486073726717009 0 -0.34896881396179619 -0.22434135344573131 0 -0.35305879752332059 -0.24486073726717009 0 -0.33568364413539042 -0.23615154195274179 0 -0.33623326073948312 -0.25365348176558788 0 -0.33568364413539042 -0.23615154195274179 0 -0.32213598881581812 -0.2442700999577708 0 -0.33623326073948312 -0.25365348176558788 0 -0.35305879752332059 -0.24486073726717009 0 -0.33568364413539042 -0.23615154195274179 0 -0.33208474862113468 -0.21873250337862821 0 -0.33568364413539042 -0.23615154195274179 0 -0.32219037366776621 -0.22897372759534659 0 -0.33208474862113468 -0.21873250337862821 0 -0.34896881396179619 -0.22434135344573131 0 -0.33568364413539042 -0.23615154195274179 0 -0.30829656048542242 -0.23127198481015249 0 -0.3129652712195421 -0.2114706657937139 0 -0.32219037366776621 -0.22897372759534659 0 -0.3129652712195421 -0.2114706657937139 0 -0.33208474862113468 -0.21873250337862821 0 -0.32219037366776621 -0.22897372759534659 0 -0.30769212114973271 -0.24578220261295139 0 -0.30829656048542242 -0.23127198481015249 0 -0.32213598881581812 -0.2442700999577708 0 -0.30829656048542242 -0.23127198481015249 0 -0.32219037366776621 -0.22897372759534659 0 -0.32213598881581812 -0.2442700999577708 0 -0.31968345090478489 -0.25798973640781447 0 -0.30769212114973271 -0.24578220261295139 0 -0.32213598881581812 -0.2442700999577708 0 -0.33568364413539042 -0.23615154195274179 0 -0.32219037366776621 -0.22897372759534659 0 -0.32213598881581812 -0.2442700999577708 0 -0.43598079583492633 -0.24721882136819351 0 -0.42311134176242837 -0.2304528026464861 0 -0.41615383063077721 -0.2466412503256647 0 -0.43598079583492633 -0.24721882136819351 0 -0.42311134176242837 -0.2304528026464861 0 -0.43908324849522451 -0.2287046610080686 0 -0.42311134176242837 -0.2304528026464861 0 -0.41411505562058892 -0.2091502018577929 0 -0.42948217154750851 -0.21815887616964899 0 -0.42311134176242837 -0.2304528026464861 0 -0.42948217154750851 -0.21815887616964899 0 -0.43908324849522451 -0.2287046610080686 0 -0.42948217154750851 -0.21815887616964899 0 -0.43955036875351089 -0.21658504913102711 0 -0.43908324849522451 -0.2287046610080686 0 -0.40619246279161347 -0.2313797712556602 0 -0.41411505562058892 -0.2091502018577929 0 -0.42311134176242837 -0.2304528026464861 0 -0.40619246279161347 -0.2313797712556602 0 -0.41411505562058892 -0.2091502018577929 0 -0.39826986996263802 -0.25360934065352753 0 -0.41615383063077721 -0.2466412503256647 0 -0.40619246279161347 -0.2313797712556602 0 -0.42311134176242837 -0.2304528026464861 0 -0.41615383063077721 -0.2466412503256647 0 -0.40619246279161347 -0.2313797712556602 0 -0.39826986996263802 -0.25360934065352753 0 -0.38632210934187061 -0.2364082567837591 0 -0.40619246279161347 -0.2313797712556602 0 -0.39826986996263802 -0.25360934065352753 0 -0.40619246279161347 -0.2313797712556602 0 -0.37533687834285862 -0.25417213976024849 0 -0.36764811873304098 -0.23322730847002751 0 -0.38632210934187061 -0.2364082567837591 0 -0.37533687834285862 -0.25417213976024849 0 -0.39826986996263802 -0.25360934065352753 0 -0.38632210934187061 -0.2364082567837591 0 -0.36764811873304098 -0.23322730847002751 0 -0.38632210934187061 -0.2364082567837591 0 -0.37772562505684643 -0.22219038377974651 0 -0.38632210934187061 -0.2364082567837591 0 -0.37772562505684643 -0.22219038377974651 0 -0.39102038474593709 -0.2139255738073175 0 -0.38632210934187061 -0.2364082567837591 0 -0.40619246279161347 -0.2313797712556602 0 -0.39102038474593709 -0.2139255738073175 0 -0.39102038474593709 -0.2139255738073175 0 -0.40351751052996843 -0.1957217498792192 0 -0.41411505562058892 -0.2091502018577929 0 -0.40619246279161347 -0.2313797712556602 0 -0.39102038474593709 -0.2139255738073175 0 -0.41411505562058892 -0.2091502018577929 0 -0.37235342842372432 -0.19838340983925429 0 -0.39102038474593709 -0.2139255738073175 0 -0.37235342842372432 -0.19838340983925429 0 -0.37772562505684643 -0.22219038377974651 0 -0.39102038474593709 -0.2139255738073175 0 -0.37016556171889331 -0.18126023377528719 0 -0.37235342842372432 -0.19838340983925429 0 -0.38726325091278008 -0.18918768555573329 0 -0.37235342842372432 -0.19838340983925429 0 -0.39102038474593709 -0.2139255738073175 0 -0.38726325091278008 -0.18918768555573329 0 -0.38726325091278008 -0.18918768555573329 0 -0.40351751052996843 -0.1957217498792192 0 -0.40315121292097328 -0.17942465571532731 0 -0.39102038474593709 -0.2139255738073175 0 -0.38726325091278008 -0.18918768555573329 0 -0.40351751052996843 -0.1957217498792192 0 -0.41411505562058892 -0.2091502018577929 0 -0.42203764844956237 -0.18692063245992491 0 -0.40351751052996843 -0.1957217498792192 0 -0.41411505562058892 -0.2091502018577929 0 -0.42203764844956237 -0.18692063245992491 0 -0.41411505562058892 -0.2091502018577929 0 -0.42948217154750851 -0.21815887616964899 0 -0.43155084310578928 -0.2059016662048701 0 -0.42948217154750851 -0.21815887616964899 0 -0.43155084310578928 -0.2059016662048701 0 -0.43955036875351089 -0.21658504913102711 0 -0.42203764844956237 -0.18692063245992491 0 -0.44484374680150301 -0.19597231310248839 0 -0.41411505562058892 -0.2091502018577929 0 -0.43155084310578928 -0.2059016662048701 0 -0.42203764844956237 -0.18692063245992491 0 -0.43155084310578928 -0.2059016662048701 0 -0.42203764844956237 -0.18692063245992491 0 -0.44484374680150301 -0.19597231310248839 0 -0.42203764844956237 -0.18692063245992491 0 -0.44134853753678083 -0.18159229851429221 0 -0.44484374680150301 -0.19597231310248839 0 -0.42203764844956237 -0.18692063245992491 0 -0.42880774722037651 -0.1679247830322266 0 -0.42203764844956237 -0.18692063245992491 0 -0.42880774722037651 -0.1679247830322266 0 -0.44134853753678083 -0.18159229851429221 0 -0.42880774722037651 -0.1679247830322266 0 -0.43557784599118871 -0.14892893360452769 0 -0.44631139980808621 -0.1631836851414229 0 -0.42880774722037651 -0.1679247830322266 0 -0.43557784599118871 -0.14892893360452769 0 -0.42880774722037651 -0.1679247830322266 0 -0.41236960909879722 -0.16540507401591409 0 -0.42079860369606048 -0.15043713941075901 0 -0.42203764844956237 -0.18692063245992491 0 -0.42880774722037651 -0.1679247830322266 0 -0.41236960909879722 -0.16540507401591409 0 -0.40351751052996843 -0.1957217498792192 0 -0.42203764844956237 -0.18692063245992491 0 -0.40315121292097328 -0.17942465571532731 0 -0.42203764844956237 -0.18692063245992491 0 -0.40315121292097328 -0.17942465571532731 0 -0.42203764844956237 -0.18692063245992491 0 -0.41236960909879722 -0.16540507401591409 0 -0.40315121292097328 -0.17942465571532731 0 -0.38726325091278008 -0.18918768555573329 0 -0.40315121292097328 -0.17942465571532731 0 -0.38426477739238413 -0.17192867897072969 0 -0.40315121292097328 -0.17942465571532731 0 -0.38426477739238413 -0.17192867897072969 0 -0.37016556171889331 -0.18126023377528719 0 -0.38726325091278008 -0.18918768555573329 0 -0.38426477739238413 -0.17192867897072969 0 -0.36554542654456429 -0.16945206744667471 0 -0.38426477739238413 -0.17192867897072969 0 -0.37696591512674532 -0.1609827341034305 0 -0.38426477739238413 -0.17192867897072969 0 -0.37696591512674532 -0.1609827341034305 0 -0.39230106084837368 -0.15838844905994759 0 -0.40315121292097328 -0.17942465571532731 0 -0.38426477739238413 -0.17192867897072969 0 -0.39230106084837368 -0.15838844905994759 0 -0.41236960909879722 -0.16540507401591409 0 -0.39230106084837368 -0.15838844905994759 0 -0.40587711449475489 -0.1449624873806776 0 -0.41236960909879722 -0.16540507401591409 0 -0.40315121292097328 -0.17942465571532731 0 -0.39230106084837368 -0.15838844905994759 0 -0.39230106084837368 -0.15838844905994759 0 -0.39162863389564362 -0.14105630786861159 0 -0.40587711449475489 -0.1449624873806776 0 -0.39230106084837368 -0.15838844905994759 0 -0.39162863389564362 -0.14105630786861159 0 -0.3777566452334315 -0.14913711856379011 0 -0.37696591512674532 -0.1609827341034305 0 -0.39230106084837368 -0.15838844905994759 0 -0.3777566452334315 -0.14913711856379011 0 -0.36893450279197471 -0.1249528869149899 0 -0.39162863389564362 -0.14105630786861159 0 -0.3777566452334315 -0.14913711856379011 0 -0.36893450279197471 -0.1249528869149899 0 -0.39162863389564362 -0.14105630786861159 0 -0.39514760223357998 -0.1249586529677193 0 -0.39162863389564362 -0.14105630786861159 0 -0.40587711449475489 -0.1449624873806776 0 -0.39514760223357998 -0.1249586529677193 0 -0.40587711449475489 -0.1449624873806776 0 -0.39514760223357998 -0.1249586529677193 0 -0.42136070167518519 -0.1249644190204488 0 -0.40587711449475489 -0.1449624873806776 0 -0.42079860369606048 -0.15043713941075901 0 -0.42136070167518519 -0.1249644190204488 0 -0.41236960909879722 -0.16540507401591409 0 -0.40587711449475489 -0.1449624873806776 0 -0.42079860369606048 -0.15043713941075901 0 -0.42079860369606048 -0.15043713941075901 0 -0.43557784599118871 -0.14892893360452769 0 -0.42136070167518519 -0.1249644190204488 0 -0.42880774722037651 -0.1679247830322266 0 -0.42079860369606048 -0.15043713941075901 0 -0.43557784599118871 -0.14892893360452769 0 -0.43557784599118871 -0.14892893360452769 0 -0.42136070167518519 -0.1249644190204488 0 -0.44757380111679052 -0.12497018507317829 0 -0.43557784599118871 -0.14892893360452769 0 -0.45596445488588 -0.14427568033770541 0 -0.44757380111679052 -0.12497018507317829 0 -0.43557784599118871 -0.14892893360452769 0 -0.45596445488588 -0.14427568033770541 0 -0.44631139980808621 -0.1631836851414229 0 -0.45596445488588 -0.14427568033770541 0 -0.46278066629215481 -0.1610158872753634 0 -0.44631139980808621 -0.1631836851414229 0 -0.45596445488588 -0.14427568033770541 0 -0.47930750267908417 -0.1480635854121114 0 -0.46278066629215481 -0.1610158872753634 0 -0.45596445488588 -0.14427568033770541 0 -0.44757380111679052 -0.12497018507317829 0 -0.47378690055839578 -0.1249759511259078 0 -0.48827360080937021 -0.13531742911399189 0 -0.47930750267908417 -0.1480635854121114 0 -0.47378690055839578 -0.1249759511259078 0 -0.45596445488588 -0.14427568033770541 0 -0.47930750267908417 -0.1480635854121114 0 -0.47378690055839578 -0.1249759511259078 0 -0.48827360080937021 -0.13531742911399189 0 -0.5 -0.14324846273931111 0 -0.50000000000000111 -0.12498171717863731 0 -0.48827360080937021 -0.13531742911399189 0 -0.47378690055839578 -0.1249759511259078 0 -0.50000000000000111 -0.12498171717863731 0 -0.5 -0.14324846273931111 0 -0.47930750267908417 -0.1480635854121114 0 -0.49999999999999961 -0.161515208299985 0 -0.48827360080937021 -0.13531742911399189 0 -0.5 -0.14324846273931111 0 -0.47930750267908417 -0.1480635854121114 0 -0.47930750267908417 -0.1480635854121114 0 -0.47738728335761421 -0.1682509267597351 0 -0.46278066629215481 -0.1610158872753634 0 -0.47738728335761421 -0.1682509267597351 0 -0.49999999999999961 -0.161515208299985 0 -0.48839409620634278 -0.18039624849769001 0 -0.49999999999999961 -0.161515208299985 0 -0.48839409620634278 -0.18039624849769001 0 -0.47930750267908417 -0.1480635854121114 0 -0.47738728335761421 -0.1682509267597351 0 -0.49999999999999961 -0.161515208299985 0 -0.49999999999999961 -0.161515208299985 0 -0.5 -0.18618779176616679 0 -0.48839409620634278 -0.18039624849769001 0 -0.5 -0.18618779176616679 0 -0.48839409620634278 -0.18039624849769001 0 -0.48957789370491162 -0.19386933705848941 0 -0.47738728335761421 -0.1682509267597351 0 -0.48839409620634278 -0.18039624849769001 0 -0.47328693949397721 -0.18411760774338479 0 -0.47738728335761421 -0.1682509267597351 0 -0.47328693949397721 -0.18411760774338479 0 -0.45860677246597031 -0.17520894370368309 0 -0.47328693949397721 -0.18411760774338479 0 -0.45860677246597031 -0.17520894370368309 0 -0.45906836497473352 -0.19043479360484361 0 -0.47738728335761421 -0.1682509267597351 0 -0.45860677246597031 -0.17520894370368309 0 -0.46278066629215481 -0.1610158872753634 0 -0.45860677246597031 -0.17520894370368309 0 -0.46278066629215481 -0.1610158872753634 0 -0.44631139980808621 -0.1631836851414229 0 -0.42880774722037651 -0.1679247830322266 0 -0.44631139980808621 -0.1631836851414229 0 -0.44134853753678083 -0.18159229851429221 0 -0.45860677246597031 -0.17520894370368309 0 -0.44631139980808621 -0.1631836851414229 0 -0.44134853753678083 -0.18159229851429221 0 -0.45860677246597031 -0.17520894370368309 0 -0.44134853753678083 -0.18159229851429221 0 -0.45906836497473352 -0.19043479360484361 0 -0.44134853753678083 -0.18159229851429221 0 -0.45906836497473352 -0.19043479360484361 0 -0.44134853753678083 -0.18159229851429221 0 -0.44484374680150301 -0.19597231310248839 0 -0.45906836497473352 -0.19043479360484361 0 -0.43155084310578928 -0.2059016662048701 0 -0.44484374680150301 -0.19597231310248839 0 -0.44343463088850471 -0.20721188330797369 0 -0.43155084310578928 -0.2059016662048701 0 -0.44343463088850471 -0.20721188330797369 0 -0.43955036875351089 -0.21658504913102711 0 -0.44343463088850471 -0.20721188330797369 0 -0.43955036875351089 -0.21658504913102711 0 -0.44966782191270221 -0.21345696714665749 0 -0.44966782191270221 -0.21345696714665749 0 -0.45691127413918359 -0.218140336649912 0 -0.44903912237987481 -0.22310222333220869 0 -0.43955036875351089 -0.21658504913102711 0 -0.44966782191270221 -0.21345696714665749 0 -0.44903912237987481 -0.22310222333220869 0 -0.44484374680150301 -0.19597231310248839 0 -0.44343463088850471 -0.20721188330797369 0 -0.45285363365211462 -0.2065344908709397 0 -0.44343463088850471 -0.20721188330797369 0 -0.44966782191270221 -0.21345696714665749 0 -0.45285363365211462 -0.2065344908709397 0 -0.45285363365211462 -0.2065344908709397 0 -0.4586721235044201 -0.2110072970525271 0 -0.46764984515344349 -0.20502399374505181 0 -0.44966782191270221 -0.21345696714665749 0 -0.45285363365211462 -0.2065344908709397 0 -0.4586721235044201 -0.2110072970525271 0 -0.44966782191270221 -0.21345696714665749 0 -0.4586721235044201 -0.2110072970525271 0 -0.45691127413918359 -0.218140336649912 0 -0.4586721235044201 -0.2110072970525271 0 -0.45691127413918359 -0.218140336649912 0 -0.46757130244775341 -0.21427176676618889 0 -0.4586721235044201 -0.2110072970525271 0 -0.46757130244775341 -0.21427176676618889 0 -0.46764984515344349 -0.20502399374505181 0 -0.44484374680150301 -0.19597231310248839 0 -0.46764984515344349 -0.20502399374505181 0 -0.45906836497473352 -0.19043479360484361 0 -0.44484374680150301 -0.19597231310248839 0 -0.45285363365211462 -0.2065344908709397 0 -0.46764984515344349 -0.20502399374505181 0 -0.45906836497473352 -0.19043479360484361 0 -0.47678819241268611 -0.1992772886953951 0 -0.44484374680150301 -0.19597231310248839 0 -0.46764984515344349 -0.20502399374505181 0 -0.46764984515344349 -0.20502399374505181 0 -0.45906836497473352 -0.19043479360484361 0 -0.47678819241268611 -0.1992772886953951 0 -0.47328693949397721 -0.18411760774338479 0 -0.45906836497473352 -0.19043479360484361 0 -0.47678819241268611 -0.1992772886953951 0 -0.48839409620634278 -0.18039624849769001 0 -0.47328693949397721 -0.18411760774338479 0 -0.47678819241268611 -0.1992772886953951 0 -0.48839409620634278 -0.18039624849769001 0 -0.47678819241268611 -0.1992772886953951 0 -0.47678819241268611 -0.1992772886953951 0 -0.48957789370491162 -0.19386933705848941 0 -0.50000000000000222 -0.21086037523234849 0 -0.48839409620634278 -0.18039624849769001 0 -0.47678819241268611 -0.1992772886953951 0 -0.48957789370491162 -0.19386933705848941 0 -0.5 -0.18618779176616679 0 -0.48957789370491162 -0.19386933705848941 0 -0.50000000000000222 -0.21086037523234849 0 -0.50000000000000222 -0.21086037523234849 0 -0.48101414991814051 -0.21220490785157131 0 -0.4775447229854059 -0.22535576830415929 0 -0.47678819241268611 -0.1992772886953951 0 -0.50000000000000222 -0.21086037523234849 0 -0.47678819241268611 -0.1992772886953951 0 -0.50000000000000222 -0.21086037523234849 0 -0.48101414991814051 -0.21220490785157131 0 -0.46757130244775341 -0.21427176676618889 0 -0.47678819241268611 -0.1992772886953951 0 -0.48101414991814051 -0.21220490785157131 0 -0.46757130244775341 -0.21427176676618889 0 -0.47678819241268611 -0.1992772886953951 0 -0.46757130244775341 -0.21427176676618889 0 -0.46764984515344349 -0.20502399374505181 0 -0.47678819241268611 -0.1992772886953951 0 -0.46757130244775341 -0.21427176676618889 0 -0.48101414991814051 -0.21220490785157131 0 -0.4775447229854059 -0.22535576830415929 0 -0.46757130244775341 -0.21427176676618889 0 -0.4775447229854059 -0.22535576830415929 0 -0.46571952953094348 -0.22577651025912229 0 -0.4775447229854059 -0.22535576830415929 0 -0.4726071657750785 -0.240360200228666 0 -0.45676275941016609 -0.23628729483617639 0 -0.50000000000000222 -0.21086037523234849 0 -0.4775447229854059 -0.22535576830415929 0 -0.48548116721245049 -0.23774912910784329 0 -0.50000000000000222 -0.21086037523234849 0 -0.5 -0.2401545466321974 0 -0.48548116721245049 -0.23774912910784329 0 -0.48050148842732221 -0.25523221810557922 0 -0.5 -0.2401545466321974 0 -0.48548116721245049 -0.23774912910784329 0 -0.48050148842732221 -0.25523221810557922 0 -0.4726071657750785 -0.240360200228666 0 -0.46267023581878858 -0.24817136713935201 0 -0.48050148842732221 -0.25523221810557922 0 -0.48548116721245049 -0.23774912910784329 0 -0.4726071657750785 -0.240360200228666 0 -0.4775447229854059 -0.22535576830415929 0 -0.48548116721245049 -0.23774912910784329 0 -0.4726071657750785 -0.240360200228666 0 -0.4726071657750785 -0.240360200228666 0 -0.46267023581878858 -0.24817136713935201 0 -0.45676275941016609 -0.23628729483617639 0 -0.46267023581878858 -0.24817136713935201 0 -0.45676275941016609 -0.23628729483617639 0 -0.45139902778349827 -0.24711062934306771 0 -0.4775447229854059 -0.22535576830415929 0 -0.45676275941016609 -0.23628729483617639 0 -0.46571952953094348 -0.22577651025912229 0 -0.4775447229854059 -0.22535576830415929 0 -0.45676275941016609 -0.23628729483617639 0 -0.46757130244775341 -0.21427176676618889 0 -0.45835441248282049 -0.22926624483698249 0 -0.45691127413918359 -0.218140336649912 0 -0.46757130244775341 -0.21427176676618889 0 -0.45835441248282049 -0.22926624483698249 0 -0.46757130244775341 -0.21427176676618889 0 -0.46571952953094348 -0.22577651025912229 0 -0.45835441248282049 -0.22926624483698249 0 -0.45691127413918359 -0.218140336649912 0 -0.45835441248282049 -0.22926624483698249 0 -0.44903912237987481 -0.22310222333220869 0 -0.45676275941016609 -0.23628729483617639 0 -0.46571952953094348 -0.22577651025912229 0 -0.45835441248282049 -0.22926624483698249 0 -0.45676275941016609 -0.23628729483617639 0 -0.45835441248282049 -0.22926624483698249 0 -0.44784406772060242 -0.23291584907632601 0 -0.45835441248282049 -0.22926624483698249 0 -0.44784406772060242 -0.23291584907632601 0 -0.44903912237987481 -0.22310222333220869 0 -0.44784406772060242 -0.23291584907632601 0 -0.44903912237987481 -0.22310222333220869 0 -0.43908324849522451 -0.2287046610080686 0 -0.43955036875351089 -0.21658504913102711 0 -0.44903912237987481 -0.22310222333220869 0 -0.43908324849522451 -0.2287046610080686 0 -0.43598079583492633 -0.24721882136819351 0 -0.44784406772060242 -0.23291584907632601 0 -0.43908324849522451 -0.2287046610080686 0 -0.43598079583492633 -0.24721882136819351 0 -0.45676275941016609 -0.23628729483617639 0 -0.45139902778349827 -0.24711062934306771 0 -0.43598079583492633 -0.24721882136819351 0 -0.45676275941016609 -0.23628729483617639 0 -0.44784406772060242 -0.23291584907632601 0 -0.43598079583492633 -0.24721882136819351 0 -0.45676275941016609 -0.23628729483617639 0 -0.41513049604948221 -0.033942569896895612 0 -0.42680670243505803 -0.034615113076212713 0 -0.40073055052989021 -0.025701474464423758 0 -0.41513049604948221 -0.033942569896895612 0 -0.42462943043776058 -0.041038039404546971 0 -0.40237332615973681 -0.030676944162886681 0 -0.42462943043776058 -0.041038039404546971 0 -0.40237332615973681 -0.030676944162886681 0 -0.41105872637709778 -0.041104419315527559 0 -0.42462943043776058 -0.041038039404546971 0 -0.40237332615973681 -0.030676944162886681 0 -0.41795689190558921 -0.046390941043723911 0 -0.41105872637709778 -0.041104419315527559 0 -0.42462943043776058 -0.041038039404546971 0 -0.41513049604948221 -0.033942569896895612 0 -0.42462943043776058 -0.041038039404546971 0 -0.4243569293735685 -0.037306081984415762 0 -0.41105872637709778 -0.041104419315527559 0 -0.4050251302254127 -0.045922345921936697 0 -0.40306291723554027 -0.039039715031688543 0 -0.41795689190558921 -0.046390941043723911 0 -0.41105872637709778 -0.041104419315527559 0 -0.41174405323292163 -0.047949206462353358 0 -0.41105872637709778 -0.041104419315527559 0 -0.41174405323292163 -0.047949206462353358 0 -0.4050251302254127 -0.045922345921936697 0 -0.41174405323292163 -0.047949206462353358 0 -0.4050251302254127 -0.045922345921936697 0 -0.40603099279739802 -0.054788986838451827 0 -0.41174405323292163 -0.047949206462353358 0 -0.4187470457232762 -0.053937065845881961 0 -0.40603099279739802 -0.054788986838451827 0 -0.4187470457232762 -0.053937065845881961 0 -0.40603099279739802 -0.054788986838451827 0 -0.41284572228237681 -0.064006668923108523 0 -0.4187470457232762 -0.053937065845881961 0 -0.41284572228237681 -0.064006668923108523 0 -0.42746868386642678 -0.066478460468227696 0 -0.41795689190558921 -0.046390941043723911 0 -0.41174405323292163 -0.047949206462353358 0 -0.4187470457232762 -0.053937065845881961 0 -0.41795689190558921 -0.046390941043723911 0 -0.4187470457232762 -0.053937065845881961 0 -0.42320145590089769 -0.048540393412862697 0 -0.42320145590089769 -0.048540393412862697 0 -0.43147245553696489 -0.05279552735729795 0 -0.42462943043776058 -0.041038039404546971 0 -0.4187470457232762 -0.053937065845881961 0 -0.42320145590089769 -0.048540393412862697 0 -0.43147245553696489 -0.05279552735729795 0 -0.43147245553696489 -0.05279552735729795 0 -0.42462943043776058 -0.041038039404546971 0 -0.44688553471578463 -0.051399134646207288 0 -0.4187470457232762 -0.053937065845881961 0 -0.43147245553696489 -0.05279552735729795 0 -0.42746868386642678 -0.066478460468227696 0 -0.43147245553696489 -0.05279552735729795 0 -0.42746868386642678 -0.066478460468227696 0 -0.43950717444435422 -0.063784996514660589 0 -0.42818951741271921 -0.038310772776573528 0 -0.43628267576141971 -0.035329403205585218 0 -0.44688553471578463 -0.051399134646207288 0 -0.42462943043776058 -0.041038039404546971 0 -0.42818951741271921 -0.038310772776573528 0 -0.44688553471578463 -0.051399134646207288 0 -0.42462943043776058 -0.041038039404546971 0 -0.44688553471578463 -0.051399134646207288 0 -0.41795689190558921 -0.046390941043723911 0 -0.42320145590089769 -0.048540393412862697 0 -0.42462943043776058 -0.041038039404546971 0 -0.41513049604948221 -0.033942569896895612 0 -0.4243569293735685 -0.037306081984415762 0 -0.42680670243505803 -0.034615113076212713 0 -0.42462943043776058 -0.041038039404546971 0 -0.4243569293735685 -0.037306081984415762 0 -0.42818951741271921 -0.038310772776573528 0 -0.42818951741271921 -0.038310772776573528 0 -0.42680670243505803 -0.034615113076212713 0 -0.4243569293735685 -0.037306081984415762 0 -0.42818951741271921 -0.038310772776573528 0 -0.42680670243505803 -0.034615113076212713 0 -0.42818951741271921 -0.038310772776573528 0 -0.42680670243505803 -0.034615113076212713 0 -0.42995577540377822 -0.032900560567165532 0 -0.42818951741271921 -0.038310772776573528 0 -0.42995577540377822 -0.032900560567165532 0 -0.43628267576141971 -0.035329403205585218 0 -0.42995577540377822 -0.032900560567165532 0 -0.43628267576141971 -0.035329403205585218 0 -0.4327931004709421 -0.029092843067932112 0 -0.42680670243505803 -0.034615113076212713 0 -0.4285090787839364 -0.025262373234060161 0 -0.41794895562780338 -0.01094222954485795 0 -0.42680670243505803 -0.034615113076212713 0 -0.41794895562780338 -0.01094222954485795 0 -0.43628267576141971 -0.035329403205585218 0 -0.4327931004709421 -0.029092843067932112 0 -0.43710875721387199 -0.026668229939385779 0 -0.42995577540377822 -0.032900560567165532 0 -0.4327931004709421 -0.029092843067932112 0 -0.4285090787839364 -0.025262373234060161 0 -0.43210921519170409 -0.025303648393463829 0 -0.43710875721387199 -0.026668229939385779 0 -0.43108579893039811 -0.01948839847471974 0 -0.4327931004709421 -0.029092843067932112 0 -0.43210921519170409 -0.025303648393463829 0 -0.4285090787839364 -0.025262373234060161 0 -0.4327931004709421 -0.029092843067932112 0 -0.43210921519170409 -0.025303648393463829 0 -0.43710875721387199 -0.026668229939385779 0 -0.43108579893039811 -0.01948839847471974 0 -0.43397544616601241 -0.014244232554068349 0 -0.43928417642389239 -0.017661557407765791 0 -0.43710875721387199 -0.026668229939385779 0 -0.43108579893039811 -0.01948839847471974 0 -0.43928417642389239 -0.017661557407765791 0 -0.43210921519170409 -0.025303648393463829 0 -0.43108579893039811 -0.01948839847471974 0 -0.4285090787839364 -0.025262373234060161 0 -0.43108579893039811 -0.01948839847471974 0 -0.4285090787839364 -0.025262373234060161 0 -0.41794895562780338 -0.01094222954485795 0 -0.42680670243505803 -0.034615113076212713 0 -0.42995577540377822 -0.032900560567165532 0 -0.4285090787839364 -0.025262373234060161 0 -0.43591977417237449 -0.008065469867085449 0 -0.42907061680018699 -0.010664914002041091 0 -0.42583279771702431 0.00046528033667210148 0 -0.43108579893039811 -0.01948839847471974 0 -0.43397544616601241 -0.014244232554068349 0 -0.42907061680018699 -0.010664914002041091 0 -0.43591977417237449 -0.008065469867085449 0 -0.43397544616601241 -0.014244232554068349 0 -0.43928417642389239 -0.017661557407765791 0 -0.43591977417237449 -0.008065469867085449 0 -0.43397544616601241 -0.014244232554068349 0 -0.42907061680018699 -0.010664914002041091 0 -0.43108579893039811 -0.01948839847471974 0 -0.42907061680018699 -0.010664914002041091 0 -0.41794895562780338 -0.01094222954485795 0 -0.42907061680018699 -0.010664914002041091 0 -0.41794895562780338 -0.01094222954485795 0 -0.42583279771702431 0.00046528033667210148 0 -0.41794895562780338 -0.01094222954485795 0 -0.4102220184461346 -0.019351118920435541 0 -0.40021295305484711 -0.013852611056198059 0 -0.41794895562780338 -0.01094222954485795 0 -0.40352261506359649 -0.001038070178381474 0 -0.40021295305484711 -0.013852611056198059 0 -0.42680670243505803 -0.034615113076212713 0 -0.41794895562780338 -0.01094222954485795 0 -0.4102220184461346 -0.019351118920435541 0 -0.42680670243505803 -0.034615113076212713 0 -0.4102220184461346 -0.019351118920435541 0 -0.40073055052989021 -0.025701474464423758 0 -0.42680670243505803 -0.034615113076212713 0 -0.40073055052989021 -0.025701474464423758 0 -0.41513049604948221 -0.033942569896895612 0 -0.40073055052989021 -0.025701474464423758 0 -0.40237332615973681 -0.030676944162886681 0 -0.40073055052989021 -0.025701474464423758 0 -0.40237332615973681 -0.030676944162886681 0 -0.38011722188171299 -0.020315848921226409 0 -0.40237332615973681 -0.030676944162886681 0 -0.38011722188171299 -0.020315848921226409 0 -0.4102220184461346 -0.019351118920435541 0 -0.40073055052989021 -0.025701474464423758 0 -0.40021295305484711 -0.013852611056198059 0 -0.40073055052989021 -0.025701474464423758 0 -0.40021295305484711 -0.013852611056198059 0 -0.38745402304870558 -0.01483805838738575 0 -0.40352261506359649 -0.001038070178381474 0 -0.40021295305484711 -0.013852611056198059 0 -0.39408165103759368 -0.0019794594859314238 0 -0.40021295305484711 -0.013852611056198059 0 -0.39408165103759368 -0.0019794594859314238 0 -0.39005949432245718 -0.0085411321607220259 0 -0.40021295305484711 -0.013852611056198059 0 -0.39005949432245718 -0.0085411321607220259 0 -0.38745402304870558 -0.01483805838738575 0 -0.39408165103759368 -0.0019794594859314238 0 -0.3848191179490616 -0.0027051675553946518 0 -0.39005949432245718 -0.0085411321607220259 0 -0.3848191179490616 -0.0027051675553946518 0 -0.38372972652207787 -0.0093303643187002475 0 -0.39005949432245718 -0.0085411321607220259 0 -0.38372972652207787 -0.0093303643187002475 0 -0.38745402304870558 -0.01483805838738575 0 -0.3791207175096093 -0.01135650732177081 0 -0.38372972652207787 -0.0093303643187002475 0 -0.39005949432245718 -0.0085411321607220259 0 -0.38745402304870558 -0.01483805838738575 0 -0.37465439862472261 -0.016787835852634068 0 -0.37464851222799189 -0.0076089195940836872 0 -0.3791207175096093 -0.01135650732177081 0 -0.37465439862472261 -0.016787835852634068 0 -0.38745402304870558 -0.01483805838738575 0 -0.3791207175096093 -0.01135650732177081 0 -0.37464851222799189 -0.0076089195940836872 0 -0.3791207175096093 -0.01135650732177081 0 -0.37960876280762101 -0.0064231604720931881 0 -0.38372972652207787 -0.0093303643187002475 0 -0.3791207175096093 -0.01135650732177081 0 -0.37960876280762101 -0.0064231604720931881 0 -0.3848191179490616 -0.0027051675553946518 0 -0.38372972652207787 -0.0093303643187002475 0 -0.37960876280762101 -0.0064231604720931881 0 -0.37464851222799189 -0.0076089195940836872 0 -0.37960876280762101 -0.0064231604720931881 0 -0.37774077980655368 -0.001289555558904682 0 -0.3848191179490616 -0.0027051675553946518 0 -0.37960876280762101 -0.0064231604720931881 0 -0.37774077980655368 -0.001289555558904682 0 -0.37465439862472261 -0.016787835852634068 0 -0.40073055052989021 -0.025701474464423758 0 -0.38745402304870558 -0.01483805838738575 0 -0.40237332615973681 -0.030676944162886681 0 -0.38781453024876661 -0.02996800237218563 0 -0.38011722188171299 -0.020315848921226409 0 -0.37465439862472261 -0.016787835852634068 0 -0.40073055052989021 -0.025701474464423758 0 -0.38011722188171299 -0.020315848921226409 0 -0.37465439862472261 -0.016787835852634068 0 -0.40073055052989021 -0.025701474464423758 0 -0.37402384376206249 -0.023759624541515059 0 -0.37465439862472261 -0.016787835852634068 0 -0.38011722188171299 -0.020315848921226409 0 -0.37402384376206249 -0.023759624541515059 0 -0.38011722188171299 -0.020315848921226409 0 -0.37866743010551202 -0.02906954498465647 0 -0.38781453024876661 -0.02996800237218563 0 -0.38011722188171299 -0.020315848921226409 0 -0.37866743010551202 -0.02906954498465647 0 -0.37439980638912518 -0.038891661293645137 0 -0.37866743010551202 -0.02906954498465647 0 -0.38394575501216083 -0.036535335565972972 0 -0.37439980638912518 -0.038891661293645137 0 -0.37993408630244868 -0.045501240077299353 0 -0.38394575501216083 -0.036535335565972972 0 -0.37085155020467431 -0.050438611479832557 0 -0.37439980638912518 -0.038891661293645137 0 -0.37993408630244868 -0.045501240077299353 0 -0.37993408630244868 -0.045501240077299353 0 -0.38895054345211377 -0.045335196083553769 0 -0.38394575501216083 -0.036535335565972972 0 -0.38895054345211377 -0.045335196083553769 0 -0.38394575501216083 -0.036535335565972972 0 -0.39396365166307989 -0.03445798481758762 0 -0.38781453024876661 -0.02996800237218563 0 -0.38394575501216083 -0.036535335565972972 0 -0.39396365166307989 -0.03445798481758762 0 -0.38781453024876661 -0.02996800237218563 0 -0.37866743010551202 -0.02906954498465647 0 -0.38394575501216083 -0.036535335565972972 0 -0.40237332615973681 -0.030676944162886681 0 -0.38781453024876661 -0.02996800237218563 0 -0.39396365166307989 -0.03445798481758762 0 -0.39396365166307989 -0.03445798481758762 0 -0.39750411751227832 -0.042292212187568533 0 -0.39928834571923882 -0.035924112998793431 0 -0.38895054345211377 -0.045335196083553769 0 -0.39396365166307989 -0.03445798481758762 0 -0.39750411751227832 -0.042292212187568533 0 -0.39750411751227832 -0.042292212187568533 0 -0.4050251302254127 -0.045922345921936697 0 -0.40306291723554027 -0.039039715031688543 0 -0.39750411751227832 -0.042292212187568533 0 -0.40306291723554027 -0.039039715031688543 0 -0.39928834571923882 -0.035924112998793431 0 -0.40237332615973681 -0.030676944162886681 0 -0.39396365166307989 -0.03445798481758762 0 -0.39928834571923882 -0.035924112998793431 0 -0.41105872637709778 -0.041104419315527559 0 -0.40237332615973681 -0.030676944162886681 0 -0.40306291723554027 -0.039039715031688543 0 -0.40237332615973681 -0.030676944162886681 0 -0.40306291723554027 -0.039039715031688543 0 -0.39928834571923882 -0.035924112998793431 0 -0.40603099279739802 -0.054788986838451827 0 -0.39527915405366182 -0.064437672488960096 0 -0.41284572228237681 -0.064006668923108523 0 -0.40603099279739802 -0.054788986838451827 0 -0.39443592701229091 -0.053019652188425637 0 -0.39527915405366182 -0.064437672488960096 0 -0.4050251302254127 -0.045922345921936697 0 -0.40603099279739802 -0.054788986838451827 0 -0.39443592701229091 -0.053019652188425637 0 -0.39750411751227832 -0.042292212187568533 0 -0.4050251302254127 -0.045922345921936697 0 -0.39443592701229091 -0.053019652188425637 0 -0.38895054345211377 -0.045335196083553769 0 -0.39750411751227832 -0.042292212187568533 0 -0.39443592701229091 -0.053019652188425637 0 -0.39443592701229091 -0.053019652188425637 0 -0.38221605892473098 -0.056125323053866277 0 -0.39527915405366182 -0.064437672488960096 0 -0.36608399240098949 -0.063120758007335118 0 -0.38221605892473098 -0.056125323053866277 0 -0.37978412082390189 -0.068029865631836883 0 -0.38895054345211377 -0.045335196083553769 0 -0.39443592701229091 -0.053019652188425637 0 -0.38221605892473098 -0.056125323053866277 0 -0.37993408630244868 -0.045501240077299353 0 -0.38895054345211377 -0.045335196083553769 0 -0.38221605892473098 -0.056125323053866277 0 -0.37085155020467431 -0.050438611479832557 0 -0.37993408630244868 -0.045501240077299353 0 -0.38221605892473098 -0.056125323053866277 0 -0.36843110820579178 -0.075527255856609146 0 -0.37978412082390189 -0.068029865631836883 0 -0.38691029053433551 -0.080938318752413793 0 -0.37978412082390189 -0.068029865631836883 0 -0.38691029053433551 -0.080938318752413793 0 -0.39527915405366182 -0.064437672488960096 0 -0.38221605892473098 -0.056125323053866277 0 -0.37978412082390189 -0.068029865631836883 0 -0.39527915405366182 -0.064437672488960096 0 -0.37380044498630338 -0.100392191664622 0 -0.36747037526515469 -0.088210616938563927 0 -0.38691029053433551 -0.080938318752413793 0 -0.36843110820579178 -0.075527255856609146 0 -0.38691029053433551 -0.080938318752413793 0 -0.40007542381043809 -0.086939242353532731 0 -0.39460333317738627 -0.1006873657273652 0 -0.41352047356827321 -0.0909948847898496 0 -0.38691029053433551 -0.080938318752413793 0 -0.40007542381043809 -0.086939242353532731 0 -0.40767355229219521 -0.074626636544090755 0 -0.38691029053433551 -0.080938318752413793 0 -0.40007542381043809 -0.086939242353532731 0 -0.39460333317738627 -0.1006873657273652 0 -0.38691029053433551 -0.080938318752413793 0 -0.39527915405366182 -0.064437672488960096 0 -0.40767355229219521 -0.074626636544090755 0 -0.39527915405366182 -0.064437672488960096 0 -0.41284572228237681 -0.064006668923108523 0 -0.40767355229219521 -0.074626636544090755 0 -0.36893450279197471 -0.1249528869149899 0 -0.3789649235099295 -0.11270856972454819 0 -0.39514760223357998 -0.1249586529677193 0 -0.36893450279197471 -0.1249528869149899 0 -0.39514760223357998 -0.1249586529677193 0 -0.3789649235099295 -0.11270856972454819 0 -0.39460333317738627 -0.1006873657273652 0 -0.39514760223357998 -0.1249586529677193 0 -0.37380044498630338 -0.100392191664622 0 -0.38691029053433551 -0.080938318752413793 0 -0.39460333317738627 -0.1006873657273652 0 -0.37380044498630338 -0.100392191664622 0 -0.3789649235099295 -0.11270856972454819 0 -0.39460333317738627 -0.1006873657273652 0 -0.39460333317738627 -0.1006873657273652 0 -0.39514760223357998 -0.1249586529677193 0 -0.4114708495464785 -0.1093321351213095 0 -0.42136070167518519 -0.1249644190204488 0 -0.4114708495464785 -0.1093321351213095 0 -0.43272213707796769 -0.1050553531011644 0 -0.39514760223357998 -0.1249586529677193 0 -0.42136070167518519 -0.1249644190204488 0 -0.39514760223357998 -0.1249586529677193 0 -0.42136070167518519 -0.1249644190204488 0 -0.4114708495464785 -0.1093321351213095 0 -0.39460333317738627 -0.1006873657273652 0 -0.4114708495464785 -0.1093321351213095 0 -0.41352047356827321 -0.0909948847898496 0 -0.4114708495464785 -0.1093321351213095 0 -0.43272213707796769 -0.1050553531011644 0 -0.41352047356827321 -0.0909948847898496 0 -0.42136070167518519 -0.1249644190204488 0 -0.43272213707796769 -0.1050553531011644 0 -0.44757380111679052 -0.12497018507317829 0 -0.42136070167518519 -0.1249644190204488 0 -0.44757380111679052 -0.12497018507317829 0 -0.42023793718526542 -0.076451056482049876 0 -0.41284572228237681 -0.064006668923108523 0 -0.42746868386642678 -0.066478460468227696 0 -0.42023793718526542 -0.076451056482049876 0 -0.41284572228237681 -0.064006668923108523 0 -0.40767355229219521 -0.074626636544090755 0 -0.42023793718526542 -0.076451056482049876 0 -0.40767355229219521 -0.074626636544090755 0 -0.41352047356827321 -0.0909948847898496 0 -0.40007542381043809 -0.086939242353532731 0 -0.40767355229219521 -0.074626636544090755 0 -0.41352047356827321 -0.0909948847898496 0 -0.42023793718526542 -0.076451056482049876 0 -0.41352047356827321 -0.0909948847898496 0 -0.43051036701793649 -0.083964229305721505 0 -0.43272213707796769 -0.1050553531011644 0 -0.41352047356827321 -0.0909948847898496 0 -0.43051036701793649 -0.083964229305721505 0 -0.43272213707796769 -0.1050553531011644 0 -0.43051036701793649 -0.083964229305721505 0 -0.44869793539396702 -0.090613631575090198 0 -0.43051036701793649 -0.083964229305721505 0 -0.42746868386642678 -0.066478460468227696 0 -0.43938561630945938 -0.075374003134316428 0 -0.42023793718526542 -0.076451056482049876 0 -0.43051036701793649 -0.083964229305721505 0 -0.42746868386642678 -0.066478460468227696 0 -0.42746868386642678 -0.066478460468227696 0 -0.43950717444435422 -0.063784996514660589 0 -0.43938561630945938 -0.075374003134316428 0 -0.43950717444435422 -0.063784996514660589 0 -0.45074392082461212 -0.072028697807882153 0 -0.43938561630945938 -0.075374003134316428 0 -0.43051036701793649 -0.083964229305721505 0 -0.43938561630945938 -0.075374003134316428 0 -0.44869793539396702 -0.090613631575090198 0 -0.45074392082461212 -0.072028697807882153 0 -0.43938561630945938 -0.075374003134316428 0 -0.44869793539396702 -0.090613631575090198 0 -0.45074392082461212 -0.072028697807882153 0 -0.44869793539396702 -0.090613631575090198 0 -0.4647336852437608 -0.080388630180202481 0 -0.44869793539396702 -0.090613631575090198 0 -0.4647336852437608 -0.080388630180202481 0 -0.47380622041468068 -0.096022360055862885 0 -0.4647336852437608 -0.080388630180202481 0 -0.46264955769922828 -0.069236149835977229 0 -0.47254815090776853 -0.069469283055039688 0 -0.45074392082461212 -0.072028697807882153 0 -0.46264955769922828 -0.069236149835977229 0 -0.44688553471578463 -0.051399134646207288 0 -0.46264955769922828 -0.069236149835977229 0 -0.47254815090776853 -0.069469283055039688 0 -0.46914163899380801 -0.061760229887868598 0 -0.45074392082461212 -0.072028697807882153 0 -0.4647336852437608 -0.080388630180202481 0 -0.46264955769922828 -0.069236149835977229 0 -0.43272213707796769 -0.1050553531011644 0 -0.44757380111679052 -0.12497018507317829 0 -0.46022938895027038 -0.10869066194517669 0 -0.43272213707796769 -0.1050553531011644 0 -0.44869793539396702 -0.090613631575090198 0 -0.46022938895027038 -0.10869066194517669 0 -0.44869793539396702 -0.090613631575090198 0 -0.46022938895027038 -0.10869066194517669 0 -0.47380622041468068 -0.096022360055862885 0 -0.44757380111679052 -0.12497018507317829 0 -0.47378690055839578 -0.1249759511259078 0 -0.44757380111679052 -0.12497018507317829 0 -0.46022938895027038 -0.10869066194517669 0 -0.47378690055839578 -0.1249759511259078 0 -0.46022938895027038 -0.10869066194517669 0 -0.47378690055839578 -0.1249759511259078 0 -0.48374478807960558 -0.1092121363906397 0 -0.46022938895027038 -0.10869066194517669 0 -0.48374478807960558 -0.1092121363906397 0 -0.47380622041468068 -0.096022360055862885 0 -0.48374478807960558 -0.1092121363906397 0 -0.47380622041468068 -0.096022360055862885 0 -0.48832582805197727 -0.092109142267116931 0 -0.48374478807960558 -0.1092121363906397 0 -0.5 -0.10055386622176241 0 -0.48832582805197727 -0.092109142267116931 0 -0.47378690055839578 -0.1249759511259078 0 -0.48374478807960558 -0.1092121363906397 0 -0.50000000000000111 -0.12498171717863731 0 -0.48374478807960558 -0.1092121363906397 0 -0.5 -0.10055386622176241 0 -0.50000000000000111 -0.12498171717863731 0 -0.47378690055839578 -0.1249759511259078 0 -0.50000000000000111 -0.12498171717863731 0 -0.47254815090776853 -0.069469283055039688 0 -0.47913967023945842 -0.082463322467565006 0 -0.48457081949690362 -0.068943122576377761 0 -0.47913967023945842 -0.082463322467565006 0 -0.48808502354595151 -0.080031310268457945 0 -0.48457081949690362 -0.068943122576377761 0 -0.48457081949690362 -0.068943122576377761 0 -0.46914163899380801 -0.061760229887868598 0 -0.48457081949690362 -0.068943122576377761 0 -0.48230491698392047 -0.057318093012348498 0 -0.46914163899380801 -0.061760229887868598 0 -0.47254815090776853 -0.069469283055039688 0 -0.48457081949690362 -0.068943122576377761 0 -0.46914163899380801 -0.061760229887868598 0 -0.47254815090776853 -0.069469283055039688 0 -0.46914163899380801 -0.061760229887868598 0 -0.4647336852437608 -0.080388630180202481 0 -0.47254815090776853 -0.069469283055039688 0 -0.47913967023945842 -0.082463322467565006 0 -0.4647336852437608 -0.080388630180202481 0 -0.47380622041468068 -0.096022360055862885 0 -0.47913967023945842 -0.082463322467565006 0 -0.47380622041468068 -0.096022360055862885 0 -0.47913967023945842 -0.082463322467565006 0 -0.48832582805197727 -0.092109142267116931 0 -0.5 -0.10055386622176241 0 -0.48832582805197727 -0.092109142267116931 0 -0.499999999999999 -0.07612601526488752 0 -0.48808502354595151 -0.080031310268457945 0 -0.48832582805197727 -0.092109142267116931 0 -0.499999999999999 -0.07612601526488752 0 -0.47913967023945842 -0.082463322467565006 0 -0.48808502354595151 -0.080031310268457945 0 -0.48832582805197727 -0.092109142267116931 0 -0.499999999999999 -0.07612601526488752 0 -0.48457081949690362 -0.068943122576377761 0 -0.499999999999999 -0.07612601526488752 0 -0.48457081949690362 -0.068943122576377761 0 -0.5 -0.055081012739928707 0 -0.48808502354595151 -0.080031310268457945 0 -0.499999999999999 -0.07612601526488752 0 -0.48457081949690362 -0.068943122576377761 0 -0.48457081949690362 -0.068943122576377761 0 -0.5 -0.055081012739928707 0 -0.48230491698392047 -0.057318093012348498 0 -0.5 -0.055081012739928707 0 -0.48157039955536241 -0.044558511477442143 0 -0.48230491698392047 -0.057318093012348498 0 -0.5 -0.055081012739928707 0 -0.500000000000004 -0.034036010214970061 0 -0.48157039955536241 -0.044558511477442143 0 -0.500000000000004 -0.034036010214970061 0 -0.48157039955536241 -0.044558511477442143 0 -0.48148290990478199 -0.029591545163434652 0 -0.48157039955536241 -0.044558511477442143 0 -0.45768975774058179 -0.035844230274481748 0 -0.48148290990478199 -0.029591545163434652 0 -0.48157039955536241 -0.044558511477442143 0 -0.46914163899380801 -0.061760229887868598 0 -0.45768975774058179 -0.035844230274481748 0 -0.48157039955536241 -0.044558511477442143 0 -0.48230491698392047 -0.057318093012348498 0 -0.46914163899380801 -0.061760229887868598 0 -0.46914163899380801 -0.061760229887868598 0 -0.45768975774058179 -0.035844230274481748 0 -0.44688553471578463 -0.051399134646207288 0 -0.46914163899380801 -0.061760229887868598 0 -0.45768975774058179 -0.035844230274481748 0 -0.46264955769922828 -0.069236149835977229 0 -0.46914163899380801 -0.061760229887868598 0 -0.44688553471578463 -0.051399134646207288 0 -0.46914163899380801 -0.061760229887868598 0 -0.44688553471578463 -0.051399134646207288 0 -0.43628267576141971 -0.035329403205585218 0 -0.44354830351403418 -0.034418653902415733 0 -0.44688553471578463 -0.051399134646207288 0 -0.45768975774058179 -0.035844230274481748 0 -0.44354830351403418 -0.034418653902415733 0 -0.44688553471578463 -0.051399134646207288 0 -0.45768975774058179 -0.035844230274481748 0 -0.44354830351403418 -0.034418653902415733 0 -0.44312252706978628 -0.024928407146411868 0 -0.43628267576141971 -0.035329403205585218 0 -0.43710875721387199 -0.026668229939385779 0 -0.44354830351403418 -0.034418653902415733 0 -0.43950717444435422 -0.063784996514660589 0 -0.45074392082461212 -0.072028697807882153 0 -0.44688553471578463 -0.051399134646207288 0 -0.43147245553696489 -0.05279552735729795 0 -0.43950717444435422 -0.063784996514660589 0 -0.44688553471578463 -0.051399134646207288 0 -0.43591977417237449 -0.008065469867085449 0 -0.44623787648735791 -0.0099282306610938807 0 -0.43740981058492812 0.01004998492246997 0 -0.43591977417237449 -0.008065469867085449 0 -0.44623787648735791 -0.0099282306610938807 0 -0.43928417642389239 -0.017661557407765791 0 -0.43591977417237449 -0.008065469867085449 0 -0.44623787648735791 -0.0099282306610938807 0 -0.43710875721387199 -0.026668229939385779 0 -0.43928417642389239 -0.017661557407765791 0 -0.44312252706978628 -0.024928407146411868 0 -0.45768975774058179 -0.035844230274481748 0 -0.44623787648735791 -0.0099282306610938807 0 -0.44312252706978628 -0.024928407146411868 0 -0.45768975774058179 -0.035844230274481748 0 -0.44623787648735791 -0.0099282306610938807 0 -0.44623787648735791 -0.0099282306610938807 0 -0.43928417642389239 -0.017661557407765791 0 -0.44312252706978628 -0.024928407146411868 0 -0.43710875721387199 -0.026668229939385779 0 -0.44354830351403418 -0.034418653902415733 0 -0.44312252706978628 -0.024928407146411868 0 -0.45768975774058179 -0.035844230274481748 0 -0.44623787648735791 -0.0099282306610938807 0 -0.47146408957177099 -0.01448240150379307 0 -0.44623787648735791 -0.0099282306610938807 0 -0.47146408957177099 -0.01448240150379307 0 -0.44623787648735791 -0.0099282306610938807 0 -0.47146408957177099 -0.01448240150379307 0 -0.46048772545436639 0.0043098071123656434 0 -0.47146408957177099 -0.01448240150379307 0 -0.47882554305316488 -0.0018417715126103191 0 -0.46048772545436639 0.0043098071123656434 0 -0.47146408957177099 -0.01448240150379307 0 -0.47882554305316488 -0.0018417715126103191 0 -0.49669030265618502 -0.01903657234648758 0 -0.47146408957177099 -0.01448240150379307 0 -0.49669030265618502 -0.01903657234648758 0 -0.47146408957177099 -0.01448240150379307 0 -0.48148290990478199 -0.029591545163434652 0 -0.49669030265618502 -0.01903657234648758 0 -0.45768975774058179 -0.035844230274481748 0 -0.47146408957177099 -0.01448240150379307 0 -0.48148290990478199 -0.029591545163434652 0 -0.500000000000004 -0.034036010214970061 0 -0.48148290990478199 -0.029591545163434652 0 -0.49669030265618502 -0.01903657234648758 0 -0.49669030265618502 -0.01903657234648758 0 -0.50000000000000056 -0.019634082844440681 0 -0.500000000000004 -0.034036010214970061 0 -0.49669030265618502 -0.01903657234648758 0 -0.500000000000004 -0.034036010214970061 0 -0.49669030265618502 -0.01903657234648758 0 -0.50000000000000056 -0.019634082844440681 0 -0.47882554305316488 -0.0018417715126103191 0 -0.49669030265618502 -0.01903657234648758 0 -0.49160980924365538 0.0039880541876541054 0 -0.49669030265618502 -0.01903657234648758 0 -0.49160980924365538 0.0039880541876541054 0 -0.49669030265618502 -0.01903657234648758 0 -0.50000000000000056 -0.019634082844440681 0 -0.49160980924365538 0.0039880541876541054 0 -0.50000000000000056 -0.019634082844440681 0 -0.49160980924365538 0.0039880541876541054 0 -0.50000000000000033 0.009303662189531537 0 -0.49160980924365538 0.0039880541876541054 0 -0.48652931583112352 0.027012680721795381 0 -0.49160980924365538 0.0039880541876541054 0 -0.50000000000000033 0.009303662189531537 0 -0.48652931583112352 0.027012680721795381 0 -0.50000000000000033 0.009303662189531537 0 -0.5 0.03611151152349279 0 -0.49175907743105379 0.031398254416965428 0 -0.50000000000000033 0.009303662189531537 0 -0.49175907743105379 0.031398254416965428 0 -0.50000000000000033 0.009303662189531537 0 -0.48652931583112352 0.027012680721795381 0 -0.49175907743105379 0.031398254416965428 0 -0.48652931583112352 0.027012680721795381 0 -0.47387578833984401 0.016012254987208822 0 -0.46815351836101687 0.031449839152918539 0 -0.49160980924365538 0.0039880541876541054 0 -0.48652931583112352 0.027012680721795381 0 -0.47387578833984401 0.016012254987208822 0 -0.47882554305316488 -0.0018417715126103191 0 -0.49160980924365538 0.0039880541876541054 0 -0.47387578833984401 0.016012254987208822 0 -0.47882554305316488 -0.0018417715126103191 0 -0.47387578833984401 0.016012254987208822 0 -0.46048772545436639 0.0043098071123656434 0 -0.49282352307895688 0.045257754500502748 0 -0.5 0.03611151152349279 0 -0.5 0.062919360857453976 0 -0.49282352307895688 0.045257754500502748 0 -0.48351815486210709 0.053492846644399093 0 -0.5 0.062919360857453976 0 -0.49175907743105379 0.031398254416965428 0 -0.48144882241859149 0.050037307255936581 0 -0.48351815486210709 0.053492846644399093 0 -0.48652931583112352 0.027012680721795381 0 -0.49175907743105379 0.031398254416965428 0 -0.48144882241859149 0.050037307255936581 0 -0.49175907743105379 0.031398254416965428 0 -0.48351815486210709 0.053492846644399093 0 -0.49282352307895688 0.045257754500502748 0 -0.49175907743105379 0.031398254416965428 0 -0.48351815486210709 0.053492846644399093 0 -0.49282352307895688 0.045257754500502748 0 -0.5 0.03611151152349279 0 -0.49175907743105379 0.031398254416965428 0 -0.48144882241859149 0.050037307255936581 0 -0.4639696453013944 0.043374392403556838 0 -0.46815351836101687 0.031449839152918539 0 -0.48652931583112352 0.027012680721795381 0 -0.48144882241859149 0.050037307255936581 0 -0.48652931583112352 0.027012680721795381 0 -0.48144882241859149 0.050037307255936581 0 -0.46815351836101687 0.031449839152918539 0 -0.48144882241859149 0.050037307255936581 0 -0.45709786057011947 0.055708105081253657 0 -0.47636832900606041 0.073061933790077832 0 -0.48144882241859149 0.050037307255936581 0 -0.48351815486210709 0.053492846644399093 0 -0.47636832900606041 0.073061933790077832 0 -0.48144882241859149 0.050037307255936581 0 -0.47636832900606041 0.073061933790077832 0 -0.48144882241859149 0.050037307255936581 0 -0.45709786057011947 0.055708105081253657 0 -0.4639696453013944 0.043374392403556838 0 -0.45709786057011947 0.055708105081253657 0 -0.4639696453013944 0.043374392403556838 0 -0.45299045524759751 0.034902057762674861 0 -0.4639696453013944 0.043374392403556838 0 -0.46815351836101687 0.031449839152918539 0 -0.45299045524759751 0.034902057762674861 0 -0.46815351836101687 0.031449839152918539 0 -0.45299045524759751 0.034902057762674861 0 -0.45709786057011947 0.055708105081253657 0 -0.45299045524759751 0.034902057762674861 0 -0.43782739213417787 0.038354276372430232 0 -0.45299045524759751 0.034902057762674861 0 -0.43782739213417787 0.038354276372430232 0 -0.45299045524759751 0.034902057762674861 0 -0.43782739213417787 0.038354276372430232 0 -0.44297011017848281 0.02707887027054981 0 -0.45709786057011947 0.055708105081253657 0 -0.43782739213417787 0.038354276372430232 0 -0.43187248081207541 0.055496176207803817 0 -0.45709786057011947 0.055708105081253657 0 -0.43782739213417787 0.038354276372430232 0 -0.45709786057011947 0.055708105081253657 0 -0.43187248081207541 0.055496176207803817 0 -0.43763284036668942 0.072255399145110422 0 -0.47387578833984401 0.016012254987208822 0 -0.46048772545436639 0.0043098071123656434 0 -0.45598123469437257 0.020633802368031268 0 -0.47387578833984401 0.016012254987208822 0 -0.46815351836101687 0.031449839152918539 0 -0.45598123469437257 0.020633802368031268 0 -0.46815351836101687 0.031449839152918539 0 -0.45299045524759751 0.034902057762674861 0 -0.45598123469437257 0.020633802368031268 0 -0.45598123469437257 0.020633802368031268 0 -0.44297011017848281 0.02707887027054981 0 -0.43740981058492812 0.01004998492246997 0 -0.45299045524759751 0.034902057762674861 0 -0.45598123469437257 0.020633802368031268 0 -0.44297011017848281 0.02707887027054981 0 -0.46048772545436639 0.0043098071123656434 0 -0.45598123469437257 0.020633802368031268 0 -0.43740981058492812 0.01004998492246997 0 -0.44623787648735791 -0.0099282306610938807 0 -0.46048772545436639 0.0043098071123656434 0 -0.43740981058492812 0.01004998492246997 0 -0.44623787648735791 -0.0099282306610938807 0 -0.43740981058492812 0.01004998492246997 0 -0.43591977417237449 -0.008065469867085449 0 -0.43740981058492812 0.01004998492246997 0 -0.42583279771702431 0.00046528033667210148 0 -0.43740981058492812 0.01004998492246997 0 -0.42292027786463471 0.01349413118407828 0 -0.42583279771702431 0.00046528033667210148 0 -0.41794895562780338 -0.01094222954485795 0 -0.40909120882054839 0.01273065398649661 0 -0.41794895562780338 -0.01094222954485795 0 -0.40352261506359649 -0.001038070178381474 0 -0.40909120882054839 0.01273065398649661 0 -0.42292027786463471 0.01349413118407828 0 -0.42583279771702431 0.00046528033667210148 0 -0.40909120882054839 0.01273065398649661 0 -0.41794895562780338 -0.01094222954485795 0 -0.42583279771702431 0.00046528033667210148 0 -0.40909120882054839 0.01273065398649661 0 -0.40909120882054839 0.01273065398649661 0 -0.41494363987246979 0.023236645495722939 0 -0.40023346201329341 0.036403537517851137 0 -0.41494363987246979 0.023236645495722939 0 -0.41436175989852531 0.033604495869393458 0 -0.40023346201329341 0.036403537517851137 0 -0.42292027786463471 0.01349413118407828 0 -0.41494363987246979 0.023236645495722939 0 -0.424969395700869 0.026775135554755129 0 -0.42292027786463471 0.01349413118407828 0 -0.40909120882054839 0.01273065398649661 0 -0.41494363987246979 0.023236645495722939 0 -0.41494363987246979 0.023236645495722939 0 -0.41896391809246269 0.029132761591660509 0 -0.41436175989852531 0.033604495869393458 0 -0.41494363987246979 0.023236645495722939 0 -0.41896391809246269 0.029132761591660509 0 -0.424969395700869 0.026775135554755129 0 -0.41896391809246269 0.029132761591660509 0 -0.424969395700869 0.026775135554755129 0 -0.42158087689798668 0.032914769446770492 0 -0.424969395700869 0.026775135554755129 0 -0.42858174468249838 0.030028200506033911 0 -0.42158087689798668 0.032914769446770492 0 -0.44297011017848281 0.02707887027054981 0 -0.43740981058492812 0.01004998492246997 0 -0.42858174468249838 0.030028200506033911 0 -0.43740981058492812 0.01004998492246997 0 -0.42292027786463471 0.01349413118407828 0 -0.424969395700869 0.026775135554755129 0 -0.43740981058492812 0.01004998492246997 0 -0.42858174468249838 0.030028200506033911 0 -0.43740981058492812 0.01004998492246997 0 -0.424969395700869 0.026775135554755129 0 -0.42858174468249838 0.030028200506033911 0 -0.424969395700869 0.026775135554755129 0 -0.42858174468249838 0.030028200506033911 0 -0.43782739213417787 0.038354276372430232 0 -0.44297011017848281 0.02707887027054981 0 -0.42858174468249838 0.030028200506033911 0 -0.43782739213417787 0.038354276372430232 0 -0.42858174468249838 0.030028200506033911 0 -0.42345682706553001 0.041626064651069543 0 -0.43782739213417787 0.038354276372430232 0 -0.42345682706553001 0.041626064651069543 0 -0.43187248081207541 0.055496176207803817 0 -0.43782739213417787 0.038354276372430232 0 -0.42858174468249838 0.030028200506033911 0 -0.43782739213417787 0.038354276372430232 0 -0.42345682706553001 0.041626064651069543 0 -0.42858174468249838 0.030028200506033911 0 -0.42345682706553001 0.041626064651069543 0 -0.42158087689798668 0.032914769446770492 0 -0.42858174468249838 0.030028200506033911 0 -0.42345682706553001 0.041626064651069543 0 -0.42345682706553001 0.041626064651069543 0 -0.43187248081207541 0.055496176207803817 0 -0.4177568865966339 0.054525225210098782 0 -0.43187248081207541 0.055496176207803817 0 -0.4177568865966339 0.054525225210098782 0 -0.41753301535116211 0.067129086497859855 0 -0.42345682706553001 0.041626064651069543 0 -0.4177568865966339 0.054525225210098782 0 -0.40276573021624068 0.046336866753853997 0 -0.4177568865966339 0.054525225210098782 0 -0.40750332447406851 0.057375884956624552 0 -0.41753301535116211 0.067129086497859855 0 -0.42345682706553001 0.041626064651069543 0 -0.4177568865966339 0.054525225210098782 0 -0.4177568865966339 0.054525225210098782 0 -0.40750332447406851 0.057375884956624552 0 -0.40276573021624068 0.046336866753853997 0 -0.42345682706553001 0.041626064651069543 0 -0.40276573021624068 0.046336866753853997 0 -0.42345682706553001 0.041626064651069543 0 -0.41020444479839763 0.039492741198042178 0 -0.40276573021624068 0.046336866753853997 0 -0.42345682706553001 0.041626064651069543 0 -0.41436175989852531 0.033604495869393458 0 -0.42158087689798668 0.032914769446770492 0 -0.42345682706553001 0.041626064651069543 0 -0.41436175989852531 0.033604495869393458 0 -0.41020444479839763 0.039492741198042178 0 -0.41896391809246269 0.029132761591660509 0 -0.41436175989852531 0.033604495869393458 0 -0.42158087689798668 0.032914769446770492 0 -0.41436175989852531 0.033604495869393458 0 -0.41020444479839763 0.039492741198042178 0 -0.40023346201329341 0.036403537517851137 0 -0.40276573021624068 0.046336866753853997 0 -0.38207463336695202 0.051047668856640811 0 -0.38772007791329738 0.03985096685417347 0 -0.41020444479839763 0.039492741198042178 0 -0.40023346201329341 0.036403537517851137 0 -0.40276573021624068 0.046336866753853997 0 -0.40023346201329341 0.036403537517851137 0 -0.40276573021624068 0.046336866753853997 0 -0.38772007791329738 0.03985096685417347 0 -0.40023346201329341 0.036403537517851137 0 -0.38772007791329738 0.03985096685417347 0 -0.38925836826538629 0.030805614435688099 0 -0.40276573021624068 0.046336866753853997 0 -0.38207463336695202 0.051047668856640811 0 -0.40276573021624068 0.046336866753853997 0 -0.39689466156197101 0.057407184083191301 0 -0.38207463336695202 0.051047668856640811 0 -0.40750332447406851 0.057375884956624552 0 -0.39689466156197101 0.057407184083191301 0 -0.40210564328563447 0.066115584712721373 0 -0.40750332447406851 0.057375884956624552 0 -0.40276573021624068 0.046336866753853997 0 -0.39689466156197101 0.057407184083191301 0 -0.38207463336695202 0.051047668856640811 0 -0.38848633305814179 0.065600711414542545 0 -0.36891219827968119 0.060077996683558232 0 -0.39689466156197101 0.057407184083191301 0 -0.38207463336695202 0.051047668856640811 0 -0.38848633305814179 0.065600711414542545 0 -0.38772007791329738 0.03985096685417347 0 -0.37937813184432773 0.031366277704107569 0 -0.38925836826538629 0.030805614435688099 0 -0.38207463336695202 0.051047668856640811 0 -0.38772007791329738 0.03985096685417347 0 -0.37261014177358448 0.043145835856899219 0 -0.38772007791329738 0.03985096685417347 0 -0.37937813184432773 0.031366277704107569 0 -0.37261014177358448 0.043145835856899219 0 -0.37937813184432773 0.031366277704107569 0 -0.38391758338059062 0.022870450659759161 0 -0.37479293228070759 0.022502646493578662 0 -0.37937813184432773 0.031366277704107569 0 -0.38925836826538629 0.030805614435688099 0 -0.38391758338059062 0.022870450659759161 0 -0.38925836826538629 0.030805614435688099 0 -0.38391758338059062 0.022870450659759161 0 -0.3946160130735708 0.021551959563878339 0 -0.38391758338059062 0.022870450659759161 0 -0.38667067902898572 0.013842153393714489 0 -0.3946160130735708 0.021551959563878339 0 -0.38391758338059062 0.022870450659759161 0 -0.3778438638662554 0.014761087644765769 0 -0.38667067902898572 0.013842153393714489 0 -0.38391758338059062 0.022870450659759161 0 -0.3778438638662554 0.014761087644765769 0 -0.37479293228070759 0.022502646493578662 0 -0.3778438638662554 0.014761087644765769 0 -0.38165634421242611 0.0056742618597281089 0 -0.38667067902898572 0.013842153393714489 0 -0.3778438638662554 0.014761087644765769 0 -0.38165634421242611 0.0056742618597281089 0 -0.37464316483836829 0.0066416053135349984 0 -0.37774077980655368 -0.001289555558904682 0 -0.38165634421242611 0.0056742618597281089 0 -0.37464316483836829 0.0066416053135349984 0 -0.3848191179490616 -0.0027051675553946518 0 -0.37774077980655368 -0.001289555558904682 0 -0.38165634421242611 0.0056742618597281089 0 -0.3848191179490616 -0.0027051675553946518 0 -0.38165634421242611 0.0056742618597281089 0 -0.38845980705381639 0.0057813395070211177 0 -0.39408165103759368 -0.0019794594859314238 0 -0.3848191179490616 -0.0027051675553946518 0 -0.38845980705381639 0.0057813395070211177 0 -0.38845980705381639 0.0057813395070211177 0 -0.38667067902898572 0.013842153393714489 0 -0.39627830677719 0.008853295208583448 0 -0.38165634421242611 0.0056742618597281089 0 -0.38845980705381639 0.0057813395070211177 0 -0.38667067902898572 0.013842153393714489 0 -0.38667067902898572 0.013842153393714489 0 -0.39627830677719 0.008853295208583448 0 -0.3946160130735708 0.021551959563878339 0 -0.39408165103759368 -0.0019794594859314238 0 -0.38845980705381639 0.0057813395070211177 0 -0.39627830677719 0.008853295208583448 0 -0.40352261506359649 -0.001038070178381474 0 -0.39408165103759368 -0.0019794594859314238 0 -0.39627830677719 0.008853295208583448 0 -0.40352261506359649 -0.001038070178381474 0 -0.40909120882054839 0.01273065398649661 0 -0.39627830677719 0.008853295208583448 0 -0.40909120882054839 0.01273065398649661 0 -0.39627830677719 0.008853295208583448 0 -0.3946160130735708 0.021551959563878339 0 -0.40909120882054839 0.01273065398649661 0 -0.40023346201329341 0.036403537517851137 0 -0.3946160130735708 0.021551959563878339 0 -0.40909120882054839 0.01273065398649661 0 -0.40023346201329341 0.036403537517851137 0 -0.40023346201329341 0.036403537517851137 0 -0.38925836826538629 0.030805614435688099 0 -0.3946160130735708 0.021551959563878339 0 -0.38696142946532958 0.1003701901717608 0 -0.40164011277457379 0.081352107660276216 0 -0.40864304721671202 0.1107171055473533 0 -0.38750957741872682 0.11885909540365321 0 -0.40864304721671202 0.1107171055473533 0 -0.39401402549175851 0.1361747599337243 0 -0.38750957741872682 0.11885909540365321 0 -0.38696142946532958 0.1003701901717608 0 -0.40864304721671202 0.1107171055473533 0 -0.38750957741872682 0.11885909540365321 0 -0.38696142946532958 0.1003701901717608 0 -0.36904533532088801 0.1177582563576956 0 -0.38696142946532958 0.1003701901717608 0 -0.37090825683648998 0.098456277756480637 0 -0.36904533532088801 0.1177582563576956 0 -0.37929074908003868 0.077603726490867345 0 -0.40164011277457379 0.081352107660276216 0 -0.38696142946532958 0.1003701901717608 0 -0.37929074908003868 0.077603726490867345 0 -0.40164011277457379 0.081352107660276216 0 -0.38696142946532958 0.1003701901717608 0 -0.37929074908003868 0.077603726490867345 0 -0.37090825683648998 0.098456277756480637 0 -0.37929074908003868 0.077603726490867345 0 -0.38848633305814179 0.065600711414542545 0 -0.36891219827968119 0.060077996683558232 0 -0.37929074908003868 0.077603726490867345 0 -0.38848633305814179 0.065600711414542545 0 -0.40164011277457379 0.081352107660276216 0 -0.38848633305814179 0.065600711414542545 0 -0.40210564328563447 0.066115584712721373 0 -0.40164011277457379 0.081352107660276216 0 -0.39689466156197101 0.057407184083191301 0 -0.38848633305814179 0.065600711414542545 0 -0.40210564328563447 0.066115584712721373 0 -0.40164011277457379 0.081352107660276216 0 -0.42398947646910912 0.085100488829685086 0 -0.40164011277457379 0.081352107660276216 0 -0.42398947646910912 0.085100488829685086 0 -0.40864304721671202 0.1107171055473533 0 -0.40210564328563447 0.066115584712721373 0 -0.40164011277457379 0.081352107660276216 0 -0.41753301535116211 0.067129086497859855 0 -0.40164011277457379 0.081352107660276216 0 -0.41753301535116211 0.067129086497859855 0 -0.42398947646910912 0.085100488829685086 0 -0.40750332447406851 0.057375884956624552 0 -0.40210564328563447 0.066115584712721373 0 -0.41753301535116211 0.067129086497859855 0 -0.41753301535116211 0.067129086497859855 0 -0.42398947646910912 0.085100488829685086 0 -0.43763284036668942 0.072255399145110422 0 -0.43187248081207541 0.055496176207803817 0 -0.41753301535116211 0.067129086497859855 0 -0.43763284036668942 0.072255399145110422 0 -0.42398947646910912 0.085100488829685086 0 -0.44633884016364428 0.088848869999093971 0 -0.42398947646910912 0.085100488829685086 0 -0.43763284036668942 0.072255399145110422 0 -0.44633884016364428 0.088848869999093971 0 -0.42398947646910912 0.085100488829685086 0 -0.42906186480059683 0.10519001099972999 0 -0.44633884016364428 0.088848869999093971 0 -0.42398947646910912 0.085100488829685086 0 -0.42906186480059683 0.10519001099972999 0 -0.40864304721671202 0.1107171055473533 0 -0.40864304721671202 0.1107171055473533 0 -0.43267942878230348 0.12559175737704789 0 -0.42906186480059683 0.10519001099972999 0 -0.40864304721671202 0.1107171055473533 0 -0.43267942878230348 0.12559175737704789 0 -0.42906186480059683 0.10519001099972999 0 -0.4489383204882843 0.11104189391905871 0 -0.43267942878230348 0.12559175737704789 0 -0.4489383204882843 0.11104189391905871 0 -0.45289828098281221 0.1241297055338681 0 -0.43267942878230348 0.12559175737704789 0 -0.4489383204882843 0.11104189391905871 0 -0.43267942878230348 0.12559175737704789 0 -0.42906186480059683 0.10519001099972999 0 -0.4489383204882843 0.11104189391905871 0 -0.44633884016364428 0.088848869999093971 0 -0.4489383204882843 0.11104189391905871 0 -0.44633884016364428 0.088848869999093971 0 -0.47121921728662652 0.096397536200283296 0 -0.46607010556719342 0.11973313861048911 0 -0.47121921728662652 0.096397536200283296 0 -0.4489383204882843 0.11104189391905871 0 -0.46607010556719342 0.11973313861048911 0 -0.47121921728662652 0.096397536200283296 0 -0.4489383204882843 0.11104189391905871 0 -0.45289828098281221 0.1241297055338681 0 -0.46607010556719342 0.11973313861048911 0 -0.45709786057011947 0.055708105081253657 0 -0.43763284036668942 0.072255399145110422 0 -0.45544766770060358 0.07348919590478746 0 -0.43763284036668942 0.072255399145110422 0 -0.44633884016364428 0.088848869999093971 0 -0.45544766770060358 0.07348919590478746 0 -0.44633884016364428 0.088848869999093971 0 -0.45544766770060358 0.07348919590478746 0 -0.47121921728662652 0.096397536200283296 0 -0.45544766770060358 0.07348919590478746 0 -0.47636832900606041 0.073061933790077832 0 -0.47121921728662652 0.096397536200283296 0 -0.45709786057011947 0.055708105081253657 0 -0.47636832900606041 0.073061933790077832 0 -0.45709786057011947 0.055708105081253657 0 -0.45544766770060358 0.07348919590478746 0 -0.47636832900606041 0.073061933790077832 0 -0.48351815486210709 0.053492846644399093 0 -0.47636832900606041 0.073061933790077832 0 -0.49140909277123612 0.074197219851226057 0 -0.47636832900606041 0.073061933790077832 0 -0.48274454235378189 0.091705374172880549 0 -0.47121921728662652 0.096397536200283296 0 -0.47636832900606041 0.073061933790077832 0 -0.47121921728662652 0.096397536200283296 0 -0.47636832900606041 0.073061933790077832 0 -0.49715897998801373 0.091784747772784503 0 -0.5 0.089727210191415163 0 -0.49715897998801373 0.091784747772784503 0 -0.49140909277123612 0.074197219851226057 0 -0.47636832900606041 0.073061933790077832 0 -0.48274454235378189 0.091705374172880549 0 -0.49715897998801373 0.091784747772784503 0 -0.47636832900606041 0.073061933790077832 0 -0.49715897998801373 0.091784747772784503 0 -0.49140909277123612 0.074197219851226057 0 -0.5 0.089727210191415163 0 -0.5 0.062919360857453976 0 -0.49140909277123612 0.074197219851226057 0 -0.48351815486210709 0.053492846644399093 0 -0.5 0.062919360857453976 0 -0.49140909277123612 0.074197219851226057 0 -0.46607010556719342 0.11973313861048911 0 -0.48623164313442779 0.1055772789283768 0 -0.48453668432005692 0.123143207324586 0 -0.46607010556719342 0.11973313861048911 0 -0.47121921728662652 0.096397536200283296 0 -0.48623164313442779 0.1055772789283768 0 -0.48274454235378189 0.091705374172880549 0 -0.47121921728662652 0.096397536200283296 0 -0.48623164313442779 0.1055772789283768 0 -0.5 0.089727210191415163 0 -0.49715897998801373 0.091784747772784503 0 -0.5 0.1165350595253765 0 -0.49715897998801373 0.091784747772784503 0 -0.48623164313442779 0.1055772789283768 0 -0.5 0.1165350595253765 0 -0.48274454235378189 0.091705374172880549 0 -0.49715897998801373 0.091784747772784503 0 -0.48623164313442779 0.1055772789283768 0 -0.48623164313442779 0.1055772789283768 0 -0.5 0.1165350595253765 0 -0.48453668432005692 0.123143207324586 0 -0.5 0.1165350595253765 0 -0.48453668432005692 0.123143207324586 0 -0.5 0.1433429088593379 0 -0.48453668432005692 0.123143207324586 0 -0.48049738108946538 0.1379484740379 0 -0.5 0.1433429088593379 0 -0.46607010556719342 0.11973313861048911 0 -0.48453668432005692 0.123143207324586 0 -0.48049738108946538 0.1379484740379 0 -0.46607010556719342 0.11973313861048911 0 -0.48049738108946538 0.1379484740379 0 -0.46092099384776192 0.14306874102069511 0 -0.48464943840857888 0.15775282940309851 0 -0.46990863904630059 0.1670362475492525 0 -0.46092099384776192 0.14306874102069511 0 -0.48464943840857888 0.15775282940309851 0 -0.46092099384776192 0.14306874102069511 0 -0.48049738108946538 0.1379484740379 0 -0.48464943840857888 0.15775282940309851 0 -0.46092099384776192 0.14306874102069511 0 -0.48049738108946538 0.1379484740379 0 -0.5 0.1433429088593379 0 -0.48464943840857888 0.15775282940309851 0 -0.48464943840857888 0.15775282940309851 0 -0.5 0.17015075819329931 0 -0.4898809761324775 0.17912292006808481 0 -0.5 0.1433429088593379 0 -0.48464943840857888 0.15775282940309851 0 -0.5 0.17015075819329931 0 -0.48464943840857888 0.15775282940309851 0 -0.4898809761324775 0.17912292006808481 0 -0.47865635922375932 0.17909963177513319 0 -0.5 0.17015075819329931 0 -0.4898809761324775 0.17912292006808481 0 -0.5 0.19695860752726069 0 -0.4898809761324775 0.17912292006808481 0 -0.47865635922375932 0.17909963177513319 0 -0.48609908303004917 0.1916527734416324 0 -0.47865635922375932 0.17909963177513319 0 -0.47279817792341111 0.1948006201282925 0 -0.47865635922375932 0.17909963177513319 0 -0.46589335310649882 0.18744802338852329 0 -0.47279817792341111 0.1948006201282925 0 -0.47865635922375932 0.17909963177513319 0 -0.46927870962167312 0.17493875400548389 0 -0.46990863904630059 0.1670362475492525 0 -0.47865635922375932 0.17909963177513319 0 -0.46927870962167312 0.17493875400548389 0 -0.46555461593459269 0.18128722400797501 0 -0.47865635922375932 0.17909963177513319 0 -0.46589335310649882 0.18744802338852329 0 -0.46555461593459269 0.18128722400797501 0 -0.48464943840857888 0.15775282940309851 0 -0.47865635922375932 0.17909963177513319 0 -0.46990863904630059 0.1670362475492525 0 -0.45742932361540911 0.15889287394486271 0 -0.45393765338305497 0.17471700686903011 0 -0.46990863904630059 0.1670362475492525 0 -0.45742932361540911 0.15889287394486271 0 -0.46092099384776192 0.14306874102069511 0 -0.45742932361540911 0.15889287394486271 0 -0.46299522428203971 0.17233191268957501 0 -0.45393765338305497 0.17471700686903011 0 -0.46927870962167312 0.17493875400548389 0 -0.46990863904630059 0.1670362475492525 0 -0.46299522428203971 0.17233191268957501 0 -0.46990863904630059 0.1670362475492525 0 -0.45742932361540911 0.15889287394486271 0 -0.46299522428203971 0.17233191268957501 0 -0.46589335310649882 0.18744802338852329 0 -0.46555461593459269 0.18128722400797501 0 -0.45393765338305497 0.17471700686903011 0 -0.46589335310649882 0.18744802338852329 0 -0.46555461593459269 0.18128722400797501 0 -0.46927870962167312 0.17493875400548389 0 -0.46555461593459269 0.18128722400797501 0 -0.46299522428203971 0.17233191268957501 0 -0.46555461593459269 0.18128722400797501 0 -0.46299522428203971 0.17233191268957501 0 -0.45393765338305497 0.17471700686903011 0 -0.46589335310649882 0.18744802338852329 0 -0.45393765338305497 0.17471700686903011 0 -0.45393765338305497 0.17471700686903011 0 -0.44047241453070329 0.18324079402305421 0 -0.44820564853932793 0.20069426145875721 0 -0.45393765338305497 0.17471700686903011 0 -0.44047241453070329 0.18324079402305421 0 -0.44174290600336708 0.16173144065936321 0 -0.45742932361540911 0.15889287394486271 0 -0.44174290600336708 0.16173144065936321 0 -0.44616928685712581 0.1494742970518641 0 -0.45742932361540911 0.15889287394486271 0 -0.45393765338305497 0.17471700686903011 0 -0.44174290600336708 0.16173144065936321 0 -0.45393765338305497 0.17471700686903011 0 -0.44174290600336708 0.16173144065936321 0 -0.44174290600336708 0.16173144065936321 0 -0.44616928685712581 0.1494742970518641 0 -0.43187713239064979 0.1573343508491826 0 -0.44616928685712581 0.1494742970518641 0 -0.43700896048386301 0.14249666109927989 0 -0.43187713239064979 0.1573343508491826 0 -0.44616928685712581 0.1494742970518641 0 -0.44680021131503311 0.13433024919887079 0 -0.46092099384776192 0.14306874102069511 0 -0.44616928685712581 0.1494742970518641 0 -0.44680021131503311 0.13433024919887079 0 -0.43700896048386301 0.14249666109927989 0 -0.45289828098281221 0.1241297055338681 0 -0.44680021131503311 0.13433024919887079 0 -0.43267942878230348 0.12559175737704789 0 -0.44680021131503311 0.13433024919887079 0 -0.43267942878230348 0.12559175737704789 0 -0.43700896048386301 0.14249666109927989 0 -0.44680021131503311 0.13433024919887079 0 -0.43267942878230348 0.12559175737704789 0 -0.45289828098281221 0.1241297055338681 0 -0.44680021131503311 0.13433024919887079 0 -0.46092099384776192 0.14306874102069511 0 -0.46607010556719342 0.11973313861048911 0 -0.46092099384776192 0.14306874102069511 0 -0.45289828098281221 0.1241297055338681 0 -0.46607010556719342 0.11973313861048911 0 -0.46092099384776192 0.14306874102069511 0 -0.44680021131503311 0.13433024919887079 0 -0.46092099384776192 0.14306874102069511 0 -0.45742932361540911 0.15889287394486271 0 -0.46092099384776192 0.14306874102069511 0 -0.45742932361540911 0.15889287394486271 0 -0.44616928685712581 0.1494742970518641 0 -0.46092099384776192 0.14306874102069511 0 -0.46853242371352971 0.23544625301742969 0 -0.46993231893463527 0.26090691788180947 0 -0.48177750529808522 0.24619974485466931 0 -0.46853242371352971 0.23544625301742969 0 -0.46993231893463527 0.26090691788180947 0 -0.48177750529808522 0.24619974485466931 0 -0.48375626182904402 0.22755154475287301 0 -0.46853242371352971 0.23544625301742969 0 -0.48177750529808522 0.24619974485466931 0 -0.5 0.2461359573144368 0 -0.48375626182904402 0.22755154475287301 0 -0.5 0.2461359573144368 0 -0.48375626182904402 0.22755154475287301 0 -0.49999999999999978 0.22376645686122221 0 -0.48375626182904402 0.22755154475287301 0 -0.48639908896170481 0.20928353849475789 0 -0.5 0.2461359573144368 0 -0.49999999999999978 0.22376645686122221 0 -0.48375626182904402 0.22755154475287301 0 -0.47173343442327142 0.22048762952866541 0 -0.46713252849242448 0.20998558815304991 0 -0.46853242371352971 0.23544625301742969 0 -0.48375626182904402 0.22755154475287301 0 -0.47173343442327142 0.22048762952866541 0 -0.4670472636537164 0.20843482960316059 0 -0.48375626182904402 0.22755154475287301 0 -0.47173343442327142 0.22048762952866541 0 -0.46853242371352971 0.23544625301742969 0 -0.48375626182904402 0.22755154475287301 0 -0.4670472636537164 0.20843482960316059 0 -0.48639908896170481 0.20928353849475789 0 -0.47279817792341111 0.1948006201282925 0 -0.4670472636537164 0.20843482960316059 0 -0.48375626182904402 0.22755154475287301 0 -0.48639908896170481 0.20928353849475789 0 -0.4670472636537164 0.20843482960316059 0 -0.49999999999999978 0.22376645686122221 0 -0.48639908896170481 0.20928353849475789 0 -0.5 0.19695860752726069 0 -0.49999999999999978 0.22376645686122221 0 -0.48639908896170481 0.20928353849475789 0 -0.48639908896170481 0.20928353849475789 0 -0.5 0.19695860752726069 0 -0.48609908303004917 0.1916527734416324 0 -0.4898809761324775 0.17912292006808481 0 -0.5 0.19695860752726069 0 -0.48609908303004917 0.1916527734416324 0 -0.48639908896170481 0.20928353849475789 0 -0.48609908303004917 0.1916527734416324 0 -0.47279817792341111 0.1948006201282925 0 -0.47865635922375932 0.17909963177513319 0 -0.48609908303004917 0.1916527734416324 0 -0.47279817792341111 0.1948006201282925 0 -0.48639908896170481 0.20928353849475789 0 -0.47279817792341111 0.1948006201282925 0 -0.47279817792341111 0.1948006201282925 0 -0.4670472636537164 0.20843482960316059 0 -0.46589335310649882 0.18744802338852329 0 -0.47279817792341111 0.1948006201282925 0 -0.46589335310649882 0.18744802338852329 0 -0.4603250720810298 0.20074399020462361 0 -0.4670472636537164 0.20843482960316059 0 -0.46589335310649882 0.18744802338852329 0 -0.45393765338305497 0.17471700686903011 0 -0.44820564853932793 0.20069426145875721 0 -0.46589335310649882 0.18744802338852329 0 -0.4603250720810298 0.20074399020462361 0 -0.44820564853932793 0.20069426145875721 0 -0.46589335310649882 0.18744802338852329 0 -0.47279817792341111 0.1948006201282925 0 -0.4670472636537164 0.20843482960316059 0 -0.46589335310649882 0.18744802338852329 0 -0.4670472636537164 0.20843482960316059 0 -0.45393765338305497 0.17471700686903011 0 -0.44820564853932793 0.20069426145875721 0 -0.44820564853932793 0.20069426145875721 0 -0.45427794118362658 0.21265328965042851 0 -0.44247364369559788 0.22667151604848371 0 -0.44820564853932793 0.20069426145875721 0 -0.44247364369559788 0.22667151604848371 0 -0.44820564853932793 0.20069426145875721 0 -0.44247364369559788 0.22667151604848371 0 -0.42336320141575168 0.21609666274764849 0 -0.45880341375183131 0.2186303689721085 0 -0.45427794118362658 0.21265328965042851 0 -0.46188137931700068 0.21002659871962689 0 -0.45880341375183131 0.2186303689721085 0 -0.45427794118362658 0.21265328965042851 0 -0.4536201791639074 0.2236252940046442 0 -0.4603250720810298 0.20074399020462361 0 -0.45427794118362658 0.21265328965042851 0 -0.46188137931700068 0.21002659871962689 0 -0.4603250720810298 0.20074399020462361 0 -0.44820564853932793 0.20069426145875721 0 -0.45427794118362658 0.21265328965042851 0 -0.4603250720810298 0.20074399020462361 0 -0.46188137931700068 0.21002659871962689 0 -0.4670472636537164 0.20843482960316059 0 -0.4603250720810298 0.20074399020462361 0 -0.4670472636537164 0.20843482960316059 0 -0.46188137931700068 0.21002659871962689 0 -0.4670472636537164 0.20843482960316059 0 -0.46713252849242448 0.20998558815304991 0 -0.4670472636537164 0.20843482960316059 0 -0.46713252849242448 0.20998558815304991 0 -0.47173343442327142 0.22048762952866541 0 -0.4670472636537164 0.20843482960316059 0 -0.46713252849242448 0.20998558815304991 0 -0.45880341375183131 0.2186303689721085 0 -0.46188137931700068 0.21002659871962689 0 -0.46713252849242448 0.20998558815304991 0 -0.46713252849242448 0.20998558815304991 0 -0.45710504060219709 0.23686107433279269 0 -0.46713252849242448 0.20998558815304991 0 -0.45710504060219709 0.23686107433279269 0 -0.46853242371352971 0.23544625301742969 0 -0.45880341375183131 0.2186303689721085 0 -0.46713252849242448 0.20998558815304991 0 -0.45710504060219709 0.23686107433279269 0 -0.45880341375183131 0.2186303689721085 0 -0.4536201791639074 0.2236252940046442 0 -0.45710504060219709 0.23686107433279269 0 -0.46713252849242448 0.20998558815304991 0 -0.46853242371352971 0.23544625301742969 0 -0.45427794118362658 0.21265328965042851 0 -0.4536201791639074 0.2236252940046442 0 -0.44247364369559788 0.22667151604848371 0 -0.4536201791639074 0.2236252940046442 0 -0.44247364369559788 0.22667151604848371 0 -0.45710504060219709 0.23686107433279269 0 -0.44247364369559788 0.22667151604848371 0 -0.4367416388518679 0.25264877063821017 0 -0.44247364369559788 0.22667151604848371 0 -0.45710504060219709 0.23686107433279269 0 -0.4367416388518679 0.25264877063821017 0 -0.45710504060219709 0.23686107433279269 0 -0.46853242371352971 0.23544625301742969 0 -0.46993231893463527 0.26090691788180947 0 -0.41931835140954682 0.23739665832436521 0 -0.40367044579520373 0.24132688110038639 0 -0.41175872593851298 0.2549478601346914 0 -0.41931835140954682 0.23739665832436521 0 -0.40790513800462019 0.22799805468035339 0 -0.40367044579520373 0.24132688110038639 0 -0.41931835140954682 0.23739665832436521 0 -0.4367416388518679 0.25264877063821017 0 -0.41175872593851298 0.2549478601346914 0 -0.44247364369559788 0.22667151604848371 0 -0.41931835140954682 0.23739665832436521 0 -0.4367416388518679 0.25264877063821017 0 -0.44247364369559788 0.22667151604848371 0 -0.41931835140954682 0.23739665832436521 0 -0.42336320141575168 0.21609666274764849 0 -0.41931835140954682 0.23739665832436521 0 -0.40790513800462019 0.22799805468035339 0 -0.42336320141575168 0.21609666274764849 0 -0.40790513800462019 0.22799805468035339 0 -0.42336320141575168 0.21609666274764849 0 -0.40538393777915788 0.2123952851453417 0 -0.42336320141575168 0.21609666274764849 0 -0.42071240458675369 0.1920614743917832 0 -0.40538393777915788 0.2123952851453417 0 -0.44820564853932793 0.20069426145875721 0 -0.42336320141575168 0.21609666274764849 0 -0.42071240458675369 0.1920614743917832 0 -0.44047241453070329 0.18324079402305421 0 -0.44820564853932793 0.20069426145875721 0 -0.42071240458675369 0.1920614743917832 0 -0.42071240458675369 0.1920614743917832 0 -0.40538393777915788 0.2123952851453417 0 -0.42071240458675369 0.1920614743917832 0 -0.4022878927449296 0.1970928012265635 0 -0.40298680868332198 0.18508216307238631 0 -0.42071240458675369 0.1920614743917832 0 -0.4022878927449296 0.1970928012265635 0 -0.40538393777915788 0.2123952851453417 0 -0.4022878927449296 0.1970928012265635 0 -0.39286614404695941 0.1920732104686422 0 -0.40298680868332198 0.18508216307238631 0 -0.4022878927449296 0.1970928012265635 0 -0.39286614404695941 0.1920732104686422 0 -0.39380007669083689 0.206464460861051 0 -0.38422654444444693 0.2008322729754812 0 -0.38088029112643113 0.1825210369279657 0 -0.38422654444444693 0.2008322729754812 0 -0.38088029112643113 0.1825210369279657 0 -0.36802074197771562 0.19700904511440151 0 -0.38422654444444693 0.2008322729754812 0 -0.37368745339656201 0.20924711939208951 0 -0.36802074197771562 0.19700904511440151 0 -0.39286614404695941 0.1920732104686422 0 -0.38422654444444693 0.2008322729754812 0 -0.38088029112643113 0.1825210369279657 0 -0.39286614404695941 0.1920732104686422 0 -0.38422654444444693 0.2008322729754812 0 -0.39380007669083689 0.206464460861051 0 -0.38422654444444693 0.2008322729754812 0 -0.38757279776246373 0.21914350902299659 0 -0.38757279776246373 0.21914350902299659 0 -0.36800338097472479 0.22147713987588341 0 -0.37368745339656201 0.20924711939208951 0 -0.38422654444444693 0.2008322729754812 0 -0.39380007669083689 0.206464460861051 0 -0.38757279776246373 0.21914350902299659 0 -0.38422654444444693 0.2008322729754812 0 -0.38757279776246373 0.21914350902299659 0 -0.37368745339656201 0.20924711939208951 0 -0.39141353052387118 0.2186855059784025 0 -0.39380007669083689 0.206464460861051 0 -0.38757279776246373 0.21914350902299659 0 -0.39141353052387118 0.2186855059784025 0 -0.39380007669083689 0.206464460861051 0 -0.40538393777915788 0.2123952851453417 0 -0.4022878927449296 0.1970928012265635 0 -0.39380007669083689 0.206464460861051 0 -0.40538393777915788 0.2123952851453417 0 -0.40790513800462019 0.22799805468035339 0 -0.39005547097156312 0.23272909589890109 0 -0.40367044579520373 0.24132688110038639 0 -0.39141353052387118 0.2186855059784025 0 -0.40538393777915788 0.2123952851453417 0 -0.39005547097156312 0.23272909589890109 0 -0.40790513800462019 0.22799805468035339 0 -0.40538393777915788 0.2123952851453417 0 -0.39005547097156312 0.23272909589890109 0 -0.40538393777915788 0.2123952851453417 0 -0.39005547097156312 0.23272909589890109 0 -0.38757279776246373 0.21914350902299659 0 -0.39005547097156312 0.23272909589890109 0 -0.38757279776246373 0.21914350902299659 0 -0.36800338097472479 0.22147713987588341 0 -0.39141353052387118 0.2186855059784025 0 -0.38757279776246373 0.21914350902299659 0 -0.39005547097156312 0.23272909589890109 0 -0.38757279776246373 0.21914350902299659 0 -0.37939186114838758 0.22424627805714001 0 -0.36800338097472479 0.22147713987588341 0 -0.38757279776246373 0.21914350902299659 0 -0.37939186114838758 0.22424627805714001 0 -0.39005547097156312 0.23272909589890109 0 -0.39141353052387118 0.2186855059784025 0 -0.38757279776246373 0.21914350902299659 0 -0.37939186114838758 0.22424627805714001 0 -0.37477717689163992 0.25299635056682518 0 -0.39005547097156312 0.23272909589890109 0 -0.39384597734802013 0.25347135609337229 0 -0.37477717689163992 0.25299635056682518 0 -0.37939186114838758 0.22424627805714001 0 -0.39005547097156312 0.23272909589890109 0 -0.37477717689163992 0.25299635056682518 0 -0.39005547097156312 0.23272909589890109 0 -0.37477717689163992 0.25299635056682518 0 -0.40367044579520373 0.24132688110038639 0 -0.41175872593851298 0.2549478601346914 0 -0.39384597734802013 0.25347135609337229 0 -0.39005547097156312 0.23272909589890109 0 -0.39384597734802013 0.25347135609337229 0 -0.39005547097156312 0.23272909589890109 0 -0.40367044579520373 0.24132688110038639 0 -0.39384597734802013 0.25347135609337229 0 -0.41485942150404181 0.14153864215909739 0 -0.41553858058260518 0.15317901213210369 0 -0.42574561826610652 0.14613969243370301 0 -0.41553858058260518 0.15317901213210369 0 -0.42574561826610652 0.14613969243370301 0 -0.42127399236650492 0.15770626544657529 0 -0.41485942150404181 0.14153864215909739 0 -0.41553858058260518 0.15317901213210369 0 -0.4044664398419977 0.15594807455379561 0 -0.40864304721671202 0.1107171055473533 0 -0.41485942150404181 0.14153864215909739 0 -0.43267942878230348 0.12559175737704789 0 -0.41485942150404181 0.14153864215909739 0 -0.43267942878230348 0.12559175737704789 0 -0.42574561826610652 0.14613969243370301 0 -0.43267942878230348 0.12559175737704789 0 -0.43700896048386301 0.14249666109927989 0 -0.42574561826610652 0.14613969243370301 0 -0.41485942150404181 0.14153864215909739 0 -0.43267942878230348 0.12559175737704789 0 -0.42574561826610652 0.14613969243370301 0 -0.43187713239064979 0.1573343508491826 0 -0.42127399236650492 0.15770626544657529 0 -0.43700896048386301 0.14249666109927989 0 -0.42574561826610652 0.14613969243370301 0 -0.43187713239064979 0.1573343508491826 0 -0.43187713239064979 0.1573343508491826 0 -0.42946357341586749 0.17496324995209989 0 -0.4216380035134229 0.16659483191912641 0 -0.44174290600336708 0.16173144065936321 0 -0.43187713239064979 0.1573343508491826 0 -0.42946357341586749 0.17496324995209989 0 -0.43187713239064979 0.1573343508491826 0 -0.42127399236650492 0.15770626544657529 0 -0.4216380035134229 0.16659483191912641 0 -0.44047241453070329 0.18324079402305421 0 -0.44174290600336708 0.16173144065936321 0 -0.42946357341586749 0.17496324995209989 0 -0.44047241453070329 0.18324079402305421 0 -0.42071240458675369 0.1920614743917832 0 -0.42946357341586749 0.17496324995209989 0 -0.42071240458675369 0.1920614743917832 0 -0.42946357341586749 0.17496324995209989 0 -0.41235879422937732 0.17543682721938669 0 -0.42071240458675369 0.1920614743917832 0 -0.41235879422937732 0.17543682721938669 0 -0.40298680868332198 0.18508216307238631 0 -0.42946357341586749 0.17496324995209989 0 -0.41235879422937732 0.17543682721938669 0 -0.4216380035134229 0.16659483191912641 0 -0.41553858058260518 0.15317901213210369 0 -0.42127399236650492 0.15770626544657529 0 -0.41302135350813218 0.1630654313638546 0 -0.42127399236650492 0.15770626544657529 0 -0.4216380035134229 0.16659483191912641 0 -0.41302135350813218 0.1630654313638546 0 -0.41235879422937732 0.17543682721938669 0 -0.4216380035134229 0.16659483191912641 0 -0.41302135350813218 0.1630654313638546 0 -0.41235879422937732 0.17543682721938669 0 -0.41302135350813218 0.1630654313638546 0 -0.40449990094882532 0.16792382984329149 0 -0.41302135350813218 0.1630654313638546 0 -0.40449990094882532 0.16792382984329149 0 -0.4044664398419977 0.15594807455379561 0 -0.41553858058260518 0.15317901213210369 0 -0.41302135350813218 0.1630654313638546 0 -0.4044664398419977 0.15594807455379561 0 -0.3926733654842145 0.1692345557408807 0 -0.4044664398419977 0.15594807455379561 0 -0.40449990094882532 0.16792382984329149 0 -0.3926733654842145 0.1692345557408807 0 -0.40078474618547688 0.17571320347163299 0 -0.40449990094882532 0.16792382984329149 0 -0.3926733654842145 0.1692345557408807 0 -0.4044664398419977 0.15594807455379561 0 -0.3926733654842145 0.1692345557408807 0 -0.39703941422577987 0.15748552694114659 0 -0.4044664398419977 0.15594807455379561 0 -0.40298680868332198 0.18508216307238631 0 -0.40078474618547688 0.17571320347163299 0 -0.39301525059178999 0.18044652774840561 0 -0.41235879422937732 0.17543682721938669 0 -0.40298680868332198 0.18508216307238631 0 -0.40078474618547688 0.17571320347163299 0 -0.41235879422937732 0.17543682721938669 0 -0.40449990094882532 0.16792382984329149 0 -0.40078474618547688 0.17571320347163299 0 -0.3926733654842145 0.1692345557408807 0 -0.40078474618547688 0.17571320347163299 0 -0.39301525059178999 0.18044652774840561 0 -0.39286614404695941 0.1920732104686422 0 -0.40298680868332198 0.18508216307238631 0 -0.39301525059178999 0.18044652774840561 0 -0.39286614404695941 0.1920732104686422 0 -0.39301525059178999 0.18044652774840561 0 -0.38088029112643113 0.1825210369279657 0 -0.3926733654842145 0.1692345557408807 0 -0.38088029112643113 0.1825210369279657 0 -0.3926733654842145 0.1692345557408807 0 -0.39301525059178999 0.18044652774840561 0 -0.38088029112643113 0.1825210369279657 0 -0.3926733654842145 0.1692345557408807 0 -0.37921940694751782 0.17343241172319571 0 -0.38088029112643113 0.1825210369279657 0 -0.37921940694751782 0.17343241172319571 0 -0.38088029112643113 0.1825210369279657 0 -0.37921940694751782 0.17343241172319571 0 -0.38088029112643113 0.1825210369279657 0 -0.37283571032282492 0.1791450959532255 0 -0.3784015845151173 0.16895715591276281 0 -0.37283571032282492 0.1791450959532255 0 -0.37921940694751782 0.17343241172319571 0 -0.3784015845151173 0.16895715591276281 0 -0.37283571032282492 0.1791450959532255 0 -0.37921940694751782 0.17343241172319571 0 -0.37283571032282492 0.1791450959532255 0 -0.39703941422577987 0.15748552694114659 0 -0.37921940694751782 0.17343241172319571 0 -0.38193020105096481 0.16249827228531991 0 -0.3784015845151173 0.16895715591276281 0 -0.38193020105096481 0.16249827228531991 0 -0.37372345991800282 0.14335770613522919 0 -0.39703941422577987 0.15748552694114659 0 -0.37921940694751782 0.17343241172319571 0 -0.3926733654842145 0.1692345557408807 0 -0.39703941422577987 0.15748552694114659 0 -0.37921940694751782 0.17343241172319571 0 -0.39703941422577987 0.15748552694114659 0 -0.38193020105096481 0.16249827228531991 0 -0.38598126975628672 0.1494316781992327 0 -0.37921940694751782 0.17343241172319571 0 -0.3784015845151173 0.16895715591276281 0 -0.38193020105096481 0.16249827228531991 0 -0.3784015845151173 0.16895715591276281 0 -0.38193020105096481 0.16249827228531991 0 -0.37921940694751782 0.17343241172319571 0 -0.3784015845151173 0.16895715591276281 0 -0.38598126975628672 0.1494316781992327 0 -0.39401402549175851 0.1361747599337243 0 -0.37372345991800282 0.14335770613522919 0 -0.38193020105096481 0.16249827228531991 0 -0.38598126975628672 0.1494316781992327 0 -0.37372345991800282 0.14335770613522919 0 -0.3784015845151173 0.16895715591276281 0 -0.37372345991800282 0.14335770613522919 0 -0.39703941422577987 0.15748552694114659 0 -0.38598126975628672 0.1494316781992327 0 -0.39401402549175851 0.1361747599337243 0 -0.41485942150404181 0.14153864215909739 0 -0.39703941422577987 0.15748552694114659 0 -0.39401402549175851 0.1361747599337243 0 -0.41485942150404181 0.14153864215909739 0 -0.39703941422577987 0.15748552694114659 0 -0.4044664398419977 0.15594807455379561 0 -0.41485942150404181 0.14153864215909739 0 -0.39703941422577987 0.15748552694114659 0 -0.40864304721671202 0.1107171055473533 0 -0.41485942150404181 0.14153864215909739 0 -0.39401402549175851 0.1361747599337243 0 -0.38750957741872682 0.11885909540365321 0 -0.37372345991800282 0.14335770613522919 0 -0.36904533532088801 0.1177582563576956 0 -0.38750957741872682 0.11885909540365321 0 -0.39401402549175851 0.1361747599337243 0 -0.37372345991800282 0.14335770613522919 0 -0.35823941519022368 0.13573745574644491 0 -0.37372345991800282 0.14335770613522919 0 -0.36904533532088801 0.1177582563576956 0 -0.37372345991800282 0.14335770613522919 0 -0.36904533532088801 0.1177582563576956 0 -0.35823941519022368 0.13573745574644491 0 -0.34455851703438989 0.13305210298766909 0 -0.35158166360451942 0.11704707172714621 0 -0.35823941519022368 0.13573745574644491 0 -0.34455851703438989 0.13305210298766909 0 -0.34873147585397152 0.15030858297792049 0 -0.35823941519022368 0.13573745574644491 0 -0.34873147585397152 0.15030858297792049 0 -0.36179603940957061 0.15290101429300901 0 -0.34873147585397152 0.15030858297792049 0 -0.34720568730415252 0.1616956217090188 0 -0.33647431770126862 0.14798842126345041 0 -0.34873147585397152 0.15030858297792049 0 -0.36179603940957061 0.15290101429300901 0 -0.35552330674067661 0.16014073544654131 0 -0.35823941519022368 0.13573745574644491 0 -0.36179603940957061 0.15290101429300901 0 -0.37372345991800282 0.14335770613522919 0 -0.3784015845151173 0.16895715591276281 0 -0.36179603940957061 0.15290101429300901 0 -0.37372345991800282 0.14335770613522919 0 -0.3784015845151173 0.16895715591276281 0 -0.36179603940957061 0.15290101429300901 0 -0.3628088848288224 0.16705289795690309 0 -0.3784015845151173 0.16895715591276281 0 -0.3628088848288224 0.16705289795690309 0 -0.36959790597703868 0.17377317275203899 0 -0.36179603940957061 0.15290101429300901 0 -0.3628088848288224 0.16705289795690309 0 -0.35552330674067661 0.16014073544654131 0 -0.38088029112643113 0.1825210369279657 0 -0.37283571032282492 0.1791450959532255 0 -0.36802074197771562 0.19700904511440151 0 -0.37283571032282492 0.1791450959532255 0 -0.36399845157591232 0.19532107462703119 0 -0.37283571032282492 0.1791450959532255 0 -0.36261880381503758 0.18828806813974089 0 -0.3784015845151173 0.16895715591276281 0 -0.36959790597703868 0.17377317275203899 0 -0.37283571032282492 0.1791450959532255 0 -0.36959790597703868 0.17377317275203899 0 -0.37283571032282492 0.1791450959532255 0 -0.36409588864576692 0.17933358541092431 0 -0.3628088848288224 0.16705289795690309 0 -0.36959790597703868 0.17377317275203899 0 -0.36409588864576692 0.17933358541092431 0 -0.3628088848288224 0.16705289795690309 0 -0.36409588864576692 0.17933358541092431 0 -0.35614161380151321 0.17761165346375071 0 -0.36409588864576692 0.17933358541092431 0 -0.35797279878738592 0.18411861580098379 0 -0.35614161380151321 0.17761165346375071 0 -0.36409588864576692 0.17933358541092431 0 -0.35797279878738592 0.18411861580098379 0 -0.36261880381503758 0.18828806813974089 0 -0.37283571032282492 0.1791450959532255 0 -0.36409588864576692 0.17933358541092431 0 -0.36261880381503758 0.18828806813974089 0 -0.35797279878738592 0.18411861580098379 0 -0.35614161380151321 0.17761165346375071 0 -0.35065229879255438 0.18593262723135329 0 -0.35797279878738592 0.18411861580098379 0 -0.35065229879255438 0.18593262723135329 0 -0.35645772166264922 0.19211102842263869 0 -0.35614161380151321 0.17761165346375071 0 -0.34811061985946878 0.17434540014992381 0 -0.35436851446084039 0.1683048517912053 0 -0.35614161380151321 0.17761165346375071 0 -0.34811061985946878 0.17434540014992381 0 -0.35065229879255438 0.18593262723135329 0 -0.35065229879255438 0.18593262723135329 0 -0.34227569468909552 0.1811403169530669 0 -0.33993633525554889 0.19055096072852831 0 -0.34811061985946878 0.17434540014992381 0 -0.35065229879255438 0.18593262723135329 0 -0.34227569468909552 0.1811403169530669 0 -0.35552330674067661 0.16014073544654131 0 -0.35436851446084039 0.1683048517912053 0 -0.34720568730415252 0.1616956217090188 0 -0.3628088848288224 0.16705289795690309 0 -0.35614161380151321 0.17761165346375071 0 -0.35436851446084039 0.1683048517912053 0 -0.3628088848288224 0.16705289795690309 0 -0.35552330674067661 0.16014073544654131 0 -0.35436851446084039 0.1683048517912053 0 -0.34811061985946878 0.17434540014992381 0 -0.34720568730415252 0.1616956217090188 0 -0.33801991010865667 0.17138732975114751 0 -0.34811061985946878 0.17434540014992381 0 -0.35436851446084039 0.1683048517912053 0 -0.34720568730415252 0.1616956217090188 0 -0.34873147585397152 0.15030858297792049 0 -0.35552330674067661 0.16014073544654131 0 -0.34720568730415252 0.1616956217090188 0 -0.34720568730415252 0.1616956217090188 0 -0.33801991010865667 0.17138732975114751 0 -0.33092539158612982 0.1609515407851054 0 -0.34720568730415252 0.1616956217090188 0 -0.33092539158612982 0.1609515407851054 0 -0.33647431770126862 0.14798842126345041 0 -0.33801991010865667 0.17138732975114751 0 -0.33092539158612982 0.1609515407851054 0 -0.3265778886375873 0.17202186172735501 0 -0.34227569468909552 0.1811403169530669 0 -0.33183788287013261 0.1831818366374682 0 -0.33993633525554889 0.19055096072852831 0 -0.34811061985946878 0.17434540014992381 0 -0.33801991010865667 0.17138732975114751 0 -0.34227569468909552 0.1811403169530669 0 -0.33801991010865667 0.17138732975114751 0 -0.34227569468909552 0.1811403169530669 0 -0.33183788287013261 0.1831818366374682 0 -0.33801991010865667 0.17138732975114751 0 -0.33183788287013261 0.1831818366374682 0 -0.3265778886375873 0.17202186172735501 0 -0.3265778886375873 0.17202186172735501 0 -0.31632076704925127 0.18575639557221951 0 -0.3167678101826048 0.16359462978275929 0 -0.33183788287013261 0.1831818366374682 0 -0.3265778886375873 0.17202186172735501 0 -0.31632076704925127 0.18575639557221951 0 -0.33092539158612982 0.1609515407851054 0 -0.3167678101826048 0.16359462978275929 0 -0.32050673558250908 0.1490213804769015 0 -0.33092539158612982 0.1609515407851054 0 -0.3265778886375873 0.17202186172735501 0 -0.3167678101826048 0.16359462978275929 0 -0.32050673558250908 0.1490213804769015 0 -0.30739524272803709 0.15185112365938391 0 -0.31211500736378339 0.1240031522641292 0 -0.3167678101826048 0.16359462978275929 0 -0.32050673558250908 0.1490213804769015 0 -0.30739524272803709 0.15185112365938391 0 -0.32050673558250908 0.1490213804769015 0 -0.30739524272803709 0.15185112365938391 0 -0.32919359534549508 0.13424827028365749 0 -0.31211500736378339 0.1240031522641292 0 -0.33231339904552459 0.1171762944261375 0 -0.32050673558250908 0.1490213804769015 0 -0.32919359534549508 0.13424827028365749 0 -0.31211500736378339 0.1240031522641292 0 -0.34455851703438989 0.13305210298766909 0 -0.32919359534549508 0.13424827028365749 0 -0.33231339904552459 0.1171762944261375 0 -0.34455851703438989 0.13305210298766909 0 -0.32919359534549508 0.13424827028365749 0 -0.33647431770126862 0.14798842126345041 0 -0.32050673558250908 0.1490213804769015 0 -0.32919359534549508 0.13424827028365749 0 -0.33647431770126862 0.14798842126345041 0 -0.33092539158612982 0.1609515407851054 0 -0.32050673558250908 0.1490213804769015 0 -0.33647431770126862 0.14798842126345041 0 -0.34455851703438989 0.13305210298766909 0 -0.34873147585397152 0.15030858297792049 0 -0.33647431770126862 0.14798842126345041 0 -0.35416421148584648 0.23888623464626721 0 -0.34843396418698602 0.22381077072877051 0 -0.33845336435013867 0.242079554605789 0 -0.35416421148584648 0.23888623464626721 0 -0.33845336435013867 0.242079554605789 0 -0.35464358931248319 0.25491115920099722 0 -0.37939186114838758 0.22424627805714001 0 -0.37013679196984273 0.23750613219799629 0 -0.37477717689163992 0.25299635056682518 0 -0.37013679196984273 0.23750613219799629 0 -0.35464358931248319 0.25491115920099722 0 -0.37477717689163992 0.25299635056682518 0 -0.35416421148584648 0.23888623464626721 0 -0.37013679196984273 0.23750613219799629 0 -0.35464358931248319 0.25491115920099722 0 -0.35416421148584648 0.23888623464626721 0 -0.37013679196984273 0.23750613219799629 0 -0.36148561266771267 0.2305011068434443 0 -0.36148561266771267 0.2305011068434443 0 -0.36975441169016687 0.228432664243616 0 -0.36800338097472479 0.22147713987588341 0 -0.37013679196984273 0.23750613219799629 0 -0.36148561266771267 0.2305011068434443 0 -0.36975441169016687 0.228432664243616 0 -0.37939186114838758 0.22424627805714001 0 -0.37013679196984273 0.23750613219799629 0 -0.36975441169016687 0.228432664243616 0 -0.37939186114838758 0.22424627805714001 0 -0.36975441169016687 0.228432664243616 0 -0.36800338097472479 0.22147713987588341 0 -0.36800338097472479 0.22147713987588341 0 -0.34843396418698602 0.22381077072877051 0 -0.35516119282899983 0.21149705330083701 0 -0.36148561266771267 0.2305011068434443 0 -0.36800338097472479 0.22147713987588341 0 -0.34843396418698602 0.22381077072877051 0 -0.36800338097472479 0.22147713987588341 0 -0.34843396418698602 0.22381077072877051 0 -0.35416421148584648 0.23888623464626721 0 -0.36148561266771267 0.2305011068434443 0 -0.34843396418698602 0.22381077072877051 0 -0.34843396418698602 0.22381077072877051 0 -0.34802604401402371 0.21953575615482759 0 -0.33982416592956399 0.21665757569738961 0 -0.34802604401402371 0.21953575615482759 0 -0.34581283434165899 0.20861347152532789 0 -0.33982416592956399 0.21665757569738961 0 -0.34802604401402371 0.21953575615482759 0 -0.34581283434165899 0.20861347152532789 0 -0.35516119282899983 0.21149705330083701 0 -0.34843396418698602 0.22381077072877051 0 -0.34802604401402371 0.21953575615482759 0 -0.35516119282899983 0.21149705330083701 0 -0.34581283434165899 0.20861347152532789 0 -0.35516119282899983 0.21149705330083701 0 -0.35389383475621161 0.20092716755479181 0 -0.34802604401402371 0.21953575615482759 0 -0.35516119282899983 0.21149705330083701 0 -0.34843396418698602 0.22381077072877051 0 -0.35516119282899983 0.21149705330083701 0 -0.36800338097472479 0.22147713987588341 0 -0.35516119282899983 0.21149705330083701 0 -0.37368745339656201 0.20924711939208951 0 -0.35516119282899983 0.21149705330083701 0 -0.37368745339656201 0.20924711939208951 0 -0.36802074197771562 0.19700904511440151 0 -0.35516119282899983 0.21149705330083701 0 -0.36399845157591232 0.19532107462703119 0 -0.35516119282899983 0.21149705330083701 0 -0.36802074197771562 0.19700904511440151 0 -0.37283571032282492 0.1791450959532255 0 -0.36399845157591232 0.19532107462703119 0 -0.36261880381503758 0.18828806813974089 0 -0.37283571032282492 0.1791450959532255 0 -0.36399845157591232 0.19532107462703119 0 -0.36802074197771562 0.19700904511440151 0 -0.35516119282899983 0.21149705330083701 0 -0.36399845157591232 0.19532107462703119 0 -0.36802074197771562 0.19700904511440151 0 -0.38088029112643113 0.1825210369279657 0 -0.36802074197771562 0.19700904511440151 0 -0.36399845157591232 0.19532107462703119 0 -0.36261880381503758 0.18828806813974089 0 -0.35645772166264922 0.19211102842263869 0 -0.35797279878738592 0.18411861580098379 0 -0.36261880381503758 0.18828806813974089 0 -0.35645772166264922 0.19211102842263869 0 -0.35065229879255438 0.18593262723135329 0 -0.35645772166264922 0.19211102842263869 0 -0.34803897337183792 0.19709320989812409 0 -0.35516119282899983 0.21149705330083701 0 -0.36399845157591232 0.19532107462703119 0 -0.35389383475621161 0.20092716755479181 0 -0.35645772166264922 0.19211102842263869 0 -0.35389383475621161 0.20092716755479181 0 -0.34803897337183792 0.19709320989812409 0 -0.36399845157591232 0.19532107462703119 0 -0.35645772166264922 0.19211102842263869 0 -0.35389383475621161 0.20092716755479181 0 -0.34581283434165899 0.20861347152532789 0 -0.35389383475621161 0.20092716755479181 0 -0.34803897337183792 0.19709320989812409 0 -0.34581283434165899 0.20861347152532789 0 -0.34803897337183792 0.19709320989812409 0 -0.33933674095816863 0.19971543786353729 0 -0.35065229879255438 0.18593262723135329 0 -0.34803897337183792 0.19709320989812409 0 -0.33993633525554889 0.19055096072852831 0 -0.33993633525554889 0.19055096072852831 0 -0.33933674095816863 0.19971543786353729 0 -0.33069942903629101 0.19625725860753851 0 -0.34803897337183792 0.19709320989812409 0 -0.33993633525554889 0.19055096072852831 0 -0.33933674095816863 0.19971543786353729 0 -0.33933674095816863 0.19971543786353729 0 -0.33069942903629101 0.19625725860753851 0 -0.33422481296465362 0.2080963853910347 0 -0.33183788287013261 0.1831818366374682 0 -0.33993633525554889 0.19055096072852831 0 -0.33069942903629101 0.19625725860753851 0 -0.31632076704925127 0.18575639557221951 0 -0.33069942903629101 0.19625725860753851 0 -0.32036655352850157 0.2095523693350691 0 -0.33183788287013261 0.1831818366374682 0 -0.31632076704925127 0.18575639557221951 0 -0.33069942903629101 0.19625725860753851 0 -0.32036655352850157 0.2095523693350691 0 -0.32458589997660492 0.2266546254550818 0 -0.30779163400160159 0.21927945841494459 0 -0.32036655352850157 0.2095523693350691 0 -0.32934906837639222 0.21536895119528529 0 -0.32458589997660492 0.2266546254550818 0 -0.32036655352850157 0.2095523693350691 0 -0.32934906837639222 0.21536895119528529 0 -0.33422481296465362 0.2080963853910347 0 -0.32934906837639222 0.21536895119528529 0 -0.33422481296465362 0.2080963853910347 0 -0.33982416592956399 0.21665757569738961 0 -0.33069942903629101 0.19625725860753851 0 -0.32036655352850157 0.2095523693350691 0 -0.33422481296465362 0.2080963853910347 0 -0.34581283434165899 0.20861347152532789 0 -0.33933674095816863 0.19971543786353729 0 -0.33422481296465362 0.2080963853910347 0 -0.34581283434165899 0.20861347152532789 0 -0.33422481296465362 0.2080963853910347 0 -0.33982416592956399 0.21665757569738961 0 -0.34843396418698602 0.22381077072877051 0 -0.33982416592956399 0.21665757569738961 0 -0.32458589997660492 0.2266546254550818 0 -0.34843396418698602 0.22381077072877051 0 -0.32458589997660492 0.2266546254550818 0 -0.34843396418698602 0.22381077072877051 0 -0.32458589997660492 0.2266546254550818 0 -0.33845336435013867 0.242079554605789 0 -0.34843396418698602 0.22381077072877051 0 -0.33845336435013867 0.242079554605789 0 -0.32934906837639222 0.21536895119528529 0 -0.33982416592956399 0.21665757569738961 0 -0.32458589997660492 0.2266546254550818 0 -0.32458589997660492 0.2266546254550818 0 -0.30073783576622393 0.22949848018139329 0 -0.32458589997660492 0.2266546254550818 0 -0.32455092720978362 0.24357057421839101 0 -0.31122576982003303 0.23714335435801151 0 -0.32455092720978362 0.24357057421839101 0 -0.311575650220281 0.24878047680599949 0 -0.31122576982003303 0.23714335435801151 0 -0.32458589997660492 0.2266546254550818 0 -0.32455092720978362 0.24357057421839101 0 -0.33845336435013867 0.242079554605789 0 -0.32455092720978362 0.24357057421839101 0 -0.33845336435013867 0.242079554605789 0 -0.32847276451329022 0.26034833848280681 0 -0.29310990672191722 0.23613872254877591 0 -0.29467853592727078 0.23721261512919359 0 -0.28985028671148488 0.25537141990030859 0 -0.29310990672191722 0.23613872254877591 0 -0.27131573767068418 0.22826101281380451 0 -0.28058301219108422 0.24181621635705669 0 -0.29310990672191722 0.23613872254877591 0 -0.28985028671148488 0.25537141990030859 0 -0.29310990672191722 0.23613872254877591 0 -0.28058301219108422 0.24181621635705669 0 -0.28985028671148488 0.25537141990030859 0 -0.28058301219108422 0.24181621635705669 0 -0.28985028671148488 0.25537141990030859 0 -0.29310990672191722 0.23613872254877591 0 -0.29467853592727078 0.23721261512919359 0 -0.29467853592727078 0.23721261512919359 0 -0.31122576982003303 0.23714335435801151 0 -0.30073783576622393 0.22949848018139329 0 -0.29467853592727078 0.23721261512919359 0 -0.311575650220281 0.24878047680599949 0 -0.31122576982003303 0.23714335435801151 0 -0.29467853592727078 0.23721261512919359 0 -0.311575650220281 0.24878047680599949 0 -0.29467853592727078 0.23721261512919359 0 -0.311575650220281 0.24878047680599949 0 -0.29523766041035199 0.26325150879709891 0 -0.32458589997660492 0.2266546254550818 0 -0.30073783576622393 0.22949848018139329 0 -0.30779163400160159 0.21927945841494459 0 -0.32458589997660492 0.2266546254550818 0 -0.31122576982003303 0.23714335435801151 0 -0.30073783576622393 0.22949848018139329 0 -0.30073783576622393 0.22949848018139329 0 -0.30779163400160159 0.21927945841494459 0 -0.29448167989639912 0.22804486553003031 0 -0.29310990672191722 0.23613872254877591 0 -0.29448167989639912 0.22804486553003031 0 -0.27369133376421262 0.22284465576077489 0 -0.29448167989639912 0.22804486553003031 0 -0.2838712618875629 0.21479465795795599 0 -0.27369133376421262 0.22284465576077489 0 -0.29448167989639912 0.22804486553003031 0 -0.29413635243235581 0.21196267741475219 0 -0.29310990672191722 0.23613872254877591 0 -0.27369133376421262 0.22284465576077489 0 -0.29467853592727078 0.23721261512919359 0 -0.30073783576622393 0.22949848018139329 0 -0.29448167989639912 0.22804486553003031 0 -0.29310990672191722 0.23613872254877591 0 -0.29467853592727078 0.23721261512919359 0 -0.29448167989639912 0.22804486553003031 0 -0.29467853592727078 0.23721261512919359 0 -0.29448167989639912 0.22804486553003031 0 -0.29310990672191722 0.23613872254877591 0 -0.29448167989639912 0.22804486553003031 0 -0.29413635243235581 0.21196267741475219 0 -0.29878620084027852 0.20264695157314819 0 -0.29379102496831272 0.19588048929947419 0 -0.29448167989639912 0.22804486553003031 0 -0.29413635243235581 0.21196267741475219 0 -0.29878620084027852 0.20264695157314819 0 -0.29448167989639912 0.22804486553003031 0 -0.29878620084027852 0.20264695157314819 0 -0.29413635243235581 0.21196267741475219 0 -0.29379102496831272 0.19588048929947419 0 -0.28522308967114912 0.20452327137286261 0 -0.29413635243235581 0.21196267741475219 0 -0.29379102496831272 0.19588048929947419 0 -0.29448167989639912 0.22804486553003031 0 -0.2838712618875629 0.21479465795795599 0 -0.29413635243235581 0.21196267741475219 0 -0.2838712618875629 0.21479465795795599 0 -0.28522308967114912 0.20452327137286261 0 -0.29413635243235581 0.21196267741475219 0 -0.32036655352850157 0.2095523693350691 0 -0.30779163400160159 0.21927945841494459 0 -0.29878620084027852 0.20264695157314819 0 -0.30779163400160159 0.21927945841494459 0 -0.29448167989639912 0.22804486553003031 0 -0.29878620084027852 0.20264695157314819 0 -0.29878620084027852 0.20264695157314819 0 -0.29379102496831272 0.19588048929947419 0 -0.30309072178415769 0.17724903761626601 0 -0.31632076704925127 0.18575639557221951 0 -0.29878620084027852 0.20264695157314819 0 -0.30309072178415769 0.17724903761626601 0 -0.31632076704925127 0.18575639557221951 0 -0.32036655352850157 0.2095523693350691 0 -0.29878620084027852 0.20264695157314819 0 -0.29878620084027852 0.20264695157314819 0 -0.30309072178415769 0.17724903761626601 0 -0.28522308967114912 0.20452327137286261 0 -0.29379102496831272 0.19588048929947419 0 -0.28124953787461371 0.1935735916895788 0 -0.29379102496831272 0.19588048929947419 0 -0.28124953787461371 0.1935735916895788 0 -0.28752446549241689 0.1832489647230989 0 -0.28124953787461371 0.1935735916895788 0 -0.2659766044530758 0.19238405035351089 0 -0.27494974420821611 0.1793112011395637 0 -0.28522308967114912 0.20452327137286261 0 -0.28124953787461371 0.1935735916895788 0 -0.27431068871210279 0.20621206129374381 0 -0.28124953787461371 0.1935735916895788 0 -0.2659766044530758 0.19238405035351089 0 -0.27431068871210279 0.20621206129374381 0 -0.25427276080650663 0.20955058897277601 0 -0.24947341468037071 0.1874691479585941 0 -0.2659766044530758 0.19238405035351089 0 -0.25427276080650663 0.20955058897277601 0 -0.24947341468037071 0.1874691479585941 0 -0.2659766044530758 0.19238405035351089 0 -0.25427276080650663 0.20955058897277601 0 -0.27431068871210279 0.20621206129374381 0 -0.25427276080650663 0.20955058897277601 0 -0.27369133376421262 0.22284465576077489 0 -0.25427276080650663 0.20955058897277601 0 -0.25977281016601761 0.2185578892770178 0 -0.27369133376421262 0.22284465576077489 0 -0.25427276080650663 0.20955058897277601 0 -0.25561524088587501 0.21572724177218369 0 -0.25977281016601761 0.2185578892770178 0 -0.25427276080650663 0.20955058897277601 0 -0.25561524088587501 0.21572724177218369 0 -0.24333230173327219 0.21221501244476959 0 -0.25427276080650663 0.20955058897277601 0 -0.25561524088587501 0.21572724177218369 0 -0.25427276080650663 0.20955058897277601 0 -0.27431068871210279 0.20621206129374381 0 -0.27369133376421262 0.22284465576077489 0 -0.2838712618875629 0.21479465795795599 0 -0.27431068871210279 0.20621206129374381 0 -0.27369133376421262 0.22284465576077489 0 -0.2838712618875629 0.21479465795795599 0 -0.28522308967114912 0.20452327137286261 0 -0.27431068871210279 0.20621206129374381 0 -0.29310990672191722 0.23613872254877591 0 -0.27369133376421262 0.22284465576077489 0 -0.27131573767068418 0.22826101281380451 0 -0.27131573767068418 0.22826101281380451 0 -0.26439065681250729 0.2289784260688752 0 -0.26819560602517328 0.23507842756581021 0 -0.27131573767068418 0.22826101281380451 0 -0.26675876456119929 0.22568570462696191 0 -0.26439065681250729 0.2289784260688752 0 -0.27369133376421262 0.22284465576077489 0 -0.26675876456119929 0.22568570462696191 0 -0.26371349664181459 0.22286429712754721 0 -0.25977281016601761 0.2185578892770178 0 -0.27369133376421262 0.22284465576077489 0 -0.26371349664181459 0.22286429712754721 0 -0.27369133376421262 0.22284465576077489 0 -0.27131573767068418 0.22826101281380451 0 -0.26675876456119929 0.22568570462696191 0 -0.26675876456119929 0.22568570462696191 0 -0.26371349664181459 0.22286429712754721 0 -0.26068259791677789 0.22548013136380779 0 -0.26068259791677789 0.22548013136380779 0 -0.25678634991227811 0.22260498734460241 0 -0.2574101570832959 0.22971939663687391 0 -0.26371349664181459 0.22286429712754721 0 -0.26068259791677789 0.22548013136380779 0 -0.25678634991227811 0.22260498734460241 0 -0.25977281016601761 0.2185578892770178 0 -0.26371349664181459 0.22286429712754721 0 -0.25678634991227811 0.22260498734460241 0 -0.25561524088587501 0.21572724177218369 0 -0.25977281016601761 0.2185578892770178 0 -0.25678634991227811 0.22260498734460241 0 -0.25678634991227811 0.22260498734460241 0 -0.249817319625419 0.2274340479663062 0 -0.24904636230289101 0.22050689045355901 0 -0.25561524088587501 0.21572724177218369 0 -0.25678634991227811 0.22260498734460241 0 -0.24904636230289101 0.22050689045355901 0 -0.25109603964961891 0.234366577265785 0 -0.2574101570832959 0.22971939663687391 0 -0.249817319625419 0.2274340479663062 0 -0.25678634991227811 0.22260498734460241 0 -0.2574101570832959 0.22971939663687391 0 -0.249817319625419 0.2274340479663062 0 -0.2574101570832959 0.22971939663687391 0 -0.26439065681250729 0.2289784260688752 0 -0.26193406046231932 0.2344272911270443 0 -0.26068259791677789 0.22548013136380779 0 -0.2574101570832959 0.22971939663687391 0 -0.26439065681250729 0.2289784260688752 0 -0.26675876456119929 0.22568570462696191 0 -0.26068259791677789 0.22548013136380779 0 -0.26439065681250729 0.2289784260688752 0 -0.26439065681250729 0.2289784260688752 0 -0.26193406046231932 0.2344272911270443 0 -0.26819560602517328 0.23507842756581021 0 -0.26193406046231932 0.2344272911270443 0 -0.26614348890836192 0.24293385421211869 0 -0.26819560602517328 0.23507842756581021 0 -0.2574101570832959 0.22971939663687391 0 -0.26193406046231932 0.2344272911270443 0 -0.25699538715464082 0.23905233796863981 0 -0.26193406046231932 0.2344272911270443 0 -0.25699538715464082 0.23905233796863981 0 -0.26614348890836192 0.24293385421211869 0 -0.25109603964961891 0.234366577265785 0 -0.25699538715464082 0.23905233796863981 0 -0.2470081454867771 0.2422065880623451 0 -0.25109603964961891 0.234366577265785 0 -0.2574101570832959 0.22971939663687391 0 -0.25699538715464082 0.23905233796863981 0 -0.25699538715464082 0.23905233796863981 0 -0.25693865295534157 0.25278860643768353 0 -0.2470081454867771 0.2422065880623451 0 -0.25699538715464082 0.23905233796863981 0 -0.26614348890836192 0.24293385421211869 0 -0.25693865295534157 0.25278860643768353 0 -0.26614348890836192 0.24293385421211869 0 -0.2724296921133022 0.25217156250687062 0 -0.25693865295534157 0.25278860643768353 0 -0.26614348890836192 0.24293385421211869 0 -0.28058301219108422 0.24181621635705669 0 -0.2724296921133022 0.25217156250687062 0 -0.28058301219108422 0.24181621635705669 0 -0.28985028671148488 0.25537141990030859 0 -0.2724296921133022 0.25217156250687062 0 -0.26614348890836192 0.24293385421211869 0 -0.26819560602517328 0.23507842756581021 0 -0.28058301219108422 0.24181621635705669 0 -0.27131573767068418 0.22826101281380451 0 -0.26819560602517328 0.23507842756581021 0 -0.28058301219108422 0.24181621635705669 0 -0.27131573767068418 0.22826101281380451 0 -0.28058301219108422 0.24181621635705669 0 -0.29326612220823411 0.13512644163735801 0 -0.28648818467010168 0.15636331808772699 0 -0.27141175194646833 0.1445184244171912 0 -0.29326612220823411 0.13512644163735801 0 -0.30739524272803709 0.15185112365938391 0 -0.28648818467010168 0.15636331808772699 0 -0.30739524272803709 0.15185112365938391 0 -0.31211500736378339 0.1240031522641292 0 -0.29326612220823411 0.13512644163735801 0 -0.30739524272803709 0.15185112365938391 0 -0.31211500736378339 0.1240031522641292 0 -0.30739524272803709 0.15185112365938391 0 -0.28648818467010168 0.15636331808772699 0 -0.30739524272803709 0.15185112365938391 0 -0.30309072178415769 0.17724903761626601 0 -0.3167678101826048 0.16359462978275929 0 -0.30739524272803709 0.15185112365938391 0 -0.30309072178415769 0.17724903761626601 0 -0.30739524272803709 0.15185112365938391 0 -0.30309072178415769 0.17724903761626601 0 -0.28648818467010168 0.15636331808772699 0 -0.31632076704925127 0.18575639557221951 0 -0.3167678101826048 0.16359462978275929 0 -0.30309072178415769 0.17724903761626601 0 -0.30309072178415769 0.17724903761626601 0 -0.28752446549241689 0.1832489647230989 0 -0.28381669143151822 0.17107272026056419 0 -0.29379102496831272 0.19588048929947419 0 -0.30309072178415769 0.17724903761626601 0 -0.28752446549241689 0.1832489647230989 0 -0.28752446549241689 0.1832489647230989 0 -0.28381669143151822 0.17107272026056419 0 -0.27494974420821611 0.1793112011395637 0 -0.30309072178415769 0.17724903761626601 0 -0.28648818467010168 0.15636331808772699 0 -0.28381669143151822 0.17107272026056419 0 -0.28648818467010168 0.15636331808772699 0 -0.28381669143151822 0.17107272026056419 0 -0.26558112661216632 0.16087551251606999 0 -0.28381669143151822 0.17107272026056419 0 -0.27494974420821611 0.1793112011395637 0 -0.26558112661216632 0.16087551251606999 0 -0.28648818467010168 0.15636331808772699 0 -0.26558112661216632 0.16087551251606999 0 -0.27494974420821611 0.1793112011395637 0 -0.26084394980388648 0.17618123618614701 0 -0.26558112661216632 0.16087551251606999 0 -0.2659766044530758 0.19238405035351089 0 -0.27494974420821611 0.1793112011395637 0 -0.26084394980388648 0.17618123618614701 0 -0.28124953787461371 0.1935735916895788 0 -0.28752446549241689 0.1832489647230989 0 -0.27494974420821611 0.1793112011395637 0 -0.2659766044530758 0.19238405035351089 0 -0.26084394980388648 0.17618123618614701 0 -0.24947341468037071 0.1874691479585941 0 -0.26084394980388648 0.17618123618614701 0 -0.24467406855423091 0.1653877069444131 0 -0.24947341468037071 0.1874691479585941 0 -0.26558112661216632 0.16087551251606999 0 -0.24467406855423091 0.1653877069444131 0 -0.26558112661216632 0.16087551251606999 0 -0.2543915534089356 0.15018751405662761 0 -0.24467406855423091 0.1653877069444131 0 -0.26084394980388648 0.17618123618614701 0 -0.26558112661216632 0.16087551251606999 0 -0.24467406855423091 0.1653877069444131 0 -0.26558112661216632 0.16087551251606999 0 -0.2543915534089356 0.15018751405662761 0 -0.27141175194646833 0.1445184244171912 0 -0.2543915534089356 0.15018751405662761 0 -0.27141175194646833 0.1445184244171912 0 -0.25477231595188199 0.13792181725732239 0 -0.28648818467010168 0.15636331808772699 0 -0.26558112661216632 0.16087551251606999 0 -0.27141175194646833 0.1445184244171912 0 -0.29326612220823411 0.13512644163735801 0 -0.27141175194646833 0.1445184244171912 0 -0.27545980130109921 0.1239996051278405 0 -0.27141175194646833 0.1445184244171912 0 -0.25477231595188199 0.13792181725732239 0 -0.27545980130109921 0.1239996051278405 0 -0.25477231595188199 0.13792181725732239 0 -0.27545980130109921 0.1239996051278405 0 -0.25477231595188199 0.13792181725732239 0 -0.27545980130109921 0.1239996051278405 0 -0.2495823492922267 0.12121763785839371 0 -0.25610310449345419 0.1041046972302731 0 -0.27545980130109921 0.1239996051278405 0 -0.2495823492922267 0.12121763785839371 0 -0.25610310449345419 0.1041046972302731 0 -0.25413031243694739 0.089521027236778197 0 -0.2427234934652894 0.090762762990284518 0 -0.25610310449345419 0.1041046972302731 0 -0.26471001572300679 0.091779207982481292 0 -0.25413031243694739 0.089521027236778197 0 -0.25610310449345419 0.1041046972302731 0 -0.27632390472144541 0.10600366135062909 0 -0.26471001572300679 0.091779207982481292 0 -0.27632390472144541 0.10600366135062909 0 -0.27815219556391091 0.091433986845849968 0 -0.26471001572300679 0.091779207982481292 0 -0.27632390472144541 0.10600366135062909 0 -0.28783094919658059 0.096999283795453681 0 -0.27815219556391091 0.091433986845849968 0 -0.25610310449345419 0.1041046972302731 0 -0.27632390472144541 0.10600366135062909 0 -0.27545980130109921 0.1239996051278405 0 -0.27545980130109921 0.1239996051278405 0 -0.29614728665031642 0.1100773929983587 0 -0.29326612220823411 0.13512644163735801 0 -0.27545980130109921 0.1239996051278405 0 -0.29614728665031642 0.1100773929983587 0 -0.27632390472144541 0.10600366135062909 0 -0.27545980130109921 0.1239996051278405 0 -0.29614728665031642 0.1100773929983587 0 -0.27632390472144541 0.10600366135062909 0 -0.29614728665031642 0.1100773929983587 0 -0.28783094919658059 0.096999283795453681 0 -0.29614728665031642 0.1100773929983587 0 -0.28783094919658059 0.096999283795453681 0 -0.29903425758953422 0.090155638130954882 0 -0.29614728665031642 0.1100773929983587 0 -0.29903425758953422 0.090155638130954882 0 -0.31683477199953253 0.096155180868875256 0 -0.29614728665031642 0.1100773929983587 0 -0.31683477199953253 0.096155180868875256 0 -0.29614728665031642 0.1100773929983587 0 -0.31211500736378339 0.1240031522641292 0 -0.31683477199953253 0.096155180868875256 0 -0.29326612220823411 0.13512644163735801 0 -0.29614728665031642 0.1100773929983587 0 -0.31211500736378339 0.1240031522641292 0 -0.30635830999651792 0.07761242167179265 0 -0.30189037325813839 0.060543452134012458 0 -0.32146679815367007 0.068824891797761426 0 -0.30635830999651792 0.07761242167179265 0 -0.29256534898171721 0.072382945427359638 0 -0.30189037325813839 0.060543452134012458 0 -0.30635830999651792 0.07761242167179265 0 -0.29903425758953422 0.090155638130954882 0 -0.29256534898171721 0.072382945427359638 0 -0.30635830999651792 0.07761242167179265 0 -0.29903425758953422 0.090155638130954882 0 -0.31683477199953253 0.096155180868875256 0 -0.29903425758953422 0.090155638130954882 0 -0.28572263353681682 0.08337299634339973 0 -0.29256534898171721 0.072382945427359638 0 -0.28783094919658059 0.096999283795453681 0 -0.29903425758953422 0.090155638130954882 0 -0.28572263353681682 0.08337299634339973 0 -0.28783094919658059 0.096999283795453681 0 -0.28572263353681682 0.08337299634339973 0 -0.27815219556391091 0.091433986845849968 0 -0.28572263353681682 0.08337299634339973 0 -0.29256534898171721 0.072382945427359638 0 -0.28059357561043269 0.073644623599786935 0 -0.29256534898171721 0.072382945427359638 0 -0.29088471103165969 0.062671374321780771 0 -0.30189037325813839 0.060543452134012458 0 -0.29256534898171721 0.072382945427359638 0 -0.29088471103165969 0.062671374321780771 0 -0.28261649390190829 0.064291953838756216 0 -0.29256534898171721 0.072382945427359638 0 -0.28261649390190829 0.064291953838756216 0 -0.28059357561043269 0.073644623599786935 0 -0.28261649390190829 0.064291953838756216 0 -0.27678196032587499 0.069585006034529676 0 -0.27195195811963518 0.06635492754641531 0 -0.26855373331756138 0.063547936276670339 0 -0.27195195811963518 0.06635492754641531 0 -0.25743728825439521 0.07924270920583569 0 -0.28261649390190829 0.064291953838756216 0 -0.27678196032587499 0.069585006034529676 0 -0.28059357561043269 0.073644623599786935 0 -0.27678196032587499 0.069585006034529676 0 -0.27196581367152378 0.074048519153160283 0 -0.27195195811963518 0.06635492754641531 0 -0.27678196032587499 0.069585006034529676 0 -0.28059357561043269 0.073644623599786935 0 -0.27196581367152378 0.074048519153160283 0 -0.28059357561043269 0.073644623599786935 0 -0.27196581367152378 0.074048519153160283 0 -0.27303575277029413 0.081855029780232597 0 -0.27196581367152378 0.074048519153160283 0 -0.27195195811963518 0.06635492754641531 0 -0.25743728825439521 0.07924270920583569 0 -0.28572263353681682 0.08337299634339973 0 -0.27815219556391091 0.091433986845849968 0 -0.27303575277029413 0.081855029780232597 0 -0.28572263353681682 0.08337299634339973 0 -0.28059357561043269 0.073644623599786935 0 -0.27303575277029413 0.081855029780232597 0 -0.27196581367152378 0.074048519153160283 0 -0.27303575277029413 0.081855029780232597 0 -0.25743728825439521 0.07924270920583569 0 -0.27815219556391091 0.091433986845849968 0 -0.27303575277029413 0.081855029780232597 0 -0.26471001572300679 0.091779207982481292 0 -0.26471001572300679 0.091779207982481292 0 -0.25743728825439521 0.07924270920583569 0 -0.25413031243694739 0.089521027236778197 0 -0.27303575277029413 0.081855029780232597 0 -0.26471001572300679 0.091779207982481292 0 -0.25743728825439521 0.07924270920583569 0 -0.25743728825439521 0.07924270920583569 0 -0.25064083865024739 0.073628726666345984 0 -0.24857020570659841 0.081659589420377987 0 -0.25743728825439521 0.07924270920583569 0 -0.25413031243694739 0.089521027236778197 0 -0.24857020570659841 0.081659589420377987 0 -0.26855373331756138 0.063547936276670339 0 -0.25743728825439521 0.07924270920583569 0 -0.25064083865024739 0.073628726666345984 0 -0.26855373331756138 0.063547936276670339 0 -0.25064083865024739 0.073628726666345984 0 -0.2562734301216873 0.062061687155910393 0 -0.26855373331756138 0.063547936276670339 0 -0.25064083865024739 0.073628726666345984 0 -0.27195195811963518 0.06635492754641531 0 -0.25743728825439521 0.07924270920583569 0 -0.25064083865024739 0.073628726666345984 0 -0.2562734301216873 0.062061687155910393 0 -0.24829977196364941 0.065213336215906109 0 -0.2623477931936597 0.053657636987073307 0 -0.25116276906762952 0.054241108780248931 0 -0.26153642505613889 0.036367366133998442 0 -0.2562734301216873 0.062061687155910393 0 -0.2623477931936597 0.053657636987073307 0 -0.25116276906762952 0.054241108780248931 0 -0.2562734301216873 0.062061687155910393 0 -0.25116276906762952 0.054241108780248931 0 -0.24829977196364941 0.065213336215906109 0 -0.26855373331756138 0.063547936276670339 0 -0.2562734301216873 0.062061687155910393 0 -0.2623477931936597 0.053657636987073307 0 -0.25116276906762952 0.054241108780248931 0 -0.26153642505613889 0.036367366133998442 0 -0.239388393447095 0.04766651035075449 0 -0.2623477931936597 0.053657636987073307 0 -0.26153642505613889 0.036367366133998442 0 -0.27323710809808138 0.049716314049096537 0 -0.26153642505613889 0.036367366133998442 0 -0.28732673365434691 0.040933413293477772 0 -0.26153642505613889 0.036367366133998442 0 -0.2825074511423824 0.030310297232740709 0 -0.28732673365434691 0.040933413293477772 0 -0.26153642505613889 0.036367366133998442 0 -0.27323710809808138 0.049716314049096537 0 -0.28732673365434691 0.040933413293477772 0 -0.26855373331756138 0.063547936276670339 0 -0.27195195811963518 0.06635492754641531 0 -0.28646662798487532 0.053467145886994819 0 -0.26855373331756138 0.063547936276670339 0 -0.28646662798487532 0.053467145886994819 0 -0.26855373331756138 0.063547936276670339 0 -0.27323710809808138 0.049716314049096537 0 -0.28646662798487532 0.053467145886994819 0 -0.27195195811963518 0.06635492754641531 0 -0.28646662798487532 0.053467145886994819 0 -0.28261649390190829 0.064291953838756216 0 -0.27195195811963518 0.06635492754641531 0 -0.28646662798487532 0.053467145886994819 0 -0.26855373331756138 0.063547936276670339 0 -0.2623477931936597 0.053657636987073307 0 -0.27323710809808138 0.049716314049096537 0 -0.26176261374782622 0.0098260211376069873 0 -0.24854849079604721 0.020569936005881421 0 -0.24598119983726671 0.0037338506766126851 0 -0.26003022337954462 -0.0038093911555793728 0 -0.26176261374782622 0.0098260211376069873 0 -0.24598119983726671 0.0037338506766126851 0 -0.26003022337954462 -0.0038093911555793728 0 -0.27433688946420332 -0.0007833753365484626 0 -0.26176261374782622 0.0098260211376069873 0 -0.26153642505613889 0.036367366133998442 0 -0.26176261374782622 0.0098260211376069873 0 -0.24854849079604721 0.020569936005881421 0 -0.26153642505613889 0.036367366133998442 0 -0.26176261374782622 0.0098260211376069873 0 -0.27684491432135683 0.017453585025194441 0 -0.26153642505613889 0.036367366133998442 0 -0.27684491432135683 0.017453585025194441 0 -0.2825074511423824 0.030310297232740709 0 -0.27433688946420332 -0.0007833753365484626 0 -0.26176261374782622 0.0098260211376069873 0 -0.27684491432135683 0.017453585025194441 0 -0.27433688946420332 -0.0007833753365484626 0 -0.27684491432135683 0.017453585025194441 0 -0.28842838408131971 0.0076205693905790281 0 -0.28842838408131971 0.0076205693905790281 0 -0.29131927560690712 0.022062190579302341 0 -0.29989828236451899 0.011495108916467369 0 -0.27684491432135683 0.017453585025194441 0 -0.29131927560690712 0.022062190579302341 0 -0.2825074511423824 0.030310297232740709 0 -0.27684491432135683 0.017453585025194441 0 -0.28842838408131971 0.0076205693905790281 0 -0.29131927560690712 0.022062190579302341 0 -0.29131927560690712 0.022062190579302341 0 -0.2825074511423824 0.030310297232740709 0 -0.29550990707316249 0.034734931131730561 0 -0.29131927560690712 0.022062190579302341 0 -0.30587597075389272 0.02137954460474218 0 -0.29550990707316249 0.034734931131730561 0 -0.30587597075389272 0.02137954460474218 0 -0.29550990707316249 0.034734931131730561 0 -0.30859873922341308 0.03381572977126493 0 -0.29131927560690712 0.022062190579302341 0 -0.30587597075389272 0.02137954460474218 0 -0.29989828236451899 0.011495108916467369 0 -0.3025805037907468 -0.0027432771802810229 0 -0.3204068892458079 -0.0014125807301150939 0 -0.31128727758972891 0.0091565171879943417 0 -0.30587597075389272 0.02137954460474218 0 -0.29989828236451899 0.011495108916467369 0 -0.31128727758972891 0.0091565171879943417 0 -0.3025805037907468 -0.0027432771802810229 0 -0.29989828236451899 0.011495108916467369 0 -0.31128727758972891 0.0091565171879943417 0 -0.3025805037907468 -0.0027432771802810229 0 -0.28842838408131971 0.0076205693905790281 0 -0.29989828236451899 0.011495108916467369 0 -0.28646662798487532 0.053467145886994819 0 -0.304010183261538 0.043594207608826187 0 -0.29088471103165969 0.062671374321780771 0 -0.28646662798487532 0.053467145886994819 0 -0.30189037325813839 0.060543452134012458 0 -0.29088471103165969 0.062671374321780771 0 -0.28261649390190829 0.064291953838756216 0 -0.28646662798487532 0.053467145886994819 0 -0.27323710809808138 0.049716314049096537 0 -0.28646662798487532 0.053467145886994819 0 -0.28732673365434691 0.040933413293477772 0 -0.28646662798487532 0.053467145886994819 0 -0.29550990707316249 0.034734931131730561 0 -0.30859873922341308 0.03381572977126493 0 -0.28646662798487532 0.053467145886994819 0 -0.28732673365434691 0.040933413293477772 0 -0.29550990707316249 0.034734931131730561 0 -0.2825074511423824 0.030310297232740709 0 -0.28732673365434691 0.040933413293477772 0 -0.29550990707316249 0.034734931131730561 0 -0.28646662798487532 0.053467145886994819 0 -0.30859873922341308 0.03381572977126493 0 -0.28646662798487532 0.053467145886994819 0 -0.304010183261538 0.043594207608826187 0 -0.30859873922341308 0.03381572977126493 0 -0.304010183261538 0.043594207608826187 0 -0.30859873922341308 0.03381572977126493 0 -0.32155373853820057 0.033721269330657687 0 -0.304010183261538 0.043594207608826187 0 -0.3137915997446068 0.051476736654279882 0 -0.31549181974187701 0.042926529004151233 0 -0.28646662798487532 0.053467145886994819 0 -0.304010183261538 0.043594207608826187 0 -0.30189037325813839 0.060543452134012458 0 -0.30189037325813839 0.060543452134012458 0 -0.3137915997446068 0.051476736654279882 0 -0.32146679815367007 0.068824891797761426 0 -0.304010183261538 0.043594207608826187 0 -0.30189037325813839 0.060543452134012458 0 -0.3137915997446068 0.051476736654279882 0 -0.3137915997446068 0.051476736654279882 0 -0.32609882430781029 0.041494602726648067 0 -0.32146679815367007 0.068824891797761426 0 -0.32609882430781029 0.041494602726648067 0 -0.32146679815367007 0.068824891797761426 0 -0.3137915997446068 0.051476736654279882 0 -0.31549181974187701 0.042926529004151233 0 -0.32609882430781029 0.041494602726648067 0 -0.304010183261538 0.043594207608826187 0 -0.31549181974187701 0.042926529004151233 0 -0.32155373853820057 0.033721269330657687 0 -0.304010183261538 0.043594207608826187 0 -0.32155373853820057 0.033721269330657687 0 -0.31549181974187701 0.042926529004151233 0 -0.32155373853820057 0.033721269330657687 0 -0.32609882430781029 0.041494602726648067 0 -0.32609882430781029 0.041494602726648067 0 -0.34385517732675519 0.031131612817745031 0 -0.35163198926140088 0.046228739452983239 0 -0.32609882430781029 0.041494602726648067 0 -0.338272543408071 0.060603673933957783 0 -0.32146679815367007 0.068824891797761426 0 -0.32609882430781029 0.041494602726648067 0 -0.338272543408071 0.060603673933957783 0 -0.35163198926140088 0.046228739452983239 0 -0.3204068892458079 -0.0014125807301150939 0 -0.31128727758972891 0.0091565171879943417 0 -0.33073085046195078 0.01416431365553468 0 -0.30587597075389272 0.02137954460474218 0 -0.31128727758972891 0.0091565171879943417 0 -0.33073085046195078 0.01416431365553468 0 -0.30859873922341308 0.03381572977126493 0 -0.33073085046195078 0.01416431365553468 0 -0.30587597075389272 0.02137954460474218 0 -0.30859873922341308 0.03381572977126493 0 -0.33073085046195078 0.01416431365553468 0 -0.32155373853820057 0.033721269330657687 0 -0.32609882430781029 0.041494602726648067 0 -0.33073085046195078 0.01416431365553468 0 -0.30859873922341308 0.03381572977126493 0 -0.32155373853820057 0.033721269330657687 0 -0.33073085046195078 0.01416431365553468 0 -0.32609882430781029 0.041494602726648067 0 -0.33073085046195078 0.01416431365553468 0 -0.33073085046195078 0.01416431365553468 0 -0.34385517732675519 0.031131612817745031 0 -0.35381837275022032 0.01853105722209741 0 -0.32609882430781029 0.041494602726648067 0 -0.33073085046195078 0.01416431365553468 0 -0.34385517732675519 0.031131612817745031 0 -0.33540629353460438 -0.01342214774580049 0 -0.33073085046195078 0.01416431365553468 0 -0.35221409618436439 -0.0049109655465913588 0 -0.33073085046195078 0.01416431365553468 0 -0.35221409618436439 -0.0049109655465913588 0 -0.34857824671955512 -0.007874197240844389 0 -0.33073085046195078 0.01416431365553468 0 -0.35221409618436439 -0.0049109655465913588 0 -0.33073085046195078 0.01416431365553468 0 -0.34939877662876639 0.0070576099193848619 0 -0.33073085046195078 0.01416431365553468 0 -0.34939877662876639 0.0070576099193848619 0 -0.35381837275022032 0.01853105722209741 0 -0.35900139338342918 0.0020097317905480609 0 -0.34939877662876639 0.0070576099193848619 0 -0.35834074471334648 0.0096788928264882005 0 -0.35509488683577939 -0.0004162838960613095 0 -0.35900139338342918 0.0020097317905480609 0 -0.34939877662876639 0.0070576099193848619 0 -0.35509488683577939 -0.0004162838960613095 0 -0.35221409618436439 -0.0049109655465913588 0 -0.34939877662876639 0.0070576099193848619 0 -0.34939877662876639 0.0070576099193848619 0 -0.35834074471334648 0.0096788928264882005 0 -0.35381837275022032 0.01853105722209741 0 -0.34385517732675519 0.031131612817745031 0 -0.35381837275022032 0.01853105722209741 0 -0.36551724687399623 0.028318485711261141 0 -0.37937813184432773 0.031366277704107569 0 -0.36551724687399623 0.028318485711261141 0 -0.37479293228070759 0.022502646493578662 0 -0.36551724687399623 0.028318485711261141 0 -0.37479293228070759 0.022502646493578662 0 -0.36730783543836809 0.01519693074799966 0 -0.3778438638662554 0.014761087644765769 0 -0.37479293228070759 0.022502646493578662 0 -0.36730783543836809 0.01519693074799966 0 -0.35381837275022032 0.01853105722209741 0 -0.36551724687399623 0.028318485711261141 0 -0.36730783543836809 0.01519693074799966 0 -0.35834074471334648 0.0096788928264882005 0 -0.36730783543836809 0.01519693074799966 0 -0.36603012090457948 0.0050917054244422654 0 -0.35834074471334648 0.0096788928264882005 0 -0.35381837275022032 0.01853105722209741 0 -0.36730783543836809 0.01519693074799966 0 -0.36730783543836809 0.01519693074799966 0 -0.37464316483836829 0.0066416053135349984 0 -0.36603012090457948 0.0050917054244422654 0 -0.3778438638662554 0.014761087644765769 0 -0.36730783543836809 0.01519693074799966 0 -0.37464316483836829 0.0066416053135349984 0 -0.37126952376897032 -0.00085078512189483576 0 -0.37774077980655368 -0.001289555558904682 0 -0.37464316483836829 0.0066416053135349984 0 -0.37126952376897032 -0.00085078512189483576 0 -0.37464316483836829 0.0066416053135349984 0 -0.36603012090457948 0.0050917054244422654 0 -0.37126952376897032 -0.00085078512189483576 0 -0.36494834593608783 -0.001298186014321303 0 -0.36603012090457948 0.0050917054244422654 0 -0.36494834593608783 -0.001298186014321303 0 -0.35900139338342918 0.0020097317905480609 0 -0.36603012090457948 0.0050917054244422654 0 -0.35900139338342918 0.0020097317905480609 0 -0.35834074471334648 0.0096788928264882005 0 -0.36603012090457948 0.0050917054244422654 0 -0.35163198926140088 0.046228739452983239 0 -0.36891219827968119 0.060077996683558232 0 -0.35298131256760962 0.063034912088641357 0 -0.338272543408071 0.060603673933957783 0 -0.35163198926140088 0.046228739452983239 0 -0.35298131256760962 0.063034912088641357 0 -0.34385517732675519 0.031131612817745031 0 -0.36551724687399623 0.028318485711261141 0 -0.35163198926140088 0.046228739452983239 0 -0.36551724687399623 0.028318485711261141 0 -0.35163198926140088 0.046228739452983239 0 -0.37261014177358448 0.043145835856899219 0 -0.37937813184432773 0.031366277704107569 0 -0.36551724687399623 0.028318485711261141 0 -0.37261014177358448 0.043145835856899219 0 -0.35163198926140088 0.046228739452983239 0 -0.37261014177358448 0.043145835856899219 0 -0.36891219827968119 0.060077996683558232 0 -0.38207463336695202 0.051047668856640811 0 -0.37261014177358448 0.043145835856899219 0 -0.36891219827968119 0.060077996683558232 0 -0.37929074908003868 0.077603726490867345 0 -0.35694138538550352 0.073855345321458488 0 -0.37929074908003868 0.077603726490867345 0 -0.36891219827968119 0.060077996683558232 0 -0.35694138538550352 0.073855345321458488 0 -0.36891219827968119 0.060077996683558232 0 -0.35298131256760962 0.063034912088641357 0 -0.35694138538550352 0.073855345321458488 0 -0.35298131256760962 0.063034912088641357 0 -0.35694138538550352 0.073855345321458488 0 -0.34914844650339177 0.074408805051249083 0 -0.35694138538550352 0.073855345321458488 0 -0.34914844650339177 0.074408805051249083 0 -0.35387282561504041 0.085789381247760657 0 -0.338272543408071 0.060603673933957783 0 -0.35298131256760962 0.063034912088641357 0 -0.34914844650339177 0.074408805051249083 0 -0.34914844650339177 0.074408805051249083 0 -0.35387282561504041 0.085789381247760657 0 -0.33299160925146271 0.085281992960062933 0 -0.35694138538550352 0.073855345321458488 0 -0.35387282561504041 0.085789381247760657 0 -0.36438159895332511 0.085691586513687634 0 -0.35387282561504041 0.085789381247760657 0 -0.36438159895332511 0.085691586513687634 0 -0.35579278546844412 0.098564625017930646 0 -0.37929074908003868 0.077603726490867345 0 -0.35694138538550352 0.073855345321458488 0 -0.36438159895332511 0.085691586513687634 0 -0.37929074908003868 0.077603726490867345 0 -0.36438159895332511 0.085691586513687634 0 -0.37090825683648998 0.098456277756480637 0 -0.37090825683648998 0.098456277756480637 0 -0.36904533532088801 0.1177582563576956 0 -0.35579278546844412 0.098564625017930646 0 -0.36438159895332511 0.085691586513687634 0 -0.37090825683648998 0.098456277756480637 0 -0.35579278546844412 0.098564625017930646 0 -0.35823941519022368 0.13573745574644491 0 -0.36904533532088801 0.1177582563576956 0 -0.35158166360451942 0.11704707172714621 0 -0.36904533532088801 0.1177582563576956 0 -0.35158166360451942 0.11704707172714621 0 -0.35579278546844412 0.098564625017930646 0 -0.35158166360451942 0.11704707172714621 0 -0.35579278546844412 0.098564625017930646 0 -0.34047962299512569 0.099373871294989508 0 -0.35387282561504041 0.085789381247760657 0 -0.35579278546844412 0.098564625017930646 0 -0.34047962299512569 0.099373871294989508 0 -0.34047962299512569 0.099373871294989508 0 -0.33231339904552459 0.1171762944261375 0 -0.31683477199953253 0.096155180868875256 0 -0.34455851703438989 0.13305210298766909 0 -0.35158166360451942 0.11704707172714621 0 -0.33231339904552459 0.1171762944261375 0 -0.35158166360451942 0.11704707172714621 0 -0.34047962299512569 0.099373871294989508 0 -0.33231339904552459 0.1171762944261375 0 -0.31211500736378339 0.1240031522641292 0 -0.31683477199953253 0.096155180868875256 0 -0.31211500736378339 0.1240031522641292 0 -0.33231339904552459 0.1171762944261375 0 -0.31683477199953253 0.096155180868875256 0 -0.30635830999651792 0.07761242167179265 0 -0.31683477199953253 0.096155180868875256 0 -0.32146679815367007 0.068824891797761426 0 -0.31683477199953253 0.096155180868875256 0 -0.32146679815367007 0.068824891797761426 0 -0.33299160925146271 0.085281992960062933 0 -0.31683477199953253 0.096155180868875256 0 -0.32146679815367007 0.068824891797761426 0 -0.31683477199953253 0.096155180868875256 0 -0.33299160925146271 0.085281992960062933 0 -0.338272543408071 0.060603673933957783 0 -0.32146679815367007 0.068824891797761426 0 -0.33576809196089219 0.072507027900731907 0 -0.32146679815367007 0.068824891797761426 0 -0.33576809196089219 0.072507027900731907 0 -0.33299160925146271 0.085281992960062933 0 -0.34914844650339177 0.074408805051249083 0 -0.33576809196089219 0.072507027900731907 0 -0.33299160925146271 0.085281992960062933 0 -0.338272543408071 0.060603673933957783 0 -0.34914844650339177 0.074408805051249083 0 -0.33576809196089219 0.072507027900731907 0 -0.35387282561504041 0.085789381247760657 0 -0.34047962299512569 0.099373871294989508 0 -0.33299160925146271 0.085281992960062933 0 -0.34914844650339177 0.074408805051249083 0 -0.33299160925146271 0.085281992960062933 0 -0.34047962299512569 0.099373871294989508 0 -0.31683477199953253 0.096155180868875256 0 -0.33299160925146271 0.085281992960062933 0 -0.3938434845513461 0.48000301234504228 0 -0.4154786193197833 0.47000451851756458 0 -0.40908183102320411 0.4845696213484928 0 -0.3938434845513461 0.48000301234504228 0 -0.40110135887996978 0.47332954189399812 0 -0.4154786193197833 0.47000451851756458 0 -0.3938434845513461 0.48000301234504228 0 -0.4154786193197833 0.47000451851756458 0 -0.3938434845513461 0.48000301234504228 0 -0.40110135887996978 0.47332954189399812 0 -0.38930270813857232 0.46778113184491188 0 -0.3938434845513461 0.48000301234504228 0 -0.39546946259238258 0.49128185561313598 0 -0.40908183102320411 0.4845696213484928 0 -0.40521342881326272 0.5 0 -0.39546946259238258 0.49128185561313598 0 -0.37789332191386737 0.5 0 -0.40521342881326272 0.5 0 -0.39546946259238258 0.49128185561313598 0 -0.40908183102320411 0.4845696213484928 0 -0.3938434845513461 0.48000301234504228 0 -0.39546946259238258 0.49128185561313598 0 -0.38517353549973538 0.49039659604947999 0 -0.3938434845513461 0.48000301234504228 0 -0.37220834978290879 0.49000150617251997 0 -0.39546946259238258 0.49128185561313598 0 -0.38517353549973538 0.49039659604947999 0 -0.37789332191386737 0.5 0 -0.3938434845513461 0.48000301234504228 0 -0.38517353549973538 0.49039659604947999 0 -0.37220834978290879 0.49000150617251997 0 -0.38517353549973538 0.49039659604947999 0 -0.37789332191386737 0.5 0 -0.37220834978290879 0.49000150617251997 0 -0.3938434845513461 0.48000301234504228 0 -0.37805640255927542 0.47903421333972468 0 -0.3842367001720054 0.47454362448235632 0 -0.3938434845513461 0.48000301234504228 0 -0.37805640255927542 0.47903421333972468 0 -0.37220834978290879 0.49000150617251997 0 -0.3842367001720054 0.47454362448235632 0 -0.37701653082709469 0.46900635458093531 0 -0.38930270813857232 0.46778113184491188 0 -0.3938434845513461 0.48000301234504228 0 -0.3842367001720054 0.47454362448235632 0 -0.38930270813857232 0.46778113184491188 0 -0.37805640255927542 0.47903421333972468 0 -0.3842367001720054 0.47454362448235632 0 -0.37701653082709469 0.46900635458093531 0 -0.37701653082709469 0.46900635458093531 0 -0.38677844954541418 0.45747132953460651 0 -0.37376195539900242 0.45249759326054367 0 -0.37701653082709469 0.46900635458093531 0 -0.38677844954541418 0.45747132953460651 0 -0.38930270813857232 0.46778113184491188 0 -0.38473584783684761 0.44354080077547992 0 -0.36778315087773072 0.43214877602771662 0 -0.37376195539900242 0.45249759326054367 0 -0.38677844954541418 0.45747132953460651 0 -0.38473584783684761 0.44354080077547992 0 -0.37376195539900242 0.45249759326054367 0 -0.38677844954541418 0.45747132953460651 0 -0.38473584783684761 0.44354080077547992 0 -0.39843898125590987 0.45231631840454728 0 -0.39843898125590987 0.45231631840454728 0 -0.4072920944712265 0.44499890251068641 0 -0.39856520721893041 0.43647578570475237 0 -0.38473584783684761 0.44354080077547992 0 -0.39843898125590987 0.45231631840454728 0 -0.39856520721893041 0.43647578570475237 0 -0.39843898125590987 0.45231631840454728 0 -0.39841490533913748 0.46178879282826651 0 -0.41709791082295028 0.45456801136960878 0 -0.40110135887996978 0.47332954189399812 0 -0.39841490533913748 0.46178879282826651 0 -0.41709791082295028 0.45456801136960878 0 -0.38677844954541418 0.45747132953460651 0 -0.38930270813857232 0.46778113184491188 0 -0.39841490533913748 0.46178879282826651 0 -0.40110135887996978 0.47332954189399812 0 -0.38930270813857232 0.46778113184491188 0 -0.39841490533913748 0.46178879282826651 0 -0.38677844954541418 0.45747132953460651 0 -0.39843898125590987 0.45231631840454728 0 -0.39841490533913748 0.46178879282826651 0 -0.40110135887996978 0.47332954189399812 0 -0.41709791082295028 0.45456801136960878 0 -0.4154786193197833 0.47000451851756458 0 -0.40110135887996978 0.47332954189399812 0 -0.41709791082295028 0.45456801136960878 0 -0.41709791082295028 0.45456801136960878 0 -0.42692569345801529 0.46340213249295897 0 -0.4154786193197833 0.47000451851756458 0 -0.41709791082295028 0.45456801136960878 0 -0.43309446276593089 0.43580648084521972 0 -0.41506627858711548 0.4366354945638371 0 -0.39843898125590987 0.45231631840454728 0 -0.41709791082295028 0.45456801136960878 0 -0.4072920944712265 0.44499890251068641 0 -0.4072920944712265 0.44499890251068641 0 -0.41506627858711548 0.4366354945638371 0 -0.39856520721893041 0.43647578570475237 0 -0.41709791082295028 0.45456801136960878 0 -0.4072920944712265 0.44499890251068641 0 -0.41506627858711548 0.4366354945638371 0 -0.41709791082295028 0.45456801136960878 0 -0.43251943231727258 0.45189802077753072 0 -0.43309446276593089 0.43580648084521972 0 -0.41709791082295028 0.45456801136960878 0 -0.43309446276593089 0.43580648084521972 0 -0.43251943231727258 0.45189802077753072 0 -0.44285055445462801 0.44408738363144917 0 -0.43309446276593089 0.43580648084521972 0 -0.43251943231727258 0.45189802077753072 0 -0.42692569345801529 0.46340213249295897 0 -0.44262854008483871 0.46162609554841733 0 -0.42692569345801529 0.46340213249295897 0 -0.43014133963940671 0.47900644757454591 0 -0.44262854008483871 0.46162609554841733 0 -0.41709791082295028 0.45456801136960878 0 -0.43251943231727258 0.45189802077753072 0 -0.42692569345801529 0.46340213249295897 0 -0.42692569345801529 0.46340213249295897 0 -0.43014133963940671 0.47900644757454591 0 -0.4154786193197833 0.47000451851756458 0 -0.43014133963940671 0.47900644757454591 0 -0.4154786193197833 0.47000451851756458 0 -0.40908183102320411 0.4845696213484928 0 -0.40521342881326272 0.5 0 -0.40908183102320411 0.4845696213484928 0 -0.43253353571265801 0.5 0 -0.43014133963940671 0.47900644757454591 0 -0.40908183102320411 0.4845696213484928 0 -0.43253353571265801 0.5 0 -0.43014133963940671 0.47900644757454591 0 -0.43253353571265801 0.5 0 -0.44984012809851409 0.48033494727474779 0 -0.43253353571265801 0.5 0 -0.44984012809851409 0.48033494727474779 0 -0.45985364261205308 0.50000000000000111 0 -0.43014133963940671 0.47900644757454591 0 -0.44984012809851409 0.48033494727474779 0 -0.44262854008483871 0.46162609554841733 0 -0.44984012809851409 0.48033494727474779 0 -0.47312811744354261 0.47395110078869013 0 -0.45820768181792781 0.46325373185340701 0 -0.45985364261205308 0.50000000000000111 0 -0.47312811744354261 0.47395110078869013 0 -0.44984012809851409 0.48033494727474779 0 -0.45985364261205308 0.50000000000000111 0 -0.47312811744354261 0.47395110078869013 0 -0.5 0.5 0 -0.47312811744354261 0.47395110078869013 0 -0.49999999999999972 0.44664233614409321 0 -0.45985364261205308 0.50000000000000111 0 -0.5 0.5 0 -0.47312811744354261 0.47395110078869013 0 -0.48640259227503152 0.44790220157737892 0 -0.49999999999999972 0.44664233614409321 0 -0.47883616718389621 0.43347798499105172 0 -0.49999999999999972 0.44664233614409321 0 -0.47883616718389621 0.43347798499105172 0 -0.47312811744354261 0.47395110078869013 0 -0.48640259227503152 0.44790220157737892 0 -0.49999999999999972 0.44664233614409321 0 -0.47312811744354261 0.47395110078869013 0 -0.48640259227503152 0.44790220157737892 0 -0.47312811744354261 0.47395110078869013 0 -0.48640259227503152 0.44790220157737892 0 -0.46932328621444303 0.45009797021529852 0 -0.46932328621444303 0.45009797021529852 0 -0.46288197751253979 0.435741310408158 0 -0.47883616718389621 0.43347798499105172 0 -0.48640259227503152 0.44790220157737892 0 -0.46932328621444303 0.45009797021529852 0 -0.47883616718389621 0.43347798499105172 0 -0.46932328621444303 0.45009797021529852 0 -0.45653044061400749 0.44574373859450739 0 -0.46288197751253979 0.435741310408158 0 -0.46932328621444303 0.45009797021529852 0 -0.45653044061400749 0.44574373859450739 0 -0.45820768181792781 0.46325373185340701 0 -0.45653044061400749 0.44574373859450739 0 -0.44988321330808601 0.43264183945635343 0 -0.46288197751253979 0.435741310408158 0 -0.47312811744354261 0.47395110078869013 0 -0.46932328621444303 0.45009797021529852 0 -0.45820768181792781 0.46325373185340701 0 -0.45653044061400749 0.44574373859450739 0 -0.45820768181792781 0.46325373185340701 0 -0.44262854008483871 0.46162609554841733 0 -0.44984012809851409 0.48033494727474779 0 -0.45820768181792781 0.46325373185340701 0 -0.44262854008483871 0.46162609554841733 0 -0.43251943231727258 0.45189802077753072 0 -0.44262854008483871 0.46162609554841733 0 -0.44285055445462801 0.44408738363144917 0 -0.45653044061400749 0.44574373859450739 0 -0.44262854008483871 0.46162609554841733 0 -0.44285055445462801 0.44408738363144917 0 -0.44285055445462801 0.44408738363144917 0 -0.44988321330808601 0.43264183945635343 0 -0.43309446276593089 0.43580648084521972 0 -0.45653044061400749 0.44574373859450739 0 -0.44285055445462801 0.44408738363144917 0 -0.44988321330808601 0.43264183945635343 0 -0.44909101470891138 0.41704495032083061 0 -0.43309446276593089 0.43580648084521972 0 -0.44988321330808601 0.43264183945635343 0 -0.44909101470891138 0.41704495032083061 0 -0.43309446276593089 0.43580648084521972 0 -0.44988321330808601 0.43264183945635343 0 -0.44909101470891138 0.41704495032083061 0 -0.45767233436779298 0.42031363383801013 0 -0.44909101470891138 0.41704495032083061 0 -0.43642708593841462 0.41129790334070748 0 -0.43309446276593089 0.43580648084521972 0 -0.44909101470891138 0.41704495032083061 0 -0.44923652684218601 0.40651161443480333 0 -0.43642708593841462 0.41129790334070748 0 -0.44909101470891138 0.41704495032083061 0 -0.46310762304278369 0.4136785712167641 0 -0.46508756665189233 0.39828341979644161 0 -0.44909101470891138 0.41704495032083061 0 -0.46508756665189233 0.39828341979644161 0 -0.44909101470891138 0.41704495032083061 0 -0.44923652684218601 0.40651161443480333 0 -0.46508756665189233 0.39828341979644161 0 -0.44909101470891138 0.41704495032083061 0 -0.45767233436779298 0.42031363383801013 0 -0.46310762304278369 0.4136785712167641 0 -0.45767233436779298 0.42031363383801013 0 -0.46310762304278369 0.4136785712167641 0 -0.4689935185142321 0.42014913325858988 0 -0.46310762304278369 0.4136785712167641 0 -0.47635794946245552 0.41312634298853379 0 -0.46508756665189233 0.39828341979644161 0 -0.45767233436779298 0.42031363383801013 0 -0.47883616718389621 0.43347798499105172 0 -0.4689935185142321 0.42014913325858988 0 -0.45767233436779298 0.42031363383801013 0 -0.46288197751253979 0.435741310408158 0 -0.47883616718389621 0.43347798499105172 0 -0.45767233436779298 0.42031363383801013 0 -0.47883616718389621 0.43347798499105172 0 -0.44988321330808601 0.43264183945635343 0 -0.45767233436779298 0.42031363383801013 0 -0.46288197751253979 0.435741310408158 0 -0.47883616718389621 0.43347798499105172 0 -0.47635794946245552 0.41312634298853379 0 -0.48714440641974271 0.42351608680749347 0 -0.47883616718389621 0.43347798499105172 0 -0.4689935185142321 0.42014913325858988 0 -0.47635794946245552 0.41312634298853379 0 -0.46310762304278369 0.4136785712167641 0 -0.4689935185142321 0.42014913325858988 0 -0.47635794946245552 0.41312634298853379 0 -0.47635794946245552 0.41312634298853379 0 -0.48901457958177968 0.41012265573874179 0 -0.48254378332594611 0.39722493186941499 0 -0.47635794946245552 0.41312634298853379 0 -0.48901457958177968 0.41012265573874179 0 -0.48714440641974271 0.42351608680749347 0 -0.48901457958177968 0.41012265573874179 0 -0.5 0.42140439004324071 0 -0.49999999999999978 0.39616644394238798 0 -0.48901457958177968 0.41012265573874179 0 -0.5 0.42140439004324071 0 -0.48714440641974271 0.42351608680749347 0 -0.49999999999999972 0.44664233614409321 0 -0.47883616718389621 0.43347798499105172 0 -0.48714440641974271 0.42351608680749347 0 -0.49999999999999972 0.44664233614409321 0 -0.5 0.42140439004324071 0 -0.48714440641974271 0.42351608680749347 0 -0.49007778645481631 0.38142997617552599 0 -0.49999999999999978 0.39616644394238798 0 -0.50000000000000311 0.3685517992903854 0 -0.49007778645481631 0.38142997617552599 0 -0.47611467569506138 0.38535029247959018 0 -0.48714178473823078 0.37241716516273898 0 -0.49999999999999978 0.39616644394238798 0 -0.48254378332594611 0.39722493186941499 0 -0.48901457958177968 0.41012265573874179 0 -0.49999999999999978 0.39616644394238798 0 -0.48254378332594611 0.39722493186941499 0 -0.49007778645481631 0.38142997617552599 0 -0.49999999999999978 0.39616644394238798 0 -0.48254378332594611 0.39722493186941499 0 -0.48254378332594611 0.39722493186941499 0 -0.46508756665189233 0.39828341979644161 0 -0.47635794946245552 0.41312634298853379 0 -0.48254378332594611 0.39722493186941499 0 -0.46508756665189233 0.39828341979644161 0 -0.48254378332594611 0.39722493186941499 0 -0.47611467569506138 0.38535029247959018 0 -0.46508756665189233 0.39828341979644161 0 -0.47611467569506138 0.38535029247959018 0 -0.46508756665189233 0.39828341979644161 0 -0.49007778645481631 0.38142997617552599 0 -0.48254378332594611 0.39722493186941499 0 -0.47611467569506138 0.38535029247959018 0 -0.47611467569506138 0.38535029247959018 0 -0.47397397291215421 0.37493689296344251 0 -0.48714178473823078 0.37241716516273898 0 -0.47611467569506138 0.38535029247959018 0 -0.48714178473823078 0.37241716516273898 0 -0.46871814716203669 0.37906981455344119 0 -0.46360543106569913 0.37231654924431878 0 -0.47397397291215421 0.37493689296344251 0 -0.47611467569506138 0.38535029247959018 0 -0.46871814716203669 0.37906981455344119 0 -0.47397397291215421 0.37493689296344251 0 -0.46871814716203669 0.37906981455344119 0 -0.46117850897523233 0.38367552352641338 0 -0.46360543106569913 0.37231654924431878 0 -0.47611467569506138 0.38535029247959018 0 -0.46871814716203669 0.37906981455344119 0 -0.46117850897523233 0.38367552352641338 0 -0.47611467569506138 0.38535029247959018 0 -0.46117850897523233 0.38367552352641338 0 -0.46508756665189233 0.39828341979644161 0 -0.46117850897523233 0.38367552352641338 0 -0.45400385251667602 0.39093091030285698 0 -0.45110956684876158 0.38402681738971201 0 -0.46117850897523233 0.38367552352641338 0 -0.45110956684876158 0.38402681738971201 0 -0.44813402172652672 0.37354371539476261 0 -0.46117850897523233 0.38367552352641338 0 -0.44813402172652672 0.37354371539476261 0 -0.46360543106569913 0.37231654924431878 0 -0.44923652684218601 0.40651161443480333 0 -0.46508756665189233 0.39828341979644161 0 -0.44634044006952572 0.39942018428123321 0 -0.46508756665189233 0.39828341979644161 0 -0.45400385251667602 0.39093091030285698 0 -0.44634044006952572 0.39942018428123321 0 -0.46508756665189233 0.39828341979644161 0 -0.44634044006952572 0.39942018428123321 0 -0.46117850897523233 0.38367552352641338 0 -0.46508756665189233 0.39828341979644161 0 -0.45400385251667602 0.39093091030285698 0 -0.45400385251667602 0.39093091030285698 0 -0.44634044006952572 0.39942018428123321 0 -0.44518347515021223 0.38837251913440451 0 -0.44634044006952572 0.39942018428123321 0 -0.44518347515021223 0.38837251913440451 0 -0.43728617553129168 0.39370672697544878 0 -0.44923652684218601 0.40651161443480333 0 -0.44634044006952572 0.39942018428123321 0 -0.43642708593841462 0.41129790334070748 0 -0.45110956684876158 0.38402681738971201 0 -0.44480856609964842 0.38185924381796288 0 -0.44813402172652672 0.37354371539476261 0 -0.45400385251667602 0.39093091030285698 0 -0.45110956684876158 0.38402681738971201 0 -0.44518347515021223 0.38837251913440451 0 -0.45110956684876158 0.38402681738971201 0 -0.44518347515021223 0.38837251913440451 0 -0.44480856609964842 0.38185924381796288 0 -0.44518347515021223 0.38837251913440451 0 -0.43913693036841173 0.38484964203092692 0 -0.43002747341826991 0.3864772557201327 0 -0.44518347515021223 0.38837251913440451 0 -0.43002747341826991 0.3864772557201327 0 -0.44518347515021223 0.38837251913440451 0 -0.43913693036841173 0.38484964203092692 0 -0.44480856609964842 0.38185924381796288 0 -0.44480856609964842 0.38185924381796288 0 -0.4393591315165738 0.37762743775392832 0 -0.44813402172652672 0.37354371539476261 0 -0.43913693036841173 0.38484964203092692 0 -0.44480856609964842 0.38185924381796288 0 -0.4393591315165738 0.37762743775392832 0 -0.43913693036841173 0.38484964203092692 0 -0.43173797726570751 0.37658334167695551 0 -0.43913693036841173 0.38484964203092692 0 -0.43173797726570751 0.37658334167695551 0 -0.43002747341826991 0.3864772557201327 0 -0.43913693036841173 0.38484964203092692 0 -0.4393591315165738 0.37762743775392832 0 -0.43173797726570751 0.37658334167695551 0 -0.4393591315165738 0.37762743775392832 0 -0.43173797726570751 0.37658334167695551 0 -0.4325639091043616 0.37180597819459837 0 -0.43173797726570751 0.37658334167695551 0 -0.43002747341826991 0.3864772557201327 0 -0.44518347515021223 0.38837251913440451 0 -0.43002747341826991 0.3864772557201327 0 -0.43728617553129168 0.39370672697544878 0 -0.43002747341826991 0.3864772557201327 0 -0.41472776448615789 0.38456402166930481 0 -0.42117367656598032 0.39254991666010941 0 -0.43002747341826991 0.3864772557201327 0 -0.41472776448615789 0.38456402166930481 0 -0.43002747341826991 0.3864772557201327 0 -0.42328890360694349 0.38021744503538613 0 -0.41472776448615789 0.38456402166930481 0 -0.43173797726570751 0.37658334167695551 0 -0.43002747341826991 0.3864772557201327 0 -0.42328890360694349 0.38021744503538613 0 -0.43173797726570751 0.37658334167695551 0 -0.42328890360694349 0.38021744503538613 0 -0.42689564018809201 0.37117335838025439 0 -0.40881671944059661 0.37920357314115732 0 -0.42689564018809201 0.37117335838025439 0 -0.42328890360694349 0.38021744503538613 0 -0.40881671944059661 0.37920357314115732 0 -0.42689564018809201 0.37117335838025439 0 -0.42328890360694349 0.38021744503538613 0 -0.41472776448615789 0.38456402166930481 0 -0.40881671944059661 0.37920357314115732 0 -0.41472776448615789 0.38456402166930481 0 -0.40724106840129259 0.39428871981441299 0 -0.42117367656598032 0.39254991666010941 0 -0.41472776448615789 0.38456402166930481 0 -0.40826438028753348 0.3817067557430866 0 -0.39942805555404642 0.38265078761847338 0 -0.41472776448615789 0.38456402166930481 0 -0.40724106840129259 0.39428871981441299 0 -0.39942805555404642 0.38265078761847338 0 -0.41472776448615789 0.38456402166930481 0 -0.39942805555404642 0.38265078761847338 0 -0.40881671944059661 0.37920357314115732 0 -0.39942805555404642 0.38265078761847338 0 -0.41098055992701871 0.3693971202961519 0 -0.40826438028753348 0.3817067557430866 0 -0.40881671944059661 0.37920357314115732 0 -0.41472776448615789 0.38456402166930481 0 -0.40826438028753348 0.3817067557430866 0 -0.40881671944059661 0.37920357314115732 0 -0.40724106840129259 0.39428871981441299 0 -0.4157685575788832 0.40127396331749671 0 -0.40157856791931718 0.40704460823596672 0 -0.42117367656598032 0.39254991666010941 0 -0.4157685575788832 0.40127396331749671 0 -0.42759331348715912 0.40055694876602499 0 -0.40724106840129259 0.39428871981441299 0 -0.42117367656598032 0.39254991666010941 0 -0.4157685575788832 0.40127396331749671 0 -0.4157685575788832 0.40127396331749671 0 -0.42759331348715912 0.40055694876602499 0 -0.44634044006952572 0.39942018428123321 0 -0.42759331348715912 0.40055694876602499 0 -0.44634044006952572 0.39942018428123321 0 -0.42759331348715912 0.40055694876602499 0 -0.43728617553129168 0.39370672697544878 0 -0.44634044006952572 0.39942018428123321 0 -0.42759331348715912 0.40055694876602499 0 -0.43642708593841462 0.41129790334070748 0 -0.43002747341826991 0.3864772557201327 0 -0.42117367656598032 0.39254991666010941 0 -0.42759331348715912 0.40055694876602499 0 -0.43002747341826991 0.3864772557201327 0 -0.42759331348715912 0.40055694876602499 0 -0.43002747341826991 0.3864772557201327 0 -0.42759331348715912 0.40055694876602499 0 -0.43728617553129168 0.39370672697544878 0 -0.43642708593841462 0.41129790334070748 0 -0.42449994900394461 0.41844961959922572 0 -0.43309446276593089 0.43580648084521972 0 -0.42759331348715912 0.40055694876602499 0 -0.43642708593841462 0.41129790334070748 0 -0.42449994900394461 0.41844961959922572 0 -0.4157685575788832 0.40127396331749671 0 -0.42759331348715912 0.40055694876602499 0 -0.42449994900394461 0.41844961959922572 0 -0.42759331348715912 0.40055694876602499 0 -0.42449994900394461 0.41844961959922572 0 -0.42449994900394461 0.41844961959922572 0 -0.43309446276593089 0.43580648084521972 0 -0.41506627858711548 0.4366354945638371 0 -0.42449994900394461 0.41844961959922572 0 -0.41506627858711548 0.4366354945638371 0 -0.40746949035714619 0.42222882353716701 0 -0.41506627858711548 0.4366354945638371 0 -0.40746949035714619 0.42222882353716701 0 -0.39856520721893041 0.43647578570475237 0 -0.42449994900394461 0.41844961959922572 0 -0.40746949035714619 0.42222882353716701 0 -0.41232914121482278 0.41224925367246401 0 -0.4157685575788832 0.40127396331749671 0 -0.42449994900394461 0.41844961959922572 0 -0.41232914121482278 0.41224925367246401 0 -0.4157685575788832 0.40127396331749671 0 -0.41232914121482278 0.41224925367246401 0 -0.40157856791931718 0.40704460823596672 0 -0.40746949035714619 0.42222882353716701 0 -0.41232914121482278 0.41224925367246401 0 -0.40157856791931718 0.40704460823596672 0 -0.40746949035714619 0.42222882353716701 0 -0.40157856791931718 0.40704460823596672 0 -0.39298749241221759 0.42119507937603923 0 -0.40746949035714619 0.42222882353716701 0 -0.39298749241221759 0.42119507937603923 0 -0.39856520721893041 0.43647578570475237 0 -0.39298749241221759 0.42119507937603923 0 -0.39856520721893041 0.43647578570475237 0 -0.38373994498284608 0.43043669407259588 0 -0.38373994498284608 0.43043669407259588 0 -0.37668454372729859 0.41206883315114529 0 -0.36778315087773072 0.43214877602771662 0 -0.38473584783684761 0.44354080077547992 0 -0.38373994498284608 0.43043669407259588 0 -0.36778315087773072 0.43214877602771662 0 -0.38473584783684761 0.44354080077547992 0 -0.39856520721893041 0.43647578570475237 0 -0.38373994498284608 0.43043669407259588 0 -0.40157856791931718 0.40704460823596672 0 -0.39298749241221759 0.42119507937603923 0 -0.37668454372729859 0.41206883315114529 0 -0.39298749241221759 0.42119507937603923 0 -0.38373994498284608 0.43043669407259588 0 -0.37668454372729859 0.41206883315114529 0 -0.40157856791931718 0.40704460823596672 0 -0.37668454372729859 0.41206883315114529 0 -0.37668454372729859 0.41206883315114529 0 -0.37844474563582792 0.390355182046278 0 -0.39076978830337122 0.39764902138512792 0 -0.40157856791931718 0.40704460823596672 0 -0.37668454372729859 0.41206883315114529 0 -0.39076978830337122 0.39764902138512792 0 -0.38141148745950948 0.38039780936179463 0 -0.39942805555404642 0.38265078761847338 0 -0.37844474563582792 0.390355182046278 0 -0.39942805555404642 0.38265078761847338 0 -0.38141148745950948 0.38039780936179463 0 -0.37844474563582792 0.390355182046278 0 -0.39942805555404642 0.38265078761847338 0 -0.37844474563582792 0.390355182046278 0 -0.39942805555404642 0.38265078761847338 0 -0.39076978830337122 0.39764902138512792 0 -0.38141148745950948 0.38039780936179463 0 -0.39942805555404642 0.38265078761847338 0 -0.39128338495032239 0.36719877308275878 0 -0.40826438028753348 0.3817067557430866 0 -0.40881671944059661 0.37920357314115732 0 -0.39942805555404642 0.38265078761847338 0 -0.40881671944059661 0.37920357314115732 0 -0.39942805555404642 0.38265078761847338 0 -0.40724106840129259 0.39428871981441299 0 -0.40157856791931718 0.40704460823596672 0 -0.39076978830337122 0.39764902138512792 0 -0.40724106840129259 0.39428871981441299 0 -0.39942805555404642 0.38265078761847338 0 -0.39076978830337122 0.39764902138512792 0 -0.39259889148010241 0.34864188780489069 0 -0.39999637464883392 0.35559476271013252 0 -0.38966798311544332 0.35610238881872369 0 -0.39259889148010241 0.34864188780489069 0 -0.39999637464883392 0.35559476271013252 0 -0.40046159691170069 0.34164056661102238 0 -0.39999637464883392 0.35559476271013252 0 -0.40046159691170069 0.34164056661102238 0 -0.41381361947694889 0.35655778899711688 0 -0.39999637464883392 0.35559476271013252 0 -0.40397412088998857 0.3623881668075713 0 -0.41381361947694889 0.35655778899711688 0 -0.39128338495032239 0.36719877308275878 0 -0.41098055992701871 0.3693971202961519 0 -0.40397412088998857 0.3623881668075713 0 -0.39128338495032239 0.36719877308275878 0 -0.41098055992701871 0.3693971202961519 0 -0.39942805555404642 0.38265078761847338 0 -0.39128338495032239 0.36719877308275878 0 -0.41098055992701871 0.3693971202961519 0 -0.39999637464883392 0.35559476271013252 0 -0.39128338495032239 0.36719877308275878 0 -0.38966798311544332 0.35610238881872369 0 -0.39999637464883392 0.35559476271013252 0 -0.40397412088998857 0.3623881668075713 0 -0.39128338495032239 0.36719877308275878 0 -0.39128338495032239 0.36719877308275878 0 -0.38070440212728118 0.35956436367519867 0 -0.38966798311544332 0.35610238881872369 0 -0.39128338495032239 0.36719877308275878 0 -0.38070440212728118 0.35956436367519867 0 -0.37158620997362618 0.36500042586936587 0 -0.39128338495032239 0.36719877308275878 0 -0.37158620997362618 0.36500042586936587 0 -0.38141148745950948 0.38039780936179463 0 -0.39128338495032239 0.36719877308275878 0 -0.37158620997362618 0.36500042586936587 0 -0.38070440212728118 0.35956436367519867 0 -0.38259242285128608 0.34975193996759602 0 -0.36960199921418602 0.35731180584905542 0 -0.38259242285128608 0.34975193996759602 0 -0.37580907906339922 0.33647878059299557 0 -0.36960199921418602 0.35731180584905542 0 -0.38070440212728118 0.35956436367519867 0 -0.38966798311544332 0.35610238881872369 0 -0.38259242285128608 0.34975193996759602 0 -0.39259889148010241 0.34864188780489069 0 -0.38966798311544332 0.35610238881872369 0 -0.38259242285128608 0.34975193996759602 0 -0.39259889148010241 0.34864188780489069 0 -0.38259242285128608 0.34975193996759602 0 -0.38794720083446621 0.34059934721089508 0 -0.38259242285128608 0.34975193996759602 0 -0.37580907906339922 0.33647878059299557 0 -0.38794720083446621 0.34059934721089508 0 -0.37580907906339922 0.33647878059299557 0 -0.38794720083446621 0.34059934721089508 0 -0.38710957434645199 0.32672334422492838 0 -0.37580907906339922 0.33647878059299557 0 -0.38201615891261242 0.31564575533693578 0 -0.38201615891261242 0.31564575533693578 0 -0.38336946241093189 0.30974931290420182 0 -0.36531193472093021 0.32454274932608829 0 -0.37580907906339922 0.33647878059299557 0 -0.38201615891261242 0.31564575533693578 0 -0.38710957434645199 0.32672334422492838 0 -0.38201615891261242 0.31564575533693578 0 -0.39350880394476312 0.31593875705230262 0 -0.38336946241093189 0.30974931290420182 0 -0.38201615891261242 0.31564575533693578 0 -0.38710957434645199 0.32672334422492838 0 -0.39350880394476312 0.31593875705230262 0 -0.38710957434645199 0.32672334422492838 0 -0.39350880394476312 0.31593875705230262 0 -0.39921774374196328 0.327754485124091 0 -0.39350880394476312 0.31593875705230262 0 -0.39921774374196328 0.327754485124091 0 -0.40602554896887638 0.32011992980008452 0 -0.39921774374196328 0.327754485124091 0 -0.40602554896887638 0.32011992980008452 0 -0.40814721749945931 0.33505042297199122 0 -0.38794720083446621 0.34059934721089508 0 -0.38710957434645199 0.32672334422492838 0 -0.40046159691170069 0.34164056661102238 0 -0.39259889148010241 0.34864188780489069 0 -0.38794720083446621 0.34059934721089508 0 -0.40046159691170069 0.34164056661102238 0 -0.38710957434645199 0.32672334422492838 0 -0.39921774374196328 0.327754485124091 0 -0.40046159691170069 0.34164056661102238 0 -0.38710957434645199 0.32672334422492838 0 -0.40046159691170069 0.34164056661102238 0 -0.39921774374196328 0.327754485124091 0 -0.40046159691170069 0.34164056661102238 0 -0.40814721749945931 0.33505042297199122 0 -0.40814721749945931 0.33505042297199122 0 -0.41954562432067788 0.33058053440738988 0 -0.41381361947694889 0.35655778899711688 0 -0.41954562432067788 0.33058053440738988 0 -0.41381361947694889 0.35655778899711688 0 -0.40602554896887638 0.32011992980008452 0 -0.40814721749945931 0.33505042297199122 0 -0.41954562432067788 0.33058053440738988 0 -0.40602554896887638 0.32011992980008452 0 -0.41954562432067788 0.33058053440738988 0 -0.42527762916440792 0.30460327981766322 0 -0.41954562432067788 0.33058053440738988 0 -0.42527762916440792 0.30460327981766322 0 -0.41954562432067788 0.33058053440738988 0 -0.44001701522470671 0.31606260091672289 0 -0.42527762916440792 0.30460327981766322 0 -0.41954562432067788 0.33058053440738988 0 -0.42420657124029282 0.3485159257420361 0 -0.43843079740841773 0.33787066219507811 0 -0.41954562432067788 0.33058053440738988 0 -0.43843079740841773 0.33787066219507811 0 -0.44001701522470671 0.31606260091672289 0 -0.42420657124029282 0.3485159257420361 0 -0.43459164588172849 0.36007712215754689 0 -0.43843079740841773 0.33787066219507811 0 -0.42420657124029282 0.3485159257420361 0 -0.41381361947694889 0.35655778899711688 0 -0.43459164588172849 0.36007712215754689 0 -0.41381361947694889 0.35655778899711688 0 -0.43459164588172849 0.36007712215754689 0 -0.43459164588172849 0.36007712215754689 0 -0.43843079740841773 0.33787066219507811 0 -0.40046159691170069 0.34164056661102238 0 -0.40814721749945931 0.33505042297199122 0 -0.41381361947694889 0.35655778899711688 0 -0.41954562432067788 0.33058053440738988 0 -0.42420657124029282 0.3485159257420361 0 -0.41381361947694889 0.35655778899711688 0 -0.39999637464883392 0.35559476271013252 0 -0.41381361947694889 0.35655778899711688 0 -0.40046159691170069 0.34164056661102238 0 -0.41381361947694889 0.35655778899711688 0 -0.41381361947694889 0.35655778899711688 0 -0.41098055992701871 0.3693971202961519 0 -0.42689564018809201 0.37117335838025439 0 -0.41098055992701871 0.3693971202961519 0 -0.42689564018809201 0.37117335838025439 0 -0.40881671944059661 0.37920357314115732 0 -0.41098055992701871 0.3693971202961519 0 -0.42689564018809201 0.37117335838025439 0 -0.40881671944059661 0.37920357314115732 0 -0.41098055992701871 0.3693971202961519 0 -0.40397412088998857 0.3623881668075713 0 -0.41381361947694889 0.35655778899711688 0 -0.41098055992701871 0.3693971202961519 0 -0.41381361947694889 0.35655778899711688 0 -0.41098055992701871 0.3693971202961519 0 -0.41381361947694889 0.35655778899711688 0 -0.42689564018809201 0.37117335838025439 0 -0.41381361947694889 0.35655778899711688 0 -0.42907199843085347 0.36486274908666949 0 -0.43459164588172849 0.36007712215754689 0 -0.42689564018809201 0.37117335838025439 0 -0.42907199843085347 0.36486274908666949 0 -0.42980351636605002 0.37149789839679431 0 -0.43173797726570751 0.37658334167695551 0 -0.42689564018809201 0.37117335838025439 0 -0.43173797726570751 0.37658334167695551 0 -0.42689564018809201 0.37117335838025439 0 -0.42980351636605002 0.37149789839679431 0 -0.42689564018809201 0.37117335838025439 0 -0.42980351636605002 0.37149789839679431 0 -0.41381361947694889 0.35655778899711688 0 -0.42689564018809201 0.37117335838025439 0 -0.42907199843085347 0.36486274908666949 0 -0.43459164588172849 0.36007712215754689 0 -0.4325639091043616 0.37180597819459837 0 -0.42907199843085347 0.36486274908666949 0 -0.43459164588172849 0.36007712215754689 0 -0.4325639091043616 0.37180597819459837 0 -0.43173797726570751 0.37658334167695551 0 -0.4325639091043616 0.37180597819459837 0 -0.43173797726570751 0.37658334167695551 0 -0.4325639091043616 0.37180597819459837 0 -0.42980351636605002 0.37149789839679431 0 -0.4325639091043616 0.37180597819459837 0 -0.42980351636605002 0.37149789839679431 0 -0.42907199843085347 0.36486274908666949 0 -0.4325639091043616 0.37180597819459837 0 -0.42980351636605002 0.37149789839679431 0 -0.4393591315165738 0.37762743775392832 0 -0.4325639091043616 0.37180597819459837 0 -0.44813402172652672 0.37354371539476261 0 -0.4325639091043616 0.37180597819459837 0 -0.44813402172652672 0.37354371539476261 0 -0.4325639091043616 0.37180597819459837 0 -0.44813402172652672 0.37354371539476261 0 -0.45404419213644692 0.3625975043188554 0 -0.43459164588172849 0.36007712215754689 0 -0.45404419213644692 0.3625975043188554 0 -0.43459164588172849 0.36007712215754689 0 -0.4325639091043616 0.37180597819459837 0 -0.45404419213644692 0.3625975043188554 0 -0.4325639091043616 0.37180597819459837 0 -0.45404419213644692 0.3625975043188554 0 -0.43459164588172849 0.36007712215754689 0 -0.44549025602952702 0.35300777224981977 0 -0.45404419213644692 0.3625975043188554 0 -0.44549025602952702 0.35300777224981977 0 -0.45575207180717081 0.34762579988211101 0 -0.43843079740841773 0.33787066219507811 0 -0.43459164588172849 0.36007712215754689 0 -0.44549025602952702 0.35300777224981977 0 -0.43843079740841773 0.33787066219507811 0 -0.44549025602952702 0.35300777224981977 0 -0.45575207180717081 0.34762579988211101 0 -0.45404419213644692 0.3625975043188554 0 -0.45575207180717081 0.34762579988211101 0 -0.46674234051517471 0.35793515390827568 0 -0.45404419213644692 0.3625975043188554 0 -0.45575207180717081 0.34762579988211101 0 -0.46674234051517471 0.35793515390827568 0 -0.46933267881425472 0.34565439271282838 0 -0.45404419213644692 0.3625975043188554 0 -0.47441064506165659 0.36523629740895902 0 -0.46674234051517471 0.35793515390827568 0 -0.45404419213644692 0.3625975043188554 0 -0.47441064506165659 0.36523629740895902 0 -0.45404419213644692 0.3625975043188554 0 -0.46360543106569913 0.37231654924431878 0 -0.47441064506165659 0.36523629740895902 0 -0.44813402172652672 0.37354371539476261 0 -0.45404419213644692 0.3625975043188554 0 -0.46360543106569913 0.37231654924431878 0 -0.46674234051517471 0.35793515390827568 0 -0.45404419213644692 0.3625975043188554 0 -0.46360543106569913 0.37231654924431878 0 -0.47397397291215421 0.37493689296344251 0 -0.47441064506165659 0.36523629740895902 0 -0.47441064506165659 0.36523629740895902 0 -0.48058358620238051 0.35168401037216412 0 -0.49477709798686631 0.36787509049906381 0 -0.47397397291215421 0.37493689296344251 0 -0.47441064506165659 0.36523629740895902 0 -0.48714178473823078 0.37241716516273898 0 -0.46674234051517471 0.35793515390827568 0 -0.47441064506165659 0.36523629740895902 0 -0.48058358620238051 0.35168401037216412 0 -0.46674234051517471 0.35793515390827568 0 -0.46933267881425472 0.34565439271282838 0 -0.48058358620238051 0.35168401037216412 0 -0.46933267881425472 0.34565439271282838 0 -0.48058358620238051 0.35168401037216412 0 -0.48121002056386808 0.3369363626790518 0 -0.48058358620238051 0.35168401037216412 0 -0.49703354506598713 0.34759711953555122 0 -0.48121002056386808 0.3369363626790518 0 -0.49703354506598713 0.34759711953555122 0 -0.5 0.34812631329607491 0 -0.49477709798686631 0.36787509049906381 0 -0.48058358620238051 0.35168401037216412 0 -0.49703354506598713 0.34759711953555122 0 -0.49477709798686631 0.36787509049906381 0 -0.49703354506598713 0.34759711953555122 0 -0.49477709798686631 0.36787509049906381 0 -0.5 0.34812631329607491 0 -0.50000000000000311 0.3685517992903854 0 -0.49477709798686631 0.36787509049906381 0 -0.47441064506165659 0.36523629740895902 0 -0.49477709798686631 0.36787509049906381 0 -0.48714178473823078 0.37241716516273898 0 -0.47441064506165659 0.36523629740895902 0 -0.49477709798686631 0.36787509049906381 0 -0.49007778645481631 0.38142997617552599 0 -0.50000000000000311 0.3685517992903854 0 -0.49477709798686631 0.36787509049906381 0 -0.50000000000000311 0.3685517992903854 0 -0.49477709798686631 0.36787509049906381 0 -0.49007778645481631 0.38142997617552599 0 -0.49477709798686631 0.36787509049906381 0 -0.48714178473823078 0.37241716516273898 0 -0.4992899921451075 0.32731914857203848 0 -0.47890896772952718 0.31636292681222472 0 -0.4992899921451075 0.32731914857203848 0 -0.48121002056386808 0.3369363626790518 0 -0.47890896772952718 0.31636292681222472 0 -0.49999999999999989 0.32093853419885771 0 -0.47890896772952718 0.31636292681222472 0 -0.48920120729889771 0.30786362236022019 0 -0.49999999999999989 0.32093853419885771 0 -0.4992899921451075 0.32731914857203848 0 -0.47890896772952718 0.31636292681222472 0 -0.49999999999999989 0.32093853419885771 0 -0.4992899921451075 0.32731914857203848 0 -0.49703354506598713 0.34759711953555122 0 -0.4992899921451075 0.32731914857203848 0 -0.49703354506598713 0.34759711953555122 0 -0.4992899921451075 0.32731914857203848 0 -0.48121002056386808 0.3369363626790518 0 -0.49703354506598713 0.34759711953555122 0 -0.5 0.34812631329607491 0 -0.4992899921451075 0.32731914857203848 0 -0.46933267881425472 0.34565439271282838 0 -0.48121002056386808 0.3369363626790518 0 -0.46237537498267961 0.3340906367225393 0 -0.48121002056386808 0.3369363626790518 0 -0.47890896772952718 0.31636292681222472 0 -0.46237537498267961 0.3340906367225393 0 -0.47890896772952718 0.31636292681222472 0 -0.45636509730576869 0.32029680939338251 0 -0.45852794331394758 0.30540670505240958 0 -0.47890896772952718 0.31636292681222472 0 -0.45636509730576869 0.32029680939338251 0 -0.46237537498267961 0.3340906367225393 0 -0.45575207180717081 0.34762579988211101 0 -0.46933267881425472 0.34565439271282838 0 -0.46237537498267961 0.3340906367225393 0 -0.45575207180717081 0.34762579988211101 0 -0.46237537498267961 0.3340906367225393 0 -0.43843079740841773 0.33787066219507811 0 -0.45636509730576869 0.32029680939338251 0 -0.46237537498267961 0.3340906367225393 0 -0.43843079740841773 0.33787066219507811 0 -0.45636509730576869 0.32029680939338251 0 -0.43843079740841773 0.33787066219507811 0 -0.44001701522470671 0.31606260091672289 0 -0.45636509730576869 0.32029680939338251 0 -0.44001701522470671 0.31606260091672289 0 -0.45852794331394758 0.30540670505240958 0 -0.4381469188983681 0.2944504832925946 0 -0.45852794331394758 0.30540670505240958 0 -0.44001701522470671 0.31606260091672289 0 -0.4381469188983681 0.2944504832925946 0 -0.45852794331394758 0.30540670505240958 0 -0.4381469188983681 0.2944504832925946 0 -0.4447805513699985 0.27737231294201392 0 -0.43100963400813791 0.27862602522793672 0 -0.4381469188983681 0.2944504832925946 0 -0.45724976864254441 0.28334965182257721 0 -0.4447805513699985 0.27737231294201392 0 -0.4381469188983681 0.2944504832925946 0 -0.45724976864254441 0.28334965182257721 0 -0.45852794331394758 0.30540670505240958 0 -0.45724976864254441 0.28334965182257721 0 -0.45852794331394758 0.30540670505240958 0 -0.47789586146606378 0.29814868652574811 0 -0.47890896772952718 0.31636292681222472 0 -0.45852794331394758 0.30540670505240958 0 -0.47890896772952718 0.31636292681222472 0 -0.47789586146606378 0.29814868652574811 0 -0.48920120729889771 0.30786362236022019 0 -0.47890896772952718 0.31636292681222472 0 -0.45852794331394758 0.30540670505240958 0 -0.47789586146606378 0.29814868652574811 0 -0.45724976864254441 0.28334965182257721 0 -0.47789586146606378 0.29814868652574811 0 -0.48102565218130672 0.27929705551177292 0 -0.5 0.29600434190405073 0 -0.5 0.27107014960924369 0 -0.48102565218130672 0.27929705551177292 0 -0.47789586146606378 0.29814868652574811 0 -0.5 0.29600434190405073 0 -0.48102565218130672 0.27929705551177292 0 -0.47789586146606378 0.29814868652574811 0 -0.5 0.29600434190405073 0 -0.48920120729889771 0.30786362236022019 0 -0.49999999999999989 0.32093853419885771 0 -0.5 0.29600434190405073 0 -0.48920120729889771 0.30786362236022019 0 -0.48177750529808522 0.24619974485466931 0 -0.5 0.2461359573144368 0 -0.48654709528280549 0.26072196503438649 0 -0.5 0.2461359573144368 0 -0.48654709528280549 0.26072196503438649 0 -0.5 0.27107014960924369 0 -0.48654709528280549 0.26072196503438649 0 -0.5 0.27107014960924369 0 -0.48102565218130672 0.27929705551177292 0 -0.48654709528280549 0.26072196503438649 0 -0.48102565218130672 0.27929705551177292 0 -0.46993231893463527 0.26090691788180947 0 -0.45724976864254441 0.28334965182257721 0 -0.48102565218130672 0.27929705551177292 0 -0.46993231893463527 0.26090691788180947 0 -0.48177750529808522 0.24619974485466931 0 -0.48654709528280549 0.26072196503438649 0 -0.46993231893463527 0.26090691788180947 0 -0.45710504060219709 0.23686107433279269 0 -0.46993231893463527 0.26090691788180947 0 -0.44707755271196942 0.2637365605125353 0 -0.45724976864254441 0.28334965182257721 0 -0.46993231893463527 0.26090691788180947 0 -0.44707755271196942 0.2637365605125353 0 -0.45724976864254441 0.28334965182257721 0 -0.4447805513699985 0.27737231294201392 0 -0.44707755271196942 0.2637365605125353 0 -0.4447805513699985 0.27737231294201392 0 -0.44707755271196942 0.2637365605125353 0 -0.43100963400813791 0.27862602522793672 0 -0.45710504060219709 0.23686107433279269 0 -0.44707755271196942 0.2637365605125353 0 -0.44707755271196942 0.2637365605125353 0 -0.4367416388518679 0.25264877063821017 0 -0.43100963400813791 0.27862602522793672 0 -0.45710504060219709 0.23686107433279269 0 -0.44707755271196942 0.2637365605125353 0 -0.4367416388518679 0.25264877063821017 0 -0.4367416388518679 0.25264877063821017 0 -0.41175872593851298 0.2549478601346914 0 -0.41885046316002428 0.26850948483906401 0 -0.41175872593851298 0.2549478601346914 0 -0.41885046316002428 0.26850948483906401 0 -0.3976364837244763 0.27421361628784369 0 -0.41885046316002428 0.26850948483906401 0 -0.41710583327712653 0.28211115190663788 0 -0.3976364837244763 0.27421361628784369 0 -0.41885046316002428 0.26850948483906401 0 -0.43100963400813791 0.27862602522793672 0 -0.41710583327712653 0.28211115190663788 0 -0.4367416388518679 0.25264877063821017 0 -0.43100963400813791 0.27862602522793672 0 -0.4367416388518679 0.25264877063821017 0 -0.41885046316002428 0.26850948483906401 0 -0.43100963400813791 0.27862602522793672 0 -0.4381469188983681 0.2944504832925946 0 -0.43100963400813791 0.27862602522793672 0 -0.42527762916440792 0.30460327981766322 0 -0.43100963400813791 0.27862602522793672 0 -0.42527762916440792 0.30460327981766322 0 -0.41710583327712653 0.28211115190663788 0 -0.43100963400813791 0.27862602522793672 0 -0.42527762916440792 0.30460327981766322 0 -0.44001701522470671 0.31606260091672289 0 -0.4381469188983681 0.2944504832925946 0 -0.42527762916440792 0.30460327981766322 0 -0.40602554896887638 0.32011992980008452 0 -0.42527762916440792 0.30460327981766322 0 -0.4014269901009333 0.29495587648231503 0 -0.41710583327712653 0.28211115190663788 0 -0.4014269901009333 0.29495587648231503 0 -0.42527762916440792 0.30460327981766322 0 -0.41710583327712653 0.28211115190663788 0 -0.4014269901009333 0.29495587648231503 0 -0.41710583327712653 0.28211115190663788 0 -0.4014269901009333 0.29495587648231503 0 -0.3976364837244763 0.27421361628784369 0 -0.4014269901009333 0.29495587648231503 0 -0.38389766901197209 0.2919764357376447 0 -0.3976364837244763 0.27421361628784369 0 -0.4014269901009333 0.29495587648231503 0 -0.3976364837244763 0.27421361628784369 0 -0.39350880394476312 0.31593875705230262 0 -0.40602554896887638 0.32011992980008452 0 -0.4014269901009333 0.29495587648231503 0 -0.4014269901009333 0.29495587648231503 0 -0.38336946241093189 0.30974931290420182 0 -0.40602554896887638 0.32011992980008452 0 -0.4014269901009333 0.29495587648231503 0 -0.39350880394476312 0.31593875705230262 0 -0.4014269901009333 0.29495587648231503 0 -0.38336946241093189 0.30974931290420182 0 -0.38336946241093189 0.30974931290420182 0 -0.38389766901197209 0.2919764357376447 0 -0.36596935852520629 0.30787018431111951 0 -0.4014269901009333 0.29495587648231503 0 -0.38336946241093189 0.30974931290420182 0 -0.38389766901197209 0.2919764357376447 0 -0.38389766901197209 0.2919764357376447 0 -0.3839238193794226 0.27871888045260418 0 -0.3976364837244763 0.27421361628784369 0 -0.38389766901197209 0.2919764357376447 0 -0.3839238193794226 0.27871888045260418 0 -0.3703732677084236 0.2804332674389724 0 -0.3839238193794226 0.27871888045260418 0 -0.38378785707281859 0.2682522023459562 0 -0.3703732677084236 0.2804332674389724 0 -0.38378785707281859 0.2682522023459562 0 -0.37477717689163992 0.25299635056682518 0 -0.3703732677084236 0.2804332674389724 0 -0.3839238193794226 0.27871888045260418 0 -0.38378785707281859 0.2682522023459562 0 -0.3976364837244763 0.27421361628784369 0 -0.38378785707281859 0.2682522023459562 0 -0.39384597734802013 0.25347135609337229 0 -0.37477717689163992 0.25299635056682518 0 -0.39384597734802013 0.25347135609337229 0 -0.3976364837244763 0.27421361628784369 0 -0.41175872593851298 0.2549478601346914 0 -0.39384597734802013 0.25347135609337229 0 -0.3976364837244763 0.27421361628784369 0 -0.38378785707281859 0.2682522023459562 0 -0.39384597734802013 0.25347135609337229 0 -0.3976364837244763 0.27421361628784369 0 -0.35834524103505527 0.27479395617319979 0 -0.34490227433735798 0.27909378963084902 0 -0.35045174428906722 0.28677843618767362 0 -0.35834524103505527 0.27479395617319979 0 -0.34490227433735798 0.27909378963084902 0 -0.34728570068091402 0.2661688508290645 0 -0.34728570068091402 0.2661688508290645 0 -0.35464358931248319 0.25491115920099722 0 -0.34150965816976359 0.25817059719828012 0 -0.33845336435013867 0.242079554605789 0 -0.35464358931248319 0.25491115920099722 0 -0.34150965816976359 0.25817059719828012 0 -0.35834524103505527 0.27479395617319979 0 -0.34728570068091402 0.2661688508290645 0 -0.35464358931248319 0.25491115920099722 0 -0.35834524103505527 0.27479395617319979 0 -0.37477717689163992 0.25299635056682518 0 -0.35834524103505527 0.27479395617319979 0 -0.35464358931248319 0.25491115920099722 0 -0.37477717689163992 0.25299635056682518 0 -0.37477717689163992 0.25299635056682518 0 -0.3703732677084236 0.2804332674389724 0 -0.35834524103505527 0.27479395617319979 0 -0.37477717689163992 0.25299635056682518 0 -0.3703732677084236 0.2804332674389724 0 -0.3703732677084236 0.2804332674389724 0 -0.36596935852520629 0.30787018431111951 0 -0.38389766901197209 0.2919764357376447 0 -0.3703732677084236 0.2804332674389724 0 -0.36596935852520629 0.30787018431111951 0 -0.35834524103505527 0.27479395617319979 0 -0.3703732677084236 0.2804332674389724 0 -0.35925388220638338 0.290827281626163 0 -0.3703732677084236 0.2804332674389724 0 -0.36596935852520629 0.30787018431111951 0 -0.35925388220638338 0.290827281626163 0 -0.36596935852520629 0.30787018431111951 0 -0.35645499353340299 0.30154574554434233 0 -0.35925388220638338 0.290827281626163 0 -0.36596935852520629 0.30787018431111951 0 -0.35645499353340299 0.30154574554434233 0 -0.35774913989266272 0.31391262040183171 0 -0.35645499353340299 0.30154574554434233 0 -0.35013945535461871 0.3105838988596446 0 -0.35774913989266272 0.31391262040183171 0 -0.35645499353340299 0.30154574554434233 0 -0.34780240298166087 0.30288468022079579 0 -0.35285886900803182 0.29452238055293539 0 -0.34780240298166087 0.30288468022079579 0 -0.34622635383862083 0.29383585221412489 0 -0.33932813284697128 0.29730713825443927 0 -0.34780240298166087 0.30288468022079579 0 -0.35285886900803182 0.29452238055293539 0 -0.34622635383862083 0.29383585221412489 0 -0.34780240298166087 0.30288468022079579 0 -0.34514961405368982 0.30758965292055213 0 -0.33997231501418312 0.30473657218964828 0 -0.35645499353340299 0.30154574554434233 0 -0.34780240298166087 0.30288468022079579 0 -0.35013945535461871 0.3105838988596446 0 -0.34780240298166087 0.30288468022079579 0 -0.34514961405368982 0.30758965292055213 0 -0.35013945535461871 0.3105838988596446 0 -0.34514961405368982 0.30758965292055213 0 -0.35013945535461871 0.3105838988596446 0 -0.34268428286429659 0.31215346041211978 0 -0.35834524103505527 0.27479395617319979 0 -0.35925388220638338 0.290827281626163 0 -0.35045174428906722 0.28677843618767362 0 -0.35645499353340299 0.30154574554434233 0 -0.35925388220638338 0.290827281626163 0 -0.35285886900803182 0.29452238055293539 0 -0.35925388220638338 0.290827281626163 0 -0.35285886900803182 0.29452238055293539 0 -0.35045174428906722 0.28677843618767362 0 -0.35285886900803182 0.29452238055293539 0 -0.34622635383862083 0.29383585221412489 0 -0.35045174428906722 0.28677843618767362 0 -0.34622635383862083 0.29383585221412489 0 -0.35045174428906722 0.28677843618767362 0 -0.34088660642111013 0.2879281286912172 0 -0.34490227433735798 0.27909378963084902 0 -0.35045174428906722 0.28677843618767362 0 -0.34088660642111013 0.2879281286912172 0 -0.34490227433735798 0.27909378963084902 0 -0.34088660642111013 0.2879281286912172 0 -0.33262910378125132 0.278293493462413 0 -0.34088660642111013 0.2879281286912172 0 -0.33227483086849752 0.29261385498347509 0 -0.33932813284697128 0.29730713825443927 0 -0.34622635383862083 0.29383585221412489 0 -0.34088660642111013 0.2879281286912172 0 -0.33932813284697128 0.29730713825443927 0 -0.33227483086849752 0.29261385498347509 0 -0.32398535199451511 0.28524421774589648 0 -0.33262910378125132 0.278293493462413 0 -0.34088660642111013 0.2879281286912172 0 -0.33227483086849752 0.29261385498347509 0 -0.33262910378125132 0.278293493462413 0 -0.33718535734333338 0.30882123026638569 0 -0.34268428286429659 0.31215346041211978 0 -0.33477104767585758 0.31524888829805342 0 -0.33718535734333338 0.30882123026638569 0 -0.34268428286429659 0.31215346041211978 0 -0.33997231501418312 0.30473657218964828 0 -0.34514961405368982 0.30758965292055213 0 -0.34268428286429659 0.31215346041211978 0 -0.33997231501418312 0.30473657218964828 0 -0.33718535734333338 0.30882123026638569 0 -0.33997231501418312 0.30473657218964828 0 -0.33396296217470239 0.30554582684384218 0 -0.33997231501418312 0.30473657218964828 0 -0.33932813284697128 0.29730713825443927 0 -0.33396296217470239 0.30554582684384218 0 -0.34780240298166087 0.30288468022079579 0 -0.33997231501418312 0.30473657218964828 0 -0.33932813284697128 0.29730713825443927 0 -0.33227483086849752 0.29261385498347509 0 -0.33396296217470239 0.30554582684384218 0 -0.32251037119006698 0.3031431883822347 0 -0.33227483086849752 0.29261385498347509 0 -0.33932813284697128 0.29730713825443927 0 -0.33396296217470239 0.30554582684384218 0 -0.33718535734333338 0.30882123026638569 0 -0.33396296217470239 0.30554582684384218 0 -0.33477104767585758 0.31524888829805342 0 -0.33396296217470239 0.30554582684384218 0 -0.32251037119006698 0.3031431883822347 0 -0.33219148171911272 0.31730370811833031 0 -0.32251037119006698 0.3031431883822347 0 -0.31456388983813333 0.31636814557902659 0 -0.33219148171911272 0.31730370811833031 0 -0.32251037119006698 0.3031431883822347 0 -0.31282926066102218 0.28898266864613842 0 -0.30402337591517081 0.3051012194244167 0 -0.32251037119006698 0.3031431883822347 0 -0.30402337591517081 0.3051012194244167 0 -0.31456388983813333 0.31636814557902659 0 -0.32251037119006698 0.3031431883822347 0 -0.33219148171911272 0.31730370811833031 0 -0.33227483086849752 0.29261385498347509 0 -0.32251037119006698 0.3031431883822347 0 -0.32398535199451511 0.28524421774589648 0 -0.32251037119006698 0.3031431883822347 0 -0.32398535199451511 0.28524421774589648 0 -0.31282926066102218 0.28898266864613842 0 -0.32251037119006698 0.3031431883822347 0 -0.31282926066102218 0.28898266864613842 0 -0.31282926066102218 0.28898266864613842 0 -0.32065101258715689 0.274665503564473 0 -0.32398535199451511 0.28524421774589648 0 -0.31282926066102218 0.28898266864613842 0 -0.32065101258715689 0.274665503564473 0 -0.32065101258715689 0.274665503564473 0 -0.32847276451329022 0.26034833848280681 0 -0.31199410965335322 0.26463258327439948 0 -0.32065101258715689 0.274665503564473 0 -0.33262910378125132 0.278293493462413 0 -0.32847276451329022 0.26034833848280681 0 -0.31282926066102218 0.28898266864613842 0 -0.32065101258715689 0.274665503564473 0 -0.30403346053568642 0.27611708872161922 0 -0.32065101258715689 0.274665503564473 0 -0.32847276451329022 0.26034833848280681 0 -0.32398535199451511 0.28524421774589648 0 -0.32065101258715689 0.274665503564473 0 -0.33262910378125132 0.278293493462413 0 -0.33262910378125132 0.278293493462413 0 -0.33869287199199061 0.26734508287274228 0 -0.32847276451329022 0.26034833848280681 0 -0.34490227433735798 0.27909378963084902 0 -0.34728570068091402 0.2661688508290645 0 -0.33869287199199061 0.26734508287274228 0 -0.34490227433735798 0.27909378963084902 0 -0.33262910378125132 0.278293493462413 0 -0.33869287199199061 0.26734508287274228 0 -0.33845336435013867 0.242079554605789 0 -0.34150965816976359 0.25817059719828012 0 -0.32847276451329022 0.26034833848280681 0 -0.33845336435013867 0.242079554605789 0 -0.32847276451329022 0.26034833848280681 0 -0.34728570068091402 0.2661688508290645 0 -0.33869287199199061 0.26734508287274228 0 -0.34150965816976359 0.25817059719828012 0 -0.33869287199199061 0.26734508287274228 0 -0.34150965816976359 0.25817059719828012 0 -0.32847276451329022 0.26034833848280681 0 -0.33869287199199061 0.26734508287274228 0 -0.32847276451329022 0.26034833848280681 0 -0.311575650220281 0.24878047680599949 0 -0.32847276451329022 0.26034833848280681 0 -0.311575650220281 0.24878047680599949 0 -0.32847276451329022 0.26034833848280681 0 -0.31199410965335322 0.26463258327439948 0 -0.32455092720978362 0.24357057421839101 0 -0.311575650220281 0.24878047680599949 0 -0.32847276451329022 0.26034833848280681 0 -0.311575650220281 0.24878047680599949 0 -0.31199410965335322 0.26463258327439948 0 -0.29523766041035199 0.26325150879709891 0 -0.30403346053568642 0.27611708872161922 0 -0.29523766041035199 0.26325150879709891 0 -0.29574151564778611 0.28671646758259889 0 -0.31199410965335322 0.26463258327439948 0 -0.30403346053568642 0.27611708872161922 0 -0.29523766041035199 0.26325150879709891 0 -0.32065101258715689 0.274665503564473 0 -0.31199410965335322 0.26463258327439948 0 -0.30403346053568642 0.27611708872161922 0 -0.30403346053568642 0.27611708872161922 0 -0.29523766041035199 0.26325150879709891 0 -0.28985028671148488 0.25537141990030859 0 -0.26863301980023729 0.26794771562718522 0 -0.28534189936007232 0.28197220440765719 0 -0.29523766041035199 0.26325150879709891 0 -0.29574151564778611 0.28671646758259889 0 -0.29523766041035199 0.26325150879709891 0 -0.29574151564778611 0.28671646758259889 0 -0.28534189936007232 0.28197220440765719 0 -0.28985028671148488 0.25537141990030859 0 -0.29523766041035199 0.26325150879709891 0 -0.28534189936007232 0.28197220440765719 0 -0.28985028671148488 0.25537141990030859 0 -0.28534189936007232 0.28197220440765719 0 -0.29467853592727078 0.23721261512919359 0 -0.29523766041035199 0.26325150879709891 0 -0.29467853592727078 0.23721261512919359 0 -0.28985028671148488 0.25537141990030859 0 -0.29523766041035199 0.26325150879709891 0 -0.28985028671148488 0.25537141990030859 0 -0.29523766041035199 0.26325150879709891 0 -0.28985028671148488 0.25537141990030859 0 -0.2724296921133022 0.25217156250687062 0 -0.26863301980023729 0.26794771562718522 0 -0.2724296921133022 0.25217156250687062 0 -0.26863301980023729 0.26794771562718522 0 -0.25693865295534157 0.25278860643768353 0 -0.26863301980023729 0.26794771562718522 0 -0.26277913973510902 0.29023342414179659 0 -0.28534189936007232 0.28197220440765719 0 -0.26277913973510902 0.29023342414179659 0 -0.2447247674615598 0.2718938593685879 0 -0.26863301980023729 0.26794771562718522 0 -0.26277913973510902 0.29023342414179659 0 -0.2447247674615598 0.2718938593685879 0 -0.26863301980023729 0.26794771562718522 0 -0.25693865295534157 0.25278860643768353 0 -0.2447247674615598 0.2718938593685879 0 -0.26277913973510902 0.29023342414179659 0 -0.25757488899104952 0.31786411623381933 0 -0.2366570207200871 0.30010935915934539 0 -0.26277913973510902 0.29023342414179659 0 -0.28083351200865853 0.30857298891500562 0 -0.28534189936007232 0.28197220440765719 0 -0.26277913973510902 0.29023342414179659 0 -0.28083351200865853 0.30857298891500562 0 -0.26277913973510902 0.29023342414179659 0 -0.28083351200865853 0.30857298891500562 0 -0.25757488899104952 0.31786411623381933 0 -0.28083351200865853 0.30857298891500562 0 -0.29574151564778611 0.28671646758259889 0 -0.30402337591517081 0.3051012194244167 0 -0.28083351200865853 0.30857298891500562 0 -0.29574151564778611 0.28671646758259889 0 -0.28534189936007232 0.28197220440765719 0 -0.28083351200865853 0.30857298891500562 0 -0.28534189936007232 0.28197220440765719 0 -0.31282926066102218 0.28898266864613842 0 -0.29574151564778611 0.28671646758259889 0 -0.30402337591517081 0.3051012194244167 0 -0.31282926066102218 0.28898266864613842 0 -0.30403346053568642 0.27611708872161922 0 -0.29574151564778611 0.28671646758259889 0 -0.31282926066102218 0.28898266864613842 0 -0.30403346053568642 0.27611708872161922 0 -0.31282926066102218 0.28898266864613842 0 -0.30402337591517081 0.3051012194244167 0 -0.30402337591517081 0.3051012194244167 0 -0.29932851783868691 0.32736014762988469 0 -0.31456388983813333 0.31636814557902659 0 -0.29932851783868691 0.32736014762988469 0 -0.31400963374603508 0.33178692824556621 0 -0.31456388983813333 0.31636814557902659 0 -0.29582778577295937 0.3462701483728044 0 -0.31354931950312093 0.34747342072874071 0 -0.31400963374603508 0.33178692824556621 0 -0.29582778577295937 0.3462701483728044 0 -0.31400963374603508 0.33178692824556621 0 -0.29932851783868691 0.32736014762988469 0 -0.29582778577295937 0.3462701483728044 0 -0.31400963374603508 0.33178692824556621 0 -0.29932851783868691 0.32736014762988469 0 -0.27670802547122531 0.33291454828341721 0 -0.29582778577295937 0.3462701483728044 0 -0.27670802547122531 0.33291454828341721 0 -0.29582778577295937 0.3462701483728044 0 -0.28186865011063378 0.34863084123191301 0 -0.28083351200865853 0.30857298891500562 0 -0.30402337591517081 0.3051012194244167 0 -0.29932851783868691 0.32736014762988469 0 -0.28083351200865853 0.30857298891500562 0 -0.29932851783868691 0.32736014762988469 0 -0.28083351200865853 0.30857298891500562 0 -0.29932851783868691 0.32736014762988469 0 -0.27670802547122531 0.33291454828341721 0 -0.28083351200865853 0.30857298891500562 0 -0.27670802547122531 0.33291454828341721 0 -0.25757488899104952 0.31786411623381933 0 -0.28083351200865853 0.30857298891500562 0 -0.27670802547122531 0.33291454828341721 0 -0.27670802547122531 0.33291454828341721 0 -0.25757488899104952 0.31786411623381933 0 -0.25368472498167011 0.34420349485172652 0 -0.2613799420943046 0.36179346951182628 0 -0.25453646971320443 0.37462232419521813 0 -0.26689531734350652 0.36931705260985792 0 -0.2613799420943046 0.36179346951182628 0 -0.25453646971320443 0.37462232419521813 0 -0.24822911175635759 0.36217347122335058 0 -0.25368472498167011 0.34420349485172652 0 -0.27258253893379292 0.35725610765182902 0 -0.2613799420943046 0.36179346951182628 0 -0.25368472498167011 0.34420349485172652 0 -0.24822911175635759 0.36217347122335058 0 -0.2613799420943046 0.36179346951182628 0 -0.25368472498167011 0.34420349485172652 0 -0.27258253893379292 0.35725610765182902 0 -0.27670802547122531 0.33291454828341721 0 -0.27258253893379292 0.35725610765182902 0 -0.27670802547122531 0.33291454828341721 0 -0.27258253893379292 0.35725610765182902 0 -0.28186865011063378 0.34863084123191301 0 -0.27670802547122531 0.33291454828341721 0 -0.25368472498167011 0.34420349485172652 0 -0.27258253893379292 0.35725610765182902 0 -0.27258253893379292 0.35725610765182902 0 -0.27764593779988228 0.36075336850004069 0 -0.28186865011063378 0.34863084123191301 0 -0.27258253893379292 0.35725610765182902 0 -0.27764593779988228 0.36075336850004069 0 -0.27764593779988228 0.36075336850004069 0 -0.27110701654299552 0.36596211494311248 0 -0.28943519450698252 0.3688961411714532 0 -0.27110701654299552 0.36596211494311248 0 -0.28943519450698252 0.3688961411714532 0 -0.27110701654299552 0.36596211494311248 0 -0.28943519450698252 0.3688961411714532 0 -0.28084635904778937 0.37544065550995409 0 -0.27258253893379292 0.35725610765182902 0 -0.27764593779988228 0.36075336850004069 0 -0.27110701654299552 0.36596211494311248 0 -0.27764593779988228 0.36075336850004069 0 -0.27110701654299552 0.36596211494311248 0 -0.2613799420943046 0.36179346951182628 0 -0.27258253893379292 0.35725610765182902 0 -0.27110701654299552 0.36596211494311248 0 -0.2613799420943046 0.36179346951182628 0 -0.27110701654299552 0.36596211494311248 0 -0.26689531734350652 0.36931705260985792 0 -0.27258253893379292 0.35725610765182902 0 -0.27110701654299552 0.36596211494311248 0 -0.27110701654299552 0.36596211494311248 0 -0.26689531734350652 0.36931705260985792 0 -0.27110701654299552 0.36596211494311248 0 -0.28084635904778937 0.37544065550995409 0 -0.27663284499009211 0.37939207802828528 0 -0.28943519450698252 0.3688961411714532 0 -0.28685204816290072 0.37621819500323123 0 -0.28084635904778937 0.37544065550995409 0 -0.27764593779988228 0.36075336850004069 0 -0.28943519450698252 0.3688961411714532 0 -0.29551252006441958 0.37309371542857861 0 -0.28943519450698252 0.3688961411714532 0 -0.28685204816290072 0.37621819500323123 0 -0.29551252006441958 0.37309371542857861 0 -0.28943519450698252 0.3688961411714532 0 -0.27764593779988228 0.36075336850004069 0 -0.29582778577295937 0.3462701483728044 0 -0.27764593779988228 0.36075336850004069 0 -0.29582778577295937 0.3462701483728044 0 -0.28186865011063378 0.34863084123191301 0 -0.28943519450698252 0.3688961411714532 0 -0.29582778577295937 0.3462701483728044 0 -0.30300283950081008 0.36051339397403093 0 -0.27764593779988228 0.36075336850004069 0 -0.28943519450698252 0.3688961411714532 0 -0.29582778577295937 0.3462701483728044 0 -0.29582778577295937 0.3462701483728044 0 -0.30300283950081008 0.36051339397403093 0 -0.31354931950312093 0.34747342072874071 0 -0.28943519450698252 0.3688961411714532 0 -0.31408843612631249 0.37197903781600761 0 -0.28943519450698252 0.3688961411714532 0 -0.30300283950081008 0.36051339397403093 0 -0.31408843612631249 0.37197903781600761 0 -0.29551252006441958 0.37309371542857861 0 -0.28943519450698252 0.3688961411714532 0 -0.31408843612631249 0.37197903781600761 0 -0.30300283950081008 0.36051339397403093 0 -0.31408843612631249 0.37197903781600761 0 -0.32472866683278162 0.35786931268145811 0 -0.31408843612631249 0.37197903781600761 0 -0.32472866683278162 0.35786931268145811 0 -0.33874167774564268 0.3750619344605613 0 -0.31408843612631249 0.37197903781600761 0 -0.33874167774564268 0.3750619344605613 0 -0.33942470910854639 0.36092010030626542 0 -0.32472866683278162 0.35786931268145811 0 -0.33874167774564268 0.3750619344605613 0 -0.33942470910854639 0.36092010030626542 0 -0.3497530714632448 0.36534695126967459 0 -0.33874167774564268 0.3750619344605613 0 -0.33815763529499693 0.35089104021064632 0 -0.32472866683278162 0.35786931268145811 0 -0.33017767166301859 0.34092732036984391 0 -0.33815763529499693 0.35089104021064632 0 -0.33017767166301859 0.34092732036984391 0 -0.34251680356524339 0.34321741671518669 0 -0.33815763529499693 0.35089104021064632 0 -0.3460879504978186 0.35511096805544279 0 -0.34556584107983002 0.34849125976349993 0 -0.33815763529499693 0.35089104021064632 0 -0.34251680356524339 0.34321741671518669 0 -0.34556584107983002 0.34849125976349993 0 -0.33942470910854639 0.36092010030626542 0 -0.33815763529499693 0.35089104021064632 0 -0.3460879504978186 0.35511096805544279 0 -0.33942470910854639 0.36092010030626542 0 -0.33815763529499693 0.35089104021064632 0 -0.32472866683278162 0.35786931268145811 0 -0.31354931950312093 0.34747342072874071 0 -0.32472866683278162 0.35786931268145811 0 -0.33017767166301859 0.34092732036984391 0 -0.30300283950081008 0.36051339397403093 0 -0.31354931950312093 0.34747342072874071 0 -0.32472866683278162 0.35786931268145811 0 -0.31400963374603508 0.33178692824556621 0 -0.33219148171911272 0.31730370811833031 0 -0.33017767166301859 0.34092732036984391 0 -0.31354931950312093 0.34747342072874071 0 -0.31400963374603508 0.33178692824556621 0 -0.33017767166301859 0.34092732036984391 0 -0.31400963374603508 0.33178692824556621 0 -0.33219148171911272 0.31730370811833031 0 -0.31400963374603508 0.33178692824556621 0 -0.31456388983813333 0.31636814557902659 0 -0.33219148171911272 0.31730370811833031 0 -0.33477104767585758 0.31524888829805342 0 -0.33219148171911272 0.31730370811833031 0 -0.34795343649956839 0.3209401758966518 0 -0.33219148171911272 0.31730370811833031 0 -0.34725440703092858 0.33933618574797492 0 -0.34795343649956839 0.3209401758966518 0 -0.33396296217470239 0.30554582684384218 0 -0.33477104767585758 0.31524888829805342 0 -0.33219148171911272 0.31730370811833031 0 -0.33477104767585758 0.31524888829805342 0 -0.33219148171911272 0.31730370811833031 0 -0.34268428286429659 0.31215346041211978 0 -0.33477104767585758 0.31524888829805342 0 -0.34795343649956839 0.3209401758966518 0 -0.33219148171911272 0.31730370811833031 0 -0.34725440703092858 0.33933618574797492 0 -0.33219148171911272 0.31730370811833031 0 -0.33017767166301859 0.34092732036984391 0 -0.34725440703092858 0.33933618574797492 0 -0.33017767166301859 0.34092732036984391 0 -0.34251680356524339 0.34321741671518669 0 -0.34725440703092858 0.33933618574797492 0 -0.34725440703092858 0.33933618574797492 0 -0.34795343649956839 0.3209401758966518 0 -0.36531193472093021 0.32454274932608829 0 -0.34251680356524339 0.34321741671518669 0 -0.35002774160894051 0.34339273059465159 0 -0.34725440703092858 0.33933618574797492 0 -0.34725440703092858 0.33933618574797492 0 -0.35848812135385522 0.33902175933596412 0 -0.36531193472093021 0.32454274932608829 0 -0.34725440703092858 0.33933618574797492 0 -0.36531193472093021 0.32454274932608829 0 -0.34251680356524339 0.34321741671518669 0 -0.34725440703092858 0.33933618574797492 0 -0.35002774160894051 0.34339273059465159 0 -0.34725440703092858 0.33933618574797492 0 -0.35002774160894051 0.34339273059465159 0 -0.35848812135385522 0.33902175933596412 0 -0.35712059876301439 0.34740413424876382 0 -0.35002774160894051 0.34339273059465159 0 -0.34725440703092858 0.33933618574797492 0 -0.35848812135385522 0.33902175933596412 0 -0.34795343649956839 0.3209401758966518 0 -0.35774913989266272 0.31391262040183171 0 -0.36531193472093021 0.32454274932608829 0 -0.35013945535461871 0.3105838988596446 0 -0.34268428286429659 0.31215346041211978 0 -0.34795343649956839 0.3209401758966518 0 -0.35013945535461871 0.3105838988596446 0 -0.34795343649956839 0.3209401758966518 0 -0.35774913989266272 0.31391262040183171 0 -0.38336946241093189 0.30974931290420182 0 -0.36596935852520629 0.30787018431111951 0 -0.36531193472093021 0.32454274932608829 0 -0.36596935852520629 0.30787018431111951 0 -0.35774913989266272 0.31391262040183171 0 -0.36531193472093021 0.32454274932608829 0 -0.37580907906339922 0.33647878059299557 0 -0.38201615891261242 0.31564575533693578 0 -0.36531193472093021 0.32454274932608829 0 -0.38336946241093189 0.30974931290420182 0 -0.36531193472093021 0.32454274932608829 0 -0.35848812135385522 0.33902175933596412 0 -0.36629538785756799 0.33494858662202331 0 -0.36491865814174967 0.34450616947628299 0 -0.35848812135385522 0.33902175933596412 0 -0.36491865814174967 0.34450616947628299 0 -0.35712059876301439 0.34740413424876382 0 -0.35848812135385522 0.33902175933596412 0 -0.36531193472093021 0.32454274932608829 0 -0.36629538785756799 0.33494858662202331 0 -0.37580907906339922 0.33647878059299557 0 -0.36531193472093021 0.32454274932608829 0 -0.36629538785756799 0.33494858662202331 0 -0.37580907906339922 0.33647878059299557 0 -0.36629538785756799 0.33494858662202331 0 -0.36491865814174967 0.34450616947628299 0 -0.37580907906339922 0.33647878059299557 0 -0.36491865814174967 0.34450616947628299 0 -0.36960199921418602 0.35731180584905542 0 -0.37580907906339922 0.33647878059299557 0 -0.36960199921418602 0.35731180584905542 0 -0.36491865814174967 0.34450616947628299 0 -0.36204010283369881 0.35293053614415609 0 -0.35712059876301439 0.34740413424876382 0 -0.36491865814174967 0.34450616947628299 0 -0.36204010283369881 0.35293053614415609 0 -0.36960199921418602 0.35731180584905542 0 -0.36231373349064938 0.3583368008115923 0 -0.36204010283369881 0.35293053614415609 0 -0.35577634304253192 0.35617190760009498 0 -0.36231373349064938 0.3583368008115923 0 -0.36204010283369881 0.35293053614415609 0 -0.36960199921418602 0.35731180584905542 0 -0.36960199921418602 0.35731180584905542 0 -0.36339491936497281 0.37814483110511521 0 -0.36960199921418602 0.35731180584905542 0 -0.37158620997362618 0.36500042586936587 0 -0.36339491936497281 0.37814483110511521 0 -0.36960199921418602 0.35731180584905542 0 -0.36108579844600058 0.36545797327707619 0 -0.36339491936497281 0.37814483110511521 0 -0.38141148745950948 0.38039780936179463 0 -0.37158620997362618 0.36500042586936587 0 -0.36339491936497281 0.37814483110511521 0 -0.38070440212728118 0.35956436367519867 0 -0.36960199921418602 0.35731180584905542 0 -0.37158620997362618 0.36500042586936587 0 -0.36231373349064938 0.3583368008115923 0 -0.36108579844600058 0.36545797327707619 0 -0.35577634304253192 0.35617190760009498 0 -0.36231373349064938 0.3583368008115923 0 -0.36960199921418602 0.35731180584905542 0 -0.36108579844600058 0.36545797327707619 0 -0.36108579844600058 0.36545797327707619 0 -0.3497530714632448 0.36534695126967459 0 -0.35577634304253192 0.35617190760009498 0 -0.3497530714632448 0.36534695126967459 0 -0.36339491936497281 0.37814483110511521 0 -0.33874167774564268 0.3750619344605613 0 -0.36108579844600058 0.36545797327707619 0 -0.3497530714632448 0.36534695126967459 0 -0.36339491936497281 0.37814483110511521 0 -0.33942470910854639 0.36092010030626542 0 -0.3497530714632448 0.36534695126967459 0 -0.3460879504978186 0.35511096805544279 0 -0.3497530714632448 0.36534695126967459 0 -0.3460879504978186 0.35511096805544279 0 -0.35577634304253192 0.35617190760009498 0 -0.3460879504978186 0.35511096805544279 0 -0.35103907443215082 0.34984414324157243 0 -0.35577634304253192 0.35617190760009498 0 -0.3460879504978186 0.35511096805544279 0 -0.34556584107983002 0.34849125976349993 0 -0.35103907443215082 0.34984414324157243 0 -0.34251680356524339 0.34321741671518669 0 -0.35002774160894051 0.34339273059465159 0 -0.34556584107983002 0.34849125976349993 0 -0.35002774160894051 0.34339273059465159 0 -0.34556584107983002 0.34849125976349993 0 -0.35103907443215082 0.34984414324157243 0 -0.35103907443215082 0.34984414324157243 0 -0.35712059876301439 0.34740413424876382 0 -0.35577634304253192 0.35617190760009498 0 -0.35002774160894051 0.34339273059465159 0 -0.35103907443215082 0.34984414324157243 0 -0.35712059876301439 0.34740413424876382 0 -0.36204010283369881 0.35293053614415609 0 -0.35712059876301439 0.34740413424876382 0 -0.35577634304253192 0.35617190760009498 0 -0.35746143571760969 0.39805957647408341 0 -0.33700984602307921 0.4055687403903776 0 -0.35746143571760969 0.39805957647408341 0 -0.36339491936497281 0.37814483110511521 0 -0.33874167774564268 0.3750619344605613 0 -0.36339491936497281 0.37814483110511521 0 -0.33874167774564268 0.3750619344605613 0 -0.38141148745950948 0.38039780936179463 0 -0.37844474563582792 0.390355182046278 0 -0.36339491936497281 0.37814483110511521 0 -0.37844474563582792 0.390355182046278 0 -0.35746143571760969 0.39805957647408341 0 -0.36339491936497281 0.37814483110511521 0 -0.35746143571760969 0.39805957647408341 0 -0.36339491936497281 0.37814483110511521 0 -0.38141148745950948 0.38039780936179463 0 -0.36339491936497281 0.37814483110511521 0 -0.37668454372729859 0.41206883315114529 0 -0.37844474563582792 0.390355182046278 0 -0.35746143571760969 0.39805957647408341 0 -0.37844474563582792 0.390355182046278 0 -0.35746143571760969 0.39805957647408341 0 -0.37668454372729859 0.41206883315114529 0 -0.36778315087773072 0.43214877602771662 0 -0.35179051953527918 0.41709305806631919 0 -0.37668454372729859 0.41206883315114529 0 -0.35746143571760969 0.39805957647408341 0 -0.35179051953527918 0.41709305806631919 0 -0.37668454372729859 0.41206883315114529 0 -0.35179051953527918 0.41709305806631919 0 -0.36778315087773072 0.43214877602771662 0 -0.35179051953527918 0.41709305806631919 0 -0.34355933144160938 0.44471966407244162 0 -0.35179051953527918 0.41709305806631919 0 -0.34355933144160938 0.44471966407244162 0 -0.35746143571760969 0.39805957647408341 0 -0.35179051953527918 0.41709305806631919 0 -0.33700984602307921 0.4055687403903776 0 -0.35746143571760969 0.39805957647408341 0 -0.35179051953527918 0.41709305806631919 0 -0.35179051953527918 0.41709305806631919 0 -0.33092261172728182 0.42130471390500562 0 -0.33700984602307921 0.4055687403903776 0 -0.35179051953527918 0.41709305806631919 0 -0.33092261172728182 0.42130471390500562 0 -0.33092261172728182 0.42130471390500562 0 -0.31655825632854873 0.41307790430667191 0 -0.33700984602307921 0.4055687403903776 0 -0.35179051953527918 0.41709305806631919 0 -0.33092261172728182 0.42130471390500562 0 -0.34355933144160938 0.44471966407244162 0 -0.33092261172728182 0.42130471390500562 0 -0.32304151796324199 0.43794530689545591 0 -0.34355933144160938 0.44471966407244162 0 -0.33092261172728182 0.42130471390500562 0 -0.31005470391928353 0.42551636974368717 0 -0.32304151796324199 0.43794530689545591 0 -0.33092261172728182 0.42130471390500562 0 -0.31005470391928353 0.42551636974368717 0 -0.31005470391928353 0.42551636974368717 0 -0.30636015846579262 0.44081646755455739 0 -0.32304151796324199 0.43794530689545591 0 -0.31655825632854873 0.41307790430667191 0 -0.32178824989383492 0.40044082628072353 0 -0.33700984602307921 0.4055687403903776 0 -0.33092261172728182 0.42130471390500562 0 -0.31655825632854873 0.41307790430667191 0 -0.31005470391928353 0.42551636974368717 0 -0.31655825632854873 0.41307790430667191 0 -0.33700984602307921 0.4055687403903776 0 -0.31655825632854873 0.41307790430667191 0 -0.32178824989383492 0.40044082628072353 0 -0.30820761894760612 0.40180007281058999 0 -0.31589124725359768 0.39098578459502642 0 -0.32178824989383492 0.40044082628072353 0 -0.30820761894760612 0.40180007281058999 0 -0.31589124725359768 0.39098578459502642 0 -0.32178824989383492 0.40044082628072353 0 -0.33127428091634248 0.39077162930095188 0 -0.35746143571760969 0.39805957647408341 0 -0.33127428091634248 0.39077162930095188 0 -0.33700984602307921 0.4055687403903776 0 -0.32178824989383492 0.40044082628072353 0 -0.33127428091634248 0.39077162930095188 0 -0.33700984602307921 0.4055687403903776 0 -0.35746143571760969 0.39805957647408341 0 -0.33127428091634248 0.39077162930095188 0 -0.33874167774564268 0.3750619344605613 0 -0.31408843612631249 0.37197903781600761 0 -0.33127428091634248 0.39077162930095188 0 -0.33874167774564268 0.3750619344605613 0 -0.31408843612631249 0.37197903781600761 0 -0.31589124725359768 0.39098578459502642 0 -0.33127428091634248 0.39077162930095188 0 -0.29551252006441958 0.37309371542857861 0 -0.31408843612631249 0.37197903781600761 0 -0.30568017353146049 0.38157918508743732 0 -0.31408843612631249 0.37197903781600761 0 -0.31589124725359768 0.39098578459502642 0 -0.30568017353146049 0.38157918508743732 0 -0.31589124725359768 0.39098578459502642 0 -0.30568017353146049 0.38157918508743732 0 -0.30603649680964828 0.39194203915736708 0 -0.30568017353146049 0.38157918508743732 0 -0.29743858983336929 0.38628170497916159 0 -0.30603649680964828 0.39194203915736708 0 -0.29551252006441958 0.37309371542857861 0 -0.30568017353146049 0.38157918508743732 0 -0.29743858983336929 0.38628170497916159 0 -0.31589124725359768 0.39098578459502642 0 -0.30820761894760612 0.40180007281058999 0 -0.30603649680964828 0.39194203915736708 0 -0.30820761894760612 0.40180007281058999 0 -0.30603649680964828 0.39194203915736708 0 -0.29604813782321171 0.40003827384795049 0 -0.29743858983336929 0.38628170497916159 0 -0.30603649680964828 0.39194203915736708 0 -0.29604813782321171 0.40003827384795049 0 -0.30820761894760612 0.40180007281058999 0 -0.29604813782321171 0.40003827384795049 0 -0.2987408814332651 0.40933989620534528 0 -0.29604813782321171 0.40003827384795049 0 -0.28905057763704689 0.40562835892549581 0 -0.28392778011776681 0.39892722844600809 0 -0.29604813782321171 0.40003827384795049 0 -0.28905057763704689 0.40562835892549581 0 -0.2987408814332651 0.40933989620534528 0 -0.29604813782321171 0.40003827384795049 0 -0.28980128107673031 0.39400368344191522 0 -0.28392778011776681 0.39892722844600809 0 -0.29743858983336929 0.38628170497916159 0 -0.29604813782321171 0.40003827384795049 0 -0.28980128107673031 0.39400368344191522 0 -0.28980128107673031 0.39400368344191522 0 -0.28179061653257348 0.3907675264945405 0 -0.28392778011776681 0.39892722844600809 0 -0.28905057763704689 0.40562835892549581 0 -0.28392778011776681 0.39892722844600809 0 -0.27817781655911977 0.40726136879628272 0 -0.29743858983336929 0.38628170497916159 0 -0.28980128107673031 0.39400368344191522 0 -0.28179061653257348 0.3907675264945405 0 -0.29743858983336929 0.38628170497916159 0 -0.28179061653257348 0.3907675264945405 0 -0.28819376848868639 0.38228739672622841 0 -0.29743858983336929 0.38628170497916159 0 -0.28179061653257348 0.3907675264945405 0 -0.29551252006441958 0.37309371542857861 0 -0.29743858983336929 0.38628170497916159 0 -0.28819376848868639 0.38228739672622841 0 -0.29551252006441958 0.37309371542857861 0 -0.28819376848868639 0.38228739672622841 0 -0.28685204816290072 0.37621819500323123 0 -0.28179061653257348 0.3907675264945405 0 -0.28158428542699082 0.38279668863870758 0 -0.28819376848868639 0.38228739672622841 0 -0.28158428542699082 0.38279668863870758 0 -0.28819376848868639 0.38228739672622841 0 -0.28685204816290072 0.37621819500323123 0 -0.28158428542699082 0.38279668863870758 0 -0.28685204816290072 0.37621819500323123 0 -0.28084635904778937 0.37544065550995409 0 -0.27110701654299552 0.36596211494311248 0 -0.26614264323177789 0.39525334800991979 0 -0.27110701654299552 0.36596211494311248 0 -0.27663284499009211 0.37939207802828528 0 -0.27229768174870289 0.38438446135480281 0 -0.27110701654299552 0.36596211494311248 0 -0.27229768174870289 0.38438446135480281 0 -0.26614264323177789 0.39525334800991979 0 -0.27110701654299552 0.36596211494311248 0 -0.26689531734350652 0.36931705260985792 0 -0.26614264323177789 0.39525334800991979 0 -0.28158428542699082 0.38279668863870758 0 -0.28084635904778937 0.37544065550995409 0 -0.27663284499009211 0.37939207802828528 0 -0.27229768174870289 0.38438446135480281 0 -0.27641046434025379 0.38710393959788297 0 -0.26614264323177789 0.39525334800991979 0 -0.28179061653257348 0.3907675264945405 0 -0.28158428542699082 0.38279668863870758 0 -0.27641046434025379 0.38710393959788297 0 -0.27663284499009211 0.37939207802828528 0 -0.27229768174870289 0.38438446135480281 0 -0.27641046434025379 0.38710393959788297 0 -0.28158428542699082 0.38279668863870758 0 -0.27663284499009211 0.37939207802828528 0 -0.27641046434025379 0.38710393959788297 0 -0.28179061653257348 0.3907675264945405 0 -0.27641046434025379 0.38710393959788297 0 -0.26614264323177789 0.39525334800991979 0 -0.28179061653257348 0.3907675264945405 0 -0.27661435207820328 0.39472461325581981 0 -0.26614264323177789 0.39525334800991979 0 -0.28179061653257348 0.3907675264945405 0 -0.28392778011776681 0.39892722844600809 0 -0.27661435207820328 0.39472461325581981 0 -0.28179061653257348 0.3907675264945405 0 -0.26614264323177789 0.39525334800991979 0 -0.28392778011776681 0.39892722844600809 0 -0.27661435207820328 0.39472461325581981 0 -0.27572094251528112 0.40196054452149499 0 -0.28392778011776681 0.39892722844600809 0 -0.27572094251528112 0.40196054452149499 0 -0.27817781655911977 0.40726136879628272 0 -0.27572094251528112 0.40196054452149499 0 -0.26416382130603389 0.40692896758786917 0 -0.27817781655911977 0.40726136879628272 0 -0.27661435207820328 0.39472461325581981 0 -0.27572094251528112 0.40196054452149499 0 -0.26416382130603389 0.40692896758786917 0 -0.27661435207820328 0.39472461325581981 0 -0.26614264323177789 0.39525334800991979 0 -0.26416382130603389 0.40692896758786917 0 -0.27661435207820328 0.39472461325581981 0 -0.26416382130603389 0.40692896758786917 0 -0.26614264323177789 0.39525334800991979 0 -0.24781733580734391 0.38604582424895789 0 -0.24388213391773941 0.40163479241199579 0 -0.26614264323177789 0.39525334800991979 0 -0.25157066981256843 0.40894445920752592 0 -0.24388213391773941 0.40163479241199579 0 -0.26614264323177789 0.39525334800991979 0 -0.24388213391773941 0.40163479241199579 0 -0.26614264323177789 0.39525334800991979 0 -0.26416382130603389 0.40692896758786917 0 -0.26614264323177789 0.39525334800991979 0 -0.25157066981256843 0.40894445920752592 0 -0.26416382130603389 0.40692896758786917 0 -0.25453646971320443 0.37462232419521813 0 -0.26614264323177789 0.39525334800991979 0 -0.24781733580734391 0.38604582424895789 0 -0.25453646971320443 0.37462232419521813 0 -0.26689531734350652 0.36931705260985792 0 -0.26614264323177789 0.39525334800991979 0 -0.26107936510946472 0.42512814796255138 0 -0.25799490891289278 0.4433273283372331 0 -0.26107936510946472 0.42512814796255138 0 -0.27138668263498972 0.43431468825499642 0 -0.25799490891289278 0.4433273283372331 0 -0.26107936510946472 0.42512814796255138 0 -0.25799490891289278 0.4433273283372331 0 -0.24263019791012411 0.42803682032005991 0 -0.25799490891289278 0.4433273283372331 0 -0.24263019791012411 0.42803682032005991 0 -0.26107936510946472 0.42512814796255138 0 -0.26416382130603389 0.40692896758786917 0 -0.26107936510946472 0.42512814796255138 0 -0.26416382130603389 0.40692896758786917 0 -0.24263019791012411 0.42803682032005991 0 -0.26416382130603389 0.40692896758786917 0 -0.24263019791012411 0.42803682032005991 0 -0.25157066981256843 0.40894445920752592 0 -0.26416382130603389 0.40692896758786917 0 -0.24263019791012411 0.42803682032005991 0 -0.26107936510946472 0.42512814796255138 0 -0.26416382130603389 0.40692896758786917 0 -0.27370875903762831 0.41905129137381081 0 -0.26416382130603389 0.40692896758786917 0 -0.27817781655911977 0.40726136879628272 0 -0.27370875903762831 0.41905129137381081 0 -0.27817781655911977 0.40726136879628272 0 -0.27370875903762831 0.41905129137381081 0 -0.28647403122915938 0.41490769911839809 0 -0.27370875903762831 0.41905129137381081 0 -0.27138668263498972 0.43431468825499642 0 -0.28359142860916292 0.42646623900898489 0 -0.26107936510946472 0.42512814796255138 0 -0.27370875903762831 0.41905129137381081 0 -0.27138668263498972 0.43431468825499642 0 -0.27138668263498972 0.43431468825499642 0 -0.28359142860916292 0.42646623900898489 0 -0.28426041238301858 0.43930471826406531 0 -0.28359142860916292 0.42646623900898489 0 -0.29576073289665422 0.43347565529899762 0 -0.28426041238301858 0.43930471826406531 0 -0.28359142860916292 0.42646623900898489 0 -0.29576073289665422 0.43347565529899762 0 -0.29610666663401819 0.4205870682229661 0 -0.28905057763704689 0.40562835892549581 0 -0.27817781655911977 0.40726136879628272 0 -0.28647403122915938 0.41490769911839809 0 -0.27370875903762831 0.41905129137381081 0 -0.28359142860916292 0.42646623900898489 0 -0.28647403122915938 0.41490769911839809 0 -0.28359142860916292 0.42646623900898489 0 -0.28647403122915938 0.41490769911839809 0 -0.29610666663401819 0.4205870682229661 0 -0.28647403122915938 0.41490769911839809 0 -0.29610666663401819 0.4205870682229661 0 -0.2987408814332651 0.40933989620534528 0 -0.28905057763704689 0.40562835892549581 0 -0.28647403122915938 0.41490769911839809 0 -0.2987408814332651 0.40933989620534528 0 -0.31655825632854873 0.41307790430667191 0 -0.29610666663401819 0.4205870682229661 0 -0.2987408814332651 0.40933989620534528 0 -0.31655825632854873 0.41307790430667191 0 -0.29610666663401819 0.4205870682229661 0 -0.31005470391928353 0.42551636974368717 0 -0.31655825632854873 0.41307790430667191 0 -0.29610666663401819 0.4205870682229661 0 -0.31655825632854873 0.41307790430667191 0 -0.30820761894760612 0.40180007281058999 0 -0.2987408814332651 0.40933989620534528 0 -0.29576073289665422 0.43347565529899762 0 -0.31005470391928353 0.42551636974368717 0 -0.30636015846579262 0.44081646755455739 0 -0.29576073289665422 0.43347565529899762 0 -0.29610666663401819 0.4205870682229661 0 -0.31005470391928353 0.42551636974368717 0 -0.29576073289665422 0.43347565529899762 0 -0.30636015846579262 0.44081646755455739 0 -0.2944743431310044 0.45228094752776682 0 -0.30636015846579262 0.44081646755455739 0 -0.30512100021830008 0.46490456032657962 0 -0.30636015846579262 0.44081646755455739 0 -0.30512100021830008 0.46490456032657962 0 -0.2944743431310044 0.45228094752776682 0 -0.30636015846579262 0.44081646755455739 0 -0.30512100021830008 0.46490456032657962 0 -0.32381548421637429 0.45642326981327008 0 -0.30512100021830008 0.46490456032657962 0 -0.2944743431310044 0.45228094752776682 0 -0.28858619761816889 0.47377087817814589 0 -0.2944743431310044 0.45228094752776682 0 -0.27329055326553048 0.45854910325768988 0 -0.28858619761816889 0.47377087817814589 0 -0.2944743431310044 0.45228094752776682 0 -0.28426041238301858 0.43930471826406531 0 -0.27329055326553048 0.45854910325768988 0 -0.29576073289665422 0.43347565529899762 0 -0.2944743431310044 0.45228094752776682 0 -0.28426041238301858 0.43930471826406531 0 -0.27138668263498972 0.43431468825499642 0 -0.28426041238301858 0.43930471826406531 0 -0.27329055326553048 0.45854910325768988 0 -0.27138668263498972 0.43431468825499642 0 -0.27329055326553048 0.45854910325768988 0 -0.25799490891289278 0.4433273283372331 0 -0.27329055326553048 0.45854910325768988 0 -0.25799490891289278 0.4433273283372331 0 -0.27329055326553048 0.45854910325768988 0 -0.28858619761816889 0.47377087817814589 0 -0.27329055326553048 0.45854910325768988 0 -0.25438198006151169 0.46464464965965441 0 -0.25799490891289278 0.4433273283372331 0 -0.27329055326553048 0.45854910325768988 0 -0.25438198006151169 0.46464464965965441 0 -0.26859377699614329 0.4811575177290362 0 -0.25438198006151169 0.46464464965965441 0 -0.25799490891289278 0.4433273283372331 0 -0.25438198006151169 0.46464464965965441 0 -0.25799490891289278 0.4433273283372331 0 -0.24356894722331929 0.44821508210096461 0 -0.25080144613104921 0.5 0 -0.26859377699614329 0.4811575177290362 0 -0.2467553297522557 0.48147402383551691 0 -0.25080144613104921 0.5 0 -0.26859377699614329 0.4811575177290362 0 -0.27705851983630159 0.5 0 -0.25438198006151169 0.46464464965965441 0 -0.26859377699614329 0.4811575177290362 0 -0.2467553297522557 0.48147402383551691 0 -0.27329055326553048 0.45854910325768988 0 -0.26859377699614329 0.4811575177290362 0 -0.28858619761816889 0.47377087817814589 0 -0.26859377699614329 0.4811575177290362 0 -0.27705851983630159 0.5 0 -0.28830299895955541 0.48893487857068268 0 -0.27705851983630159 0.5 0 -0.28830299895955541 0.48893487857068268 0 -0.30331559354155391 0.49999999999999939 0 -0.26859377699614329 0.4811575177290362 0 -0.28830299895955541 0.48893487857068268 0 -0.28858619761816889 0.47377087817814589 0 -0.28830299895955541 0.48893487857068268 0 -0.28858619761816889 0.47377087817814589 0 -0.30388184197080759 0.48899265309860168 0 -0.28858619761816889 0.47377087817814589 0 -0.30388184197080759 0.48899265309860168 0 -0.30512100021830008 0.46490456032657962 0 -0.30388184197080759 0.48899265309860168 0 -0.30512100021830008 0.46490456032657962 0 -0.30388184197080759 0.48899265309860168 0 -0.31654611508668351 0.48621885406126381 0 -0.30512100021830008 0.46490456032657962 0 -0.28858619761816889 0.47377087817814589 0 -0.30388184197080759 0.48899265309860168 0 -0.30331559354155391 0.49999999999999939 0 -0.30388184197080759 0.48899265309860168 0 -0.28830299895955541 0.48893487857068268 0 -0.30331559354155391 0.49999999999999939 0 -0.30388184197080759 0.48899265309860168 0 -0.30388184197080759 0.48899265309860168 0 -0.31494260619507058 0.500000000000002 0 -0.31654611508668351 0.48621885406126381 0 -0.30331559354155391 0.49999999999999939 0 -0.30388184197080759 0.48899265309860168 0 -0.31494260619507058 0.500000000000002 0 -0.30388184197080759 0.48899265309860168 0 -0.31494260619507058 0.500000000000002 0 -0.31654611508668351 0.48621885406126381 0 -0.33275791060477139 0.5 0 -0.32602721644446891 0.47719705688113462 0 -0.31494260619507058 0.500000000000002 0 -0.31654611508668351 0.48621885406126381 0 -0.33275791060477139 0.5 0 -0.33275791060477139 0.5 0 -0.34200011506365208 0.48331572161184322 0 -0.32602721644446891 0.47719705688113462 0 -0.33275791060477139 0.5 0 -0.34200011506365208 0.48331572161184322 0 -0.35057321501447208 0.49999999999999872 0 -0.34200011506365208 0.48331572161184322 0 -0.32602721644446891 0.47719705688113462 0 -0.33593075250063148 0.46750731867274542 0 -0.34200011506365208 0.48331572161184322 0 -0.33593075250063148 0.46750731867274542 0 -0.35201810675435108 0.4676562019538536 0 -0.30512100021830008 0.46490456032657962 0 -0.31654611508668351 0.48621885406126381 0 -0.32602721644446891 0.47719705688113462 0 -0.30512100021830008 0.46490456032657962 0 -0.32602721644446891 0.47719705688113462 0 -0.32381548421637429 0.45642326981327008 0 -0.30636015846579262 0.44081646755455739 0 -0.32381548421637429 0.45642326981327008 0 -0.32304151796324199 0.43794530689545591 0 -0.32381548421637429 0.45642326981327008 0 -0.32304151796324199 0.43794530689545591 0 -0.34355933144160938 0.44471966407244162 0 -0.32381548421637429 0.45642326981327008 0 -0.34355933144160938 0.44471966407244162 0 -0.33593075250063148 0.46750731867274542 0 -0.32602721644446891 0.47719705688113462 0 -0.32381548421637429 0.45642326981327008 0 -0.33593075250063148 0.46750731867274542 0 -0.35201810675435108 0.4676562019538536 0 -0.36028404822733179 0.44939908513577981 0 -0.36566353784044697 0.46257036423753561 0 -0.34355933144160938 0.44471966407244162 0 -0.35201810675435108 0.4676562019538536 0 -0.36028404822733179 0.44939908513577981 0 -0.34355933144160938 0.44471966407244162 0 -0.33593075250063148 0.46750731867274542 0 -0.35201810675435108 0.4676562019538536 0 -0.36778315087773072 0.43214877602771662 0 -0.34355933144160938 0.44471966407244162 0 -0.36028404822733179 0.44939908513577981 0 -0.36778315087773072 0.43214877602771662 0 -0.36028404822733179 0.44939908513577981 0 -0.37376195539900242 0.45249759326054367 0 -0.37701653082709469 0.46900635458093531 0 -0.37376195539900242 0.45249759326054367 0 -0.36566353784044697 0.46257036423753561 0 -0.36028404822733179 0.44939908513577981 0 -0.37376195539900242 0.45249759326054367 0 -0.36566353784044697 0.46257036423753561 0 -0.36552159823955549 0.47691699748014749 0 -0.37220834978290879 0.49000150617251997 0 -0.35595833756876799 0.48470827593500232 0 -0.37701653082709469 0.46900635458093531 0 -0.36566353784044697 0.46257036423753561 0 -0.36552159823955549 0.47691699748014749 0 -0.37805640255927542 0.47903421333972468 0 -0.37701653082709469 0.46900635458093531 0 -0.36552159823955549 0.47691699748014749 0 -0.35201810675435108 0.4676562019538536 0 -0.36566353784044697 0.46257036423753561 0 -0.36552159823955549 0.47691699748014749 0 -0.37805640255927542 0.47903421333972468 0 -0.36552159823955549 0.47691699748014749 0 -0.37220834978290879 0.49000150617251997 0 -0.37220834978290879 0.49000150617251997 0 -0.35057321501447208 0.49999999999999872 0 -0.35595833756876799 0.48470827593500232 0 -0.37789332191386737 0.5 0 -0.37220834978290879 0.49000150617251997 0 -0.35057321501447208 0.49999999999999872 0 -0.37220834978290879 0.49000150617251997 0 -0.35057321501447208 0.49999999999999872 0 -0.34200011506365208 0.48331572161184322 0 -0.35057321501447208 0.49999999999999872 0 -0.35595833756876799 0.48470827593500232 0 -0.34200011506365208 0.48331572161184322 0 -0.35201810675435108 0.4676562019538536 0 -0.35595833756876799 0.48470827593500232 0 -0.35201810675435108 0.4676562019538536 0 -0.36552159823955549 0.47691699748014749 0 -0.35595833756876799 0.48470827593500232 0 -0.142080771754234 0.48212662116497451 0 -0.14744519938683801 0.47523243684594829 0 -0.1380962150490555 0.47248515407185221 0 -0.142080771754234 0.48212662116497451 0 -0.14744519938683801 0.47523243684594829 0 -0.15313912830386001 0.48632871978955722 0 -0.14744519938683801 0.47523243684594829 0 -0.1380962150490555 0.47248515407185221 0 -0.1446941887002707 0.46454185114692792 0 -0.14744519938683801 0.47523243684594829 0 -0.1446941887002707 0.46454185114692792 0 -0.15815775643206659 0.473198332503178 0 -0.14744519938683801 0.47523243684594829 0 -0.15313912830386001 0.48632871978955722 0 -0.15815775643206659 0.473198332503178 0 -0.142080771754234 0.48212662116497451 0 -0.15313912830386001 0.48632871978955722 0 -0.13803845513632401 0.5 0 -0.15313912830386001 0.48632871978955722 0 -0.13803845513632401 0.5 0 -0.1663114266205577 0.50000000000000011 0 -0.142080771754234 0.48212662116497451 0 -0.13803845513632401 0.5 0 -0.12908554574303099 0.47755934496718438 0 -0.13803845513632401 0.5 0 -0.12908554574303099 0.47755934496718438 0 -0.1160402402672886 0.48503019582547341 0 -0.142080771754234 0.48212662116497451 0 -0.12908554574303099 0.47755934496718438 0 -0.1380962150490555 0.47248515407185221 0 -0.12908554574303099 0.47755934496718438 0 -0.1380962150490555 0.47248515407185221 0 -0.13097929143795109 0.46459511115351071 0 -0.12908554574303099 0.47755934496718438 0 -0.13097929143795109 0.46459511115351071 0 -0.1176294132596279 0.46872710166108278 0 -0.13097929143795109 0.46459511115351071 0 -0.1351896940807357 0.45304119368279389 0 -0.1204057133641486 0.45504160574272429 0 -0.13097929143795109 0.46459511115351071 0 -0.1351896940807357 0.45304119368279389 0 -0.1446941887002707 0.46454185114692792 0 -0.1380962150490555 0.47248515407185221 0 -0.13097929143795109 0.46459511115351071 0 -0.1446941887002707 0.46454185114692792 0 -0.1351896940807357 0.45304119368279389 0 -0.13889501351409689 0.43598263237980822 0 -0.1242648033483075 0.43981492828754482 0 -0.1351896940807357 0.45304119368279389 0 -0.1242648033483075 0.43981492828754482 0 -0.1204057133641486 0.45504160574272429 0 -0.15017718620881049 0.45777983735391498 0 -0.13889501351409689 0.43598263237980822 0 -0.1351896940807357 0.45304119368279389 0 -0.15017718620881049 0.45777983735391498 0 -0.13889501351409689 0.43598263237980822 0 -0.15995177900170021 0.44572512983606088 0 -0.15376963845050121 0.4328235067909087 0 -0.13889501351409689 0.43598263237980822 0 -0.15017718620881049 0.45777983735391498 0 -0.15995177900170021 0.44572512983606088 0 -0.13889501351409689 0.43598263237980822 0 -0.15017718620881049 0.45777983735391498 0 -0.15995177900170021 0.44572512983606088 0 -0.1446941887002707 0.46454185114692792 0 -0.15017718620881049 0.45777983735391498 0 -0.1351896940807357 0.45304119368279389 0 -0.1446941887002707 0.46454185114692792 0 -0.15017718620881049 0.45777983735391498 0 -0.1446941887002707 0.46454185114692792 0 -0.15017718620881049 0.45777983735391498 0 -0.15815775643206659 0.473198332503178 0 -0.15017718620881049 0.45777983735391498 0 -0.15868634814382429 0.46531473325554851 0 -0.15815775643206659 0.473198332503178 0 -0.15017718620881049 0.45777983735391498 0 -0.15815775643206659 0.473198332503178 0 -0.160558198289461 0.46047642425523388 0 -0.1655661766345953 0.45099185016729298 0 -0.16585225164495951 0.46980433890986678 0 -0.1655661766345953 0.45099185016729298 0 -0.17867327812258871 0.46114583139567922 0 -0.16585225164495951 0.46980433890986678 0 -0.1655661766345953 0.45099185016729298 0 -0.16585225164495951 0.46980433890986678 0 -0.15868634814382429 0.46531473325554851 0 -0.160558198289461 0.46047642425523388 0 -0.16585225164495951 0.46980433890986678 0 -0.15017718620881049 0.45777983735391498 0 -0.15868634814382429 0.46531473325554851 0 -0.160558198289461 0.46047642425523388 0 -0.15017718620881049 0.45777983735391498 0 -0.160558198289461 0.46047642425523388 0 -0.15995177900170021 0.44572512983606088 0 -0.15995177900170021 0.44572512983606088 0 -0.1655661766345953 0.45099185016729298 0 -0.1697263717945888 0.43367042231820602 0 -0.160558198289461 0.46047642425523388 0 -0.15995177900170021 0.44572512983606088 0 -0.1655661766345953 0.45099185016729298 0 -0.15995177900170021 0.44572512983606088 0 -0.1697263717945888 0.43367042231820602 0 -0.1655661766345953 0.45099185016729298 0 -0.1926513277646352 0.45119866261047992 0 -0.1697263717945888 0.43367042231820602 0 -0.1926513277646352 0.45119866261047992 0 -0.1697263717945888 0.43367042231820602 0 -0.1926513277646352 0.45119866261047992 0 -0.18693863061853061 0.43491447939059907 0 -0.1697263717945888 0.43367042231820602 0 -0.1655661766345953 0.45099185016729298 0 -0.17867327812258871 0.46114583139567922 0 -0.1926513277646352 0.45119866261047992 0 -0.17867327812258871 0.46114583139567922 0 -0.17876854714149509 0.47093865696285842 0 -0.16585225164495951 0.46980433890986678 0 -0.17867327812258871 0.46114583139567922 0 -0.1899884502156329 0.46461586120334353 0 -0.1926513277646352 0.45119866261047992 0 -0.17867327812258871 0.46114583139567922 0 -0.17876854714149509 0.47093865696285842 0 -0.1899884502156329 0.46461586120334353 0 -0.17876854714149509 0.47093865696285842 0 -0.19138341924764241 0.47827032896460842 0 -0.1899884502156329 0.46461586120334353 0 -0.1757986315986971 0.48088398659212228 0 -0.17876854714149509 0.47093865696285842 0 -0.19138341924764241 0.47827032896460842 0 -0.1757986315986971 0.48088398659212228 0 -0.17876854714149509 0.47093865696285842 0 -0.16585225164495951 0.46980433890986678 0 -0.16585225164495951 0.46980433890986678 0 -0.16613832665532341 0.48861682765244069 0 -0.16585225164495951 0.46980433890986678 0 -0.15815775643206659 0.473198332503178 0 -0.16613832665532341 0.48861682765244069 0 -0.1757986315986971 0.48088398659212228 0 -0.16585225164495951 0.46980433890986678 0 -0.16613832665532341 0.48861682765244069 0 -0.15313912830386001 0.48632871978955722 0 -0.15815775643206659 0.473198332503178 0 -0.16613832665532341 0.48861682765244069 0 -0.15815775643206659 0.473198332503178 0 -0.16613832665532341 0.48861682765244069 0 -0.15868634814382429 0.46531473325554851 0 -0.16585225164495951 0.46980433890986678 0 -0.15815775643206659 0.473198332503178 0 -0.15313912830386001 0.48632871978955722 0 -0.16613832665532341 0.48861682765244069 0 -0.1663114266205577 0.50000000000000011 0 -0.16613832665532341 0.48861682765244069 0 -0.1720302250152923 0.50000000000000022 0 -0.16613832665532341 0.48861682765244069 0 -0.1663114266205577 0.50000000000000011 0 -0.1720302250152923 0.50000000000000022 0 -0.16613832665532341 0.48861682765244069 0 -0.1663114266205577 0.50000000000000011 0 -0.16613832665532341 0.48861682765244069 0 -0.17430115969348189 0.49501483184612438 0 -0.1720302250152923 0.50000000000000022 0 -0.17430115969348189 0.49501483184612438 0 -0.1720302250152923 0.50000000000000022 0 -0.1982872987205446 0.5 0 -0.1757986315986971 0.48088398659212228 0 -0.17430115969348189 0.49501483184612438 0 -0.19138341924764241 0.47827032896460842 0 -0.17430115969348189 0.49501483184612438 0 -0.19138341924764241 0.47827032896460842 0 -0.1757986315986971 0.48088398659212228 0 -0.16613832665532341 0.48861682765244069 0 -0.17430115969348189 0.49501483184612438 0 -0.17430115969348189 0.49501483184612438 0 -0.1982872987205446 0.5 0 -0.19138341924764241 0.47827032896460842 0 -0.1982872987205446 0.5 0 -0.19138341924764241 0.47827032896460842 0 -0.21217809917650449 0.48030286392854288 0 -0.19138341924764241 0.47827032896460842 0 -0.208465678801803 0.46152582608309223 0 -0.19138341924764241 0.47827032896460842 0 -0.21217809917650449 0.48030286392854288 0 -0.208465678801803 0.46152582608309223 0 -0.1982872987205446 0.5 0 -0.21217809917650449 0.48030286392854288 0 -0.22454437242579681 0.5 0 -0.22454437242579681 0.5 0 -0.2288960980978284 0.47674808914996208 0 -0.2467553297522557 0.48147402383551691 0 -0.21217809917650449 0.48030286392854288 0 -0.22454437242579681 0.5 0 -0.2288960980978284 0.47674808914996208 0 -0.21217809917650449 0.48030286392854288 0 -0.2288960980978284 0.47674808914996208 0 -0.22325063631842021 0.46203708915627778 0 -0.25438198006151169 0.46464464965965441 0 -0.2467553297522557 0.48147402383551691 0 -0.2372897108761052 0.46028528898629889 0 -0.2288960980978284 0.47674808914996208 0 -0.2467553297522557 0.48147402383551691 0 -0.2372897108761052 0.46028528898629889 0 -0.25080144613104921 0.5 0 -0.22454437242579681 0.5 0 -0.2467553297522557 0.48147402383551691 0 -0.24356894722331929 0.44821508210096461 0 -0.22554793835596351 0.44478132320157598 0 -0.24263019791012411 0.42803682032005991 0 -0.24356894722331929 0.44821508210096461 0 -0.2372897108761052 0.46028528898629889 0 -0.22554793835596351 0.44478132320157598 0 -0.25799490891289278 0.4433273283372331 0 -0.24356894722331929 0.44821508210096461 0 -0.24263019791012411 0.42803682032005991 0 -0.25438198006151169 0.46464464965965441 0 -0.24356894722331929 0.44821508210096461 0 -0.2372897108761052 0.46028528898629889 0 -0.2288960980978284 0.47674808914996208 0 -0.2372897108761052 0.46028528898629889 0 -0.22325063631842021 0.46203708915627778 0 -0.2372897108761052 0.46028528898629889 0 -0.22325063631842021 0.46203708915627778 0 -0.22554793835596351 0.44478132320157598 0 -0.22325063631842021 0.46203708915627778 0 -0.22554793835596351 0.44478132320157598 0 -0.208465678801803 0.46152582608309223 0 -0.22554793835596351 0.44478132320157598 0 -0.20785557032720109 0.44518798724498809 0 -0.21437917226951189 0.43588067273166847 0 -0.22554793835596351 0.44478132320157598 0 -0.20785557032720109 0.44518798724498809 0 -0.208465678801803 0.46152582608309223 0 -0.22554793835596351 0.44478132320157598 0 -0.208465678801803 0.46152582608309223 0 -0.21217809917650449 0.48030286392854288 0 -0.22325063631842021 0.46203708915627778 0 -0.208465678801803 0.46152582608309223 0 -0.19138341924764241 0.47827032896460842 0 -0.208465678801803 0.46152582608309223 0 -0.1899884502156329 0.46461586120334353 0 -0.208465678801803 0.46152582608309223 0 -0.1899884502156329 0.46461586120334353 0 -0.1926513277646352 0.45119866261047992 0 -0.20785557032720109 0.44518798724498809 0 -0.1926513277646352 0.45119866261047992 0 -0.18693863061853061 0.43491447939059907 0 -0.20785557032720109 0.44518798724498809 0 -0.208465678801803 0.46152582608309223 0 -0.1926513277646352 0.45119866261047992 0 -0.19176926968858449 0.42488004754311998 0 -0.20430089696141959 0.42856004989685992 0 -0.18693863061853061 0.43491447939059907 0 -0.20785557032720109 0.44518798724498809 0 -0.20430089696141959 0.42856004989685992 0 -0.18693863061853061 0.43491447939059907 0 -0.19176926968858449 0.42488004754311998 0 -0.19667758679306771 0.41738623802377928 0 -0.20430089696141959 0.42856004989685992 0 -0.19667758679306771 0.41738623802377928 0 -0.19460267291041519 0.40299123798476227 0 -0.182164522352502 0.41833083015148409 0 -0.19460267291041519 0.40299123798476227 0 -0.182164522352502 0.41833083015148409 0 -0.19176926968858449 0.42488004754311998 0 -0.19667758679306771 0.41738623802377928 0 -0.182164522352502 0.41833083015148409 0 -0.19667758679306771 0.41738623802377928 0 -0.2074030129404133 0.4163894186605448 0 -0.20430089696141959 0.42856004989685992 0 -0.19667758679306771 0.41738623802377928 0 -0.2074030129404133 0.4163894186605448 0 -0.19460267291041519 0.40299123798476227 0 -0.2074030129404133 0.4163894186605448 0 -0.21981228343346321 0.42499333058324978 0 -0.22162162460370111 0.40801623681407218 0 -0.2074030129404133 0.4163894186605448 0 -0.22162162460370111 0.40801623681407218 0 -0.19460267291041519 0.40299123798476227 0 -0.20785557032720109 0.44518798724498809 0 -0.20430089696141959 0.42856004989685992 0 -0.21437917226951189 0.43588067273166847 0 -0.2074030129404133 0.4163894186605448 0 -0.20430089696141959 0.42856004989685992 0 -0.21981228343346321 0.42499333058324978 0 -0.20430089696141959 0.42856004989685992 0 -0.21437917226951189 0.43588067273166847 0 -0.21981228343346321 0.42499333058324978 0 -0.22554793835596351 0.44478132320157598 0 -0.24263019791012411 0.42803682032005991 0 -0.22554793835596351 0.44478132320157598 0 -0.2313941741476824 0.42795323546389102 0 -0.24263019791012411 0.42803682032005991 0 -0.22554793835596351 0.44478132320157598 0 -0.21437917226951189 0.43588067273166847 0 -0.21981228343346321 0.42499333058324978 0 -0.22554793835596351 0.44478132320157598 0 -0.2313941741476824 0.42795323546389102 0 -0.21981228343346321 0.42499333058324978 0 -0.2313941741476824 0.42795323546389102 0 -0.21981228343346321 0.42499333058324978 0 -0.2301621318308705 0.41771135234831969 0 -0.2313941741476824 0.42795323546389102 0 -0.2301621318308705 0.41771135234831969 0 -0.23881831920799079 0.42424335086624981 0 -0.21981228343346321 0.42499333058324978 0 -0.22162162460370111 0.40801623681407218 0 -0.2301621318308705 0.41771135234831969 0 -0.22162162460370111 0.40801623681407218 0 -0.2301621318308705 0.41771135234831969 0 -0.241034552697166 0.41286836770778501 0 -0.25157066981256843 0.40894445920752592 0 -0.241034552697166 0.41286836770778501 0 -0.24263019791012411 0.42803682032005991 0 -0.241034552697166 0.41286836770778501 0 -0.24263019791012411 0.42803682032005991 0 -0.23881831920799079 0.42424335086624981 0 -0.22162162460370111 0.40801623681407218 0 -0.241034552697166 0.41286836770778501 0 -0.24388213391773941 0.40163479241199579 0 -0.2301621318308705 0.41771135234831969 0 -0.241034552697166 0.41286836770778501 0 -0.23881831920799079 0.42424335086624981 0 -0.25157066981256843 0.40894445920752592 0 -0.241034552697166 0.41286836770778501 0 -0.24388213391773941 0.40163479241199579 0 -0.2313941741476824 0.42795323546389102 0 -0.24263019791012411 0.42803682032005991 0 -0.23881831920799079 0.42424335086624981 0 -0.24263019791012411 0.42803682032005991 0 -0.23881831920799079 0.42424335086624981 0 -0.25453646971320443 0.37462232419521813 0 -0.24781733580734391 0.38604582424895789 0 -0.23735930512057779 0.37349779701461089 0 -0.2365264908337599 0.38834162546439549 0 -0.24781733580734391 0.38604582424895789 0 -0.23735930512057779 0.37349779701461089 0 -0.2365264908337599 0.38834162546439549 0 -0.24781733580734391 0.38604582424895789 0 -0.24388213391773941 0.40163479241199579 0 -0.22162162460370111 0.40801623681407218 0 -0.24388213391773941 0.40163479241199579 0 -0.22162162460370111 0.40801623681407218 0 -0.2365264908337599 0.38834162546439549 0 -0.2225569648072106 0.38059728391652659 0 -0.22162162460370111 0.40801623681407218 0 -0.2365264908337599 0.38834162546439549 0 -0.24388213391773941 0.40163479241199579 0 -0.2365264908337599 0.38834162546439549 0 -0.2225569648072106 0.38059728391652659 0 -0.23735930512057779 0.37349779701461089 0 -0.2225569648072106 0.38059728391652659 0 -0.20545957084956781 0.38789926664213359 0 -0.1994770785436861 0.36691897370504389 0 -0.22162162460370111 0.40801623681407218 0 -0.2225569648072106 0.38059728391652659 0 -0.20545957084956781 0.38789926664213359 0 -0.22162162460370111 0.40801623681407218 0 -0.20545957084956781 0.38789926664213359 0 -0.19460267291041519 0.40299123798476227 0 -0.20545957084956781 0.38789926664213359 0 -0.19460267291041519 0.40299123798476227 0 -0.18736095772118591 0.3836472042370111 0 -0.20545957084956781 0.38789926664213359 0 -0.18736095772118591 0.3836472042370111 0 -0.1994770785436861 0.36691897370504389 0 -0.18736095772118591 0.3836472042370111 0 -0.16248792359233191 0.38534127627451031 0 -0.17644948136236779 0.3976803029940168 0 -0.18736095772118591 0.3836472042370111 0 -0.16248792359233191 0.38534127627451031 0 -0.1741500565645078 0.37123080613525078 0 -0.16248792359233191 0.38534127627451031 0 -0.16330635783110381 0.4038062271485704 0 -0.14438589058212131 0.3948348353259919 0 -0.16248792359233191 0.38534127627451031 0 -0.16330635783110381 0.4038062271485704 0 -0.17644948136236779 0.3976803029940168 0 -0.19460267291041519 0.40299123798476227 0 -0.17644948136236779 0.3976803029940168 0 -0.17778078602166139 0.40821888849324761 0 -0.19460267291041519 0.40299123798476227 0 -0.18736095772118591 0.3836472042370111 0 -0.17644948136236779 0.3976803029940168 0 -0.16330635783110381 0.4038062271485704 0 -0.17644948136236779 0.3976803029940168 0 -0.17778078602166139 0.40821888849324761 0 -0.19460267291041519 0.40299123798476227 0 -0.182164522352502 0.41833083015148409 0 -0.17778078602166139 0.40821888849324761 0 -0.182164522352502 0.41833083015148409 0 -0.1723808956519178 0.41828584418740389 0 -0.17778078602166139 0.40821888849324761 0 -0.19176926968858449 0.42488004754311998 0 -0.182164522352502 0.41833083015148409 0 -0.18693863061853061 0.43491447939059907 0 -0.182164522352502 0.41833083015148409 0 -0.18693863061853061 0.43491447939059907 0 -0.1697263717945888 0.43367042231820602 0 -0.182164522352502 0.41833083015148409 0 -0.1697263717945888 0.43367042231820602 0 -0.182164522352502 0.41833083015148409 0 -0.1723808956519178 0.41828584418740389 0 -0.1697263717945888 0.43367042231820602 0 -0.15995177900170021 0.44572512983606088 0 -0.1697263717945888 0.43367042231820602 0 -0.15376963845050121 0.4328235067909087 0 -0.1697263717945888 0.43367042231820602 0 -0.14650538949161929 0.41591584262955861 0 -0.15376963845050121 0.4328235067909087 0 -0.1697263717945888 0.43367042231820602 0 -0.14650538949161929 0.41591584262955861 0 -0.1723808956519178 0.41828584418740389 0 -0.1697263717945888 0.43367042231820602 0 -0.14650538949161929 0.41591584262955861 0 -0.1723808956519178 0.41828584418740389 0 -0.14650538949161929 0.41591584262955861 0 -0.16330635783110381 0.4038062271485704 0 -0.1723808956519178 0.41828584418740389 0 -0.14650538949161929 0.41591584262955861 0 -0.16330635783110381 0.4038062271485704 0 -0.1723808956519178 0.41828584418740389 0 -0.17778078602166139 0.40821888849324761 0 -0.14650538949161929 0.41591584262955861 0 -0.15376963845050121 0.4328235067909087 0 -0.13889501351409689 0.43598263237980822 0 -0.13889501351409689 0.43598263237980822 0 -0.12761284081938409 0.41418542740570108 0 -0.14650538949161929 0.41591584262955861 0 -0.13889501351409689 0.43598263237980822 0 -0.12761284081938409 0.41418542740570108 0 -0.13889501351409689 0.43598263237980822 0 -0.12761284081938409 0.41418542740570108 0 -0.1242648033483075 0.43981492828754482 0 -0.14650538949161929 0.41591584262955861 0 -0.12761284081938409 0.41418542740570108 0 -0.12644786621320531 0.40058001872868543 0 -0.14650538949161929 0.41591584262955861 0 -0.12644786621320531 0.40058001872868543 0 -0.14650538949161929 0.41591584262955861 0 -0.12761284081938409 0.41418542740570108 0 -0.14650538949161929 0.41591584262955861 0 -0.12644786621320531 0.40058001872868543 0 -0.14438589058212131 0.3948348353259919 0 -0.12644786621320531 0.40058001872868543 0 -0.12826940643264259 0.38638828685515292 0 -0.14438589058212131 0.3948348353259919 0 -0.1399268433138337 0.37661104245066729 0 -0.12826940643264259 0.38638828685515292 0 -0.1198206075896991 0.37069234566290138 0 -0.1399268433138337 0.37661104245066729 0 -0.12826940643264259 0.38638828685515292 0 -0.14438589058212131 0.3948348353259919 0 -0.16248792359233191 0.38534127627451031 0 -0.1399268433138337 0.37661104245066729 0 -0.1571746455416145 0.36408416689185819 0 -0.16248792359233191 0.38534127627451031 0 -0.1399268433138337 0.37661104245066729 0 -0.14438589058212131 0.3948348353259919 0 -0.16330635783110381 0.4038062271485704 0 -0.14650538949161929 0.41591584262955861 0 -0.14438589058212131 0.3948348353259919 0 -0.1367685514822152 0.35851885971508118 0 -0.13367478836053351 0.33932016938713638 0 -0.15331730601663701 0.3395623532820784 0 -0.1367685514822152 0.35851885971508118 0 -0.15331730601663701 0.3395623532820784 0 -0.1571746455416145 0.36408416689185819 0 -0.1399268433138337 0.37661104245066729 0 -0.1367685514822152 0.35851885971508118 0 -0.1571746455416145 0.36408416689185819 0 -0.1399268433138337 0.37661104245066729 0 -0.1367685514822152 0.35851885971508118 0 -0.1198206075896991 0.37069234566290138 0 -0.1367685514822152 0.35851885971508118 0 -0.13367478836053351 0.33932016938713638 0 -0.1173066256070304 0.35104950557859033 0 -0.13367478836053351 0.33932016938713638 0 -0.1262409447270301 0.3211703831111522 0 -0.1175879007316586 0.33497855513245622 0 -0.13367478836053351 0.33932016938713638 0 -0.1262409447270301 0.3211703831111522 0 -0.14995133854557879 0.31573290008088639 0 -0.1262409447270301 0.3211703831111522 0 -0.14995133854557879 0.31573290008088639 0 -0.13170636281121431 0.30540396541675668 0 -0.13367478836053351 0.33932016938713638 0 -0.14995133854557879 0.31573290008088639 0 -0.15331730601663701 0.3395623532820784 0 -0.15331730601663701 0.3395623532820784 0 -0.17079439025487569 0.32494122108339912 0 -0.1763971922801616 0.3532406634935612 0 -0.14995133854557879 0.31573290008088639 0 -0.17079439025487569 0.32494122108339912 0 -0.167164841548782 0.29891422322321631 0 -0.14995133854557879 0.31573290008088639 0 -0.15331730601663701 0.3395623532820784 0 -0.17079439025487569 0.32494122108339912 0 -0.17079439025487569 0.32494122108339912 0 -0.19256976679114979 0.33165381796875049 0 -0.19699128312530151 0.30504565645142051 0 -0.17079439025487569 0.32494122108339912 0 -0.1763971922801616 0.3532406634935612 0 -0.19256976679114979 0.33165381796875049 0 -0.15331730601663701 0.3395623532820784 0 -0.1763971922801616 0.3532406634935612 0 -0.1571746455416145 0.36408416689185819 0 -0.15331730601663701 0.3395623532820784 0 -0.1763971922801616 0.3532406634935612 0 -0.1763971922801616 0.3532406634935612 0 -0.1571746455416145 0.36408416689185819 0 -0.1741500565645078 0.37123080613525078 0 -0.16248792359233191 0.38534127627451031 0 -0.1571746455416145 0.36408416689185819 0 -0.1741500565645078 0.37123080613525078 0 -0.18736095772118591 0.3836472042370111 0 -0.1741500565645078 0.37123080613525078 0 -0.1994770785436861 0.36691897370504389 0 -0.1763971922801616 0.3532406634935612 0 -0.1741500565645078 0.37123080613525078 0 -0.1994770785436861 0.36691897370504389 0 -0.1763971922801616 0.3532406634935612 0 -0.1994770785436861 0.36691897370504389 0 -0.1763971922801616 0.3532406634935612 0 -0.20127160642404629 0.34878804965207372 0 -0.19256976679114979 0.33165381796875049 0 -0.1763971922801616 0.3532406634935612 0 -0.1994770785436861 0.36691897370504389 0 -0.20127160642404629 0.34878804965207372 0 -0.1994770785436861 0.36691897370504389 0 -0.20127160642404629 0.34878804965207372 0 -0.22480168799342179 0.35512276170724633 0 -0.20127160642404629 0.34878804965207372 0 -0.22480168799342179 0.35512276170724633 0 -0.2131123065118124 0.33700403138576668 0 -0.2225569648072106 0.38059728391652659 0 -0.1994770785436861 0.36691897370504389 0 -0.2225569648072106 0.38059728391652659 0 -0.1994770785436861 0.36691897370504389 0 -0.22480168799342179 0.35512276170724633 0 -0.2225569648072106 0.38059728391652659 0 -0.22480168799342179 0.35512276170724633 0 -0.23735930512057779 0.37349779701461089 0 -0.25368472498167011 0.34420349485172652 0 -0.22480168799342179 0.35512276170724633 0 -0.24822911175635759 0.36217347122335058 0 -0.22480168799342179 0.35512276170724633 0 -0.24822911175635759 0.36217347122335058 0 -0.23735930512057779 0.37349779701461089 0 -0.25453646971320443 0.37462232419521813 0 -0.24822911175635759 0.36217347122335058 0 -0.23735930512057779 0.37349779701461089 0 -0.25757488899104952 0.31786411623381933 0 -0.23478691102954721 0.33115088205162452 0 -0.2366570207200871 0.30010935915934539 0 -0.25368472498167011 0.34420349485172652 0 -0.22480168799342179 0.35512276170724633 0 -0.23478691102954721 0.33115088205162452 0 -0.25368472498167011 0.34420349485172652 0 -0.23478691102954721 0.33115088205162452 0 -0.25757488899104952 0.31786411623381933 0 -0.25368472498167011 0.34420349485172652 0 -0.23478691102954721 0.33115088205162452 0 -0.23478691102954721 0.33115088205162452 0 -0.2158890970774244 0.31809826925152251 0 -0.2131123065118124 0.33700403138576668 0 -0.22480168799342179 0.35512276170724633 0 -0.23478691102954721 0.33115088205162452 0 -0.2131123065118124 0.33700403138576668 0 -0.23478691102954721 0.33115088205162452 0 -0.2158890970774244 0.31809826925152251 0 -0.2366570207200871 0.30010935915934539 0 -0.23478691102954721 0.33115088205162452 0 -0.2158890970774244 0.31809826925152251 0 -0.2158890970774244 0.31809826925152251 0 -0.2131123065118124 0.33700403138576668 0 -0.19256976679114979 0.33165381796875049 0 -0.20127160642404629 0.34878804965207372 0 -0.2131123065118124 0.33700403138576668 0 -0.19256976679114979 0.33165381796875049 0 -0.2158890970774244 0.31809826925152251 0 -0.19256976679114979 0.33165381796875049 0 -0.19699128312530151 0.30504565645142051 0 -0.19699128312530151 0.30504565645142051 0 -0.2044220976180971 0.2747921468301005 0 -0.18537993383704029 0.28397978744787411 0 -0.19699128312530151 0.30504565645142051 0 -0.21636901433909059 0.29447561219915308 0 -0.2044220976180971 0.2747921468301005 0 -0.2158890970774244 0.31809826925152251 0 -0.19699128312530151 0.30504565645142051 0 -0.21636901433909059 0.29447561219915308 0 -0.2158890970774244 0.31809826925152251 0 -0.19699128312530151 0.30504565645142051 0 -0.2158890970774244 0.31809826925152251 0 -0.21636901433909059 0.29447561219915308 0 -0.2366570207200871 0.30010935915934539 0 -0.21636901433909059 0.29447561219915308 0 -0.2366570207200871 0.30010935915934539 0 -0.2235041758045673 0.27405874977876837 0 -0.26277913973510902 0.29023342414179659 0 -0.2366570207200871 0.30010935915934539 0 -0.2447247674615598 0.2718938593685879 0 -0.2366570207200871 0.30010935915934539 0 -0.2447247674615598 0.2718938593685879 0 -0.2235041758045673 0.27405874977876837 0 -0.25693865295534157 0.25278860643768353 0 -0.2416444700809012 0.25186566196455601 0 -0.2447247674615598 0.2718938593685879 0 -0.2416444700809012 0.25186566196455601 0 -0.2447247674615598 0.2718938593685879 0 -0.22667039518801041 0.25355429459537898 0 -0.2447247674615598 0.2718938593685879 0 -0.22667039518801041 0.25355429459537898 0 -0.2447247674615598 0.2718938593685879 0 -0.2235041758045673 0.27405874977876837 0 -0.22667039518801041 0.25355429459537898 0 -0.2235041758045673 0.27405874977876837 0 -0.22667039518801041 0.25355429459537898 0 -0.21218175950055909 0.24952722652004439 0 -0.2044220976180971 0.2747921468301005 0 -0.1929026130837673 0.25762258695206858 0 -0.21218175950055909 0.24952722652004439 0 -0.2044220976180971 0.2747921468301005 0 -0.21218175950055909 0.24952722652004439 0 -0.2235041758045673 0.27405874977876837 0 -0.2044220976180971 0.2747921468301005 0 -0.21218175950055909 0.24952722652004439 0 -0.21636901433909059 0.29447561219915308 0 -0.2235041758045673 0.27405874977876837 0 -0.2044220976180971 0.2747921468301005 0 -0.2044220976180971 0.2747921468301005 0 -0.1929026130837673 0.25762258695206858 0 -0.18537993383704029 0.28397978744787411 0 -0.1929026130837673 0.25762258695206858 0 -0.16582228118094081 0.26466105519565358 0 -0.18651378479530609 0.23505073182760211 0 -0.1929026130837673 0.25762258695206858 0 -0.16582228118094081 0.26466105519565358 0 -0.18537993383704029 0.28397978744787411 0 -0.16582228118094081 0.26466105519565358 0 -0.167164841548782 0.29891422322321631 0 -0.14136362158270599 0.28508793949713551 0 -0.16582228118094081 0.26466105519565358 0 -0.18537993383704029 0.28397978744787411 0 -0.167164841548782 0.29891422322321631 0 -0.19699128312530151 0.30504565645142051 0 -0.18537993383704029 0.28397978744787411 0 -0.167164841548782 0.29891422322321631 0 -0.17079439025487569 0.32494122108339912 0 -0.19699128312530151 0.30504565645142051 0 -0.167164841548782 0.29891422322321631 0 -0.167164841548782 0.29891422322321631 0 -0.14136362158270599 0.28508793949713551 0 -0.14995133854557879 0.31573290008088639 0 -0.167164841548782 0.29891422322321631 0 -0.14136362158270599 0.28508793949713551 0 -0.14995133854557879 0.31573290008088639 0 -0.14136362158270599 0.28508793949713551 0 -0.13170636281121431 0.30540396541675668 0 -0.1262409447270301 0.3211703831111522 0 -0.13170636281121431 0.30540396541675668 0 -0.1173504618646501 0.30916380798395637 0 -0.14136362158270599 0.28508793949713551 0 -0.13170636281121431 0.30540396541675668 0 -0.1202787732923796 0.29457691953651272 0 -0.14136362158270599 0.28508793949713551 0 -0.1196693143642453 0.28329908912575552 0 -0.1202787732923796 0.29457691953651272 0 -0.14136362158270599 0.28508793949713551 0 -0.1155624016166297 0.27126165577105521 0 -0.1196693143642453 0.28329908912575552 0 -0.14136362158270599 0.28508793949713551 0 -0.1155624016166297 0.27126165577105521 0 -0.12872708527658799 0.25991420809329241 0 -0.1416417428525672 0.26777243923482702 0 -0.1155624016166297 0.27126165577105521 0 -0.14136362158270599 0.28508793949713551 0 -0.1416417428525672 0.26777243923482702 0 -0.1155624016166297 0.27126165577105521 0 -0.12872708527658799 0.25991420809329241 0 -0.14534546737678511 0.25129379472131641 0 -0.1416417428525672 0.26777243923482702 0 -0.12872708527658799 0.25991420809329241 0 -0.14534546737678511 0.25129379472131641 0 -0.12470300375741469 0.2457033751303839 0 -0.16582228118094081 0.26466105519565358 0 -0.14534546737678511 0.25129379472131641 0 -0.1416417428525672 0.26777243923482702 0 -0.16582228118094081 0.26466105519565358 0 -0.14136362158270599 0.28508793949713551 0 -0.1416417428525672 0.26777243923482702 0 -0.1083690905562489 0.27746201143443072 0 -0.10470287070229969 0.27376422074294909 0 -0.09206590757372593 0.27740472432850488 0 -0.099741497972773749 0.27068482051400677 0 -0.1098053558875477 0.27272524579145851 0 -0.092391857727521592 0.25884509119311472 0 -0.1155624016166297 0.27126165577105521 0 -0.1098053558875477 0.27272524579145851 0 -0.092391857727521592 0.25884509119311472 0 -0.099741497972773749 0.27068482051400677 0 -0.09206590757372593 0.27740472432850488 0 -0.092391857727521592 0.25884509119311472 0 -0.10470287070229969 0.27376422074294909 0 -0.099741497972773749 0.27068482051400677 0 -0.1098053558875477 0.27272524579145851 0 -0.1083690905562489 0.27746201143443072 0 -0.1098053558875477 0.27272524579145851 0 -0.1083690905562489 0.27746201143443072 0 -0.10470287070229969 0.27376422074294909 0 -0.1098053558875477 0.27272524579145851 0 -0.10470287070229969 0.27376422074294909 0 -0.099741497972773749 0.27068482051400677 0 -0.09206590757372593 0.27740472432850488 0 -0.1155624016166297 0.27126165577105521 0 -0.092391857727521592 0.25884509119311472 0 -0.11076524853809321 0.25238606884059173 0 -0.1155624016166297 0.27126165577105521 0 -0.092391857727521592 0.25884509119311472 0 -0.11076524853809321 0.25238606884059173 0 -0.1199394347971814 0.25731632695883078 0 -0.1155624016166297 0.27126165577105521 0 -0.12872708527658799 0.25991420809329241 0 -0.1199394347971814 0.25731632695883078 0 -0.12470300375741469 0.2457033751303839 0 -0.11076524853809321 0.25238606884059173 0 -0.1199394347971814 0.25731632695883078 0 -0.12470300375741469 0.2457033751303839 0 -0.12872708527658799 0.25991420809329241 0 -0.1199394347971814 0.25731632695883078 0 -0.1155624016166297 0.27126165577105521 0 -0.12872708527658799 0.25991420809329241 0 -0.1155624016166297 0.27126165577105521 0 -0.1083690905562489 0.27746201143443072 0 -0.1155624016166297 0.27126165577105521 0 -0.1196693143642453 0.28329908912575552 0 -0.1083690905562489 0.27746201143443072 0 -0.1155624016166297 0.27126165577105521 0 -0.1098053558875477 0.27272524579145851 0 -0.1083690905562489 0.27746201143443072 0 -0.1155624016166297 0.27126165577105521 0 -0.1083690905562489 0.27746201143443072 0 -0.1202787732923796 0.29457691953651272 0 -0.1003457715998239 0.30392270831765028 0 -0.1083690905562489 0.27746201143443072 0 -0.1196693143642453 0.28329908912575552 0 -0.1202787732923796 0.29457691953651272 0 -0.1202787732923796 0.29457691953651272 0 -0.1173504618646501 0.30916380798395637 0 -0.1003457715998239 0.30392270831765028 0 -0.13170636281121431 0.30540396541675668 0 -0.1202787732923796 0.29457691953651272 0 -0.1173504618646501 0.30916380798395637 0 -0.1173504618646501 0.30916380798395637 0 -0.1003457715998239 0.30392270831765028 0 -0.1081804568928026 0.32074506353771021 0 -0.1083690905562489 0.27746201143443072 0 -0.08834593029567378 0.29472120043351602 0 -0.09206590757372593 0.27740472432850488 0 -0.1083690905562489 0.27746201143443072 0 -0.1003457715998239 0.30392270831765028 0 -0.08834593029567378 0.29472120043351602 0 -0.1083690905562489 0.27746201143443072 0 -0.1003457715998239 0.30392270831765028 0 -0.1083690905562489 0.27746201143443072 0 -0.08834593029567378 0.29472120043351602 0 -0.08834593029567378 0.29472120043351602 0 -0.079344374197139078 0.28508182268507098 0 -0.09206590757372593 0.27740472432850488 0 -0.08834593029567378 0.29472120043351602 0 -0.072463929930227558 0.29930610977545041 0 -0.077617967212061698 0.29366907382828078 0 -0.08834593029567378 0.29472120043351602 0 -0.079344374197139078 0.28508182268507098 0 -0.077617967212061698 0.29366907382828078 0 -0.08834593029567378 0.29472120043351602 0 -0.087527931766016032 0.31235393694025021 0 -0.08121949171140587 0.31012908581564408 0 -0.08834593029567378 0.29472120043351602 0 -0.068322770035098762 0.31198038943260148 0 -0.1003457715998239 0.30392270831765028 0 -0.08834593029567378 0.29472120043351602 0 -0.087527931766016032 0.31235393694025021 0 -0.08834593029567378 0.29472120043351602 0 -0.08121949171140587 0.31012908581564408 0 -0.069852456288818351 0.31207980665071 0 -0.08834593029567378 0.29472120043351602 0 -0.068322770035098762 0.31198038943260148 0 -0.069852456288818351 0.31207980665071 0 -0.08834593029567378 0.29472120043351602 0 -0.072463929930227558 0.29930610977545041 0 -0.068322770035098762 0.31198038943260148 0 -0.072463929930227558 0.29930610977545041 0 -0.064179569528432873 0.29754197169583518 0 -0.063962500348327456 0.30379626580195229 0 -0.072463929930227558 0.29930610977545041 0 -0.063962500348327456 0.30379626580195229 0 -0.068322770035098762 0.31198038943260148 0 -0.068322770035098762 0.31198038943260148 0 -0.069852456288818351 0.31207980665071 0 -0.079344374197139078 0.28508182268507098 0 -0.070510141993048517 0.29225124769799787 0 -0.067485792004003509 0.28106498521306011 0 -0.079344374197139078 0.28508182268507098 0 -0.077617967212061698 0.29366907382828078 0 -0.070510141993048517 0.29225124769799787 0 -0.072463929930227558 0.29930610977545041 0 -0.077617967212061698 0.29366907382828078 0 -0.070510141993048517 0.29225124769799787 0 -0.064179569528432873 0.29754197169583518 0 -0.070510141993048517 0.29225124769799787 0 -0.059799020663136082 0.29068729405280619 0 -0.072463929930227558 0.29930610977545041 0 -0.064179569528432873 0.29754197169583518 0 -0.070510141993048517 0.29225124769799787 0 -0.070510141993048517 0.29225124769799787 0 -0.067485792004003509 0.28106498521306011 0 -0.059799020663136082 0.29068729405280619 0 -0.079344374197139078 0.28508182268507098 0 -0.077112635008727601 0.26938653581869981 0 -0.067485792004003509 0.28106498521306011 0 -0.077112635008727601 0.26938653581869981 0 -0.067485792004003509 0.28106498521306011 0 -0.060296114269721542 0.26705395206363342 0 -0.079344374197139078 0.28508182268507098 0 -0.077112635008727601 0.26938653581869981 0 -0.09206590757372593 0.27740472432850488 0 -0.077112635008727601 0.26938653581869981 0 -0.09206590757372593 0.27740472432850488 0 -0.092391857727521592 0.25884509119311472 0 -0.092391857727521592 0.25884509119311472 0 -0.069221313838413207 0.24642852661517459 0 -0.077112635008727601 0.26938653581869981 0 -0.092391857727521592 0.25884509119311472 0 -0.069221313838413207 0.24642852661517459 0 -0.077112635008727601 0.26938653581869981 0 -0.060296114269721542 0.26705395206363342 0 -0.069221313838413207 0.24642852661517459 0 -0.048126263350958612 0.25465777805589501 0 -0.060296114269721542 0.26705395206363342 0 -0.069221313838413207 0.24642852661517459 0 -0.048126263350958612 0.25465777805589501 0 -0.060296114269721542 0.26705395206363342 0 -0.041784573477856593 0.2719242686623195 0 -0.055384127889045079 0.27986410773994991 0 -0.060296114269721542 0.26705395206363342 0 -0.041784573477856593 0.2719242686623195 0 -0.055384127889045079 0.27986410773994991 0 -0.041784573477856593 0.2719242686623195 0 -0.044370237993260717 0.29032640624232281 0 -0.067485792004003509 0.28106498521306011 0 -0.055384127889045079 0.27986410773994991 0 -0.060296114269721542 0.26705395206363342 0 -0.041784573477856593 0.2719242686623195 0 -0.028053557715267439 0.25838243531431121 0 -0.02550209953536561 0.27186686885002359 0 -0.041784573477856593 0.2719242686623195 0 -0.02550209953536561 0.27186686885002359 0 -0.031040102747703489 0.28267752730564011 0 -0.048126263350958612 0.25465777805589501 0 -0.041784573477856593 0.2719242686623195 0 -0.028053557715267439 0.25838243531431121 0 -0.048126263350958612 0.25465777805589501 0 -0.028053557715267439 0.25838243531431121 0 -0.033382390283993792 0.24359412621706661 0 -0.028053557715267439 0.25838243531431121 0 -0.01504563196256534 0.26333196488375049 0 -0.01778818590069102 0.2421293126167848 0 -0.01504563196256534 0.26333196488375049 0 -0.01778818590069102 0.2421293126167848 0 -0.028053557715267439 0.25838243531431121 0 -0.02550209953536561 0.27186686885002359 0 -0.01504563196256534 0.26333196488375049 0 -0.028053557715267439 0.25838243531431121 0 -0.01504563196256534 0.26333196488375049 0 -0.02550209953536561 0.27186686885002359 0 -0.01214761008608776 0.28573653795517551 0 -0.031040102747703489 0.28267752730564011 0 -0.02550209953536561 0.27186686885002359 0 -0.01504563196256534 0.26333196488375049 0 -0.01214761008608776 0.28573653795517551 0 -0.001267499687089951 0.2776013217203892 0 -0.01504563196256534 0.26333196488375049 0 -0.01214761008608776 0.28573653795517551 0 -0.01504563196256534 0.26333196488375049 0 -0.01214761008608776 0.28573653795517551 0 -0.00067809962666212902 0.26216505597133072 0 -0.01504563196256534 0.26333196488375049 0 0.010965700908337589 0.27322930467739909 0 -0.001267499687089951 0.2776013217203892 0 -0.01504563196256534 0.26333196488375049 0 0.010965700908337589 0.27322930467739909 0 -0.01504563196256534 0.26333196488375049 0 0.010965700908337589 0.27322930467739909 0 -0.0087132352456033638 0.25173417187717928 0 -0.01504563196256534 0.26333196488375049 0 -0.01778818590069102 0.2421293126167848 0 -0.00067809962666212902 0.26216505597133072 0 -0.0087132352456033638 0.25173417187717928 0 0.0027594708259384838 0.25829047161104352 0 -0.00067809962666212902 0.26216505597133072 0 -0.0087132352456033638 0.25173417187717928 0 -0.01504563196256534 0.26333196488375049 0 -0.009249588209606344 0.30814111102660002 0 -0.01214761008608776 0.28573653795517551 0 0.0038021096493471361 0.29689124930627131 0 -0.009249588209606344 0.30814111102660002 0 -0.01214761008608776 0.28573653795517551 0 -0.01214761008608776 0.28573653795517551 0 0.002380999114604244 0.28599596302517022 0 0.0038021096493471361 0.29689124930627131 0 -0.001267499687089951 0.2776013217203892 0 -0.01214761008608776 0.28573653795517551 0 0.002380999114604244 0.28599596302517022 0 -0.009249588209606344 0.30814111102660002 0 -0.01214761008608776 0.28573653795517551 0 -0.02711874363180217 0.2953884665518679 0 -0.01214761008608776 0.28573653795517551 0 -0.031040102747703489 0.28267752730564011 0 -0.02711874363180217 0.2953884665518679 0 -0.009249588209606344 0.30814111102660002 0 -0.02711874363180217 0.2953884665518679 0 -0.038786179122352507 0.31006075022960111 0 -0.009249588209606344 0.30814111102660002 0 -0.038786179122352507 0.31006075022960111 0 -0.02711874363180217 0.2953884665518679 0 -0.038786179122352507 0.31006075022960111 0 -0.044370237993260717 0.29032640624232281 0 -0.038786179122352507 0.31006075022960111 0 -0.044370237993260717 0.29032640624232281 0 -0.054162254707424723 0.30166894115096898 0 -0.031040102747703489 0.28267752730564011 0 -0.02711874363180217 0.2953884665518679 0 -0.044370237993260717 0.29032640624232281 0 -0.041784573477856593 0.2719242686623195 0 -0.031040102747703489 0.28267752730564011 0 -0.044370237993260717 0.29032640624232281 0 -0.055384127889045079 0.27986410773994991 0 -0.044370237993260717 0.29032640624232281 0 -0.059799020663136082 0.29068729405280619 0 -0.044370237993260717 0.29032640624232281 0 -0.059799020663136082 0.29068729405280619 0 -0.054162254707424723 0.30166894115096898 0 -0.064179569528432873 0.29754197169583518 0 -0.059799020663136082 0.29068729405280619 0 -0.054162254707424723 0.30166894115096898 0 -0.067485792004003509 0.28106498521306011 0 -0.055384127889045079 0.27986410773994991 0 -0.059799020663136082 0.29068729405280619 0 -0.068322770035098762 0.31198038943260148 0 -0.038786179122352507 0.31006075022960111 0 -0.068322770035098762 0.31198038943260148 0 -0.038786179122352507 0.31006075022960111 0 -0.054162254707424723 0.30166894115096898 0 -0.064179569528432873 0.29754197169583518 0 -0.063962500348327456 0.30379626580195229 0 -0.054162254707424723 0.30166894115096898 0 -0.063962500348327456 0.30379626580195229 0 -0.068322770035098762 0.31198038943260148 0 -0.054162254707424723 0.30166894115096898 0 -0.068322770035098762 0.31198038943260148 0 -0.038786179122352507 0.31006075022960111 0 -0.053879496619987192 0.32442993198196868 0 -0.068322770035098762 0.31198038943260148 0 -0.053879496619987192 0.32442993198196868 0 -0.059045099567240703 0.33862263320968672 0 -0.059976501396798443 0.34640013057040159 0 -0.068046633572776155 0.34513696516333192 0 -0.053879496619987192 0.32442993198196868 0 -0.059045099567240703 0.33862263320968672 0 -0.06815446288386498 0.3263880450875648 0 -0.053879496619987192 0.32442993198196868 0 -0.059045099567240703 0.33862263320968672 0 -0.049717572699208172 0.33977374392884352 0 -0.053879496619987192 0.32442993198196868 0 -0.049717572699208172 0.33977374392884352 0 -0.039436223204876379 0.33687947453133682 0 -0.059045099567240703 0.33862263320968672 0 -0.049717572699208172 0.33977374392884352 0 -0.052933118771744558 0.34753778728834739 0 -0.049717572699208172 0.33977374392884352 0 -0.039436223204876379 0.33687947453133682 0 -0.045752302425533672 0.34929255203680049 0 -0.053879496619987192 0.32442993198196868 0 -0.039436223204876379 0.33687947453133682 0 -0.039359444206513459 0.32419621080282812 0 -0.053879496619987192 0.32442993198196868 0 -0.039436223204876379 0.33687947453133682 0 -0.039436223204876379 0.33687947453133682 0 -0.039359444206513459 0.32419621080282812 0 -0.02531264429424256 0.33765677836634578 0 -0.039436223204876379 0.33687947453133682 0 -0.02531264429424256 0.33765677836634578 0 -0.034795741464765127 0.3466441775467104 0 -0.038786179122352507 0.31006075022960111 0 -0.053879496619987192 0.32442993198196868 0 -0.039359444206513459 0.32419621080282812 0 -0.038786179122352507 0.31006075022960111 0 -0.039359444206513459 0.32419621080282812 0 -0.024068293084679539 0.32272721199300619 0 -0.009249588209606344 0.30814111102660002 0 -0.038786179122352507 0.31006075022960111 0 -0.024068293084679539 0.32272721199300619 0 -0.024068293084679539 0.32272721199300619 0 -0.02531264429424256 0.33765677836634578 0 -0.005758602284471958 0.33512988219008361 0 -0.039359444206513459 0.32419621080282812 0 -0.024068293084679539 0.32272721199300619 0 -0.02531264429424256 0.33765677836634578 0 -0.005758602284471958 0.33512988219008361 0 -0.0077202170519437719 0.34710906184019069 0 0.0082446038140756572 0.34376242611402219 0 -0.02531264429424256 0.33765677836634578 0 -0.005758602284471958 0.33512988219008361 0 -0.0077202170519437719 0.34710906184019069 0 -0.009249588209606344 0.30814111102660002 0 -0.005758602284471958 0.33512988219008361 0 0.0094307060340404689 0.32376070079746733 0 -0.009249588209606344 0.30814111102660002 0 -0.005758602284471958 0.33512988219008361 0 -0.009249588209606344 0.30814111102660002 0 -0.024068293084679539 0.32272721199300619 0 -0.005758602284471958 0.33512988219008361 0 -0.0045677851665312944 0.36532665559408428 0 -0.0087141207398781558 0.37710904293520409 0 0.0077169544749549623 0.36306791211952738 0 -0.0045677851665312944 0.36532665559408428 0 -0.019623601183504629 0.35541479533684739 0 -0.0087141207398781558 0.37710904293520409 0 -0.0087141207398781558 0.37710904293520409 0 0.0077169544749549623 0.36306791211952738 0 -0.0077202170519437719 0.34710906184019069 0 -0.019623601183504629 0.35541479533684739 0 0.0038095970876644218 0.35606187191015221 0 -0.019623601183504629 0.35541479533684739 0 0.0038095970876644218 0.35606187191015221 0 -0.0045677851665312944 0.36532665559408428 0 -0.019623601183504629 0.35541479533684739 0 0.0038095970876644218 0.35606187191015221 0 -0.02531264429424256 0.33765677836634578 0 -0.019623601183504629 0.35541479533684739 0 -0.034795741464765127 0.3466441775467104 0 -0.02531264429424256 0.33765677836634578 0 -0.0077202170519437719 0.34710906184019069 0 -0.019623601183504629 0.35541479533684739 0 -0.019623601183504629 0.35541479533684739 0 -0.034100997704691827 0.37295894625721099 0 -0.0087141207398781558 0.37710904293520409 0 -0.019623601183504629 0.35541479533684739 0 -0.034100997704691827 0.37295894625721099 0 -0.043056799454673583 0.35476771876354157 0 -0.034100997704691827 0.37295894625721099 0 -0.047131069669461997 0.36807368878450081 0 -0.054593457040109393 0.3822816536988497 0 -0.034100997704691827 0.37295894625721099 0 -0.043056799454673583 0.35476771876354157 0 -0.034100997704691827 0.37295894625721099 0 -0.043056799454673583 0.35476771876354157 0 -0.047131069669461997 0.36807368878450081 0 -0.019623601183504629 0.35541479533684739 0 -0.043056799454673583 0.35476771876354157 0 -0.019623601183504629 0.35541479533684739 0 -0.034795741464765127 0.3466441775467104 0 -0.043056799454673583 0.35476771876354157 0 -0.043056799454673583 0.35476771876354157 0 -0.045752302425533672 0.34929255203680049 0 -0.039436223204876379 0.33687947453133682 0 -0.034795741464765127 0.3466441775467104 0 -0.045752302425533672 0.34929255203680049 0 -0.034795741464765127 0.3466441775467104 0 -0.043056799454673583 0.35476771876354157 0 -0.045752302425533672 0.34929255203680049 0 -0.043056799454673583 0.35476771876354157 0 -0.052933118771744558 0.34753778728834739 0 -0.059881153675432383 0.35430313662024071 0 -0.043056799454673583 0.35476771876354157 0 -0.059881153675432383 0.35430313662024071 0 -0.051828064233363932 0.36038047858465339 0 -0.043056799454673583 0.35476771876354157 0 -0.059881153675432383 0.35430313662024071 0 -0.043056799454673583 0.35476771876354157 0 -0.045752302425533672 0.34929255203680049 0 -0.052933118771744558 0.34753778728834739 0 -0.049717572699208172 0.33977374392884352 0 -0.045752302425533672 0.34929255203680049 0 -0.052933118771744558 0.34753778728834739 0 -0.059881153675432383 0.35430313662024071 0 -0.051828064233363932 0.36038047858465339 0 -0.058626870601395778 0.36023180910453118 0 -0.059045099567240703 0.33862263320968672 0 -0.052933118771744558 0.34753778728834739 0 -0.059976501396798443 0.34640013057040159 0 -0.052933118771744558 0.34753778728834739 0 -0.059881153675432383 0.35430313662024071 0 -0.059976501396798443 0.34640013057040159 0 -0.047131069669461997 0.36807368878450081 0 -0.054116187566776573 0.36544526432200969 0 -0.058148679921659119 0.37186744297544022 0 -0.047131069669461997 0.36807368878450081 0 -0.058148679921659119 0.37186744297544022 0 -0.054593457040109393 0.3822816536988497 0 -0.043056799454673583 0.35476771876354157 0 -0.047131069669461997 0.36807368878450081 0 -0.051828064233363932 0.36038047858465339 0 -0.047131069669461997 0.36807368878450081 0 -0.051828064233363932 0.36038047858465339 0 -0.054116187566776573 0.36544526432200969 0 -0.054116187566776573 0.36544526432200969 0 -0.058626870601395778 0.36023180910453118 0 -0.058148679921659119 0.37186744297544022 0 -0.051828064233363932 0.36038047858465339 0 -0.054116187566776573 0.36544526432200969 0 -0.058626870601395778 0.36023180910453118 0 -0.058626870601395778 0.36023180910453118 0 -0.058148679921659119 0.37186744297544022 0 -0.076275814730551866 0.38330479896731001 0 -0.058626870601395778 0.36023180910453118 0 -0.071157696118109362 0.36170448025062218 0 -0.076275814730551866 0.38330479896731001 0 -0.071157696118109362 0.36170448025062218 0 -0.084299133686975572 0.35684410208409001 0 -0.076275814730551866 0.38330479896731001 0 -0.058626870601395778 0.36023180910453118 0 -0.076275814730551866 0.38330479896731001 0 -0.084299133686975572 0.35684410208409001 0 -0.089436666146690338 0.3774527594588406 0 -0.076275814730551866 0.38330479896731001 0 -0.084299133686975572 0.35684410208409001 0 -0.076275814730551866 0.38330479896731001 0 -0.093494049974744503 0.36523362229143391 0 -0.084299133686975572 0.35684410208409001 0 -0.089436666146690338 0.3774527594588406 0 -0.084299133686975572 0.35684410208409001 0 -0.076705507896191183 0.35383855447693902 0 -0.080753986599573127 0.33990497651870988 0 -0.084299133686975572 0.35684410208409001 0 -0.092322452643399749 0.33038340520087017 0 -0.095141502753968779 0.35097174187852381 0 -0.093494049974744503 0.36523362229143391 0 -0.084299133686975572 0.35684410208409001 0 -0.095141502753968779 0.35097174187852381 0 -0.059881153675432383 0.35430313662024071 0 -0.071157696118109362 0.36170448025062218 0 -0.076705507896191183 0.35383855447693902 0 -0.076705507896191183 0.35383855447693902 0 -0.068046633572776155 0.34513696516333192 0 -0.080753986599573127 0.33990497651870988 0 -0.059881153675432383 0.35430313662024071 0 -0.076705507896191183 0.35383855447693902 0 -0.068046633572776155 0.34513696516333192 0 -0.059881153675432383 0.35430313662024071 0 -0.076705507896191183 0.35383855447693902 0 -0.071157696118109362 0.36170448025062218 0 -0.084299133686975572 0.35684410208409001 0 -0.076705507896191183 0.35383855447693902 0 -0.059881153675432383 0.35430313662024071 0 -0.058626870601395778 0.36023180910453118 0 -0.071157696118109362 0.36170448025062218 0 -0.059881153675432383 0.35430313662024071 0 -0.059976501396798443 0.34640013057040159 0 -0.068046633572776155 0.34513696516333192 0 -0.06815446288386498 0.3263880450875648 0 -0.079151648495115301 0.32136139923810009 0 -0.080753986599573127 0.33990497651870988 0 -0.068046633572776155 0.34513696516333192 0 -0.06815446288386498 0.3263880450875648 0 -0.080753986599573127 0.33990497651870988 0 -0.059045099567240703 0.33862263320968672 0 -0.068046633572776155 0.34513696516333192 0 -0.06815446288386498 0.3263880450875648 0 -0.068322770035098762 0.31198038943260148 0 -0.069852456288818351 0.31207980665071 0 -0.06815446288386498 0.3263880450875648 0 -0.068322770035098762 0.31198038943260148 0 -0.053879496619987192 0.32442993198196868 0 -0.06815446288386498 0.3263880450875648 0 -0.08121949171140587 0.31012908581564408 0 -0.069852456288818351 0.31207980665071 0 -0.079151648495115301 0.32136139923810009 0 -0.069852456288818351 0.31207980665071 0 -0.06815446288386498 0.3263880450875648 0 -0.079151648495115301 0.32136139923810009 0 -0.087527931766016032 0.31235393694025021 0 -0.079151648495115301 0.32136139923810009 0 -0.092322452643399749 0.33038340520087017 0 -0.1003457715998239 0.30392270831765028 0 -0.087527931766016032 0.31235393694025021 0 -0.092322452643399749 0.33038340520087017 0 -0.087527931766016032 0.31235393694025021 0 -0.08121949171140587 0.31012908581564408 0 -0.079151648495115301 0.32136139923810009 0 -0.084299133686975572 0.35684410208409001 0 -0.092322452643399749 0.33038340520087017 0 -0.079151648495115301 0.32136139923810009 0 -0.092322452643399749 0.33038340520087017 0 -0.080753986599573127 0.33990497651870988 0 -0.084299133686975572 0.35684410208409001 0 -0.092322452643399749 0.33038340520087017 0 -0.080753986599573127 0.33990497651870988 0 -0.092322452643399749 0.33038340520087017 0 -0.10472406897533799 0.34168768652513631 0 -0.095141502753968779 0.35097174187852381 0 -0.092322452643399749 0.33038340520087017 0 -0.10472406897533799 0.34168768652513631 0 -0.1081804568928026 0.32074506353771021 0 -0.1003457715998239 0.30392270831765028 0 -0.092322452643399749 0.33038340520087017 0 -0.1003457715998239 0.30392270831765028 0 -0.092322452643399749 0.33038340520087017 0 -0.1081804568928026 0.32074506353771021 0 -0.1262409447270301 0.3211703831111522 0 -0.1173504618646501 0.30916380798395637 0 -0.1081804568928026 0.32074506353771021 0 -0.1262409447270301 0.3211703831111522 0 -0.1081804568928026 0.32074506353771021 0 -0.1175879007316586 0.33497855513245622 0 -0.13367478836053351 0.33932016938713638 0 -0.1175879007316586 0.33497855513245622 0 -0.1173066256070304 0.35104950557859033 0 -0.10472406897533799 0.34168768652513631 0 -0.1081804568928026 0.32074506353771021 0 -0.1175879007316586 0.33497855513245622 0 -0.10472406897533799 0.34168768652513631 0 -0.1175879007316586 0.33497855513245622 0 -0.1173066256070304 0.35104950557859033 0 -0.1173066256070304 0.35104950557859033 0 -0.1198206075896991 0.37069234566290138 0 -0.1030551893938276 0.35978992576853291 0 -0.1367685514822152 0.35851885971508118 0 -0.1173066256070304 0.35104950557859033 0 -0.1198206075896991 0.37069234566290138 0 -0.1198206075896991 0.37069234566290138 0 -0.1030551893938276 0.35978992576853291 0 -0.10026372758235801 0.37465761506622741 0 -0.093494049974744503 0.36523362229143391 0 -0.10026372758235801 0.37465761506622741 0 -0.089436666146690338 0.3774527594588406 0 -0.093494049974744503 0.36523362229143391 0 -0.1030551893938276 0.35978992576853291 0 -0.10026372758235801 0.37465761506622741 0 -0.10472406897533799 0.34168768652513631 0 -0.1030551893938276 0.35978992576853291 0 -0.095141502753968779 0.35097174187852381 0 -0.093494049974744503 0.36523362229143391 0 -0.1030551893938276 0.35978992576853291 0 -0.095141502753968779 0.35097174187852381 0 -0.10472406897533799 0.34168768652513631 0 -0.1173066256070304 0.35104950557859033 0 -0.1030551893938276 0.35978992576853291 0 -0.101128536279416 0.3977608810528192 0 -0.11378235269799521 0.38746486633725291 0 -0.11258596611237601 0.40408595479252452 0 -0.101128536279416 0.3977608810528192 0 -0.095244926421122186 0.38729621463576269 0 -0.11378235269799521 0.38746486633725291 0 -0.101128536279416 0.3977608810528192 0 -0.11258596611237601 0.40408595479252452 0 -0.097808874238227678 0.41145560844912898 0 -0.101128536279416 0.3977608810528192 0 -0.097808874238227678 0.41145560844912898 0 -0.087042344484389883 0.39738020370821953 0 -0.101128536279416 0.3977608810528192 0 -0.095244926421122186 0.38729621463576269 0 -0.087042344484389883 0.39738020370821953 0 -0.10026372758235801 0.37465761506622741 0 -0.095244926421122186 0.38729621463576269 0 -0.11378235269799521 0.38746486633725291 0 -0.10026372758235801 0.37465761506622741 0 -0.095244926421122186 0.38729621463576269 0 -0.089436666146690338 0.3774527594588406 0 -0.1198206075896991 0.37069234566290138 0 -0.10026372758235801 0.37465761506622741 0 -0.11378235269799521 0.38746486633725291 0 -0.12826940643264259 0.38638828685515292 0 -0.1198206075896991 0.37069234566290138 0 -0.11378235269799521 0.38746486633725291 0 -0.12644786621320531 0.40058001872868543 0 -0.12826940643264259 0.38638828685515292 0 -0.11378235269799521 0.38746486633725291 0 -0.12761284081938409 0.41418542740570108 0 -0.11378235269799521 0.38746486633725291 0 -0.12761284081938409 0.41418542740570108 0 -0.12644786621320531 0.40058001872868543 0 -0.11378235269799521 0.38746486633725291 0 -0.12761284081938409 0.41418542740570108 0 -0.11378235269799521 0.38746486633725291 0 -0.11258596611237601 0.40408595479252452 0 -0.12761284081938409 0.41418542740570108 0 -0.11258596611237601 0.40408595479252452 0 -0.097808874238227678 0.41145560844912898 0 -0.12761284081938409 0.41418542740570108 0 -0.1126245701039178 0.4308246085444013 0 -0.097808874238227678 0.41145560844912898 0 -0.12761284081938409 0.41418542740570108 0 -0.097808874238227678 0.41145560844912898 0 -0.12761284081938409 0.41418542740570108 0 -0.1126245701039178 0.4308246085444013 0 -0.1242648033483075 0.43981492828754482 0 -0.1126245701039178 0.4308246085444013 0 -0.096605527178418776 0.42311346390882398 0 -0.097170403390676049 0.43571281837191522 0 -0.1126245701039178 0.4308246085444013 0 -0.097170403390676049 0.43571281837191522 0 -0.10338783084247161 0.44098956532991213 0 -0.1126245701039178 0.4308246085444013 0 -0.097808874238227678 0.41145560844912898 0 -0.1126245701039178 0.4308246085444013 0 -0.096605527178418776 0.42311346390882398 0 -0.097808874238227678 0.41145560844912898 0 -0.096605527178418776 0.42311346390882398 0 -0.097808874238227678 0.41145560844912898 0 -0.090623427087895073 0.41079747558654428 0 -0.097808874238227678 0.41145560844912898 0 -0.090623427087895073 0.41079747558654428 0 -0.096605527178418776 0.42311346390882398 0 -0.090623427087895073 0.41079747558654428 0 -0.084800361071377284 0.4267768085921303 0 -0.090623427087895073 0.41079747558654428 0 -0.084347825254610875 0.40943513047528779 0 -0.084800361071377284 0.4267768085921303 0 -0.084800361071377284 0.4267768085921303 0 -0.074925168374781331 0.40278603401425761 0 -0.084347825254610875 0.40943513047528779 0 -0.084800361071377284 0.4267768085921303 0 -0.074925168374781331 0.40278603401425761 0 -0.097808874238227678 0.41145560844912898 0 -0.090623427087895073 0.41079747558654428 0 -0.087042344484389883 0.39738020370821953 0 -0.096605527178418776 0.42311346390882398 0 -0.097170403390676049 0.43571281837191522 0 -0.084800361071377284 0.4267768085921303 0 -0.084800361071377284 0.4267768085921303 0 -0.077689053426030094 0.43734830183904833 0 -0.073740177733494089 0.43015549729097768 0 -0.084800361071377284 0.4267768085921303 0 -0.077689053426030094 0.43734830183904833 0 -0.085627028266785254 0.44117175463919189 0 -0.077689053426030094 0.43734830183904833 0 -0.073740177733494089 0.43015549729097768 0 -0.069373851585076945 0.43677151010665521 0 -0.084800361071377284 0.4267768085921303 0 -0.073740177733494089 0.43015549729097768 0 -0.074963529381557356 0.42372471124402672 0 -0.084800361071377284 0.4267768085921303 0 -0.074963529381557356 0.42372471124402672 0 -0.074207610301873977 0.415826985147286 0 -0.073740177733494089 0.43015549729097768 0 -0.07134827269677288 0.42521816639912852 0 -0.067010261651664849 0.42692585223643509 0 -0.073740177733494089 0.43015549729097768 0 -0.074963529381557356 0.42372471124402672 0 -0.07134827269677288 0.42521816639912852 0 -0.074963529381557356 0.42372471124402672 0 -0.07134827269677288 0.42521816639912852 0 -0.069903249343569923 0.42035209495099629 0 -0.06803153127557314 0.42418340705062968 0 -0.063864341410284964 0.42423751461595932 0 -0.069903249343569923 0.42035209495099629 0 -0.07134827269677288 0.42521816639912852 0 -0.06803153127557314 0.42418340705062968 0 -0.067010261651664849 0.42692585223643509 0 -0.07134827269677288 0.42521816639912852 0 -0.06803153127557314 0.42418340705062968 0 -0.069903249343569923 0.42035209495099629 0 -0.06803153127557314 0.42418340705062968 0 -0.063864341410284964 0.42423751461595932 0 -0.067010261651664849 0.42692585223643509 0 -0.063864341410284964 0.42423751461595932 0 -0.067010261651664849 0.42692585223643509 0 -0.067010261651664849 0.42692585223643509 0 -0.06657591115514655 0.43192586875325267 0 -0.062357688865182517 0.42920641545622512 0 -0.063864341410284964 0.42423751461595932 0 -0.067010261651664849 0.42692585223643509 0 -0.062357688865182517 0.42920641545622512 0 -0.063864341410284964 0.42423751461595932 0 -0.062357688865182517 0.42920641545622512 0 -0.073740177733494089 0.43015549729097768 0 -0.067010261651664849 0.42692585223643509 0 -0.06657591115514655 0.43192586875325267 0 -0.073740177733494089 0.43015549729097768 0 -0.06657591115514655 0.43192586875325267 0 -0.069373851585076945 0.43677151010665521 0 -0.06657591115514655 0.43192586875325267 0 -0.062750456602468974 0.43554137489064498 0 -0.062357688865182517 0.42920641545622512 0 -0.06657591115514655 0.43192586875325267 0 -0.062750456602468974 0.43554137489064498 0 -0.069373851585076945 0.43677151010665521 0 -0.063864341410284964 0.42423751461595932 0 -0.069903249343569923 0.42035209495099629 0 -0.070070078070418332 0.40377115679163461 0 -0.074207610301873977 0.415826985147286 0 -0.069903249343569923 0.42035209495099629 0 -0.070070078070418332 0.40377115679163461 0 -0.063864341410284964 0.42423751461595932 0 -0.070070078070418332 0.40377115679163461 0 -0.058881304157308093 0.40804381518971672 0 -0.063864341410284964 0.42423751461595932 0 -0.070070078070418332 0.40377115679163461 0 -0.084800361071377284 0.4267768085921303 0 -0.074207610301873977 0.415826985147286 0 -0.074925168374781331 0.40278603401425761 0 -0.074207610301873977 0.415826985147286 0 -0.070070078070418332 0.40377115679163461 0 -0.074925168374781331 0.40278603401425761 0 -0.074963529381557356 0.42372471124402672 0 -0.074207610301873977 0.415826985147286 0 -0.069903249343569923 0.42035209495099629 0 -0.070070078070418332 0.40377115679163461 0 -0.064506344576777661 0.39145758865641178 0 -0.076275814730551866 0.38330479896731001 0 -0.070070078070418332 0.40377115679163461 0 -0.074925168374781331 0.40278603401425761 0 -0.076275814730551866 0.38330479896731001 0 -0.070070078070418332 0.40377115679163461 0 -0.076275814730551866 0.38330479896731001 0 -0.070070078070418332 0.40377115679163461 0 -0.064506344576777661 0.39145758865641178 0 -0.057086028466031037 0.39647274516785291 0 -0.074925168374781331 0.40278603401425761 0 -0.087042344484389883 0.39738020370821953 0 -0.076275814730551866 0.38330479896731001 0 -0.084347825254610875 0.40943513047528779 0 -0.074925168374781331 0.40278603401425761 0 -0.087042344484389883 0.39738020370821953 0 -0.097808874238227678 0.41145560844912898 0 -0.087042344484389883 0.39738020370821953 0 -0.090623427087895073 0.41079747558654428 0 -0.084347825254610875 0.40943513047528779 0 -0.087042344484389883 0.39738020370821953 0 -0.087042344484389883 0.39738020370821953 0 -0.089436666146690338 0.3774527594588406 0 -0.076275814730551866 0.38330479896731001 0 -0.095244926421122186 0.38729621463576269 0 -0.087042344484389883 0.39738020370821953 0 -0.089436666146690338 0.3774527594588406 0 -0.087042344484389883 0.39738020370821953 0 -0.076275814730551866 0.38330479896731001 0 -0.064506344576777661 0.39145758865641178 0 -0.076275814730551866 0.38330479896731001 0 -0.054593457040109393 0.3822816536988497 0 -0.058148679921659119 0.37186744297544022 0 -0.076275814730551866 0.38330479896731001 0 -0.054593457040109393 0.3822816536988497 0 -0.064506344576777661 0.39145758865641178 0 -0.054593457040109393 0.3822816536988497 0 -0.057086028466031037 0.39647274516785291 0 -0.054593457040109393 0.3822816536988497 0 -0.057086028466031037 0.39647274516785291 0 -0.042391572779214973 0.39096282696345341 0 -0.057086028466031037 0.39647274516785291 0 -0.042391572779214973 0.39096282696345341 0 -0.044504768682498037 0.40769384418342008 0 -0.070070078070418332 0.40377115679163461 0 -0.057086028466031037 0.39647274516785291 0 -0.058881304157308093 0.40804381518971672 0 -0.057086028466031037 0.39647274516785291 0 -0.044504768682498037 0.40769384418342008 0 -0.058881304157308093 0.40804381518971672 0 -0.02514519595471108 0.39115017375088101 0 -0.044504768682498037 0.40769384418342008 0 -0.042391572779214973 0.39096282696345341 0 -0.02514519595471108 0.39115017375088101 0 -0.044504768682498037 0.40769384418342008 0 -0.034100997704691827 0.37295894625721099 0 -0.054593457040109393 0.3822816536988497 0 -0.042391572779214973 0.39096282696345341 0 -0.034100997704691827 0.37295894625721099 0 -0.042391572779214973 0.39096282696345341 0 -0.02514519595471108 0.39115017375088101 0 -0.034100997704691827 0.37295894625721099 0 -0.02514519595471108 0.39115017375088101 0 -0.034100997704691827 0.37295894625721099 0 -0.02514519595471108 0.39115017375088101 0 -0.0087141207398781558 0.37710904293520409 0 -0.02514519595471108 0.39115017375088101 0 -0.0087141207398781558 0.37710904293520409 0 -0.02514519595471108 0.39115017375088101 0 -0.014810785045769751 0.41214166341376801 0 -0.02514519595471108 0.39115017375088101 0 -0.014810785045769751 0.41214166341376801 0 -0.044504768682498037 0.40769384418342008 0 -0.0068648610501423502 0.39382000907293813 0 -0.014810785045769751 0.41214166341376801 0 0.0046995574085186929 0.41194005205042061 0 -0.02514519595471108 0.39115017375088101 0 -0.0068648610501423502 0.39382000907293813 0 -0.014810785045769751 0.41214166341376801 0 -0.02514519595471108 0.39115017375088101 0 -0.0068648610501423502 0.39382000907293813 0 -0.0087141207398781558 0.37710904293520409 0 -0.0068648610501423502 0.39382000907293813 0 -0.0087141207398781558 0.37710904293520409 0 0.0053185270157129726 0.37689571945341471 0 -0.0044763741368290672 0.43313315307665529 0 -0.014810785045769751 0.41214166341376801 0 -0.0044763741368290672 0.43313315307665529 0 -0.014810785045769751 0.41214166341376801 0 -0.026116443713473419 0.4246575807879529 0 -0.0044763741368290672 0.43313315307665529 0 -0.014810785045769751 0.41214166341376801 0 0.0046995574085186929 0.41194005205042061 0 -0.014810785045769751 0.41214166341376801 0 -0.026116443713473419 0.4246575807879529 0 -0.044504768682498037 0.40769384418342008 0 -0.0044763741368290672 0.43313315307665529 0 -0.026116443713473419 0.4246575807879529 0 -0.02623027688729573 0.44118750916919391 0 -0.026116443713473419 0.4246575807879529 0 -0.040560013814974517 0.42913173409672722 0 -0.02623027688729573 0.44118750916919391 0 -0.040560013814974517 0.42913173409672722 0 -0.048293098329248912 0.43867666423002288 0 -0.039090066940739521 0.44352471403713711 0 -0.026116443713473419 0.4246575807879529 0 -0.040560013814974517 0.42913173409672722 0 -0.044504768682498037 0.40769384418342008 0 -0.040560013814974517 0.42913173409672722 0 -0.044504768682498037 0.40769384418342008 0 -0.051886787429848112 0.42350176277299723 0 -0.063864341410284964 0.42423751461595932 0 -0.044504768682498037 0.40769384418342008 0 -0.058881304157308093 0.40804381518971672 0 -0.063864341410284964 0.42423751461595932 0 -0.044504768682498037 0.40769384418342008 0 -0.051886787429848112 0.42350176277299723 0 -0.063864341410284964 0.42423751461595932 0 -0.044504768682498037 0.40769384418342008 0 -0.053936434918908913 0.43159717611494758 0 -0.057641003333182179 0.44086754716312743 0 -0.048293098329248912 0.43867666423002288 0 -0.040560013814974517 0.42913173409672722 0 -0.053936434918908913 0.43159717611494758 0 -0.048293098329248912 0.43867666423002288 0 -0.040560013814974517 0.42913173409672722 0 -0.053936434918908913 0.43159717611494758 0 -0.051886787429848112 0.42350176277299723 0 -0.053936434918908913 0.43159717611494758 0 -0.051886787429848112 0.42350176277299723 0 -0.062357688865182517 0.42920641545622512 0 -0.063864341410284964 0.42423751461595932 0 -0.051886787429848112 0.42350176277299723 0 -0.062357688865182517 0.42920641545622512 0 -0.062750456602468974 0.43554137489064498 0 -0.053936434918908913 0.43159717611494758 0 -0.062357688865182517 0.42920641545622512 0 -0.062750456602468974 0.43554137489064498 0 -0.053936434918908913 0.43159717611494758 0 -0.057641003333182179 0.44086754716312743 0 -0.062750456602468974 0.43554137489064498 0 -0.057641003333182179 0.44086754716312743 0 -0.065491549478626135 0.44200233464982802 0 -0.057641003333182179 0.44086754716312743 0 -0.062398417199954148 0.4499603094023914 0 -0.065491549478626135 0.44200233464982802 0 -0.057641003333182179 0.44086754716312743 0 -0.062398417199954148 0.4499603094023914 0 -0.050237972638439453 0.44826214973817502 0 -0.057641003333182179 0.44086754716312743 0 -0.050237972638439453 0.44826214973817502 0 -0.048293098329248912 0.43867666423002288 0 -0.062398417199954148 0.4499603094023914 0 -0.050230730183752688 0.46259696058471089 0 -0.064501224992871267 0.46542691543905351 0 -0.062398417199954148 0.4499603094023914 0 -0.050237972638439453 0.44826214973817502 0 -0.050230730183752688 0.46259696058471089 0 -0.050230730183752688 0.46259696058471089 0 -0.035748626011326709 0.45858167758110602 0 -0.046040344352481867 0.47841272498986082 0 -0.050237972638439453 0.44826214973817502 0 -0.050230730183752688 0.46259696058471089 0 -0.035748626011326709 0.45858167758110602 0 -0.035748626011326709 0.45858167758110602 0 -0.039090066940739521 0.44352471403713711 0 -0.02623027688729573 0.44118750916919391 0 -0.050237972638439453 0.44826214973817502 0 -0.048293098329248912 0.43867666423002288 0 -0.039090066940739521 0.44352471403713711 0 -0.050237972638439453 0.44826214973817502 0 -0.035748626011326709 0.45858167758110602 0 -0.039090066940739521 0.44352471403713711 0 -0.040560013814974517 0.42913173409672722 0 -0.039090066940739521 0.44352471403713711 0 -0.02623027688729573 0.44118750916919391 0 -0.035748626011326709 0.45858167758110602 0 -0.02623027688729573 0.44118750916919391 0 -0.01728298942402769 0.45556140426229003 0 -0.0044763741368290672 0.43313315307665529 0 -0.02623027688729573 0.44118750916919391 0 -0.01728298942402769 0.45556140426229003 0 -0.035748626011326709 0.45858167758110602 0 -0.01728298942402769 0.45556140426229003 0 -0.022784747477638551 0.4775754860453762 0 -0.01728298942402769 0.45556140426229003 0 -0.0062093312902834459 0.46527566221073008 0 0.006403582431216831 0.45126676372832991 0 -0.01728298942402769 0.45556140426229003 0 -0.0062093312902834459 0.46527566221073008 0 -0.022784747477638551 0.4775754860453762 0 -0.0044763741368290672 0.43313315307665529 0 -0.01728298942402769 0.45556140426229003 0 0.006403582431216831 0.45126676372832991 0 -0.0062093312902834459 0.46527566221073008 0 -0.022784747477638551 0.4775754860453762 0 0.0095498935665802413 0.47810272379952351 0 -0.022784747477638551 0.4775754860453762 0 -0.021427984417146221 0.5 0 0.0095498935665802413 0.47810272379952351 0 -0.021427984417146221 0.5 0 0.0095498935665802413 0.47810272379952351 0 0.0086042794582089632 0.5 0 -0.022784747477638551 0.4775754860453762 0 -0.021427984417146221 0.5 0 -0.046040344352481867 0.47841272498986082 0 -0.021427984417146221 0.5 0 -0.046040344352481867 0.47841272498986082 0 -0.051460248292501398 0.5 0 -0.035748626011326709 0.45858167758110602 0 -0.022784747477638551 0.4775754860453762 0 -0.046040344352481867 0.47841272498986082 0 -0.046040344352481867 0.47841272498986082 0 -0.067939054777113927 0.48291587414950521 0 -0.064501224992871267 0.46542691543905351 0 -0.050230730183752688 0.46259696058471089 0 -0.046040344352481867 0.47841272498986082 0 -0.064501224992871267 0.46542691543905351 0 -0.046040344352481867 0.47841272498986082 0 -0.051460248292501398 0.5 0 -0.067939054777113927 0.48291587414950521 0 -0.051460248292501398 0.5 0 -0.081492512167856565 0.50000000000000011 0 -0.067939054777113927 0.48291587414950521 0 -0.081492512167856565 0.50000000000000011 0 -0.085878896958769185 0.47675925450649242 0 -0.067939054777113927 0.48291587414950521 0 -0.081492512167856565 0.50000000000000011 0 -0.085878896958769185 0.47675925450649242 0 -0.099362977551805121 0.48745008538217821 0 -0.081492512167856565 0.50000000000000011 0 -0.085878896958769185 0.47675925450649242 0 -0.085878896958769185 0.47675925450649242 0 -0.075452149305044958 0.46933040044586682 0 -0.067939054777113927 0.48291587414950521 0 -0.075452149305044958 0.46933040044586682 0 -0.067939054777113927 0.48291587414950521 0 -0.064501224992871267 0.46542691543905351 0 -0.064501224992871267 0.46542691543905351 0 -0.075214053997903707 0.45912990264989012 0 -0.070315415620740368 0.45334812155980347 0 -0.062398417199954148 0.4499603094023914 0 -0.064501224992871267 0.46542691543905351 0 -0.070315415620740368 0.45334812155980347 0 -0.075214053997903707 0.45912990264989012 0 -0.070315415620740368 0.45334812155980347 0 -0.081419329692844739 0.44979703694502599 0 -0.075452149305044958 0.46933040044586682 0 -0.064501224992871267 0.46542691543905351 0 -0.075214053997903707 0.45912990264989012 0 -0.075452149305044958 0.46933040044586682 0 -0.075214053997903707 0.45912990264989012 0 -0.082509194984251868 0.46007906520350089 0 -0.069373851585076945 0.43677151010665521 0 -0.065491549478626135 0.44200233464982802 0 -0.073041418115067244 0.44511613748665291 0 -0.062750456602468974 0.43554137489064498 0 -0.069373851585076945 0.43677151010665521 0 -0.065491549478626135 0.44200233464982802 0 -0.062398417199954148 0.4499603094023914 0 -0.065491549478626135 0.44200233464982802 0 -0.073041418115067244 0.44511613748665291 0 -0.062398417199954148 0.4499603094023914 0 -0.070315415620740368 0.45334812155980347 0 -0.073041418115067244 0.44511613748665291 0 -0.070315415620740368 0.45334812155980347 0 -0.073041418115067244 0.44511613748665291 0 -0.081419329692844739 0.44979703694502599 0 -0.073041418115067244 0.44511613748665291 0 -0.07941018481149445 0.44345804230003222 0 -0.081419329692844739 0.44979703694502599 0 -0.077689053426030094 0.43734830183904833 0 -0.069373851585076945 0.43677151010665521 0 -0.073041418115067244 0.44511613748665291 0 -0.077689053426030094 0.43734830183904833 0 -0.073041418115067244 0.44511613748665291 0 -0.07941018481149445 0.44345804230003222 0 -0.097170403390676049 0.43571281837191522 0 -0.084800361071377284 0.4267768085921303 0 -0.094675553767973264 0.45076758317000298 0 -0.084800361071377284 0.4267768085921303 0 -0.094675553767973264 0.45076758317000298 0 -0.084800361071377284 0.4267768085921303 0 -0.085627028266785254 0.44117175463919189 0 -0.094675553767973264 0.45076758317000298 0 -0.085627028266785254 0.44117175463919189 0 -0.07941018481149445 0.44345804230003222 0 -0.081419329692844739 0.44979703694502599 0 -0.077689053426030094 0.43734830183904833 0 -0.085627028266785254 0.44117175463919189 0 -0.07941018481149445 0.44345804230003222 0 -0.085627028266785254 0.44117175463919189 0 -0.081419329692844739 0.44979703694502599 0 -0.088082484801868088 0.44854024150695748 0 -0.081419329692844739 0.44979703694502599 0 -0.086047819819581178 0.45134535453790131 0 -0.088082484801868088 0.44854024150695748 0 -0.085627028266785254 0.44117175463919189 0 -0.088082484801868088 0.44854024150695748 0 -0.094675553767973264 0.45076758317000298 0 -0.086047819819581178 0.45134535453790131 0 -0.088082484801868088 0.44854024150695748 0 -0.090265281749681819 0.45351850901298468 0 -0.088082484801868088 0.44854024150695748 0 -0.090265281749681819 0.45351850901298468 0 -0.094675553767973264 0.45076758317000298 0 -0.085878896958769185 0.47675925450649242 0 -0.075452149305044958 0.46933040044586682 0 -0.082509194984251868 0.46007906520350089 0 -0.085878896958769185 0.47675925450649242 0 -0.090265281749681819 0.45351850901298468 0 -0.085878896958769185 0.47675925450649242 0 -0.090265281749681819 0.45351850901298468 0 -0.093944937474792503 0.46462082789344678 0 -0.085878896958769185 0.47675925450649242 0 -0.082509194984251868 0.46007906520350089 0 -0.090265281749681819 0.45351850901298468 0 -0.081419329692844739 0.44979703694502599 0 -0.086047819819581178 0.45134535453790131 0 -0.082509194984251868 0.46007906520350089 0 -0.075214053997903707 0.45912990264989012 0 -0.081419329692844739 0.44979703694502599 0 -0.082509194984251868 0.46007906520350089 0 -0.090265281749681819 0.45351850901298468 0 -0.093944937474792503 0.46462082789344678 0 -0.094675553767973264 0.45076758317000298 0 -0.086047819819581178 0.45134535453790131 0 -0.082509194984251868 0.46007906520350089 0 -0.090265281749681819 0.45351850901298468 0 -0.093944937474792503 0.46462082789344678 0 -0.094675553767973264 0.45076758317000298 0 -0.1045507464645692 0.47475835774787573 0 -0.094675553767973264 0.45076758317000298 0 -0.1045507464645692 0.47475835774787573 0 -0.1087715055698807 0.4588247561088431 0 -0.094675553767973264 0.45076758317000298 0 -0.1045507464645692 0.47475835774787573 0 -0.1126245701039178 0.4308246085444013 0 -0.1090807961073193 0.44665325123332839 0 -0.10338783084247161 0.44098956532991213 0 -0.097170403390676049 0.43571281837191522 0 -0.094675553767973264 0.45076758317000298 0 -0.10338783084247161 0.44098956532991213 0 -0.1087715055698807 0.4588247561088431 0 -0.094675553767973264 0.45076758317000298 0 -0.1090807961073193 0.44665325123332839 0 -0.094675553767973264 0.45076758317000298 0 -0.1090807961073193 0.44665325123332839 0 -0.10338783084247161 0.44098956532991213 0 -0.1126245701039178 0.4308246085444013 0 -0.1090807961073193 0.44665325123332839 0 -0.1242648033483075 0.43981492828754482 0 -0.1090807961073193 0.44665325123332839 0 -0.1242648033483075 0.43981492828754482 0 -0.1204057133641486 0.45504160574272429 0 -0.1087715055698807 0.4588247561088431 0 -0.1176294132596279 0.46872710166108278 0 -0.1045507464645692 0.47475835774787573 0 -0.1087715055698807 0.4588247561088431 0 -0.1204057133641486 0.45504160574272429 0 -0.1176294132596279 0.46872710166108278 0 -0.1087715055698807 0.4588247561088431 0 -0.1090807961073193 0.44665325123332839 0 -0.1204057133641486 0.45504160574272429 0 -0.13097929143795109 0.46459511115351071 0 -0.1204057133641486 0.45504160574272429 0 -0.1176294132596279 0.46872710166108278 0 -0.12908554574303099 0.47755934496718438 0 -0.1176294132596279 0.46872710166108278 0 -0.1160402402672886 0.48503019582547341 0 -0.1176294132596279 0.46872710166108278 0 -0.1160402402672886 0.48503019582547341 0 -0.1045507464645692 0.47475835774787573 0 -0.13803845513632401 0.5 0 -0.1097654836520903 0.5 0 -0.1160402402672886 0.48503019582547341 0 -0.1097654836520903 0.5 0 -0.1160402402672886 0.48503019582547341 0 -0.099362977551805121 0.48745008538217821 0 -0.081492512167856565 0.50000000000000011 0 -0.1097654836520903 0.5 0 -0.099362977551805121 0.48745008538217821 0 -0.085878896958769185 0.47675925450649242 0 -0.093944937474792503 0.46462082789344678 0 -0.1045507464645692 0.47475835774787573 0 -0.085878896958769185 0.47675925450649242 0 -0.099362977551805121 0.48745008538217821 0 -0.1045507464645692 0.47475835774787573 0 -0.1160402402672886 0.48503019582547341 0 -0.099362977551805121 0.48745008538217821 0 -0.1045507464645692 0.47475835774787573 0 -0.15850742705232401 0.077073165420907211 0 -0.17832815471062741 0.080370175701138483 0 -0.15596223049933161 0.089669487892629185 0 -0.17128916945913089 0.092189477241546317 0 -0.17832815471062741 0.080370175701138483 0 -0.15596223049933161 0.089669487892629185 0 -0.17832815471062741 0.080370175701138483 0 -0.15596223049933161 0.089669487892629185 0 -0.15850742705232401 0.077073165420907211 0 -0.16907692184479731 0.071953328836937142 0 -0.17832815471062741 0.080370175701138483 0 -0.15850742705232401 0.077073165420907211 0 -0.15722519427174569 0.065058312825911402 0 -0.16907692184479731 0.071953328836937142 0 -0.16907692184479731 0.071953328836937142 0 -0.1809864334298861 0.069780609401686525 0 -0.17832815471062741 0.080370175701138483 0 -0.16907692184479731 0.071953328836937142 0 -0.1809864334298861 0.069780609401686525 0 -0.18167022033174851 0.056262687610226528 0 -0.1809864334298861 0.069780609401686525 0 -0.17832815471062741 0.080370175701138483 0 -0.20069407892192309 0.071070863509647808 0 -0.1809864334298861 0.069780609401686525 0 -0.18167022033174851 0.056262687610226528 0 -0.1876556690991136 0.063313821709693935 0 -0.17128916945913089 0.092189477241546317 0 -0.18444466814129201 0.081023499242751457 0 -0.17631468167186989 0.1066384650542631 0 -0.17128916945913089 0.092189477241546317 0 -0.18444466814129201 0.081023499242751457 0 -0.17832815471062741 0.080370175701138483 0 -0.18444466814129201 0.081023499242751457 0 -0.17631468167186989 0.1066384650542631 0 -0.19937405773042491 0.1071019237599893 0 -0.17631468167186989 0.1066384650542631 0 -0.16393492635195239 0.1245978723337525 0 -0.1795193575176991 0.1294692331289829 0 -0.17631468167186989 0.1066384650542631 0 -0.19937405773042491 0.1071019237599893 0 -0.1795193575176991 0.1294692331289829 0 -0.16393492635195239 0.1245978723337525 0 -0.16139611227253359 0.1032457583169494 0 -0.15311233888185891 0.1152965378839053 0 -0.17631468167186989 0.1066384650542631 0 -0.16393492635195239 0.1245978723337525 0 -0.16139611227253359 0.1032457583169494 0 -0.17128916945913089 0.092189477241546317 0 -0.17631468167186989 0.1066384650542631 0 -0.16139611227253359 0.1032457583169494 0 -0.17128916945913089 0.092189477241546317 0 -0.16139611227253359 0.1032457583169494 0 -0.15596223049933161 0.089669487892629185 0 -0.16139611227253359 0.1032457583169494 0 -0.13359630628803579 0.098968800084119873 0 -0.15596223049933161 0.089669487892629185 0 -0.16139611227253359 0.1032457583169494 0 -0.15311233888185891 0.1152965378839053 0 -0.13359630628803579 0.098968800084119873 0 -0.13359630628803579 0.098968800084119873 0 -0.15596223049933161 0.089669487892629185 0 -0.15311233888185891 0.1152965378839053 0 -0.13930859898956699 0.1145050369687237 0 -0.153752621985453 0.14073392350839439 0 -0.15311233888185891 0.1152965378839053 0 -0.13930859898956699 0.1145050369687237 0 -0.13359630628803579 0.098968800084119873 0 -0.13930859898956699 0.1145050369687237 0 -0.12607259725238279 0.11330641960449821 0 -0.12916618827146031 0.12390190950899049 0 -0.13930859898956699 0.1145050369687237 0 -0.12607259725238279 0.11330641960449821 0 -0.13359630628803579 0.098968800084119873 0 -0.13359630628803579 0.098968800084119873 0 -0.12697672020224329 0.087309090757334687 0 -0.14089006822782121 0.082531143958766096 0 -0.12697672020224329 0.087309090757334687 0 -0.14089006822782121 0.082531143958766096 0 -0.12697985749263241 0.07630636069427757 0 -0.15850742705232401 0.077073165420907211 0 -0.14089006822782121 0.082531143958766096 0 -0.15596223049933161 0.089669487892629185 0 -0.13359630628803579 0.098968800084119873 0 -0.14089006822782121 0.082531143958766096 0 -0.15596223049933161 0.089669487892629185 0 -0.15850742705232401 0.077073165420907211 0 -0.14089006822782121 0.082531143958766096 0 -0.14764327064684279 0.071644858797684771 0 -0.15722519427174569 0.065058312825911402 0 -0.14764327064684279 0.071644858797684771 0 -0.1471722955607111 0.059591957907519158 0 -0.15850742705232401 0.077073165420907211 0 -0.15722519427174569 0.065058312825911402 0 -0.14764327064684279 0.071644858797684771 0 -0.14089006822782121 0.082531143958766096 0 -0.14764327064684279 0.071644858797684771 0 -0.13666502121529681 0.069478967649866344 0 -0.14764327064684279 0.071644858797684771 0 -0.13666502121529681 0.069478967649866344 0 -0.1471722955607111 0.059591957907519158 0 -0.14089006822782121 0.082531143958766096 0 -0.13666502121529681 0.069478967649866344 0 -0.12697985749263241 0.07630636069427757 0 -0.13666502121529681 0.069478967649866344 0 -0.12697985749263241 0.07630636069427757 0 -0.12509646681095879 0.065597408261105467 0 -0.13666502121529681 0.069478967649866344 0 -0.12509646681095879 0.065597408261105467 0 -0.13233523162579211 0.057527865090889828 0 -0.13233523162579211 0.057527865090889828 0 -0.1197320338084647 0.057760070231756527 0 -0.1244920148619628 0.050381604022983993 0 -0.12509646681095879 0.065597408261105467 0 -0.13233523162579211 0.057527865090889828 0 -0.1197320338084647 0.057760070231756527 0 -0.13666502121529681 0.069478967649866344 0 -0.13233523162579211 0.057527865090889828 0 -0.1471722955607111 0.059591957907519158 0 -0.13233523162579211 0.057527865090889828 0 -0.131277092146349 0.043237905602295942 0 -0.1435202772377579 0.047601805401877667 0 -0.13233523162579211 0.057527865090889828 0 -0.131277092146349 0.043237905602295942 0 -0.1244920148619628 0.050381604022983993 0 -0.131277092146349 0.043237905602295942 0 -0.14194951185496399 0.035172378083737049 0 -0.12424451236807239 0.027069144312366941 0 -0.131277092146349 0.043237905602295942 0 -0.12424451236807239 0.027069144312366941 0 -0.12075472355362291 0.04122338309529356 0 -0.131277092146349 0.043237905602295942 0 -0.12075472355362291 0.04122338309529356 0 -0.1244920148619628 0.050381604022983993 0 -0.131277092146349 0.043237905602295942 0 -0.14194951185496399 0.035172378083737049 0 -0.1435202772377579 0.047601805401877667 0 -0.14194951185496399 0.035172378083737049 0 -0.15126073753592009 0.02487777788828089 0 -0.1637260562540532 0.045028253166508762 0 -0.14194951185496399 0.035172378083737049 0 -0.1435202772377579 0.047601805401877667 0 -0.1637260562540532 0.045028253166508762 0 -0.15722519427174569 0.065058312825911402 0 -0.1471722955607111 0.059591957907519158 0 -0.1637260562540532 0.045028253166508762 0 -0.1471722955607111 0.059591957907519158 0 -0.1435202772377579 0.047601805401877667 0 -0.1637260562540532 0.045028253166508762 0 -0.13233523162579211 0.057527865090889828 0 -0.1471722955607111 0.059591957907519158 0 -0.1435202772377579 0.047601805401877667 0 -0.1244522405185825 -0.00038769298458709092 0 -0.1310798501921922 0.016754836893075501 0 -0.12424451236807239 0.027069144312366941 0 -0.1244522405185825 -0.00038769298458709092 0 -0.13302987177733741 0.0072862060594841918 0 -0.1310798501921922 0.016754836893075501 0 -0.13796817939809339 -7.5853332940862265e-05 0 -0.13302987177733741 0.0072862060594841918 0 -0.13861921700048169 0.01285353366238922 0 -0.1244522405185825 -0.00038769298458709092 0 -0.13796817939809339 -7.5853332940862265e-05 0 -0.13302987177733741 0.0072862060594841918 0 -0.13302987177733741 0.0072862060594841918 0 -0.13861921700048169 0.01285353366238922 0 -0.1310798501921922 0.016754836893075501 0 -0.14194951185496399 0.035172378083737049 0 -0.1395360945068517 0.023372288850015029 0 -0.12424451236807239 0.027069144312366941 0 -0.13861921700048169 0.01285353366238922 0 -0.1395360945068517 0.023372288850015029 0 -0.1310798501921922 0.016754836893075501 0 -0.1395360945068517 0.023372288850015029 0 -0.1310798501921922 0.016754836893075501 0 -0.12424451236807239 0.027069144312366941 0 -0.14194951185496399 0.035172378083737049 0 -0.1395360945068517 0.023372288850015029 0 -0.15126073753592009 0.02487777788828089 0 -0.15126073753592009 0.02487777788828089 0 -0.15188271994169991 0.01786916074884114 0 -0.14657132146084931 0.01677767438903701 0 -0.15126073753592009 0.02487777788828089 0 -0.15837519066330749 0.018103177496080571 0 -0.1567842680697151 0.017821512483746641 0 -0.15126073753592009 0.02487777788828089 0 -0.15188271994169991 0.01786916074884114 0 -0.1567842680697151 0.017821512483746641 0 -0.1543123506052223 0.01567032783345056 0 -0.15188271994169991 0.01786916074884114 0 -0.1567842680697151 0.017821512483746641 0 -0.13861921700048169 0.01285353366238922 0 -0.1395360945068517 0.023372288850015029 0 -0.14657132146084931 0.01677767438903701 0 -0.1395360945068517 0.023372288850015029 0 -0.15126073753592009 0.02487777788828089 0 -0.14657132146084931 0.01677767438903701 0 -0.15381676672243971 -0.0048344028756085976 0 -0.13796817939809339 -7.5853332940862265e-05 0 -0.14598604308907309 0.0075397954886723484 0 -0.15381676672243971 -0.0048344028756085976 0 -0.15837519066330749 0.018103177496080571 0 -0.15381676672243971 -0.0048344028756085976 0 -0.15182406541376531 0.011854288846745499 0 -0.15837519066330749 0.018103177496080571 0 -0.15381676672243971 -0.0048344028756085976 0 -0.15182406541376531 0.011854288846745499 0 -0.14598604308907309 0.0075397954886723484 0 -0.13861921700048169 0.01285353366238922 0 -0.14657132146084931 0.01677767438903701 0 -0.14598604308907309 0.0075397954886723484 0 -0.14657132146084931 0.01677767438903701 0 -0.15182406541376531 0.011854288846745499 0 -0.14598604308907309 0.0075397954886723484 0 -0.15188271994169991 0.01786916074884114 0 -0.14657132146084931 0.01677767438903701 0 -0.15182406541376531 0.011854288846745499 0 -0.1543123506052223 0.01567032783345056 0 -0.15182406541376531 0.011854288846745499 0 -0.15837519066330749 0.018103177496080571 0 -0.1543123506052223 0.01567032783345056 0 -0.15188271994169991 0.01786916074884114 0 -0.15182406541376531 0.011854288846745499 0 -0.13796817939809339 -7.5853332940862265e-05 0 -0.13861921700048169 0.01285353366238922 0 -0.14598604308907309 0.0075397954886723484 0 -0.15381676672243971 -0.0048344028756085976 0 -0.16872927738725291 0.0066655648670224509 0 -0.15837519066330749 0.018103177496080571 0 -0.16872927738725291 0.0066655648670224509 0 -0.15837519066330749 0.018103177496080571 0 -0.17312315274812851 0.016956976572924821 0 -0.15837519066330749 0.018103177496080571 0 -0.17088268452158301 0.030303691123205939 0 -0.18416549926151529 0.022669224655560441 0 -0.15837519066330749 0.018103177496080571 0 -0.17088268452158301 0.030303691123205939 0 -0.1637260562540532 0.045028253166508762 0 -0.15126073753592009 0.02487777788828089 0 -0.15837519066330749 0.018103177496080571 0 -0.1637260562540532 0.045028253166508762 0 -0.15837519066330749 0.018103177496080571 0 -0.18416549926151529 0.022669224655560441 0 -0.1543123506052223 0.01567032783345056 0 -0.15837519066330749 0.018103177496080571 0 -0.1567842680697151 0.017821512483746641 0 -0.15837519066330749 0.018103177496080571 0 -0.1567842680697151 0.017821512483746641 0 -0.15837519066330749 0.018103177496080571 0 -0.18416549926151529 0.022669224655560441 0 -0.17312315274812851 0.016956976572924821 0 -0.17088268452158301 0.030303691123205939 0 -0.18416549926151529 0.022669224655560441 0 -0.1815242396402782 0.037713578252632912 0 -0.18416549926151529 0.022669224655560441 0 -0.17919408738426101 0.017592611389363012 0 -0.18518118592807509 0.0154377595936586 0 -0.18416549926151529 0.022669224655560441 0 -0.17312315274812851 0.016956976572924821 0 -0.17919408738426101 0.017592611389363012 0 -0.1785064095432054 -0.0066611219507198768 0 -0.16872927738725291 0.0066655648670224509 0 -0.193034969706537 0.00064734206737222756 0 -0.16872927738725291 0.0066655648670224509 0 -0.193034969706537 0.00064734206737222756 0 -0.16872927738725291 0.0066655648670224509 0 -0.18518118592807509 0.0154377595936586 0 -0.193034969706537 0.00064734206737222756 0 -0.16872927738725291 0.0066655648670224509 0 -0.17919408738426101 0.017592611389363012 0 -0.18518118592807509 0.0154377595936586 0 -0.16872927738725291 0.0066655648670224509 0 -0.17312315274812851 0.016956976572924821 0 -0.17919408738426101 0.017592611389363012 0 -0.16907692184479731 0.071953328836937142 0 -0.1637260562540532 0.045028253166508762 0 -0.18167022033174851 0.056262687610226528 0 -0.15722519427174569 0.065058312825911402 0 -0.16907692184479731 0.071953328836937142 0 -0.1637260562540532 0.045028253166508762 0 -0.16907692184479731 0.071953328836937142 0 -0.1637260562540532 0.045028253166508762 0 -0.15837519066330749 0.018103177496080571 0 -0.1637260562540532 0.045028253166508762 0 -0.17088268452158301 0.030303691123205939 0 -0.1637260562540532 0.045028253166508762 0 -0.1815242396402782 0.037713578252632912 0 -0.1815242396402782 0.037713578252632912 0 -0.18167022033174851 0.056262687610226528 0 -0.1948999673891425 0.045815662425189529 0 -0.1637260562540532 0.045028253166508762 0 -0.1815242396402782 0.037713578252632912 0 -0.18167022033174851 0.056262687610226528 0 -0.18416549926151529 0.022669224655560441 0 -0.1815242396402782 0.037713578252632912 0 -0.19539241544158811 0.034915353149486399 0 -0.19598386328254799 0.058823167906541372 0 -0.20873259774339259 0.055173182954087172 0 -0.20069407892192309 0.071070863509647808 0 -0.18167022033174851 0.056262687610226528 0 -0.19598386328254799 0.058823167906541372 0 -0.1876556690991136 0.063313821709693935 0 -0.19598386328254799 0.058823167906541372 0 -0.1948999673891425 0.045815662425189529 0 -0.20873259774339259 0.055173182954087172 0 -0.18167022033174851 0.056262687610226528 0 -0.19598386328254799 0.058823167906541372 0 -0.1948999673891425 0.045815662425189529 0 -0.1815242396402782 0.037713578252632912 0 -0.1948999673891425 0.045815662425189529 0 -0.19539241544158811 0.034915353149486399 0 -0.1948999673891425 0.045815662425189529 0 -0.19539241544158811 0.034915353149486399 0 -0.20641656305728129 0.041143028599009299 0 -0.20641656305728129 0.041143028599009299 0 -0.20995580785972329 0.027235271815039791 0 -0.22080882119384479 0.043900986742667819 0 -0.19539241544158811 0.034915353149486399 0 -0.20641656305728129 0.041143028599009299 0 -0.20995580785972329 0.027235271815039791 0 -0.20641656305728129 0.041143028599009299 0 -0.20873259774339259 0.055173182954087172 0 -0.22080882119384479 0.043900986742667819 0 -0.20873259774339259 0.055173182954087172 0 -0.2267202713125637 0.058975611642501508 0 -0.2176358721649875 0.072186860311035453 0 -0.1948999673891425 0.045815662425189529 0 -0.20641656305728129 0.041143028599009299 0 -0.20873259774339259 0.055173182954087172 0 -0.20993853639106591 -0.0035380738047605968 0 -0.2009137908539024 0.01431144198083124 0 -0.193034969706537 0.00064734206737222756 0 -0.18518118592807509 0.0154377595936586 0 -0.2009137908539024 0.01431144198083124 0 -0.193034969706537 0.00064734206737222756 0 -0.18518118592807509 0.0154377595936586 0 -0.193034969706537 0.00064734206737222756 0 -0.18416549926151529 0.022669224655560441 0 -0.20995580785972329 0.027235271815039791 0 -0.18416549926151529 0.022669224655560441 0 -0.18518118592807509 0.0154377595936586 0 -0.2009137908539024 0.01431144198083124 0 -0.18416549926151529 0.022669224655560441 0 -0.2009137908539024 0.01431144198083124 0 -0.20995580785972329 0.027235271815039791 0 -0.18416549926151529 0.022669224655560441 0 -0.19539241544158811 0.034915353149486399 0 -0.20995580785972329 0.027235271815039791 0 -0.2009137908539024 0.01431144198083124 0 -0.20995580785972329 0.027235271815039791 0 -0.21568563774484731 0.0082874278720449449 0 -0.20993853639106591 -0.0035380738047605968 0 -0.2009137908539024 0.01431144198083124 0 -0.21568563774484731 0.0082874278720449449 0 -0.22684210307559549 -0.0077234896768903086 0 -0.21568563774484731 0.0082874278720449449 0 -0.23077795054394901 0.01115198904600462 0 -0.22684210307559549 -0.0077234896768903086 0 -0.23077795054394901 0.01115198904600462 0 -0.20995580785972329 0.027235271815039791 0 -0.21568563774484731 0.0082874278720449449 0 -0.23077795054394901 0.01115198904600462 0 -0.20995580785972329 0.027235271815039791 0 -0.2357461164579312 0.03180131897451912 0 -0.20995580785972329 0.027235271815039791 0 -0.23077795054394901 0.01115198904600462 0 -0.2357461164579312 0.03180131897451912 0 -0.23077795054394901 0.01115198904600462 0 -0.24854849079604721 0.020569936005881421 0 -0.2357461164579312 0.03180131897451912 0 -0.26153642505613889 0.036367366133998442 0 -0.24854849079604721 0.020569936005881421 0 -0.2357461164579312 0.03180131897451912 0 -0.23077795054394901 0.01115198904600462 0 -0.24854849079604721 0.020569936005881421 0 -0.24598119983726671 0.0037338506766126851 0 -0.22684210307559549 -0.0077234896768903086 0 -0.23077795054394901 0.01115198904600462 0 -0.24598119983726671 0.0037338506766126851 0 -0.20873259774339259 0.055173182954087172 0 -0.2267202713125637 0.058975611642501508 0 -0.22080882119384479 0.043900986742667819 0 -0.2267202713125637 0.058975611642501508 0 -0.22080882119384479 0.043900986742667819 0 -0.239388393447095 0.04766651035075449 0 -0.22080882119384479 0.043900986742667819 0 -0.2357461164579312 0.03180131897451912 0 -0.239388393447095 0.04766651035075449 0 -0.20995580785972329 0.027235271815039791 0 -0.22080882119384479 0.043900986742667819 0 -0.2357461164579312 0.03180131897451912 0 -0.26153642505613889 0.036367366133998442 0 -0.2357461164579312 0.03180131897451912 0 -0.26153642505613889 0.036367366133998442 0 -0.2357461164579312 0.03180131897451912 0 -0.239388393447095 0.04766651035075449 0 -0.25116276906762952 0.054241108780248931 0 -0.239388393447095 0.04766651035075449 0 -0.24035595759446179 0.060712669830591162 0 -0.2267202713125637 0.058975611642501508 0 -0.239388393447095 0.04766651035075449 0 -0.24035595759446179 0.060712669830591162 0 -0.25116276906762952 0.054241108780248931 0 -0.24035595759446179 0.060712669830591162 0 -0.24829977196364941 0.065213336215906109 0 -0.2267202713125637 0.058975611642501508 0 -0.24035595759446179 0.060712669830591162 0 -0.23791909572611269 0.075142721002645518 0 -0.24035595759446179 0.060712669830591162 0 -0.24829977196364941 0.065213336215906109 0 -0.23791909572611269 0.075142721002645518 0 -0.25064083865024739 0.073628726666345984 0 -0.23791909572611269 0.075142721002645518 0 -0.24857020570659841 0.081659589420377987 0 -0.25064083865024739 0.073628726666345984 0 -0.24829977196364941 0.065213336215906109 0 -0.23791909572611269 0.075142721002645518 0 -0.23791909572611269 0.075142721002645518 0 -0.2427234934652894 0.090762762990284518 0 -0.22646138453880821 0.085461994072224837 0 -0.25413031243694739 0.089521027236778197 0 -0.2427234934652894 0.090762762990284518 0 -0.24857020570659841 0.081659589420377987 0 -0.23791909572611269 0.075142721002645518 0 -0.2427234934652894 0.090762762990284518 0 -0.24857020570659841 0.081659589420377987 0 -0.2267202713125637 0.058975611642501508 0 -0.23791909572611269 0.075142721002645518 0 -0.2176358721649875 0.072186860311035453 0 -0.23791909572611269 0.075142721002645518 0 -0.22646138453880821 0.085461994072224837 0 -0.2176358721649875 0.072186860311035453 0 -0.20873259774339259 0.055173182954087172 0 -0.2176358721649875 0.072186860311035453 0 -0.20069407892192309 0.071070863509647808 0 -0.2176358721649875 0.072186860311035453 0 -0.20525373999263671 0.08640341449760941 0 -0.20069407892192309 0.071070863509647808 0 -0.22646138453880821 0.085461994072224837 0 -0.2176358721649875 0.072186860311035453 0 -0.20525373999263671 0.08640341449760941 0 -0.22646138453880821 0.085461994072224837 0 -0.20525373999263671 0.08640341449760941 0 -0.2161514522581473 0.1006972439961434 0 -0.18444466814129201 0.081023499242751457 0 -0.20525373999263671 0.08640341449760941 0 -0.20069407892192309 0.071070863509647808 0 -0.18444466814129201 0.081023499242751457 0 -0.20525373999263671 0.08640341449760941 0 -0.19937405773042491 0.1071019237599893 0 -0.17832815471062741 0.080370175701138483 0 -0.20069407892192309 0.071070863509647808 0 -0.18444466814129201 0.081023499242751457 0 -0.17832815471062741 0.080370175701138483 0 -0.20069407892192309 0.071070863509647808 0 -0.1809864334298861 0.069780609401686525 0 -0.1876556690991136 0.063313821709693935 0 -0.20069407892192309 0.071070863509647808 0 -0.19598386328254799 0.058823167906541372 0 -0.1876556690991136 0.063313821709693935 0 -0.20069407892192309 0.071070863509647808 0 -0.19937405773042491 0.1071019237599893 0 -0.2161514522581473 0.1006972439961434 0 -0.21430344731955769 0.133180348277227 0 -0.19937405773042491 0.1071019237599893 0 -0.19727411993202021 0.1275714443648302 0 -0.1795193575176991 0.1294692331289829 0 -0.18444466814129201 0.081023499242751457 0 -0.19937405773042491 0.1071019237599893 0 -0.20525373999263671 0.08640341449760941 0 -0.19937405773042491 0.1071019237599893 0 -0.2161514522581473 0.1006972439961434 0 -0.19937405773042491 0.1071019237599893 0 -0.21430344731955769 0.133180348277227 0 -0.19937405773042491 0.1071019237599893 0 -0.19727411993202021 0.1275714443648302 0 -0.21430344731955769 0.133180348277227 0 -0.2161514522581473 0.1006972439961434 0 -0.23231730930006211 0.10853516007106349 0 -0.21430344731955769 0.133180348277227 0 -0.2427234934652894 0.090762762990284518 0 -0.22646138453880821 0.085461994072224837 0 -0.23231730930006211 0.10853516007106349 0 -0.22646138453880821 0.085461994072224837 0 -0.2161514522581473 0.1006972439961434 0 -0.23231730930006211 0.10853516007106349 0 -0.25610310449345419 0.1041046972302731 0 -0.2427234934652894 0.090762762990284518 0 -0.23231730930006211 0.10853516007106349 0 -0.25610310449345419 0.1041046972302731 0 -0.23231730930006211 0.10853516007106349 0 -0.2495823492922267 0.12121763785839371 0 -0.23231730930006211 0.10853516007106349 0 -0.2495823492922267 0.12121763785839371 0 -0.23849568892714909 0.13696143350773771 0 -0.23231730930006211 0.10853516007106349 0 -0.23849568892714909 0.13696143350773771 0 -0.25477231595188199 0.13792181725732239 0 -0.2495823492922267 0.12121763785839371 0 -0.23849568892714909 0.13696143350773771 0 -0.23231730930006211 0.10853516007106349 0 -0.23849568892714909 0.13696143350773771 0 -0.21430344731955769 0.133180348277227 0 -0.23849568892714909 0.13696143350773771 0 -0.22923283690869051 0.15925877279446471 0 -0.21430344731955769 0.133180348277227 0 -0.22923283690869051 0.15925877279446471 0 -0.21430344731955769 0.133180348277227 0 -0.2543915534089356 0.15018751405662761 0 -0.23849568892714909 0.13696143350773771 0 -0.24467406855423091 0.1653877069444131 0 -0.23849568892714909 0.13696143350773771 0 -0.24467406855423091 0.1653877069444131 0 -0.22923283690869051 0.15925877279446471 0 -0.2543915534089356 0.15018751405662761 0 -0.25477231595188199 0.13792181725732239 0 -0.23849568892714909 0.13696143350773771 0 -0.23849568892714909 0.13696143350773771 0 -0.24467406855423091 0.1653877069444131 0 -0.24467406855423091 0.1653877069444131 0 -0.2350219134637796 0.18103954803765679 0 -0.22379977898383499 0.16989282922580509 0 -0.24467406855423091 0.1653877069444131 0 -0.24947341468037071 0.1874691479585941 0 -0.2350219134637796 0.18103954803765679 0 -0.24467406855423091 0.1653877069444131 0 -0.24947341468037071 0.1874691479585941 0 -0.2350219134637796 0.18103954803765679 0 -0.22004124654446131 0.18611549732905991 0 -0.22379977898383499 0.16989282922580509 0 -0.24467406855423091 0.1653877069444131 0 -0.22379977898383499 0.16989282922580509 0 -0.22923283690869051 0.15925877279446471 0 -0.22379977898383499 0.16989282922580509 0 -0.22923283690869051 0.15925877279446471 0 -0.20989634202023699 0.1560844752241346 0 -0.24467406855423091 0.1653877069444131 0 -0.22379977898383499 0.16989282922580509 0 -0.22379977898383499 0.16989282922580509 0 -0.20292548941343971 0.17439795150720031 0 -0.20989634202023699 0.1560844752241346 0 -0.20292548941343971 0.17439795150720031 0 -0.20989634202023699 0.1560844752241346 0 -0.17833905569944569 0.15756593750779829 0 -0.22379977898383499 0.16989282922580509 0 -0.20292548941343971 0.17439795150720031 0 -0.22004124654446131 0.18611549732905991 0 -0.22379977898383499 0.16989282922580509 0 -0.20292548941343971 0.17439795150720031 0 -0.22004124654446131 0.18611549732905991 0 -0.20292548941343971 0.17439795150720031 0 -0.22004124654446131 0.18611549732905991 0 -0.20292548941343971 0.17439795150720031 0 -0.20568385543668641 0.19260324117033031 0 -0.20292548941343971 0.17439795150720031 0 -0.1757122088887666 0.1802711648698879 0 -0.20292548941343971 0.17439795150720031 0 -0.1897130520823497 0.19444680225630501 0 -0.1757122088887666 0.1802711648698879 0 -0.20292548941343971 0.17439795150720031 0 -0.20568385543668641 0.19260324117033031 0 -0.1897130520823497 0.19444680225630501 0 -0.20292548941343971 0.17439795150720031 0 -0.17833905569944569 0.15756593750779829 0 -0.19589961716039911 0.1405342722931214 0 -0.20989634202023699 0.1560844752241346 0 -0.17833905569944569 0.15756593750779829 0 -0.19727411993202021 0.1275714443648302 0 -0.19589961716039911 0.1405342722931214 0 -0.1795193575176991 0.1294692331289829 0 -0.19727411993202021 0.1275714443648302 0 -0.19589961716039911 0.1405342722931214 0 -0.21430344731955769 0.133180348277227 0 -0.22923283690869051 0.15925877279446471 0 -0.21430344731955769 0.133180348277227 0 -0.20989634202023699 0.1560844752241346 0 -0.19589961716039911 0.1405342722931214 0 -0.21430344731955769 0.133180348277227 0 -0.20989634202023699 0.1560844752241346 0 -0.23288038931281729 0.23888496135878451 0 -0.21994142138302111 0.22426230620998819 0 -0.21218175950055909 0.24952722652004439 0 -0.22667039518801041 0.25355429459537898 0 -0.23288038931281729 0.23888496135878451 0 -0.21218175950055909 0.24952722652004439 0 -0.2416444700809012 0.25186566196455601 0 -0.22667039518801041 0.25355429459537898 0 -0.23288038931281729 0.23888496135878451 0 -0.2416444700809012 0.25186566196455601 0 -0.23288038931281729 0.23888496135878451 0 -0.2470081454867771 0.2422065880623451 0 -0.25693865295534157 0.25278860643768353 0 -0.2416444700809012 0.25186566196455601 0 -0.2470081454867771 0.2422065880623451 0 -0.25109603964961891 0.234366577265785 0 -0.2470081454867771 0.2422065880623451 0 -0.24424918889796191 0.23342051569475999 0 -0.23288038931281729 0.23888496135878451 0 -0.2470081454867771 0.2422065880623451 0 -0.24424918889796191 0.23342051569475999 0 -0.23288038931281729 0.23888496135878451 0 -0.24424918889796191 0.23342051569475999 0 -0.2396805993576108 0.22455316273993289 0 -0.24424918889796191 0.23342051569475999 0 -0.249817319625419 0.2274340479663062 0 -0.2396805993576108 0.22455316273993289 0 -0.25109603964961891 0.234366577265785 0 -0.24424918889796191 0.23342051569475999 0 -0.249817319625419 0.2274340479663062 0 -0.249817319625419 0.2274340479663062 0 -0.24904636230289101 0.22050689045355901 0 -0.2396805993576108 0.22455316273993289 0 -0.24904636230289101 0.22050689045355901 0 -0.2396805993576108 0.22455316273993289 0 -0.24333230173327219 0.21221501244476959 0 -0.2396805993576108 0.22455316273993289 0 -0.21994142138302111 0.22426230620998819 0 -0.23304733008138001 0.21339205942673259 0 -0.23288038931281729 0.23888496135878451 0 -0.2396805993576108 0.22455316273993289 0 -0.21994142138302111 0.22426230620998819 0 -0.21994142138302111 0.22426230620998819 0 -0.22770108326548311 0.19899738589993199 0 -0.210353022999335 0.20567537760669019 0 -0.21994142138302111 0.22426230620998819 0 -0.23304733008138001 0.21339205942673259 0 -0.22770108326548311 0.19899738589993199 0 -0.21994142138302111 0.22426230620998819 0 -0.22770108326548311 0.19899738589993199 0 -0.23304733008138001 0.21339205942673259 0 -0.2346933251094325 0.20523388649383931 0 -0.22770108326548311 0.19899738589993199 0 -0.25427276080650663 0.20955058897277601 0 -0.23715700367548431 0.1978330431509176 0 -0.2396805993576108 0.22455316273993289 0 -0.23304733008138001 0.21339205942673259 0 -0.24333230173327219 0.21221501244476959 0 -0.25427276080650663 0.20955058897277601 0 -0.24333230173327219 0.21221501244476959 0 -0.23715700367548431 0.1978330431509176 0 -0.25561524088587501 0.21572724177218369 0 -0.24904636230289101 0.22050689045355901 0 -0.24333230173327219 0.21221501244476959 0 -0.24333230173327219 0.21221501244476959 0 -0.2346933251094325 0.20523388649383931 0 -0.23715700367548431 0.1978330431509176 0 -0.23304733008138001 0.21339205942673259 0 -0.24333230173327219 0.21221501244476959 0 -0.2346933251094325 0.20523388649383931 0 -0.25427276080650663 0.20955058897277601 0 -0.24947341468037071 0.1874691479585941 0 -0.23715700367548431 0.1978330431509176 0 -0.24947341468037071 0.1874691479585941 0 -0.2350219134637796 0.18103954803765679 0 -0.23715700367548431 0.1978330431509176 0 -0.22004124654446131 0.18611549732905991 0 -0.23715700367548431 0.1978330431509176 0 -0.22004124654446131 0.18611549732905991 0 -0.23715700367548431 0.1978330431509176 0 -0.22770108326548311 0.19899738589993199 0 -0.2350219134637796 0.18103954803765679 0 -0.22004124654446131 0.18611549732905991 0 -0.23715700367548431 0.1978330431509176 0 -0.2346933251094325 0.20523388649383931 0 -0.23715700367548431 0.1978330431509176 0 -0.22770108326548311 0.19899738589993199 0 -0.22004124654446131 0.18611549732905991 0 -0.22770108326548311 0.19899738589993199 0 -0.21594480206149139 0.19584787550150309 0 -0.22770108326548311 0.19899738589993199 0 -0.21594480206149139 0.19584787550150309 0 -0.210353022999335 0.20567537760669019 0 -0.22004124654446131 0.18611549732905991 0 -0.21594480206149139 0.19584787550150309 0 -0.20568385543668641 0.19260324117033031 0 -0.21594480206149139 0.19584787550150309 0 -0.20568385543668641 0.19260324117033031 0 -0.210353022999335 0.20567537760669019 0 -0.20568385543668641 0.19260324117033031 0 -0.19800517532583911 0.2033181044808495 0 -0.210353022999335 0.20567537760669019 0 -0.20568385543668641 0.19260324117033031 0 -0.1897130520823497 0.19444680225630501 0 -0.19800517532583911 0.2033181044808495 0 -0.1897130520823497 0.19444680225630501 0 -0.19800517532583911 0.2033181044808495 0 -0.1863200837324982 0.20555600776477401 0 -0.19800517532583911 0.2033181044808495 0 -0.19795586237832599 0.21830909360614789 0 -0.210353022999335 0.20567537760669019 0 -0.19800517532583911 0.2033181044808495 0 -0.19795586237832599 0.21830909360614789 0 -0.1863200837324982 0.20555600776477401 0 -0.19795586237832599 0.21830909360614789 0 -0.18240126852579899 0.21930684119835961 0 -0.1863200837324982 0.20555600776477401 0 -0.21994142138302111 0.22426230620998819 0 -0.19795586237832599 0.21830909360614789 0 -0.210353022999335 0.20567537760669019 0 -0.21994142138302111 0.22426230620998819 0 -0.19795586237832599 0.21830909360614789 0 -0.20314208847108339 0.23556135501649109 0 -0.19795586237832599 0.21830909360614789 0 -0.18651378479530609 0.23505073182760211 0 -0.18240126852579899 0.21930684119835961 0 -0.19795586237832599 0.21830909360614789 0 -0.20314208847108339 0.23556135501649109 0 -0.18651378479530609 0.23505073182760211 0 -0.1929026130837673 0.25762258695206858 0 -0.20314208847108339 0.23556135501649109 0 -0.18651378479530609 0.23505073182760211 0 -0.1929026130837673 0.25762258695206858 0 -0.20314208847108339 0.23556135501649109 0 -0.21218175950055909 0.24952722652004439 0 -0.21994142138302111 0.22426230620998819 0 -0.21218175950055909 0.24952722652004439 0 -0.21994142138302111 0.22426230620998819 0 -0.20314208847108339 0.23556135501649109 0 -0.21218175950055909 0.24952722652004439 0 -0.16582228118094081 0.26466105519565358 0 -0.18651378479530609 0.23505073182760211 0 -0.1608218935138386 0.23306973899941771 0 -0.16582228118094081 0.26466105519565358 0 -0.14534546737678511 0.25129379472131641 0 -0.1608218935138386 0.23306973899941771 0 -0.18651378479530609 0.23505073182760211 0 -0.1608218935138386 0.23306973899941771 0 -0.18651378479530609 0.23505073182760211 0 -0.18240126852579899 0.21930684119835961 0 -0.1608218935138386 0.23306973899941771 0 -0.1608218935138386 0.23306973899941771 0 -0.16716432822862029 0.21469463307327219 0 -0.14537567171977789 0.21373021027012479 0 -0.18240126852579899 0.21930684119835961 0 -0.1608218935138386 0.23306973899941771 0 -0.16716432822862029 0.21469463307327219 0 -0.16716432822862029 0.21469463307327219 0 -0.15728284033457929 0.19872471446884221 0 -0.14537567171977789 0.21373021027012479 0 -0.16716432822862029 0.21469463307327219 0 -0.1863200837324982 0.20555600776477401 0 -0.15728284033457929 0.19872471446884221 0 -0.18240126852579899 0.21930684119835961 0 -0.16716432822862029 0.21469463307327219 0 -0.1863200837324982 0.20555600776477401 0 -0.1863200837324982 0.20555600776477401 0 -0.1747365466553682 0.1940095109997643 0 -0.15728284033457929 0.19872471446884221 0 -0.1897130520823497 0.19444680225630501 0 -0.1863200837324982 0.20555600776477401 0 -0.1747365466553682 0.1940095109997643 0 -0.1897130520823497 0.19444680225630501 0 -0.1747365466553682 0.1940095109997643 0 -0.1757122088887666 0.1802711648698879 0 -0.1747365466553682 0.1940095109997643 0 -0.16534449221108169 0.19019064904669619 0 -0.1757122088887666 0.1802711648698879 0 -0.1863200837324982 0.20555600776477401 0 -0.15728284033457929 0.19872471446884221 0 -0.1747365466553682 0.1940095109997643 0 -0.16534449221108169 0.19019064904669619 0 -0.15728284033457929 0.19872471446884221 0 -0.16534449221108169 0.19019064904669619 0 -0.15728284033457929 0.19872471446884221 0 -0.15629575781976141 0.184461654133797 0 -0.15728284033457929 0.19872471446884221 0 -0.12824559693666041 0.19189342117291039 0 -0.15629575781976141 0.184461654133797 0 -0.15728284033457929 0.19872471446884221 0 -0.12824559693666041 0.19189342117291039 0 -0.14537567171977789 0.21373021027012479 0 -0.15728284033457929 0.19872471446884221 0 -0.12824559693666041 0.19189342117291039 0 -0.12824559693666041 0.19189342117291039 0 -0.14537567171977789 0.21373021027012479 0 -0.1242544958201173 0.21504107598638081 0 -0.1608218935138386 0.23306973899941771 0 -0.14537567171977789 0.21373021027012479 0 -0.13513000223237101 0.23108874617123329 0 -0.1608218935138386 0.23306973899941771 0 -0.13513000223237101 0.23108874617123329 0 -0.14537567171977789 0.21373021027012479 0 -0.13513000223237101 0.23108874617123329 0 -0.1242544958201173 0.21504107598638081 0 -0.14534546737678511 0.25129379472131641 0 -0.13513000223237101 0.23108874617123329 0 -0.12470300375741469 0.2457033751303839 0 -0.14534546737678511 0.25129379472131641 0 -0.1608218935138386 0.23306973899941771 0 -0.13513000223237101 0.23108874617123329 0 -0.17833905569944569 0.15756593750779829 0 -0.1561619761378806 0.16047685630827471 0 -0.153752621985453 0.14073392350839439 0 -0.1795193575176991 0.1294692331289829 0 -0.17833905569944569 0.15756593750779829 0 -0.153752621985453 0.14073392350839439 0 -0.17833905569944569 0.15756593750779829 0 -0.153752621985453 0.14073392350839439 0 -0.16393492635195239 0.1245978723337525 0 -0.15311233888185891 0.1152965378839053 0 -0.153752621985453 0.14073392350839439 0 -0.16393492635195239 0.1245978723337525 0 -0.1795193575176991 0.1294692331289829 0 -0.153752621985453 0.14073392350839439 0 -0.19589961716039911 0.1405342722931214 0 -0.1795193575176991 0.1294692331289829 0 -0.17833905569944569 0.15756593750779829 0 -0.20292548941343971 0.17439795150720031 0 -0.17833905569944569 0.15756593750779829 0 -0.1757122088887666 0.1802711648698879 0 -0.1897130520823497 0.19444680225630501 0 -0.1757122088887666 0.1802711648698879 0 -0.16534449221108169 0.19019064904669619 0 -0.1757122088887666 0.1802711648698879 0 -0.15629575781976141 0.184461654133797 0 -0.1757122088887666 0.1802711648698879 0 -0.15629575781976141 0.184461654133797 0 -0.1757122088887666 0.1802711648698879 0 -0.15629575781976141 0.184461654133797 0 -0.1561619761378806 0.16047685630827471 0 -0.17833905569944569 0.15756593750779829 0 -0.1757122088887666 0.1802711648698879 0 -0.1561619761378806 0.16047685630827471 0 -0.1757122088887666 0.1802711648698879 0 -0.1561619761378806 0.16047685630827471 0 -0.1561619761378806 0.16047685630827471 0 -0.14126926821389521 0.17232478353634881 0 -0.1371080151487378 0.15864895140394189 0 -0.15629575781976141 0.184461654133797 0 -0.1561619761378806 0.16047685630827471 0 -0.14126926821389521 0.17232478353634881 0 -0.12824559693666041 0.19189342117291039 0 -0.15629575781976141 0.184461654133797 0 -0.14126926821389521 0.17232478353634881 0 -0.12824559693666041 0.19189342117291039 0 -0.14126926821389521 0.17232478353634881 0 -0.1248941403316576 0.1686438139500778 0 -0.14126926821389521 0.17232478353634881 0 -0.1371080151487378 0.15864895140394189 0 -0.1248941403316576 0.1686438139500778 0 -0.1371080151487378 0.15864895140394189 0 -0.1239269324459726 0.1539154783358255 0 -0.1248941403316576 0.1686438139500778 0 -0.1371080151487378 0.15864895140394189 0 -0.13661174338699569 0.1406825477466605 0 -0.1239269324459726 0.1539154783358255 0 -0.1561619761378806 0.16047685630827471 0 -0.13661174338699569 0.1406825477466605 0 -0.1561619761378806 0.16047685630827471 0 -0.13661174338699569 0.1406825477466605 0 -0.153752621985453 0.14073392350839439 0 -0.1561619761378806 0.16047685630827471 0 -0.1371080151487378 0.15864895140394189 0 -0.13661174338699569 0.1406825477466605 0 -0.12916618827146031 0.12390190950899049 0 -0.153752621985453 0.14073392350839439 0 -0.13930859898956699 0.1145050369687237 0 -0.12916618827146031 0.12390190950899049 0 -0.153752621985453 0.14073392350839439 0 -0.13661174338699569 0.1406825477466605 0 -0.11706151063611089 0.1208882391850464 0 -0.12916618827146031 0.12390190950899049 0 -0.13661174338699569 0.1406825477466605 0 -0.11706151063611089 0.1208882391850464 0 -0.12916618827146031 0.12390190950899049 0 -0.13661174338699569 0.1406825477466605 0 -0.153752621985453 0.14073392350839439 0 -0.13661174338699569 0.1406825477466605 0 -0.11473911200363 0.13153944404780621 0 -0.1132109842275667 0.1430328284895945 0 -0.13661174338699569 0.1406825477466605 0 -0.11473911200363 0.13153944404780621 0 -0.11706151063611089 0.1208882391850464 0 -0.11473911200363 0.13153944404780621 0 -0.1039338124667491 0.13009472872812991 0 -0.1132109842275667 0.1430328284895945 0 -0.11473911200363 0.13153944404780621 0 -0.1039338124667491 0.13009472872812991 0 -0.10601879130899509 0.12208205668825579 0 -0.1039338124667491 0.13009472872812991 0 -0.093398168270057425 0.14218175111966569 0 -0.093946486761182085 0.1175508364221631 0 -0.1039338124667491 0.13009472872812991 0 -0.1132109842275667 0.1430328284895945 0 -0.093398168270057425 0.14218175111966569 0 -0.1078097791349048 0.15856925008885259 0 -0.089544080768145809 0.16137822361845131 0 -0.093398168270057425 0.14218175111966569 0 -0.1132109842275667 0.1430328284895945 0 -0.1078097791349048 0.15856925008885259 0 -0.093398168270057425 0.14218175111966569 0 -0.13661174338699569 0.1406825477466605 0 -0.1132109842275667 0.1430328284895945 0 -0.1239269324459726 0.1539154783358255 0 -0.1132109842275667 0.1430328284895945 0 -0.1239269324459726 0.1539154783358255 0 -0.1078097791349048 0.15856925008885259 0 -0.1248941403316576 0.1686438139500778 0 -0.099208353538741523 0.18506212787697859 0 -0.1078097791349048 0.15856925008885259 0 -0.1239269324459726 0.1539154783358255 0 -0.1248941403316576 0.1686438139500778 0 -0.1078097791349048 0.15856925008885259 0 -0.12824559693666041 0.19189342117291039 0 -0.1248941403316576 0.1686438139500778 0 -0.099208353538741523 0.18506212787697859 0 -0.099208353538741523 0.18506212787697859 0 -0.1078097791349048 0.15856925008885259 0 -0.089544080768145809 0.16137822361845131 0 -0.089544080768145809 0.16137822361845131 0 -0.070171110140822543 0.1782308345810468 0 -0.074669823138777097 0.15727584041375819 0 -0.099208353538741523 0.18506212787697859 0 -0.089544080768145809 0.16137822361845131 0 -0.070171110140822543 0.1782308345810468 0 -0.099208353538741523 0.18506212787697859 0 -0.070171110140822543 0.1782308345810468 0 -0.070171110140822543 0.1782308345810468 0 -0.074669823138777097 0.15727584041375819 0 -0.057722578482997257 0.16273086802879619 0 -0.074669823138777097 0.15727584041375819 0 -0.066369438716585821 0.14892706699039879 0 -0.057722578482997257 0.16273086802879619 0 -0.074669823138777097 0.15727584041375819 0 -0.066369438716585821 0.14892706699039879 0 -0.074733199104357148 0.14603812585323231 0 -0.074669823138777097 0.15727584041375819 0 -0.074733199104357148 0.14603812585323231 0 -0.082756465015383474 0.1492386270883771 0 -0.074733199104357148 0.14603812585323231 0 -0.067315024607703278 0.13662092079142449 0 -0.081437053795579945 0.1393191944367777 0 -0.066369438716585821 0.14892706699039879 0 -0.074733199104357148 0.14603812585323231 0 -0.067315024607703278 0.13662092079142449 0 -0.066369438716585821 0.14892706699039879 0 -0.067315024607703278 0.13662092079142449 0 -0.054361576129613079 0.15178129246158931 0 -0.067315024607703278 0.13662092079142449 0 -0.088852304720190942 0.12644129241805541 0 -0.067315024607703278 0.13662092079142449 0 -0.088852304720190942 0.12644129241805541 0 -0.075786521408142987 0.12443322189858901 0 -0.067315024607703278 0.13662092079142449 0 -0.062016764747578973 0.12884034001808189 0 -0.075786521408142987 0.12443322189858901 0 -0.088852304720190942 0.12644129241805541 0 -0.093398168270057425 0.14218175111966569 0 -0.093946486761182085 0.1175508364221631 0 -0.067315024607703278 0.13662092079142449 0 -0.081437053795579945 0.1393191944367777 0 -0.088852304720190942 0.12644129241805541 0 -0.093398168270057425 0.14218175111966569 0 -0.093946486761182085 0.1175508364221631 0 -0.081437053795579945 0.1393191944367777 0 -0.088852304720190942 0.12644129241805541 0 -0.093398168270057425 0.14218175111966569 0 -0.089544080768145809 0.16137822361845131 0 -0.093398168270057425 0.14218175111966569 0 -0.082756465015383474 0.1492386270883771 0 -0.089544080768145809 0.16137822361845131 0 -0.074669823138777097 0.15727584041375819 0 -0.082756465015383474 0.1492386270883771 0 -0.074733199104357148 0.14603812585323231 0 -0.081437053795579945 0.1393191944367777 0 -0.082756465015383474 0.1492386270883771 0 -0.081437053795579945 0.1393191944367777 0 -0.093398168270057425 0.14218175111966569 0 -0.082756465015383474 0.1492386270883771 0 -0.11076524853809321 0.25238606884059173 0 -0.1094381109509034 0.22910775334304889 0 -0.091345724210048884 0.23566487628332011 0 -0.11076524853809321 0.25238606884059173 0 -0.092391857727521592 0.25884509119311472 0 -0.091345724210048884 0.23566487628332011 0 -0.13513000223237101 0.23108874617123329 0 -0.12470300375741469 0.2457033751303839 0 -0.1094381109509034 0.22910775334304889 0 -0.11076524853809321 0.25238606884059173 0 -0.12470300375741469 0.2457033751303839 0 -0.1094381109509034 0.22910775334304889 0 -0.13513000223237101 0.23108874617123329 0 -0.1094381109509034 0.22910775334304889 0 -0.13513000223237101 0.23108874617123329 0 -0.1094381109509034 0.22910775334304889 0 -0.1242544958201173 0.21504107598638081 0 -0.1094381109509034 0.22910775334304889 0 -0.10308309726087379 0.20938524897458621 0 -0.091345724210048884 0.23566487628332011 0 -0.1094381109509034 0.22910775334304889 0 -0.10308309726087379 0.20938524897458621 0 -0.1242544958201173 0.21504107598638081 0 -0.12824559693666041 0.19189342117291039 0 -0.10308309726087379 0.20938524897458621 0 -0.1242544958201173 0.21504107598638081 0 -0.12824559693666041 0.19189342117291039 0 -0.099208353538741523 0.18506212787697859 0 -0.12824559693666041 0.19189342117291039 0 -0.099208353538741523 0.18506212787697859 0 -0.10308309726087379 0.20938524897458621 0 -0.099208353538741523 0.18506212787697859 0 -0.070171110140822543 0.1782308345810468 0 -0.078220861930521898 0.21057701145176541 0 -0.070171110140822543 0.1782308345810468 0 -0.078220861930521898 0.21057701145176541 0 -0.056949983849450658 0.19269083667038239 0 -0.099208353538741523 0.18506212787697859 0 -0.10308309726087379 0.20938524897458621 0 -0.078220861930521898 0.21057701145176541 0 -0.078220861930521898 0.21057701145176541 0 -0.056178602179823331 0.21732906463454121 0 -0.056949983849450658 0.19269083667038239 0 -0.10308309726087379 0.20938524897458621 0 -0.078220861930521898 0.21057701145176541 0 -0.091345724210048884 0.23566487628332011 0 -0.078220861930521898 0.21057701145176541 0 -0.069221313838413207 0.24642852661517459 0 -0.091345724210048884 0.23566487628332011 0 -0.078220861930521898 0.21057701145176541 0 -0.069221313838413207 0.24642852661517459 0 -0.056178602179823331 0.21732906463454121 0 -0.092391857727521592 0.25884509119311472 0 -0.069221313838413207 0.24642852661517459 0 -0.091345724210048884 0.23566487628332011 0 -0.033382390283993792 0.24359412621706661 0 -0.046050769949304807 0.23401196203723451 0 -0.025866468353912139 0.2289639569827632 0 -0.048126263350958612 0.25465777805589501 0 -0.033382390283993792 0.24359412621706661 0 -0.046050769949304807 0.23401196203723451 0 -0.048126263350958612 0.25465777805589501 0 -0.069221313838413207 0.24642852661517459 0 -0.046050769949304807 0.23401196203723451 0 -0.069221313838413207 0.24642852661517459 0 -0.046050769949304807 0.23401196203723451 0 -0.069221313838413207 0.24642852661517459 0 -0.046050769949304807 0.23401196203723451 0 -0.056178602179823331 0.21732906463454121 0 -0.046050769949304807 0.23401196203723451 0 -0.03692704292774221 0.2147422921961073 0 -0.025866468353912139 0.2289639569827632 0 -0.046050769949304807 0.23401196203723451 0 -0.03692704292774221 0.2147422921961073 0 -0.056178602179823331 0.21732906463454121 0 -0.03692704292774221 0.2147422921961073 0 -0.056178602179823331 0.21732906463454121 0 -0.044221089124866657 0.20193605474889509 0 -0.03692704292774221 0.2147422921961073 0 -0.044221089124866657 0.20193605474889509 0 -0.032331133115066808 0.19858524020914661 0 -0.056178602179823331 0.21732906463454121 0 -0.056949983849450658 0.19269083667038239 0 -0.044221089124866657 0.20193605474889509 0 -0.056949983849450658 0.19269083667038239 0 -0.040360849617421202 0.18777351164107661 0 -0.044221089124866657 0.20193605474889509 0 -0.040360849617421202 0.18777351164107661 0 -0.032331133115066808 0.19858524020914661 0 -0.026751027678188599 0.18229597604057349 0 -0.040360849617421202 0.18777351164107661 0 -0.044221089124866657 0.20193605474889509 0 -0.032331133115066808 0.19858524020914661 0 -0.016914194843479571 0.2076274745640635 0 -0.026751027678188599 0.18229597604057349 0 -0.032331133115066808 0.19858524020914661 0 -0.016914194843479571 0.2076274745640635 0 -0.026751027678188599 0.18229597604057349 0 -0.01405220631290922 0.19352016069679451 0 -0.016914194843479571 0.2076274745640635 0 -0.026751027678188599 0.18229597604057349 0 -0.01405220631290922 0.19352016069679451 0 -0.0012364494800765971 0.1960628175593882 0 -0.01891215499648707 0.1765136475382359 0 -0.01405220631290922 0.19352016069679451 0 -0.0012364494800765971 0.1960628175593882 0 -0.0064787008301582438 0.20475797647738719 0 -0.0012364494800765971 0.1960628175593882 0 -0.0064787008301582438 0.20475797647738719 0 0.003893562275735573 0.2064819102401671 0 -0.01405220631290922 0.19352016069679451 0 -0.0064787008301582438 0.20475797647738719 0 -0.016914194843479571 0.2076274745640635 0 -0.0045317147067566524 0.21522543551468479 0 -0.016914194843479571 0.2076274745640635 0 -0.0070773620087705444 0.23295897308755351 0 -0.0064787008301582438 0.20475797647738719 0 -0.0045317147067566524 0.21522543551468479 0 -0.016914194843479571 0.2076274745640635 0 -0.0064787008301582438 0.20475797647738719 0 -0.0045317147067566524 0.21522543551468479 0 0.003893562275735573 0.2064819102401671 0 -0.03692704292774221 0.2147422921961073 0 -0.016914194843479571 0.2076274745640635 0 -0.025866468353912139 0.2289639569827632 0 -0.03692704292774221 0.2147422921961073 0 -0.032331133115066808 0.19858524020914661 0 -0.016914194843479571 0.2076274745640635 0 -0.016914194843479571 0.2076274745640635 0 -0.025866468353912139 0.2289639569827632 0 -0.0070773620087705444 0.23295897308755351 0 -0.016914194843479571 0.2076274745640635 0 -0.0070773620087705444 0.23295897308755351 0 -0.0045317147067566524 0.21522543551468479 0 -0.0070773620087705444 0.23295897308755351 0 0.0038866256090455522 0.2239579318999283 0 -0.0070773620087705444 0.23295897308755351 0 0.001894876929373096 0.24743045501984201 0 0.0027594708259384838 0.25829047161104352 0 -0.0070773620087705444 0.23295897308755351 0 0.0027594708259384838 0.25829047161104352 0 -0.0087132352456033638 0.25173417187717928 0 -0.0070773620087705444 0.23295897308755351 0 -0.01778818590069102 0.2421293126167848 0 -0.0087132352456033638 0.25173417187717928 0 -0.0070773620087705444 0.23295897308755351 0 0.0027594708259384838 0.25829047161104352 0 -0.025866468353912139 0.2289639569827632 0 -0.0070773620087705444 0.23295897308755351 0 -0.01778818590069102 0.2421293126167848 0 -0.028053557715267439 0.25838243531431121 0 -0.033382390283993792 0.24359412621706661 0 -0.01778818590069102 0.2421293126167848 0 -0.033382390283993792 0.24359412621706661 0 -0.025866468353912139 0.2289639569827632 0 -0.01778818590069102 0.2421293126167848 0 -0.044416936009294992 0.14744373737619401 0 -0.030319635528424791 0.14770209815471691 0 -0.021396469969749188 0.1374028974533886 0 -0.044416936009294992 0.14744373737619401 0 -0.030319635528424791 0.14770209815471691 0 -0.027639103276038759 0.15537380566908321 0 -0.044416936009294992 0.14744373737619401 0 -0.038116788675066252 0.15302723042411279 0 -0.027639103276038759 0.15537380566908321 0 -0.044416936009294992 0.14744373737619401 0 -0.041458398192443832 0.13942314763129199 0 -0.021396469969749188 0.1374028974533886 0 -0.044416936009294992 0.14744373737619401 0 -0.027639103276038759 0.15537380566908321 0 -0.044416936009294992 0.14744373737619401 0 -0.021396469969749188 0.1374028974533886 0 -0.044416936009294992 0.14744373737619401 0 -0.036587860512897558 0.15696447751708351 0 -0.044416936009294992 0.14744373737619401 0 -0.047012455662473793 0.15786975055381819 0 -0.036587860512897558 0.15696447751708351 0 -0.044416936009294992 0.14744373737619401 0 -0.038116788675066252 0.15302723042411279 0 -0.036587860512897558 0.15696447751708351 0 -0.038116788675066252 0.15302723042411279 0 -0.036587860512897558 0.15696447751708351 0 -0.027639103276038759 0.15537380566908321 0 -0.038116788675066252 0.15302723042411279 0 -0.036587860512897558 0.15696447751708351 0 -0.037500573576258918 0.13069979942664511 0 -0.041458398192443832 0.13942314763129199 0 -0.021396469969749188 0.1374028974533886 0 -0.037500573576258918 0.13069979942664511 0 -0.028643554108799551 0.12806760582925611 0 -0.034668926388748328 0.1237436995229996 0 -0.037500573576258918 0.13069979942664511 0 -0.047589673205635397 0.1324549890601831 0 -0.046884900963607742 0.11986348336078891 0 -0.037500573576258918 0.13069979942664511 0 -0.041458398192443832 0.13942314763129199 0 -0.047589673205635397 0.1324549890601831 0 -0.044416936009294992 0.14744373737619401 0 -0.041458398192443832 0.13942314763129199 0 -0.047589673205635397 0.1324549890601831 0 -0.067315024607703278 0.13662092079142449 0 -0.044416936009294992 0.14744373737619401 0 -0.062016764747578973 0.12884034001808189 0 -0.044416936009294992 0.14744373737619401 0 -0.062016764747578973 0.12884034001808189 0 -0.044416936009294992 0.14744373737619401 0 -0.047589673205635397 0.1324549890601831 0 -0.062016764747578973 0.12884034001808189 0 -0.047589673205635397 0.1324549890601831 0 -0.062016764747578973 0.12884034001808189 0 -0.046884900963607742 0.11986348336078891 0 -0.067315024607703278 0.13662092079142449 0 -0.044416936009294992 0.14744373737619401 0 -0.054361576129613079 0.15178129246158931 0 -0.067315024607703278 0.13662092079142449 0 -0.044416936009294992 0.14744373737619401 0 -0.044416936009294992 0.14744373737619401 0 -0.054361576129613079 0.15178129246158931 0 -0.044416936009294992 0.14744373737619401 0 -0.054361576129613079 0.15178129246158931 0 -0.047012455662473793 0.15786975055381819 0 -0.066369438716585821 0.14892706699039879 0 -0.054361576129613079 0.15178129246158931 0 -0.057722578482997257 0.16273086802879619 0 -0.057722578482997257 0.16273086802879619 0 -0.050411583818504503 0.1777900037548745 0 -0.045636115300606919 0.16650756778262649 0 -0.054361576129613079 0.15178129246158931 0 -0.057722578482997257 0.16273086802879619 0 -0.047012455662473793 0.15786975055381819 0 -0.057722578482997257 0.16273086802879619 0 -0.047012455662473793 0.15786975055381819 0 -0.045636115300606919 0.16650756778262649 0 -0.070171110140822543 0.1782308345810468 0 -0.056949983849450658 0.19269083667038239 0 -0.050411583818504503 0.1777900037548745 0 -0.070171110140822543 0.1782308345810468 0 -0.057722578482997257 0.16273086802879619 0 -0.050411583818504503 0.1777900037548745 0 -0.056949983849450658 0.19269083667038239 0 -0.040360849617421202 0.18777351164107661 0 -0.050411583818504503 0.1777900037548745 0 -0.040360849617421202 0.18777351164107661 0 -0.050411583818504503 0.1777900037548745 0 -0.039949487385523758 0.17426630734724691 0 -0.050411583818504503 0.1777900037548745 0 -0.039949487385523758 0.17426630734724691 0 -0.045636115300606919 0.16650756778262649 0 -0.040360849617421202 0.18777351164107661 0 -0.039949487385523758 0.17426630734724691 0 -0.026751027678188599 0.18229597604057349 0 -0.039949487385523758 0.17426630734724691 0 -0.036587860512897558 0.15696447751708351 0 -0.026751027678188599 0.18229597604057349 0 -0.036587860512897558 0.15696447751708351 0 -0.026751027678188599 0.18229597604057349 0 -0.039949487385523758 0.17426630734724691 0 -0.045636115300606919 0.16650756778262649 0 -0.036587860512897558 0.15696447751708351 0 -0.047012455662473793 0.15786975055381819 0 -0.045636115300606919 0.16650756778262649 0 -0.036587860512897558 0.15696447751708351 0 -0.01891215499648707 0.1765136475382359 0 -0.010861270542782259 0.1633038739619718 0 -0.027639103276038759 0.15537380566908321 0 -0.010861270542782259 0.1633038739619718 0 -0.027639103276038759 0.15537380566908321 0 -0.036587860512897558 0.15696447751708351 0 -0.01891215499648707 0.1765136475382359 0 -0.036587860512897558 0.15696447751708351 0 -0.01891215499648707 0.1765136475382359 0 -0.027639103276038759 0.15537380566908321 0 -0.01405220631290922 0.19352016069679451 0 -0.01891215499648707 0.1765136475382359 0 -0.026751027678188599 0.18229597604057349 0 -0.036587860512897558 0.15696447751708351 0 -0.01891215499648707 0.1765136475382359 0 -0.026751027678188599 0.18229597604057349 0 -0.01891215499648707 0.1765136475382359 0 -0.010861270542782259 0.1633038739619718 0 0.00061104658230836653 0.17769045695541219 0 -0.0012364494800765971 0.1960628175593882 0 -0.01891215499648707 0.1765136475382359 0 0.00061104658230836653 0.17769045695541219 0 -0.0012364494800765971 0.1960628175593882 0 -0.01891215499648707 0.1765136475382359 0 -0.010861270542782259 0.1633038739619718 0 0.001788155555331062 0.1557637096651584 0 0.00061104658230836653 0.17769045695541219 0 -0.01542264584752753 0.14956457798035719 0 -0.015783289274076458 0.13495459563681389 0 0.001788155555331062 0.1557637096651584 0 -0.015783289274076458 0.13495459563681389 0 0.001788155555331062 0.1557637096651584 0 0.01185912902997375 0.14130758542593569 0 -0.010861270542782259 0.1633038739619718 0 -0.01542264584752753 0.14956457798035719 0 0.001788155555331062 0.1557637096651584 0 -0.015783289274076458 0.13495459563681389 0 0.001788155555331062 0.1557637096651584 0 -0.01542264584752753 0.14956457798035719 0 -0.023159931299824549 0.14839209377580129 0 -0.027639103276038759 0.15537380566908321 0 -0.010861270542782259 0.1633038739619718 0 -0.01542264584752753 0.14956457798035719 0 -0.027639103276038759 0.15537380566908321 0 -0.01542264584752753 0.14956457798035719 0 -0.023159931299824549 0.14839209377580129 0 -0.021396469969749188 0.1374028974533886 0 -0.01542264584752753 0.14956457798035719 0 -0.021396469969749188 0.1374028974533886 0 -0.015783289274076458 0.13495459563681389 0 -0.030319635528424791 0.14770209815471691 0 -0.021396469969749188 0.1374028974533886 0 -0.023159931299824549 0.14839209377580129 0 -0.030319635528424791 0.14770209815471691 0 -0.021396469969749188 0.1374028974533886 0 -0.023159931299824549 0.14839209377580129 0 -0.030319635528424791 0.14770209815471691 0 -0.027639103276038759 0.15537380566908321 0 -0.028643554108799551 0.12806760582925611 0 -0.017506847497941139 0.13291345901070739 0 -0.032144953111298558 0.1155781737325411 0 -0.037500573576258918 0.13069979942664511 0 -0.028643554108799551 0.12806760582925611 0 -0.021396469969749188 0.1374028974533886 0 -0.021396469969749188 0.1374028974533886 0 -0.015783289274076458 0.13495459563681389 0 -0.017506847497941139 0.13291345901070739 0 -0.021396469969749188 0.1374028974533886 0 -0.015783289274076458 0.13495459563681389 0 -0.021396469969749188 0.1374028974533886 0 -0.017506847497941139 0.13291345901070739 0 -0.015783289274076458 0.13495459563681389 0 -0.017506847497941139 0.13291345901070739 0 -0.028643554108799551 0.12806760582925611 0 -0.021396469969749188 0.1374028974533886 0 -0.017506847497941139 0.13291345901070739 0 -0.015783289274076458 0.13495459563681389 0 -0.017506847497941139 0.13291345901070739 0 -0.0052228475358298988 0.1187351519746004 0 -0.015783289274076458 0.13495459563681389 0 -0.0052228475358298988 0.1187351519746004 0 0.0081407562022233586 0.1245196413435004 0 -0.017506847497941139 0.13291345901070739 0 -0.0052228475358298988 0.1187351519746004 0 -0.015783289274076458 0.13495459563681389 0 0.0081407562022233586 0.1245196413435004 0 -0.0052228475358298988 0.1187351519746004 0 -0.0040597014752050652 0.1051126182356364 0 -0.02761291541641378 0.1090435214711212 0 -0.017506847497941139 0.13291345901070739 0 -0.0052228475358298988 0.1187351519746004 0 -0.019344259015361451 0.119617058157429 0 -0.0040597014752050652 0.1051126182356364 0 -0.01533391803445322 0.09737838425916874 0 0.0051087594610210148 0.080527692295617709 0 -0.0052228475358298988 0.1187351519746004 0 -0.0040597014752050652 0.1051126182356364 0 0.0092582498306486675 0.1020209346744549 0 -0.0040597014752050652 0.1051126182356364 0 -0.01533391803445322 0.09737838425916874 0 -0.02761291541641378 0.1090435214711212 0 -0.01533391803445322 0.09737838425916874 0 -0.027797722535604891 0.095528124355643507 0 -0.02761291541641378 0.1090435214711212 0 -0.0052228475358298988 0.1187351519746004 0 -0.02761291541641378 0.1090435214711212 0 -0.019344259015361451 0.119617058157429 0 -0.017506847497941139 0.13291345901070739 0 -0.019344259015361451 0.119617058157429 0 -0.032144953111298558 0.1155781737325411 0 -0.02761291541641378 0.1090435214711212 0 -0.019344259015361451 0.119617058157429 0 -0.032144953111298558 0.1155781737325411 0 -0.0052228475358298988 0.1187351519746004 0 -0.02761291541641378 0.1090435214711212 0 -0.017506847497941139 0.13291345901070739 0 -0.032144953111298558 0.1155781737325411 0 -0.0012292332505543029 0.06378464068123596 0 -0.011084303888442551 0.081696622097620714 0 -0.018620569400409771 0.06708533464306303 0 -0.0012292332505543029 0.06378464068123596 0 -0.011084303888442551 0.081696622097620714 0 0.0051087594610210148 0.080527692295617709 0 -0.01533391803445322 0.09737838425916874 0 -0.011084303888442551 0.081696622097620714 0 0.0051087594610210148 0.080527692295617709 0 -0.01533391803445322 0.09737838425916874 0 0.0051087594610210148 0.080527692295617709 0 -0.011084303888442551 0.081696622097620714 0 0.0051087594610210148 0.080527692295617709 0 -0.027797722535604891 0.095528124355643507 0 -0.011084303888442551 0.081696622097620714 0 -0.032921925083363349 0.0833654898886593 0 -0.01533391803445322 0.09737838425916874 0 -0.027797722535604891 0.095528124355643507 0 -0.011084303888442551 0.081696622097620714 0 -0.018620569400409771 0.06708533464306303 0 -0.031868141831282552 0.069818555696904067 0 -0.028283535649973771 0.053358049395037133 0 -0.018620569400409771 0.06708533464306303 0 -0.031868141831282552 0.069818555696904067 0 -0.032921925083363349 0.0833654898886593 0 -0.011084303888442551 0.081696622097620714 0 -0.018620569400409771 0.06708533464306303 0 -0.032921925083363349 0.0833654898886593 0 -0.046276495737503101 0.06795068115397529 0 -0.032921925083363349 0.0833654898886593 0 -0.055882409073029139 0.082732437330199013 0 -0.046276495737503101 0.06795068115397529 0 -0.031868141831282552 0.069818555696904067 0 -0.028283535649973771 0.053358049395037133 0 -0.046276495737503101 0.06795068115397529 0 -0.031868141831282552 0.069818555696904067 0 -0.032921925083363349 0.0833654898886593 0 -0.027797722535604891 0.095528124355643507 0 -0.032921925083363349 0.0833654898886593 0 -0.050002983296997462 0.099351890967641507 0 -0.032921925083363349 0.0833654898886593 0 -0.055882409073029139 0.082732437330199013 0 -0.050002983296997462 0.099351890967641507 0 -0.055882409073029139 0.082732437330199013 0 -0.050002983296997462 0.099351890967641507 0 -0.072393051177581158 0.089660260464161839 0 -0.046276495737503101 0.06795068115397529 0 -0.055882409073029139 0.082732437330199013 0 -0.062589921296568873 0.06642957971461419 0 -0.032144953111298558 0.1155781737325411 0 -0.050002983296997462 0.099351890967641507 0 -0.046884900963607742 0.11986348336078891 0 -0.037500573576258918 0.13069979942664511 0 -0.034668926388748328 0.1237436995229996 0 -0.046884900963607742 0.11986348336078891 0 -0.028643554108799551 0.12806760582925611 0 -0.034668926388748328 0.1237436995229996 0 -0.032144953111298558 0.1155781737325411 0 -0.034668926388748328 0.1237436995229996 0 -0.032144953111298558 0.1155781737325411 0 -0.046884900963607742 0.11986348336078891 0 -0.027797722535604891 0.095528124355643507 0 -0.02761291541641378 0.1090435214711212 0 -0.050002983296997462 0.099351890967641507 0 -0.02761291541641378 0.1090435214711212 0 -0.050002983296997462 0.099351890967641507 0 -0.02761291541641378 0.1090435214711212 0 -0.032144953111298558 0.1155781737325411 0 -0.050002983296997462 0.099351890967641507 0 -0.050002983296997462 0.099351890967641507 0 -0.072393051177581158 0.089660260464161839 0 -0.050002983296997462 0.099351890967641507 0 -0.062115440392200259 0.1100516779477724 0 -0.072393051177581158 0.089660260464161839 0 -0.062016764747578973 0.12884034001808189 0 -0.062115440392200259 0.1100516779477724 0 -0.046884900963607742 0.11986348336078891 0 -0.050002983296997462 0.099351890967641507 0 -0.062115440392200259 0.1100516779477724 0 -0.046884900963607742 0.11986348336078891 0 -0.062016764747578973 0.12884034001808189 0 -0.062115440392200259 0.1100516779477724 0 -0.07825578499994286 0.1108801308713713 0 -0.062016764747578973 0.12884034001808189 0 -0.07825578499994286 0.1108801308713713 0 -0.062016764747578973 0.12884034001808189 0 -0.075786521408142987 0.12443322189858901 0 -0.07825578499994286 0.1108801308713713 0 -0.088852304720190942 0.12644129241805541 0 -0.075786521408142987 0.12443322189858901 0 -0.083719546898917335 0.119699814685821 0 -0.083719546898917335 0.119699814685821 0 -0.07825578499994286 0.1108801308713713 0 -0.093946486761182085 0.1175508364221631 0 -0.075786521408142987 0.12443322189858901 0 -0.083719546898917335 0.119699814685821 0 -0.07825578499994286 0.1108801308713713 0 -0.088852304720190942 0.12644129241805541 0 -0.083719546898917335 0.119699814685821 0 -0.093946486761182085 0.1175508364221631 0 -0.07825578499994286 0.1108801308713713 0 -0.072393051177581158 0.089660260464161839 0 -0.094494805252306774 0.092919921724660626 0 -0.07825578499994286 0.1108801308713713 0 -0.094494805252306774 0.092919921724660626 0 -0.093946486761182085 0.1175508364221631 0 -0.07825578499994286 0.1108801308713713 0 -0.094494805252306774 0.092919921724660626 0 -0.062115440392200259 0.1100516779477724 0 -0.07825578499994286 0.1108801308713713 0 -0.072393051177581158 0.089660260464161839 0 -0.055882409073029139 0.082732437330199013 0 -0.072393051177581158 0.089660260464161839 0 -0.062589921296568873 0.06642957971461419 0 -0.072393051177581158 0.089660260464161839 0 -0.062589921296568873 0.06642957971461419 0 -0.079461892795990779 0.070449194571112136 0 -0.062589921296568873 0.06642957971461419 0 -0.079461892795990779 0.070449194571112136 0 -0.072380178782229632 0.053292134703331731 0 -0.079461892795990779 0.070449194571112136 0 -0.094783119058163612 0.079968629960679383 0 -0.095163193665411511 0.062895368012773595 0 -0.072393051177581158 0.089660260464161839 0 -0.079461892795990779 0.070449194571112136 0 -0.094783119058163612 0.079968629960679383 0 -0.072393051177581158 0.089660260464161839 0 -0.094494805252306774 0.092919921724660626 0 -0.094783119058163612 0.079968629960679383 0 -0.072393051177581158 0.089660260464161839 0 -0.094783119058163612 0.079968629960679383 0 -0.094494805252306774 0.092919921724660626 0 -0.1072570836689255 0.074569224449017327 0 -0.1143352617609841 0.070976556735617355 0 -0.094494805252306774 0.092919921724660626 0 -0.094783119058163612 0.079968629960679383 0 -0.1072570836689255 0.074569224449017327 0 -0.094494805252306774 0.092919921724660626 0 -0.094783119058163612 0.079968629960679383 0 -0.094494805252306774 0.092919921724660626 0 -0.1143352617609841 0.070976556735617355 0 -0.11134444788944529 0.091345452974062963 0 -0.094494805252306774 0.092919921724660626 0 -0.1143352617609841 0.070976556735617355 0 -0.094783119058163612 0.079968629960679383 0 -0.095163193665411511 0.062895368012773595 0 -0.094783119058163612 0.079968629960679383 0 -0.095163193665411511 0.062895368012773595 0 -0.1072570836689255 0.074569224449017327 0 -0.095163193665411511 0.062895368012773595 0 -0.1143352617609841 0.070976556735617355 0 -0.1079186055395126 0.059947093390224047 0 -0.095163193665411511 0.062895368012773595 0 -0.1072570836689255 0.074569224449017327 0 -0.1143352617609841 0.070976556735617355 0 -0.095163193665411511 0.062895368012773595 0 -0.1143352617609841 0.070976556735617355 0 -0.094783119058163612 0.079968629960679383 0 -0.1072570836689255 0.074569224449017327 0 -0.1131683311422218 0.062814464837820119 0 -0.1163519950294771 0.068746068028026575 0 -0.1143352617609841 0.070976556735617355 0 -0.1131683311422218 0.062814464837820119 0 -0.1143352617609841 0.070976556735617355 0 -0.1079186055395126 0.059947093390224047 0 -0.1131683311422218 0.062814464837820119 0 -0.1163519950294771 0.068746068028026575 0 -0.1185872066977806 0.063729502839677182 0 -0.1163519950294771 0.068746068028026575 0 -0.1143352617609841 0.070976556735617355 0 -0.12697985749263241 0.07630636069427757 0 -0.1143352617609841 0.070976556735617355 0 -0.12697985749263241 0.07630636069427757 0 -0.1143352617609841 0.070976556735617355 0 -0.1200161930876608 0.081776906418299489 0 -0.12697985749263241 0.07630636069427757 0 -0.1163519950294771 0.068746068028026575 0 -0.1143352617609841 0.070976556735617355 0 -0.12697985749263241 0.07630636069427757 0 -0.12509646681095879 0.065597408261105467 0 -0.1163519950294771 0.068746068028026575 0 -0.12509646681095879 0.065597408261105467 0 -0.1163519950294771 0.068746068028026575 0 -0.1185872066977806 0.063729502839677182 0 -0.13359630628803579 0.098968800084119873 0 -0.12697672020224329 0.087309090757334687 0 -0.11134444788944529 0.091345452974062963 0 -0.1143352617609841 0.070976556735617355 0 -0.11134444788944529 0.091345452974062963 0 -0.1200161930876608 0.081776906418299489 0 -0.12697672020224329 0.087309090757334687 0 -0.11134444788944529 0.091345452974062963 0 -0.1200161930876608 0.081776906418299489 0 -0.12697672020224329 0.087309090757334687 0 -0.12697985749263241 0.07630636069427757 0 -0.1200161930876608 0.081776906418299489 0 -0.12607259725238279 0.11330641960449821 0 -0.13359630628803579 0.098968800084119873 0 -0.11123038207674001 0.1082681122756106 0 -0.13359630628803579 0.098968800084119873 0 -0.11134444788944529 0.091345452974062963 0 -0.11123038207674001 0.1082681122756106 0 -0.13359630628803579 0.098968800084119873 0 -0.11123038207674001 0.1082681122756106 0 -0.11134444788944529 0.091345452974062963 0 -0.11123038207674001 0.1082681122756106 0 -0.1057361510920251 0.099277959283072717 0 -0.12607259725238279 0.11330641960449821 0 -0.11123038207674001 0.1082681122756106 0 -0.11706151063611089 0.1208882391850464 0 -0.12607259725238279 0.11330641960449821 0 -0.12916618827146031 0.12390190950899049 0 -0.11706151063611089 0.1208882391850464 0 -0.11473911200363 0.13153944404780621 0 -0.11706151063611089 0.1208882391850464 0 -0.10601879130899509 0.12208205668825579 0 -0.1036345166478785 0.1154037657297244 0 -0.093946486761182085 0.1175508364221631 0 -0.097511277885226108 0.1010939306234323 0 -0.11123038207674001 0.1082681122756106 0 -0.11706151063611089 0.1208882391850464 0 -0.097511277885226108 0.1010939306234323 0 -0.11706151063611089 0.1208882391850464 0 -0.1036345166478785 0.1154037657297244 0 -0.097511277885226108 0.1010939306234323 0 -0.11706151063611089 0.1208882391850464 0 -0.097511277885226108 0.1010939306234323 0 -0.11706151063611089 0.1208882391850464 0 -0.1036345166478785 0.1154037657297244 0 -0.10601879130899509 0.12208205668825579 0 -0.1039338124667491 0.13009472872812991 0 -0.10601879130899509 0.12208205668825579 0 -0.093946486761182085 0.1175508364221631 0 -0.1036345166478785 0.1154037657297244 0 -0.10601879130899509 0.12208205668825579 0 -0.093946486761182085 0.1175508364221631 0 -0.094494805252306774 0.092919921724660626 0 -0.11134444788944529 0.091345452974062963 0 -0.1057361510920251 0.099277959283072717 0 -0.094494805252306774 0.092919921724660626 0 -0.093946486761182085 0.1175508364221631 0 -0.094494805252306774 0.092919921724660626 0 -0.093946486761182085 0.1175508364221631 0 -0.097511277885226108 0.1010939306234323 0 -0.094494805252306774 0.092919921724660626 0 -0.097511277885226108 0.1010939306234323 0 -0.1057361510920251 0.099277959283072717 0 -0.11123038207674001 0.1082681122756106 0 -0.097511277885226108 0.1010939306234323 0 -0.1057361510920251 0.099277959283072717 0 -0.1001339578063882 0.022436777626384768 0 -0.09536928659882779 0.01424719335382847 0 -0.1128440433065038 0.01636018592503535 0 -0.1001339578063882 0.022436777626384768 0 -0.1128440433065038 0.01636018592503535 0 -0.1012358460944251 0.033108064834657697 0 -0.1128440433065038 0.01636018592503535 0 -0.11393466639619521 0.035004472642448957 0 -0.1012358460944251 0.033108064834657697 0 -0.1128440433065038 0.01636018592503535 0 -0.1012358460944251 0.033108064834657697 0 -0.1001339578063882 0.022436777626384768 0 -0.1012358460944251 0.033108064834657697 0 -0.091086655225796079 0.026031666392017531 0 -0.1001339578063882 0.022436777626384768 0 -0.09536928659882779 0.01424719335382847 0 -0.091086655225796079 0.026031666392017531 0 -0.10394313851700079 0.0020556251079679459 0 -0.09536928659882779 0.01424719335382847 0 -0.085958893623968774 0.001514634656162053 0 -0.10394313851700079 0.0020556251079679459 0 -0.09536928659882779 0.01424719335382847 0 -0.1128440433065038 0.01636018592503535 0 -0.1244522405185825 -0.00038769298458709092 0 -0.12424451236807239 0.027069144312366941 0 -0.1244522405185825 -0.00038769298458709092 0 -0.1128440433065038 0.01636018592503535 0 -0.12424451236807239 0.027069144312366941 0 -0.1244522405185825 -0.00038769298458709092 0 -0.1128440433065038 0.01636018592503535 0 -0.1244522405185825 -0.00038769298458709092 0 -0.10394313851700079 0.0020556251079679459 0 -0.1128440433065038 0.01636018592503535 0 -0.1128440433065038 0.01636018592503535 0 -0.12424451236807239 0.027069144312366941 0 -0.11393466639619521 0.035004472642448957 0 -0.12424451236807239 0.027069144312366941 0 -0.12075472355362291 0.04122338309529356 0 -0.11393466639619521 0.035004472642448957 0 -0.12075472355362291 0.04122338309529356 0 -0.1244920148619628 0.050381604022983993 0 -0.1151670195775447 0.0482238646449 0 -0.11393466639619521 0.035004472642448957 0 -0.1151670195775447 0.0482238646449 0 -0.10635909785250069 0.04125385698526951 0 -0.12075472355362291 0.04122338309529356 0 -0.11393466639619521 0.035004472642448957 0 -0.1151670195775447 0.0482238646449 0 -0.12509646681095879 0.065597408261105467 0 -0.1185872066977806 0.063729502839677182 0 -0.1197320338084647 0.057760070231756527 0 -0.1197320338084647 0.057760070231756527 0 -0.1244920148619628 0.050381604022983993 0 -0.1151670195775447 0.0482238646449 0 -0.1151670195775447 0.0482238646449 0 -0.1125210466915524 0.054978807834542787 0 -0.1051700993263314 0.050476507920077678 0 -0.1197320338084647 0.057760070231756527 0 -0.1151670195775447 0.0482238646449 0 -0.1125210466915524 0.054978807834542787 0 -0.1131683311422218 0.062814464837820119 0 -0.1197320338084647 0.057760070231756527 0 -0.1125210466915524 0.054978807834542787 0 -0.1131683311422218 0.062814464837820119 0 -0.1125210466915524 0.054978807834542787 0 -0.1079186055395126 0.059947093390224047 0 -0.1131683311422218 0.062814464837820119 0 -0.1185872066977806 0.063729502839677182 0 -0.1197320338084647 0.057760070231756527 0 -0.095163193665411511 0.062895368012773595 0 -0.1051700993263314 0.050476507920077678 0 -0.095336714328198874 0.041619114628837717 0 -0.095163193665411511 0.062895368012773595 0 -0.095336714328198874 0.041619114628837717 0 -0.1125210466915524 0.054978807834542787 0 -0.1079186055395126 0.059947093390224047 0 -0.1051700993263314 0.050476507920077678 0 -0.095163193665411511 0.062895368012773595 0 -0.1079186055395126 0.059947093390224047 0 -0.1051700993263314 0.050476507920077678 0 -0.11393466639619521 0.035004472642448957 0 -0.10635909785250069 0.04125385698526951 0 -0.1012358460944251 0.033108064834657697 0 -0.1051700993263314 0.050476507920077678 0 -0.10635909785250069 0.04125385698526951 0 -0.095336714328198874 0.041619114628837717 0 -0.1151670195775447 0.0482238646449 0 -0.1051700993263314 0.050476507920077678 0 -0.10635909785250069 0.04125385698526951 0 -0.095336714328198874 0.041619114628837717 0 -0.1012358460944251 0.033108064834657697 0 -0.08853862327275358 0.036894035852943478 0 -0.10635909785250069 0.04125385698526951 0 -0.095336714328198874 0.041619114628837717 0 -0.1012358460944251 0.033108064834657697 0 -0.095336714328198874 0.041619114628837717 0 -0.1012358460944251 0.033108064834657697 0 -0.1012358460944251 0.033108064834657697 0 -0.08853862327275358 0.036894035852943478 0 -0.091086655225796079 0.026031666392017531 0 -0.08853862327275358 0.036894035852943478 0 -0.081088353484909961 0.032020518526829703 0 -0.091086655225796079 0.026031666392017531 0 -0.08853862327275358 0.036894035852943478 0 -0.079654612676290371 0.043453985766932421 0 -0.089627648882346422 0.049855943744280047 0 -0.095336714328198874 0.041619114628837717 0 -0.08853862327275358 0.036894035852943478 0 -0.089627648882346422 0.049855943744280047 0 -0.095336714328198874 0.041619114628837717 0 -0.089627648882346422 0.049855943744280047 0 -0.08853862327275358 0.036894035852943478 0 -0.079654612676290371 0.043453985766932421 0 -0.081088353484909961 0.032020518526829703 0 -0.095163193665411511 0.062895368012773595 0 -0.089627648882346422 0.049855943744280047 0 -0.072380178782229632 0.053292134703331731 0 -0.095163193665411511 0.062895368012773595 0 -0.095336714328198874 0.041619114628837717 0 -0.089627648882346422 0.049855943744280047 0 -0.095163193665411511 0.062895368012773595 0 -0.072380178782229632 0.053292134703331731 0 -0.079461892795990779 0.070449194571112136 0 -0.095163193665411511 0.062895368012773595 0 -0.072380178782229632 0.053292134703331731 0 -0.079654612676290371 0.043453985766932421 0 -0.089627648882346422 0.049855943744280047 0 -0.072380178782229632 0.053292134703331731 0 -0.079654612676290371 0.043453985766932421 0 -0.072380178782229632 0.053292134703331731 0 -0.065785112224924183 0.037111289768743512 0 -0.072380178782229632 0.053292134703331731 0 -0.065785112224924183 0.037111289768743512 0 -0.049597163899048183 0.043688901393888827 0 -0.079654612676290371 0.043453985766932421 0 -0.081088353484909961 0.032020518526829703 0 -0.065785112224924183 0.037111289768743512 0 -0.081088353484909961 0.032020518526829703 0 -0.065785112224924183 0.037111289768743512 0 -0.069646162847898541 0.026335067629459381 0 -0.069646162847898541 0.026335067629459381 0 -0.076118231742993758 0.01527396050979404 0 -0.05559295393876626 0.02093450171247024 0 -0.065785112224924183 0.037111289768743512 0 -0.069646162847898541 0.026335067629459381 0 -0.05559295393876626 0.02093450171247024 0 -0.081088353484909961 0.032020518526829703 0 -0.069646162847898541 0.026335067629459381 0 -0.076118231742993758 0.01527396050979404 0 -0.081088353484909961 0.032020518526829703 0 -0.091086655225796079 0.026031666392017531 0 -0.076118231742993758 0.01527396050979404 0 -0.09536928659882779 0.01424719335382847 0 -0.091086655225796079 0.026031666392017531 0 -0.076118231742993758 0.01527396050979404 0 -0.09536928659882779 0.01424719335382847 0 -0.085958893623968774 0.001514634656162053 0 -0.076118231742993758 0.01527396050979404 0 -0.076118231742993758 0.01527396050979404 0 -0.065648076432031049 0.00090955339710942099 0 -0.05559295393876626 0.02093450171247024 0 -0.085958893623968774 0.001514634656162053 0 -0.076118231742993758 0.01527396050979404 0 -0.065648076432031049 0.00090955339710942099 0 -0.045118160941850949 -0.00049033847668307538 0 -0.065648076432031049 0.00090955339710942099 0 -0.05559295393876626 0.02093450171247024 0 -0.05559295393876626 0.02093450171247024 0 -0.041197297059898302 0.028587588038626519 0 -0.049597163899048183 0.043688901393888827 0 -0.05559295393876626 0.02093450171247024 0 -0.032784921385912158 0.01564128096370114 0 -0.041197297059898302 0.028587588038626519 0 -0.032784921385912158 0.01564128096370114 0 -0.041197297059898302 0.028587588038626519 0 -0.02681414901586664 0.034085668084445887 0 -0.045118160941850949 -0.00049033847668307538 0 -0.05559295393876626 0.02093450171247024 0 -0.032784921385912158 0.01564128096370114 0 -0.045118160941850949 -0.00049033847668307538 0 -0.027025641752002061 -0.0079319500279313396 0 -0.032784921385912158 0.01564128096370114 0 -0.062589921296568873 0.06642957971461419 0 -0.072380178782229632 0.053292134703331731 0 -0.049597163899048183 0.043688901393888827 0 -0.046276495737503101 0.06795068115397529 0 -0.062589921296568873 0.06642957971461419 0 -0.049597163899048183 0.043688901393888827 0 -0.072380178782229632 0.053292134703331731 0 -0.049597163899048183 0.043688901393888827 0 -0.065785112224924183 0.037111289768743512 0 -0.05559295393876626 0.02093450171247024 0 -0.049597163899048183 0.043688901393888827 0 -0.049597163899048183 0.043688901393888827 0 -0.02681414901586664 0.034085668084445887 0 -0.041197297059898302 0.028587588038626519 0 -0.049597163899048183 0.043688901393888827 0 -0.02681414901586664 0.034085668084445887 0 -0.049597163899048183 0.043688901393888827 0 -0.028283535649973771 0.053358049395037133 0 -0.02681414901586664 0.034085668084445887 0 -0.046276495737503101 0.06795068115397529 0 -0.028283535649973771 0.053358049395037133 0 -0.046276495737503101 0.06795068115397529 0 -0.049597163899048183 0.043688901393888827 0 -0.028283535649973771 0.053358049395037133 0 -0.028283535649973771 0.053358049395037133 0 -0.010290575562444429 0.038765417636098962 0 -0.0097640400442320502 0.053032197103308337 0 -0.018620569400409771 0.06708533464306303 0 -0.028283535649973771 0.053358049395037133 0 -0.0097640400442320502 0.053032197103308337 0 -0.028283535649973771 0.053358049395037133 0 -0.010290575562444429 0.038765417636098962 0 -0.02681414901586664 0.034085668084445887 0 -0.010290575562444429 0.038765417636098962 0 -0.020835528804160591 0.022374223573919171 0 -0.028283535649973771 0.053358049395037133 0 -0.02681414901586664 0.034085668084445887 0 -0.010290575562444429 0.038765417636098962 0 -0.010290575562444429 0.038765417636098962 0 0.0077023845250848884 0.024172785877160811 0 -0.010290575562444429 0.038765417636098962 0 -0.0034349793211087142 0.044893397967285961 0 0.0047272217829380687 0.036246676438490527 0 -0.010290575562444429 0.038765417636098962 0 -0.0034349793211087142 0.044893397967285961 0 -0.0097640400442320502 0.053032197103308337 0 -0.0012292332505543029 0.06378464068123596 0 -0.018620569400409771 0.06708533464306303 0 -0.0097640400442320502 0.053032197103308337 0 -0.0034349793211087142 0.044893397967285961 0 -0.0097640400442320502 0.053032197103308337 0 0.0015874765393035599 0.051529300691246019 0 -0.0012292332505543029 0.06378464068123596 0 -0.0097640400442320502 0.053032197103308337 0 0.0015874765393035599 0.051529300691246019 0 -0.027025641752002061 -0.0079319500279313396 0 -0.032784921385912158 0.01564128096370114 0 -0.01566814095190756 0.010235570601176981 0 -0.032784921385912158 0.01564128096370114 0 -0.02681414901586664 0.034085668084445887 0 -0.020835528804160591 0.022374223573919171 0 -0.032784921385912158 0.01564128096370114 0 -0.01566814095190756 0.010235570601176981 0 -0.020835528804160591 0.022374223573919171 0 -0.010290575562444429 0.038765417636098962 0 -0.020835528804160591 0.022374223573919171 0 -0.0077262750329500059 0.02266504195052366 0 -0.01566814095190756 0.010235570601176981 0 -0.020835528804160591 0.022374223573919171 0 -0.0077262750329500059 0.02266504195052366 0 -0.010290575562444429 0.038765417636098962 0 -0.0077262750329500059 0.02266504195052366 0 0.0077023845250848884 0.024172785877160811 0 -0.0091716063734174208 -0.003332990253060792 0 -0.01566814095190756 0.010235570601176981 0 0.001118487675879971 0.0096665619175221752 0 -0.0091716063734174208 -0.003332990253060792 0 0.001118487675879971 0.0096665619175221752 0 0.006935528729737548 -0.0054826371559186567 0 -0.01566814095190756 0.010235570601176981 0 -0.0077262750329500059 0.02266504195052366 0 0.001118487675879971 0.0096665619175221752 0 0.001118487675879971 0.0096665619175221752 0 0.0077023845250848884 0.024172785877160811 0 0.025695344612614111 0.0095801541182225364 0 0.001118487675879971 0.0096665619175221752 0 0.025695344612614111 0.0095801541182225364 0 0.006935528729737548 -0.0054826371559186567 0 -0.0077262750329500059 0.02266504195052366 0 0.001118487675879971 0.0096665619175221752 0 0.0077023845250848884 0.024172785877160811 0 0.0077023845250848884 0.024172785877160811 0 0.024648998497944961 0.02642224341189468 0 0.015911730558903318 0.034762274935307848 0 0.024648998497944961 0.02642224341189468 0 0.025695344612614111 0.0095801541182225364 0 0.038363400138324961 0.019751697241263279 0 0.0077023845250848884 0.024172785877160811 0 0.024648998497944961 0.02642224341189468 0 0.025695344612614111 0.0095801541182225364 0 0.0077023845250848884 0.024172785877160811 0 0.025695344612614111 0.0095801541182225364 0 0.025695344612614111 0.0095801541182225364 0 0.006935528729737548 -0.0054826371559186567 0 0.01459521235494949 0.061710637509134872 0 0.0047272217829380687 0.036246676438490527 0 -0.0012292332505543029 0.06378464068123596 0 0.01459521235494949 0.061710637509134872 0 0.0015874765393035599 0.051529300691246019 0 0.01459521235494949 0.061710637509134872 0 0.0015874765393035599 0.051529300691246019 0 0.0047272217829380687 0.036246676438490527 0 0.01459521235494949 0.061710637509134872 0 0.0047272217829380687 0.036246676438490527 0 0.016570281580619739 0.045526930476817662 0 -0.010290575562444429 0.038765417636098962 0 0.0077023845250848884 0.024172785877160811 0 0.0047272217829380687 0.036246676438490527 0 -0.0034349793211087142 0.044893397967285961 0 0.0015874765393035599 0.051529300691246019 0 0.0047272217829380687 0.036246676438490527 0 0.0047272217829380687 0.036246676438490527 0 0.015911730558903318 0.034762274935307848 0 0.016570281580619739 0.045526930476817662 0 0.0077023845250848884 0.024172785877160811 0 0.0047272217829380687 0.036246676438490527 0 0.015911730558903318 0.034762274935307848 0 0.024648998497944961 0.02642224341189468 0 0.015911730558903318 0.034762274935307848 0 0.025892041879535671 0.039420421904702428 0 0.024648998497944961 0.02642224341189468 0 0.025892041879535671 0.039420421904702428 0 0.038236142792751733 0.035111405712831077 0 0.015911730558903318 0.034762274935307848 0 0.025892041879535671 0.039420421904702428 0 0.016570281580619739 0.045526930476817662 0 0.025892041879535671 0.039420421904702428 0 0.016570281580619739 0.045526930476817662 0 0.021716339062575678 0.05448348331271597 0 0.01459521235494949 0.061710637509134872 0 0.016570281580619739 0.045526930476817662 0 0.021716339062575678 0.05448348331271597 0 0.01459521235494949 0.061710637509134872 0 0.021716339062575678 0.05448348331271597 0 0.030459386295035529 0.05963142741263059 0 0.01459521235494949 0.061710637509134872 0 0.030459386295035529 0.05963142741263059 0 0.021716339062575678 0.05448348331271597 0 0.030459386295035529 0.05963142741263059 0 0.032703710623893968 0.046893395464013943 0 0.025892041879535671 0.039420421904702428 0 0.021716339062575678 0.05448348331271597 0 0.032703710623893968 0.046893395464013943 0 0.030459386295035529 0.05963142741263059 0 0.032703710623893968 0.046893395464013943 0 0.047214643089571059 0.045820238977188371 0 0.030459386295035529 0.05963142741263059 0 0.04797297407010033 0.057336039788577382 0 0.030459386295035529 0.05963142741263059 0 0.04797297407010033 0.057336039788577382 0 0.027635028654909001 0.06907575978797427 0 0.030459386295035529 0.05963142741263059 0 0.047214643089571059 0.045820238977188371 0 0.04797297407010033 0.057336039788577382 0 0.030459386295035529 0.05963142741263059 0 0.047214643089571059 0.045820238977188371 0 0.038236142792751733 0.035111405712831077 0 0.047214643089571059 0.045820238977188371 0 0.051031455664035288 0.029923240364304559 0 0.032703710623893968 0.046893395464013943 0 0.038236142792751733 0.035111405712831077 0 0.047214643089571059 0.045820238977188371 0 0.025892041879535671 0.039420421904702428 0 0.032703710623893968 0.046893395464013943 0 0.038236142792751733 0.035111405712831077 0 0.062359133547200143 0.040731400683572692 0 0.047214643089571059 0.045820238977188371 0 0.063969899884107562 0.032009050541747332 0 0.047214643089571059 0.045820238977188371 0 0.063969899884107562 0.032009050541747332 0 0.047214643089571059 0.045820238977188371 0 0.051031455664035288 0.029923240364304559 0 0.063969899884107562 0.032009050541747332 0 0.062359133547200143 0.040731400683572692 0 0.04797297407010033 0.057336039788577382 0 0.072379857481358154 0.054137194478101919 0 0.04797297407010033 0.057336039788577382 0 0.072379857481358154 0.054137194478101919 0 0.062359133547200143 0.040731400683572692 0 0.04797297407010033 0.057336039788577382 0 0.062359133547200143 0.040731400683572692 0 0.047214643089571059 0.045820238977188371 0 0.04797297407010033 0.057336039788577382 0 0.04797297407010033 0.057336039788577382 0 0.072379857481358154 0.054137194478101919 0 0.06072113176624426 0.066105246874810966 0 0.040835927619124697 0.0088703260301804514 0 0.038363400138324961 0.019751697241263279 0 0.051939500327619889 0.017318508583630769 0 0.040835927619124697 0.0088703260301804514 0 0.046640351189982193 0.001482106492276504 0 0.040314465242246092 -0.002276229875846851 0 0.025695344612614111 0.0095801541182225364 0 0.040314465242246092 -0.002276229875846851 0 0.025695344612614111 0.0095801541182225364 0 0.040835927619124697 0.0088703260301804514 0 0.040314465242246092 -0.002276229875846851 0 0.025695344612614111 0.0095801541182225364 0 0.040835927619124697 0.0088703260301804514 0 0.038363400138324961 0.019751697241263279 0 0.025695344612614111 0.0095801541182225364 0 0.038363400138324961 0.019751697241263279 0 0.024648998497944961 0.02642224341189468 0 0.038236142792751733 0.035111405712831077 0 0.038363400138324961 0.019751697241263279 0 0.038363400138324961 0.019751697241263279 0 0.051031455664035288 0.029923240364304559 0 0.038236142792751733 0.035111405712831077 0 0.038363400138324961 0.019751697241263279 0 0.051031455664035288 0.029923240364304559 0 0.038363400138324961 0.019751697241263279 0 0.051939500327619889 0.017318508583630769 0 0.051031455664035288 0.029923240364304559 0 0.051031455664035288 0.029923240364304559 0 0.062107590562420073 0.0228568457980407 0 0.063969899884107562 0.032009050541747332 0 0.051939500327619889 0.017318508583630769 0 0.062107590562420073 0.0228568457980407 0 0.064696567818308529 0.01472149906873369 0 0.051939500327619889 0.017318508583630769 0 0.051031455664035288 0.029923240364304559 0 0.062107590562420073 0.0228568457980407 0 0.055514373943813228 0.0067304088365214816 0 0.075461568133428525 0.0044331687040122013 0 0.049896637954744763 -0.0073960790217490677 0 0.051939500327619889 0.017318508583630769 0 0.055514373943813228 0.0067304088365214816 0 0.064696567818308529 0.01472149906873369 0 0.040835927619124697 0.0088703260301804514 0 0.051939500327619889 0.017318508583630769 0 0.055514373943813228 0.0067304088365214816 0 0.046640351189982193 0.001482106492276504 0 0.055514373943813228 0.0067304088365214816 0 0.049896637954744763 -0.0073960790217490677 0 0.040835927619124697 0.0088703260301804514 0 0.046640351189982193 0.001482106492276504 0 0.055514373943813228 0.0067304088365214816 0 0.075461568133428525 0.0044331687040122013 0 0.064696567818308529 0.01472149906873369 0 0.08072515667864405 0.018197862106306289 0 0.055514373943813228 0.0067304088365214816 0 0.075461568133428525 0.0044331687040122013 0 0.064696567818308529 0.01472149906873369 0 0.075461568133428525 0.0044331687040122013 0 0.1010264983121123 0.016262416429773479 0 0.075461568133428525 0.0044331687040122013 0 0.1010264983121123 0.016262416429773479 0 0.098011391193308373 -0.0056982583262641584 0 0.075461568133428525 0.0044331687040122013 0 0.08072515667864405 0.018197862106306289 0 0.1010264983121123 0.016262416429773479 0 0.088041666307225416 0.02743399724937181 0 0.08072515667864405 0.018197862106306289 0 0.1010264983121123 0.016262416429773479 0 0.088041666307225416 0.02743399724937181 0 0.08072515667864405 0.018197862106306289 0 0.076745293024301803 0.02412676157856956 0 0.088041666307225416 0.02743399724937181 0 0.076745293024301803 0.02412676157856956 0 0.082258845210710349 0.03253561428057717 0 0.08072515667864405 0.018197862106306289 0 0.076745293024301803 0.02412676157856956 0 0.063969899884107562 0.032009050541747332 0 0.062107590562420073 0.0228568457980407 0 0.064696567818308529 0.01472149906873369 0 0.08072515667864405 0.018197862106306289 0 0.08072515667864405 0.018197862106306289 0 0.063969899884107562 0.032009050541747332 0 0.062107590562420073 0.0228568457980407 0 0.08072515667864405 0.018197862106306289 0 0.063969899884107562 0.032009050541747332 0 0.062359133547200143 0.040731400683572692 0 0.076745293024301803 0.02412676157856956 0 0.062359133547200143 0.040731400683572692 0 0.076745293024301803 0.02412676157856956 0 0.076375628159171968 0.038405412939545532 0 0.062359133547200143 0.040731400683572692 0 0.076745293024301803 0.02412676157856956 0 0.063969899884107562 0.032009050541747332 0 0.062359133547200143 0.040731400683572692 0 0.076375628159171968 0.038405412939545532 0 0.072379857481358154 0.054137194478101919 0 0.072379857481358154 0.054137194478101919 0 0.087872793352142223 0.040176285354821803 0 0.096786740892615686 0.050938349167624693 0 0.072379857481358154 0.054137194478101919 0 0.096786740892615686 0.050938349167624693 0 0.072379857481358154 0.054137194478101919 0 0.096786740892615686 0.050938349167624693 0 0.089592915186254174 0.067390154600646832 0 0.076375628159171968 0.038405412939545532 0 0.072379857481358154 0.054137194478101919 0 0.087872793352142223 0.040176285354821803 0 0.076375628159171968 0.038405412939545532 0 0.082258845210710349 0.03253561428057717 0 0.087872793352142223 0.040176285354821803 0 0.076745293024301803 0.02412676157856956 0 0.076375628159171968 0.038405412939545532 0 0.082258845210710349 0.03253561428057717 0 0.088041666307225416 0.02743399724937181 0 0.087872793352142223 0.040176285354821803 0 0.098246025398924644 0.032379674771496843 0 0.088041666307225416 0.02743399724937181 0 0.082258845210710349 0.03253561428057717 0 0.087872793352142223 0.040176285354821803 0 0.098246025398924644 0.032379674771496843 0 0.09859813872304253 0.041737690340159041 0 0.1063796333462841 0.038668109643535398 0 0.087872793352142223 0.040176285354821803 0 0.098246025398924644 0.032379674771496843 0 0.09859813872304253 0.041737690340159041 0 0.087872793352142223 0.040176285354821803 0 0.09859813872304253 0.041737690340159041 0 0.096786740892615686 0.050938349167624693 0 0.09859813872304253 0.041737690340159041 0 0.1037055006252459 0.04652603276331644 0 0.096786740892615686 0.050938349167624693 0 0.1037055006252459 0.04652603276331644 0 0.1091701701315707 0.045405346223324289 0 0.1063796333462841 0.038668109643535398 0 0.09859813872304253 0.041737690340159041 0 0.1037055006252459 0.04652603276331644 0 0.1063796333462841 0.038668109643535398 0 0.098246025398924644 0.032379674771496843 0 0.1063796333462841 0.038668109643535398 0 0.1080469394596527 0.029312409717345649 0 0.1063796333462841 0.038668109643535398 0 0.11369005285381351 0.036564640387925021 0 0.1080469394596527 0.029312409717345649 0 0.10140855114010359 0.056741753968867333 0 0.1082136550722141 0.059696613986540442 0 0.089592915186254174 0.067390154600646832 0 0.10140855114010359 0.056741753968867333 0 0.096786740892615686 0.050938349167624693 0 0.089592915186254174 0.067390154600646832 0 0.10140855114010359 0.056741753968867333 0 0.096786740892615686 0.050938349167624693 0 0.1040187002827474 0.052009313231975308 0 0.1037055006252459 0.04652603276331644 0 0.096786740892615686 0.050938349167624693 0 0.1040187002827474 0.052009313231975308 0 0.1037055006252459 0.04652603276331644 0 0.10828434687670541 0.049049973369521209 0 0.1040187002827474 0.052009313231975308 0 0.1037055006252459 0.04652603276331644 0 0.1091701701315707 0.045405346223324289 0 0.10828434687670541 0.049049973369521209 0 0.10828434687670541 0.049049973369521209 0 0.1040187002827474 0.052009313231975308 0 0.1085923347430168 0.054888678040205661 0 0.10140855114010359 0.056741753968867333 0 0.1040187002827474 0.052009313231975308 0 0.1085923347430168 0.054888678040205661 0 0.10140855114010359 0.056741753968867333 0 0.1085923347430168 0.054888678040205661 0 0.1082136550722141 0.059696613986540442 0 0.1082136550722141 0.059696613986540442 0 0.12683439495817461 0.052003073372435288 0 0.1085923347430168 0.054888678040205661 0 0.1082136550722141 0.059696613986540442 0 0.12683439495817461 0.052003073372435288 0 0.1082136550722141 0.059696613986540442 0 0.1213053233293625 0.063977455960140386 0 0.12683439495817461 0.052003073372435288 0 0.1085923347430168 0.054888678040205661 0 0.11545296983014219 0.044674578582556468 0 0.12683439495817461 0.052003073372435288 0 0.1085923347430168 0.054888678040205661 0 0.11545296983014219 0.044674578582556468 0 0.10828434687670541 0.049049973369521209 0 0.1085923347430168 0.054888678040205661 0 0.11545296983014219 0.044674578582556468 0 0.11545296983014219 0.044674578582556468 0 0.12683439495817461 0.052003073372435288 0 0.11545296983014219 0.044674578582556468 0 0.12659142849079691 0.028091664155532971 0 0.13015300311198849 0.040381385354086502 0 0.11369005285381351 0.036564640387925021 0 0.11545296983014219 0.044674578582556468 0 0.12659142849079691 0.028091664155532971 0 0.11369005285381351 0.036564640387925021 0 0.1080469394596527 0.029312409717345649 0 0.12659142849079691 0.028091664155532971 0 0.11545296983014219 0.044674578582556468 0 0.12659142849079691 0.028091664155532971 0 0.1091701701315707 0.045405346223324289 0 0.1063796333462841 0.038668109643535398 0 0.11316657253878901 0.043202368340974628 0 0.11369005285381351 0.036564640387925021 0 0.11316657253878901 0.043202368340974628 0 0.11545296983014219 0.044674578582556468 0 0.1063796333462841 0.038668109643535398 0 0.11369005285381351 0.036564640387925021 0 0.11316657253878901 0.043202368340974628 0 0.1091701701315707 0.045405346223324289 0 0.10828434687670541 0.049049973369521209 0 0.11545296983014219 0.044674578582556468 0 0.1091701701315707 0.045405346223324289 0 0.11316657253878901 0.043202368340974628 0 0.11545296983014219 0.044674578582556468 0 0.11316657253878901 0.043202368340974628 0 0.11545296983014219 0.044674578582556468 0 0.11545296983014219 0.044674578582556468 0 0.13015300311198849 0.040381385354086502 0 0.12683439495817461 0.052003073372435288 0 0.11882011836095251 0.0065886106746579649 0 0.1010264983121123 0.016262416429773479 0 0.12659142849079691 0.028091664155532971 0 0.1010264983121123 0.016262416429773479 0 0.12659142849079691 0.028091664155532971 0 0.1010264983121123 0.016262416429773479 0 0.1080469394596527 0.029312409717345649 0 0.12659142849079691 0.028091664155532971 0 0.11882011836095251 0.0065886106746579649 0 0.1010264983121123 0.016262416429773479 0 0.098011391193308373 -0.0056982583262641584 0 0.088041666307225416 0.02743399724937181 0 0.098246025398924644 0.032379674771496843 0 0.1010264983121123 0.016262416429773479 0 0.098246025398924644 0.032379674771496843 0 0.1010264983121123 0.016262416429773479 0 0.1080469394596527 0.029312409717345649 0 0.102028599401492 0.1079210482782756 0 0.1185648575779607 0.095458187827811403 0 0.097454497296707604 0.093489332089851121 0 0.102028599401492 0.1079210482782756 0 0.094862282777670462 0.1196438628042634 0 0.1117522404438802 0.12667258555115829 0 0.123281054128593 0.11724462113534739 0 0.1117522404438802 0.12667258555115829 0 0.13947052033133081 0.1245003570974072 0 0.102028599401492 0.1079210482782756 0 0.123281054128593 0.11724462113534739 0 0.1117522404438802 0.12667258555115829 0 0.102028599401492 0.1079210482782756 0 0.123281054128593 0.11724462113534739 0 0.102028599401492 0.1079210482782756 0 0.123281054128593 0.11724462113534739 0 0.1185648575779607 0.095458187827811403 0 0.1185648575779607 0.095458187827811403 0 0.10766661625946521 0.081617344394697103 0 0.12679961534922851 0.075073796793526271 0 0.1127439035567581 0.069567645006608142 0 0.10766661625946521 0.081617344394697103 0 0.12679961534922851 0.075073796793526271 0 0.1213053233293625 0.063977455960140386 0 0.1127439035567581 0.069567645006608142 0 0.12679961534922851 0.075073796793526271 0 0.1082136550722141 0.059696613986540442 0 0.1213053233293625 0.063977455960140386 0 0.1127439035567581 0.069567645006608142 0 0.1082136550722141 0.059696613986540442 0 0.089592915186254174 0.067390154600646832 0 0.1014387622560044 0.070574023901201433 0 0.10766661625946521 0.081617344394697103 0 0.08998097741878798 0.081820185866337797 0 0.1082136550722141 0.059696613986540442 0 0.1014387622560044 0.070574023901201433 0 0.089592915186254174 0.067390154600646832 0 0.1082136550722141 0.059696613986540442 0 0.1127439035567581 0.069567645006608142 0 0.1014387622560044 0.070574023901201433 0 0.1127439035567581 0.069567645006608142 0 0.1014387622560044 0.070574023901201433 0 0.10766661625946521 0.081617344394697103 0 0.1185648575779607 0.095458187827811403 0 0.097454497296707604 0.093489332089851121 0 0.10766661625946521 0.081617344394697103 0 0.097454497296707604 0.093489332089851121 0 0.10766661625946521 0.081617344394697103 0 0.08998097741878798 0.081820185866337797 0 0.097454497296707604 0.093489332089851121 0 0.08998097741878798 0.081820185866337797 0 0.080776144674391009 0.098597475421203867 0 0.08998097741878798 0.081820185866337797 0 0.071888117261322881 0.075707086101057836 0 0.080776144674391009 0.098597475421203867 0 0.08998097741878798 0.081820185866337797 0 0.089592915186254174 0.067390154600646832 0 0.071888117261322881 0.075707086101057836 0 0.1014387622560044 0.070574023901201433 0 0.08998097741878798 0.081820185866337797 0 0.089592915186254174 0.067390154600646832 0 0.072379857481358154 0.054137194478101919 0 0.089592915186254174 0.067390154600646832 0 0.071888117261322881 0.075707086101057836 0 0.072379857481358154 0.054137194478101919 0 0.071888117261322881 0.075707086101057836 0 0.06072113176624426 0.066105246874810966 0 0.071888117261322881 0.075707086101057836 0 0.080776144674391009 0.098597475421203867 0 0.059523689947290133 0.089273902564132146 0 0.069834633883481517 0.1065625652268001 0 0.059315065316452309 0.1025539410383776 0 0.059523689947290133 0.089273902564132146 0 0.080776144674391009 0.098597475421203867 0 0.059523689947290133 0.089273902564132146 0 0.069834633883481517 0.1065625652268001 0 0.080776144674391009 0.098597475421203867 0 0.081634330708880196 0.1151370033827101 0 0.069834633883481517 0.1065625652268001 0 0.080776144674391009 0.098597475421203867 0 0.059523689947290133 0.089273902564132146 0 0.069834633883481517 0.1065625652268001 0 0.064307476710745728 0.1098785041095611 0 0.059315065316452309 0.1025539410383776 0 0.102028599401492 0.1079210482782756 0 0.080776144674391009 0.098597475421203867 0 0.081634330708880196 0.1151370033827101 0 0.102028599401492 0.1079210482782756 0 0.080776144674391009 0.098597475421203867 0 0.102028599401492 0.1079210482782756 0 0.097454497296707604 0.093489332089851121 0 0.080776144674391009 0.098597475421203867 0 0.102028599401492 0.1079210482782756 0 0.094862282777670462 0.1196438628042634 0 0.081634330708880196 0.1151370033827101 0 0.094862282777670462 0.1196438628042634 0 0.081634330708880196 0.1151370033827101 0 0.084033960556429532 0.12884481400490949 0 0.081634330708880196 0.1151370033827101 0 0.071861500007931359 0.1232467005620789 0 0.084033960556429532 0.12884481400490949 0 0.081634330708880196 0.1151370033827101 0 0.071861500007931359 0.1232467005620789 0 0.068543873750645412 0.1149277749384955 0 0.069834633883481517 0.1065625652268001 0 0.081634330708880196 0.1151370033827101 0 0.068543873750645412 0.1149277749384955 0 0.068543873750645412 0.1149277749384955 0 0.064307476710745728 0.1098785041095611 0 0.059536333892403683 0.1154697352345713 0 0.069834633883481517 0.1065625652268001 0 0.068543873750645412 0.1149277749384955 0 0.064307476710745728 0.1098785041095611 0 0.071861500007931359 0.1232467005620789 0 0.068543873750645412 0.1149277749384955 0 0.059536333892403683 0.1154697352345713 0 0.056458373241313059 0.1220229844831647 0 0.046980594318971967 0.103944553472415 0 0.044984286063853948 0.1144984098979744 0 0.056458373241313059 0.1220229844831647 0 0.059536333892403683 0.1154697352345713 0 0.047111977694586651 0.095143209078012936 0 0.056458373241313059 0.1220229844831647 0 0.047823074661834691 0.1229743903388081 0 0.044984286063853948 0.1144984098979744 0 0.056458373241313059 0.1220229844831647 0 0.047111977694586651 0.095143209078012936 0 0.056458373241313059 0.1220229844831647 0 0.047111977694586651 0.095143209078012936 0 0.046980594318971967 0.103944553472415 0 0.059536333892403683 0.1154697352345713 0 0.059315065316452309 0.1025539410383776 0 0.048250118395506067 0.092934788779969885 0 0.064307476710745728 0.1098785041095611 0 0.059536333892403683 0.1154697352345713 0 0.059315065316452309 0.1025539410383776 0 0.059536333892403683 0.1154697352345713 0 0.047111977694586651 0.095143209078012936 0 0.048250118395506067 0.092934788779969885 0 0.059536333892403683 0.1154697352345713 0 0.048250118395506067 0.092934788779969885 0 0.059315065316452309 0.1025539410383776 0 0.059523689947290133 0.089273902564132146 0 0.048250118395506067 0.092934788779969885 0 0.046980594318971967 0.103944553472415 0 0.031997015267580219 0.10661530464401089 0 0.044984286063853948 0.1144984098979744 0 0.046980594318971967 0.103944553472415 0 0.039592722901722707 0.099159129702000026 0 0.031997015267580219 0.10661530464401089 0 0.047111977694586651 0.095143209078012936 0 0.046980594318971967 0.103944553472415 0 0.044236279529428407 0.098362398272746204 0 0.043259823202432338 0.095202700838556822 0 0.039592722901722707 0.099159129702000026 0 0.040006298791842428 0.091064350555588536 0 0.047111977694586651 0.095143209078012936 0 0.043259823202432338 0.095202700838556822 0 0.043326765309194368 0.091114650811160686 0 0.047111977694586651 0.095143209078012936 0 0.043259823202432338 0.095202700838556822 0 0.044236279529428407 0.098362398272746204 0 0.046980594318971967 0.103944553472415 0 0.044236279529428407 0.098362398272746204 0 0.039592722901722707 0.099159129702000026 0 0.043259823202432338 0.095202700838556822 0 0.044236279529428407 0.098362398272746204 0 0.039592722901722707 0.099159129702000026 0 0.039592722901722707 0.099159129702000026 0 0.040006298791842428 0.091064350555588536 0 0.033999193661208522 0.092549709374426317 0 0.039592722901722707 0.099159129702000026 0 0.031997015267580219 0.10661530464401089 0 0.033999193661208522 0.092549709374426317 0 0.031997015267580219 0.10661530464401089 0 0.044984286063853948 0.1144984098979744 0 0.040254683338031831 0.12792389191371131 0 0.031997015267580219 0.10661530464401089 0 0.027418588341799281 0.11951208787462859 0 0.040254683338031831 0.12792389191371131 0 0.031997015267580219 0.10661530464401089 0 0.040254683338031831 0.12792389191371131 0 0.047823074661834691 0.1229743903388081 0 0.044984286063853948 0.1144984098979744 0 0.040254683338031831 0.12792389191371131 0 0.071888117261322881 0.075707086101057836 0 0.050643578252195447 0.077240667131504986 0 0.06072113176624426 0.066105246874810966 0 0.071888117261322881 0.075707086101057836 0 0.050643578252195447 0.077240667131504986 0 0.04797297407010033 0.057336039788577382 0 0.050643578252195447 0.077240667131504986 0 0.06072113176624426 0.066105246874810966 0 0.059523689947290133 0.089273902564132146 0 0.048250118395506067 0.092934788779969885 0 0.038271235220189187 0.079950329707060411 0 0.050643578252195447 0.077240667131504986 0 0.059523689947290133 0.089273902564132146 0 0.038271235220189187 0.079950329707060411 0 0.059523689947290133 0.089273902564132146 0 0.038271235220189187 0.079950329707060411 0 0.071888117261322881 0.075707086101057836 0 0.050643578252195447 0.077240667131504986 0 0.059523689947290133 0.089273902564132146 0 0.050643578252195447 0.077240667131504986 0 0.038271235220189187 0.079950329707060411 0 0.029399039243067929 0.078774248161950916 0 0.043326765309194368 0.091114650811160686 0 0.040006298791842428 0.091064350555588536 0 0.038271235220189187 0.079950329707060411 0 0.048250118395506067 0.092934788779969885 0 0.043326765309194368 0.091114650811160686 0 0.038271235220189187 0.079950329707060411 0 0.047111977694586651 0.095143209078012936 0 0.048250118395506067 0.092934788779969885 0 0.043326765309194368 0.091114650811160686 0 0.043259823202432338 0.095202700838556822 0 0.043326765309194368 0.091114650811160686 0 0.040006298791842428 0.091064350555588536 0 0.040006298791842428 0.091064350555588536 0 0.033999193661208522 0.092549709374426317 0 0.035112272261912547 0.085996705185296951 0 0.033999193661208522 0.092549709374426317 0 0.035112272261912547 0.085996705185296951 0 0.030562463090829231 0.085656845023995995 0 0.040006298791842428 0.091064350555588536 0 0.035112272261912547 0.085996705185296951 0 0.038271235220189187 0.079950329707060411 0 0.035112272261912547 0.085996705185296951 0 0.038271235220189187 0.079950329707060411 0 0.029399039243067929 0.078774248161950916 0 0.035112272261912547 0.085996705185296951 0 0.029399039243067929 0.078774248161950916 0 0.030562463090829231 0.085656845023995995 0 0.04797297407010033 0.057336039788577382 0 0.027635028654909001 0.06907575978797427 0 0.029399039243067929 0.078774248161950916 0 0.04797297407010033 0.057336039788577382 0 0.050643578252195447 0.077240667131504986 0 0.029399039243067929 0.078774248161950916 0 0.050643578252195447 0.077240667131504986 0 0.029399039243067929 0.078774248161950916 0 0.04797297407010033 0.057336039788577382 0 0.029399039243067929 0.078774248161950916 0 0.01459521235494949 0.061710637509134872 0 0.030459386295035529 0.05963142741263059 0 0.017825248683011649 0.070045619055208203 0 0.01459521235494949 0.061710637509134872 0 0.017825248683011649 0.070045619055208203 0 0.030459386295035529 0.05963142741263059 0 0.017825248683011649 0.070045619055208203 0 0.030459386295035529 0.05963142741263059 0 0.017825248683011649 0.070045619055208203 0 0.027635028654909001 0.06907575978797427 0 0.027635028654909001 0.06907575978797427 0 0.021430743364398389 0.07934945609652827 0 0.029399039243067929 0.078774248161950916 0 0.017825248683011649 0.070045619055208203 0 0.027635028654909001 0.06907575978797427 0 0.021430743364398389 0.07934945609652827 0 0.017825248683011649 0.070045619055208203 0 0.021430743364398389 0.07934945609652827 0 0.023739347197128589 0.085306717374310406 0 0.0092582498306486675 0.1020209346744549 0 0.021430743364398389 0.07934945609652827 0 0.023739347197128589 0.085306717374310406 0 0.01369104835205702 0.085774757015682671 0 0.021430743364398389 0.07934945609652827 0 0.023739347197128589 0.085306717374310406 0 0.021430743364398389 0.07934945609652827 0 0.029399039243067929 0.078774248161950916 0 0.023739347197128589 0.085306717374310406 0 0.021430743364398389 0.07934945609652827 0 0.029399039243067929 0.078774248161950916 0 0.029399039243067929 0.078774248161950916 0 0.030562463090829231 0.085656845023995995 0 0.023739347197128589 0.085306717374310406 0 0.029399039243067929 0.078774248161950916 0 0.023739347197128589 0.085306717374310406 0 0.033999193661208522 0.092549709374426317 0 0.030562463090829231 0.085656845023995995 0 0.023739347197128589 0.085306717374310406 0 0.023739347197128589 0.085306717374310406 0 0.01369104835205702 0.085774757015682671 0 0.0092582498306486675 0.1020209346744549 0 0.0051087594610210148 0.080527692295617709 0 0.01369104835205702 0.085774757015682671 0 0.0092582498306486675 0.1020209346744549 0 0.021430743364398389 0.07934945609652827 0 0.0051087594610210148 0.080527692295617709 0 0.021430743364398389 0.07934945609652827 0 0.0051087594610210148 0.080527692295617709 0 0.01369104835205702 0.085774757015682671 0 -0.0012292332505543029 0.06378464068123596 0 0.01459521235494949 0.061710637509134872 0 -0.0012292332505543029 0.06378464068123596 0 0.01459521235494949 0.061710637509134872 0 0.0080955592782806732 0.069159055867407046 0 0.017825248683011649 0.070045619055208203 0 0.021430743364398389 0.07934945609652827 0 0.0051087594610210148 0.080527692295617709 0 -0.0012292332505543029 0.06378464068123596 0 0.0051087594610210148 0.080527692295617709 0 0.0080955592782806732 0.069159055867407046 0 0.017825248683011649 0.070045619055208203 0 0.0051087594610210148 0.080527692295617709 0 0.0080955592782806732 0.069159055867407046 0 0.017825248683011649 0.070045619055208203 0 0.0051087594610210148 0.080527692295617709 0 0.01459521235494949 0.061710637509134872 0 0.017825248683011649 0.070045619055208203 0 0.0080955592782806732 0.069159055867407046 0 0.019482067178466251 0.1107491432724047 0 0.017356945103072018 0.1204998149293544 0 0.027418588341799281 0.11951208787462859 0 0.017356945103072018 0.1204998149293544 0 0.027418588341799281 0.11951208787462859 0 0.028136896369567631 0.1331750506540591 0 0.031997015267580219 0.10661530464401089 0 0.019482067178466251 0.1107491432724047 0 0.027418588341799281 0.11951208787462859 0 0.031997015267580219 0.10661530464401089 0 0.033999193661208522 0.092549709374426317 0 0.023739347197128589 0.085306717374310406 0 0.023739347197128589 0.085306717374310406 0 0.02108550348152554 0.10082233348119581 0 0.0092582498306486675 0.1020209346744549 0 0.031997015267580219 0.10661530464401089 0 0.023739347197128589 0.085306717374310406 0 0.031997015267580219 0.10661530464401089 0 0.023739347197128589 0.085306717374310406 0 0.02108550348152554 0.10082233348119581 0 0.031997015267580219 0.10661530464401089 0 0.019482067178466251 0.1107491432724047 0 0.02108550348152554 0.10082233348119581 0 0.019482067178466251 0.1107491432724047 0 0.02108550348152554 0.10082233348119581 0 0.0092582498306486675 0.1020209346744549 0 -0.0040597014752050652 0.1051126182356364 0 0.0051087594610210148 0.080527692295617709 0 0.0092582498306486675 0.1020209346744549 0 0.019482067178466251 0.1107491432724047 0 0.0092582498306486675 0.1020209346744549 0 0.0097761010461718117 0.1150243840307837 0 -0.0052228475358298988 0.1187351519746004 0 0.0092582498306486675 0.1020209346744549 0 -0.0052228475358298988 0.1187351519746004 0 0.0092582498306486675 0.1020209346744549 0 0.0097761010461718117 0.1150243840307837 0 0.019482067178466251 0.1107491432724047 0 0.017356945103072018 0.1204998149293544 0 0.0097761010461718117 0.1150243840307837 0 0.017356945103072018 0.1204998149293544 0 0.0081407562022233586 0.1245196413435004 0 0.017356945103072018 0.1204998149293544 0 0.0097761010461718117 0.1150243840307837 0 0.0081407562022233586 0.1245196413435004 0 -0.0052228475358298988 0.1187351519746004 0 0.0097761010461718117 0.1150243840307837 0 0.0081407562022233586 0.1245196413435004 0 -0.0052228475358298988 0.1187351519746004 0 0.0081407562022233586 0.1245196413435004 0 -0.015783289274076458 0.13495459563681389 0 0.0081407562022233586 0.1245196413435004 0 0.01185912902997375 0.14130758542593569 0 0.017356945103072018 0.1204998149293544 0 0.0081407562022233586 0.1245196413435004 0 0.028136896369567631 0.1331750506540591 0 0.0081407562022233586 0.1245196413435004 0 0.028136896369567631 0.1331750506540591 0 0.0081407562022233586 0.1245196413435004 0 0.028136896369567631 0.1331750506540591 0 0.01185912902997375 0.14130758542593569 0 0.028136896369567631 0.1331750506540591 0 0.0267736462585265 0.15269096182544131 0 0.035919394343652343 0.14075559589415579 0 0.028136896369567631 0.1331750506540591 0 0.0267736462585265 0.15269096182544131 0 0.01185912902997375 0.14130758542593569 0 0.0267736462585265 0.15269096182544131 0 0.001788155555331062 0.1557637096651584 0 0.01185912902997375 0.14130758542593569 0 0.001788155555331062 0.1557637096651584 0 0.00061104658230836653 0.17769045695541219 0 0.019359600384737739 0.17657282369350361 0 0.001788155555331062 0.1557637096651584 0 0.019359600384737739 0.17657282369350361 0 0.00061104658230836653 0.17769045695541219 0 0.019359600384737739 0.17657282369350361 0 0.017852612557627559 0.19656860209324539 0 0.019359600384737739 0.17657282369350361 0 0.036931045214144441 0.19738193772184889 0 0.0267736462585265 0.15269096182544131 0 0.001788155555331062 0.1557637096651584 0 0.019359600384737739 0.17657282369350361 0 0.0267736462585265 0.15269096182544131 0 0.019359600384737739 0.17657282369350361 0 0.038399134829123632 0.17159850230738899 0 0.0267736462585265 0.15269096182544131 0 0.038399134829123632 0.17159850230738899 0 0.048512351408483409 0.1492324791834117 0 0.019359600384737739 0.17657282369350361 0 0.038399134829123632 0.17159850230738899 0 0.036931045214144441 0.19738193772184889 0 0.038399134829123632 0.17159850230738899 0 0.053915020648589329 0.181809847856817 0 0.036931045214144441 0.19738193772184889 0 0.053915020648589329 0.181809847856817 0 0.056298621576963533 0.16595151756685289 0 0.075151164334765874 0.17578253529346821 0 0.038399134829123632 0.17159850230738899 0 0.053915020648589329 0.181809847856817 0 0.056298621576963533 0.16595151756685289 0 0.038399134829123632 0.17159850230738899 0 0.056298621576963533 0.16595151756685289 0 0.048512351408483409 0.1492324791834117 0 0.048512351408483409 0.1492324791834117 0 0.055211699142625699 0.13746009370018761 0 0.065804768788039439 0.14890275988831639 0 0.056298621576963533 0.16595151756685289 0 0.048512351408483409 0.1492324791834117 0 0.065804768788039439 0.14890275988831639 0 0.048512351408483409 0.1492324791834117 0 0.055211699142625699 0.13746009370018761 0 0.049904412172306151 0.13036597214331841 0 0.056458373241313059 0.1220229844831647 0 0.059536333892403683 0.1154697352345713 0 0.070822549389301243 0.1380046816891726 0 0.056458373241313059 0.1220229844831647 0 0.055211699142625699 0.13746009370018761 0 0.065804768788039439 0.14890275988831639 0 0.056458373241313059 0.1220229844831647 0 0.065804768788039439 0.14890275988831639 0 0.056458373241313059 0.1220229844831647 0 0.047823074661834691 0.1229743903388081 0 0.049904412172306151 0.13036597214331841 0 0.056458373241313059 0.1220229844831647 0 0.055211699142625699 0.13746009370018761 0 0.049904412172306151 0.13036597214331841 0 0.048512351408483409 0.1492324791834117 0 0.040254683338031831 0.12792389191371131 0 0.048512351408483409 0.1492324791834117 0 0.040254683338031831 0.12792389191371131 0 0.035919394343652343 0.14075559589415579 0 0.048512351408483409 0.1492324791834117 0 0.049904412172306151 0.13036597214331841 0 0.040254683338031831 0.12792389191371131 0 0.047823074661834691 0.1229743903388081 0 0.049904412172306151 0.13036597214331841 0 0.040254683338031831 0.12792389191371131 0 0.027418588341799281 0.11951208787462859 0 0.028136896369567631 0.1331750506540591 0 0.040254683338031831 0.12792389191371131 0 0.028136896369567631 0.1331750506540591 0 0.040254683338031831 0.12792389191371131 0 0.035919394343652343 0.14075559589415579 0 0.0267736462585265 0.15269096182544131 0 0.048512351408483409 0.1492324791834117 0 0.035919394343652343 0.14075559589415579 0 0.020197736684044801 0.2291273398277828 0 0.034114961552744377 0.23516115760169301 0 0.036501911092354018 0.25177276941539839 0 0.018629400856135309 0.24429501886194191 0 0.020197736684044801 0.2291273398277828 0 0.02692674034290404 0.25134916217479408 0 0.020197736684044801 0.2291273398277828 0 0.02692674034290404 0.25134916217479408 0 0.036501911092354018 0.25177276941539839 0 0.020197736684044801 0.2291273398277828 0 0.036501911092354018 0.25177276941539839 0 0.018629400856135309 0.24429501886194191 0 0.0082785766384091443 0.23618007315607359 0 0.020197736684044801 0.2291273398277828 0 0.018629400856135309 0.24429501886194191 0 0.012944211518790589 0.24639919126045251 0 0.0082785766384091443 0.23618007315607359 0 0.012944211518790589 0.24639919126045251 0 0.001894876929373096 0.24743045501984201 0 0.0082785766384091443 0.23618007315607359 0 -0.0070773620087705444 0.23295897308755351 0 0.001894876929373096 0.24743045501984201 0 0.0082785766384091443 0.23618007315607359 0 0.0082785766384091443 0.23618007315607359 0 0.0038866256090455522 0.2239579318999283 0 0.020197736684044801 0.2291273398277828 0 0.0038866256090455522 0.2239579318999283 0 0.020197736684044801 0.2291273398277828 0 0.003893562275735573 0.2064819102401671 0 -0.0070773620087705444 0.23295897308755351 0 0.0082785766384091443 0.23618007315607359 0 0.0038866256090455522 0.2239579318999283 0 0.01643925603633389 0.21561198758054059 0 0.035370792182188207 0.216260201755786 0 0.034114961552744377 0.23516115760169301 0 0.020197736684044801 0.2291273398277828 0 0.01643925603633389 0.21561198758054059 0 0.034114961552744377 0.23516115760169301 0 0.01643925603633389 0.21561198758054059 0 0.034114961552744377 0.23516115760169301 0 0.017852612557627559 0.19656860209324539 0 0.036931045214144441 0.19738193772184889 0 0.035370792182188207 0.216260201755786 0 0.01643925603633389 0.21561198758054059 0 0.017852612557627559 0.19656860209324539 0 0.035370792182188207 0.216260201755786 0 0.020197736684044801 0.2291273398277828 0 0.003893562275735573 0.2064819102401671 0 -0.0045317147067566524 0.21522543551468479 0 0.0038866256090455522 0.2239579318999283 0 0.003893562275735573 0.2064819102401671 0 -0.0012364494800765971 0.1960628175593882 0 0.01643925603633389 0.21561198758054059 0 -0.0012364494800765971 0.1960628175593882 0 0.01643925603633389 0.21561198758054059 0 0.003893562275735573 0.2064819102401671 0 0.020197736684044801 0.2291273398277828 0 0.01643925603633389 0.21561198758054059 0 0.003893562275735573 0.2064819102401671 0 -0.0012364494800765971 0.1960628175593882 0 0.01643925603633389 0.21561198758054059 0 0.017852612557627559 0.19656860209324539 0 -0.0012364494800765971 0.1960628175593882 0 0.00061104658230836653 0.17769045695541219 0 0.017852612557627559 0.19656860209324539 0 0.019359600384737739 0.17657282369350361 0 0.017852612557627559 0.19656860209324539 0 0.036931045214144441 0.19738193772184889 0 0.053915020648589329 0.181809847856817 0 0.036931045214144441 0.19738193772184889 0 0.062795137287949193 0.19833474639452611 0 0.036931045214144441 0.19738193772184889 0 0.054502490043551163 0.2181910517501941 0 0.062795137287949193 0.19833474639452611 0 0.036931045214144441 0.19738193772184889 0 0.054502490043551163 0.2181910517501941 0 0.036931045214144441 0.19738193772184889 0 0.054502490043551163 0.2181910517501941 0 0.035370792182188207 0.216260201755786 0 0.054502490043551163 0.2181910517501941 0 0.035370792182188207 0.216260201755786 0 0.034114961552744377 0.23516115760169301 0 0.054502490043551163 0.2181910517501941 0 0.055174909047777811 0.2396291133956362 0 0.034114961552744377 0.23516115760169301 0 0.054502490043551163 0.2181910517501941 0 0.055174909047777811 0.2396291133956362 0 0.072073934872957782 0.23900016577853919 0 0.055174909047777811 0.2396291133956362 0 0.034114961552744377 0.23516115760169301 0 0.051790667069154861 0.2547103276228454 0 0.055174909047777811 0.2396291133956362 0 0.051790667069154861 0.2547103276228454 0 0.063392491700480919 0.2510828642249095 0 0.034114961552744377 0.23516115760169301 0 0.036501911092354018 0.25177276941539839 0 0.051790667069154861 0.2547103276228454 0 0.034114961552744377 0.23516115760169301 0 0.051790667069154861 0.2547103276228454 0 0.072073934872957782 0.23900016577853919 0 0.093843955428218759 0.229542086103772 0 0.089645379702363526 0.25980927980688501 0 0.072073934872957782 0.23900016577853919 0 0.089645379702363526 0.25980927980688501 0 0.055174909047777811 0.2396291133956362 0 0.072073934872957782 0.23900016577853919 0 0.063392491700480919 0.2510828642249095 0 0.072073934872957782 0.23900016577853919 0 0.063392491700480919 0.2510828642249095 0 0.074261774750864804 0.25289133929391111 0 0.054502490043551163 0.2181910517501941 0 0.072073934872957782 0.23900016577853919 0 0.054502490043551163 0.2181910517501941 0 0.072073934872957782 0.23900016577853919 0 0.07691655231929137 0.22036312128655 0 0.072073934872957782 0.23900016577853919 0 0.07691655231929137 0.22036312128655 0 0.093843955428218759 0.229542086103772 0 0.084497559881492323 0.20266231069862009 0 0.1011551627426199 0.2154511434485995 0 0.093843955428218759 0.229542086103772 0 0.084497559881492323 0.20266231069862009 0 0.093843955428218759 0.229542086103772 0 0.07691655231929137 0.22036312128655 0 0.084497559881492323 0.20266231069862009 0 0.093843955428218759 0.229542086103772 0 0.07691655231929137 0.22036312128655 0 0.062795137287949193 0.19833474639452611 0 0.084497559881492323 0.20266231069862009 0 0.054502490043551163 0.2181910517501941 0 0.07691655231929137 0.22036312128655 0 0.062795137287949193 0.19833474639452611 0 0.062795137287949193 0.19833474639452611 0 0.084497559881492323 0.20266231069862009 0 0.075151164334765874 0.17578253529346821 0 0.084497559881492323 0.20266231069862009 0 0.075151164334765874 0.17578253529346821 0 0.084497559881492323 0.20266231069862009 0 0.10184565838461331 0.1924014028594688 0 0.093394980383096363 0.18307457459837531 0 0.084497559881492323 0.20266231069862009 0 0.10184565838461331 0.1924014028594688 0 0.10260278643249959 0.20376756124449391 0 0.10184565838461331 0.1924014028594688 0 0.1105875138732399 0.1994169567440035 0 0.10260278643249959 0.20376756124449391 0 0.10184565838461331 0.1924014028594688 0 0.1131184160342838 0.18994185980391479 0 0.1105875138732399 0.1994169567440035 0 0.10184565838461331 0.1924014028594688 0 0.1131184160342838 0.18994185980391479 0 0.1054525685194168 0.18020148819897211 0 0.1131184160342838 0.18994185980391479 0 0.1210814068145178 0.19423580856195369 0 0.1131184160342838 0.18994185980391479 0 0.1210814068145178 0.19423580856195369 0 0.1196286990311512 0.18236386641526309 0 0.1210814068145178 0.19423580856195369 0 0.11958782189190099 0.20227867846385961 0 0.13241563583181001 0.2003476577346209 0 0.1131184160342838 0.18994185980391479 0 0.1210814068145178 0.19423580856195369 0 0.11958782189190099 0.20227867846385961 0 0.1131184160342838 0.18994185980391479 0 0.11958782189190099 0.20227867846385961 0 0.1105875138732399 0.1994169567440035 0 0.11958782189190099 0.20227867846385961 0 0.1105875138732399 0.1994169567440035 0 0.11467542950451071 0.21015036581969679 0 0.11958782189190099 0.20227867846385961 0 0.11467542950451071 0.21015036581969679 0 0.12714211421566091 0.2115365522170618 0 0.11467542950451071 0.21015036581969679 0 0.1287590091161889 0.22454109023782651 0 0.12714211421566091 0.2115365522170618 0 0.11467542950451071 0.21015036581969679 0 0.1011551627426199 0.2154511434485995 0 0.1117838155087727 0.22779371718329239 0 0.084497559881492323 0.20266231069862009 0 0.10260278643249959 0.20376756124449391 0 0.1011551627426199 0.2154511434485995 0 0.1105875138732399 0.1994169567440035 0 0.11467542950451071 0.21015036581969679 0 0.10260278643249959 0.20376756124449391 0 0.11467542950451071 0.21015036581969679 0 0.10260278643249959 0.20376756124449391 0 0.1011551627426199 0.2154511434485995 0 0.1011551627426199 0.2154511434485995 0 0.093843955428218759 0.229542086103772 0 0.1117838155087727 0.22779371718329239 0 0.11467542950451071 0.21015036581969679 0 0.1117838155087727 0.22779371718329239 0 0.1287590091161889 0.22454109023782651 0 0.1117838155087727 0.22779371718329239 0 0.1287590091161889 0.22454109023782651 0 0.116065923487036 0.25155424759680489 0 0.093843955428218759 0.229542086103772 0 0.089645379702363526 0.25980927980688501 0 0.116065923487036 0.25155424759680489 0 0.093843955428218759 0.229542086103772 0 0.1117838155087727 0.22779371718329239 0 0.116065923487036 0.25155424759680489 0 0.085867858697711436 0.14453522140638461 0 0.070822549389301243 0.1380046816891726 0 0.082108764886198796 0.1605396281437739 0 0.085867858697711436 0.14453522140638461 0 0.082108764886198796 0.1605396281437739 0 0.098061838006449922 0.1524476624703702 0 0.085867858697711436 0.14453522140638461 0 0.084033960556429532 0.12884481400490949 0 0.098019367542785563 0.1407790739484335 0 0.085867858697711436 0.14453522140638461 0 0.084033960556429532 0.12884481400490949 0 0.070822549389301243 0.1380046816891726 0 0.071861500007931359 0.1232467005620789 0 0.059536333892403683 0.1154697352345713 0 0.070822549389301243 0.1380046816891726 0 0.059536333892403683 0.1154697352345713 0 0.070822549389301243 0.1380046816891726 0 0.056458373241313059 0.1220229844831647 0 0.070822549389301243 0.1380046816891726 0 0.065804768788039439 0.14890275988831639 0 0.071861500007931359 0.1232467005620789 0 0.084033960556429532 0.12884481400490949 0 0.070822549389301243 0.1380046816891726 0 0.070822549389301243 0.1380046816891726 0 0.082108764886198796 0.1605396281437739 0 0.070822549389301243 0.1380046816891726 0 0.065804768788039439 0.14890275988831639 0 0.082108764886198796 0.1605396281437739 0 0.056298621576963533 0.16595151756685289 0 0.065804768788039439 0.14890275988831639 0 0.075151164334765874 0.17578253529346821 0 0.065804768788039439 0.14890275988831639 0 0.075151164334765874 0.17578253529346821 0 0.082108764886198796 0.1605396281437739 0 0.065804768788039439 0.14890275988831639 0 0.075151164334765874 0.17578253529346821 0 0.053915020648589329 0.181809847856817 0 0.062795137287949193 0.19833474639452611 0 0.075151164334765874 0.17578253529346821 0 0.075151164334765874 0.17578253529346821 0 0.093394980383096363 0.18307457459837531 0 0.082108764886198796 0.1605396281437739 0 0.084497559881492323 0.20266231069862009 0 0.075151164334765874 0.17578253529346821 0 0.093394980383096363 0.18307457459837531 0 0.093394980383096363 0.18307457459837531 0 0.082108764886198796 0.1605396281437739 0 0.1017810834163356 0.16778327145988009 0 0.093394980383096363 0.18307457459837531 0 0.082108764886198796 0.1605396281437739 0 0.082108764886198796 0.1605396281437739 0 0.1017810834163356 0.16778327145988009 0 0.098061838006449922 0.1524476624703702 0 0.1017810834163356 0.16778327145988009 0 0.1094413004412432 0.1568441156191657 0 0.098061838006449922 0.1524476624703702 0 0.10184565838461331 0.1924014028594688 0 0.093394980383096363 0.18307457459837531 0 0.1054525685194168 0.18020148819897211 0 0.093394980383096363 0.18307457459837531 0 0.1017810834163356 0.16778327145988009 0 0.1054525685194168 0.18020148819897211 0 0.1017810834163356 0.16778327145988009 0 0.1054525685194168 0.18020148819897211 0 0.1143103312636523 0.17467474260035151 0 0.1131184160342838 0.18994185980391479 0 0.1132877880089454 0.18182979361660931 0 0.1196286990311512 0.18236386641526309 0 0.1131184160342838 0.18994185980391479 0 0.1054525685194168 0.18020148819897211 0 0.1132877880089454 0.18182979361660931 0 0.1054525685194168 0.18020148819897211 0 0.1132877880089454 0.18182979361660931 0 0.1143103312636523 0.17467474260035151 0 0.1132877880089454 0.18182979361660931 0 0.1143103312636523 0.17467474260035151 0 0.1196286990311512 0.18236386641526309 0 0.1143103312636523 0.17467474260035151 0 0.1229466648353691 0.17360959233997481 0 0.1196286990311512 0.18236386641526309 0 0.1229466648353691 0.17360959233997481 0 0.1196286990311512 0.18236386641526309 0 0.1315359285025598 0.17914174819028489 0 0.1210814068145178 0.19423580856195369 0 0.1196286990311512 0.18236386641526309 0 0.1315359285025598 0.17914174819028489 0 0.1017810834163356 0.16778327145988009 0 0.1143103312636523 0.17467474260035151 0 0.11826309888899959 0.1638296446882945 0 0.1017810834163356 0.16778327145988009 0 0.1094413004412432 0.1568441156191657 0 0.11826309888899959 0.1638296446882945 0 0.1094413004412432 0.1568441156191657 0 0.11826309888899959 0.1638296446882945 0 0.12116198843957229 0.15461983439099389 0 0.1143103312636523 0.17467474260035151 0 0.1229466648353691 0.17360959233997481 0 0.11826309888899959 0.1638296446882945 0 0.1229466648353691 0.17360959233997481 0 0.11826309888899959 0.1638296446882945 0 0.1286748755814317 0.16568949079043779 0 0.11826309888899959 0.1638296446882945 0 0.12116198843957229 0.15461983439099389 0 0.1286748755814317 0.16568949079043779 0 0.12116198843957229 0.15461983439099389 0 0.1235319134973574 0.14279740261083959 0 0.11069945258584669 0.14552439304262721 0 0.1094413004412432 0.1568441156191657 0 0.12116198843957229 0.15461983439099389 0 0.11069945258584669 0.14552439304262721 0 0.1094413004412432 0.1568441156191657 0 0.11069945258584669 0.14552439304262721 0 0.098061838006449922 0.1524476624703702 0 0.11069945258584669 0.14552439304262721 0 0.098019367542785563 0.1407790739484335 0 0.098061838006449922 0.1524476624703702 0 0.085867858697711436 0.14453522140638461 0 0.098019367542785563 0.1407790739484335 0 0.098061838006449922 0.1524476624703702 0 0.084033960556429532 0.12884481400490949 0 0.1117522404438802 0.12667258555115829 0 0.094862282777670462 0.1196438628042634 0 0.084033960556429532 0.12884481400490949 0 0.1117522404438802 0.12667258555115829 0 0.084033960556429532 0.12884481400490949 0 0.098019367542785563 0.1407790739484335 0 0.1117522404438802 0.12667258555115829 0 0.11069945258584669 0.14552439304262721 0 0.098019367542785563 0.1407790739484335 0 0.1117522404438802 0.12667258555115829 0 0.1235319134973574 0.14279740261083959 0 0.11069945258584669 0.14552439304262721 0 0.1117522404438802 0.12667258555115829 0 0.1235319134973574 0.14279740261083959 0 0.1117522404438802 0.12667258555115829 0 0.1338250830151082 0.13680555700437169 0 0.1117522404438802 0.12667258555115829 0 0.1338250830151082 0.13680555700437169 0 0.13947052033133081 0.1245003570974072 0 0.1117522404438802 0.12667258555115829 0 0.13947052033133081 0.1245003570974072 0 0.1338250830151082 0.13680555700437169 0 0.14773514824261011 0.13994704674368119 0 0.13947052033133081 0.1245003570974072 0 0.14773514824261011 0.13994704674368119 0 0.13947052033133081 0.1245003570974072 0 0.16718880021878149 0.12232812864365609 0 0.14773514824261011 0.13994704674368119 0 0.1492794596183103 0.15557552201751701 0 0.16307655427518189 0.1461583771030025 0 0.14773514824261011 0.13994704674368119 0 0.1492794596183103 0.15557552201751701 0 0.13636128964255501 0.15303395959459851 0 0.1235319134973574 0.14279740261083959 0 0.1338250830151082 0.13680555700437169 0 0.13636128964255501 0.15303395959459851 0 0.1338250830151082 0.13680555700437169 0 0.14773514824261011 0.13994704674368119 0 0.13636128964255501 0.15303395959459851 0 0.12116198843957229 0.15461983439099389 0 0.1235319134973574 0.14279740261083959 0 0.13636128964255501 0.15303395959459851 0 0.12116198843957229 0.15461983439099389 0 0.13636128964255501 0.15303395959459851 0 0.1286748755814317 0.16568949079043779 0 0.13636128964255501 0.15303395959459851 0 0.1286748755814317 0.16568949079043779 0 0.1402599975996246 0.1687496010839549 0 0.1286748755814317 0.16568949079043779 0 0.1402599975996246 0.1687496010839549 0 0.1315359285025598 0.17914174819028489 0 0.1210814068145178 0.19423580856195369 0 0.1315359285025598 0.17914174819028489 0 0.14172685770208041 0.18088834424850889 0 0.1229466648353691 0.17360959233997481 0 0.1286748755814317 0.16568949079043779 0 0.1315359285025598 0.17914174819028489 0 0.1402599975996246 0.1687496010839549 0 0.1315359285025598 0.17914174819028489 0 0.14172685770208041 0.18088834424850889 0 0.1315359285025598 0.17914174819028489 0 0.14172685770208041 0.18088834424850889 0 0.14172685770208041 0.18088834424850889 0 0.1589643083315804 0.1699886255623487 0 0.15664227980061579 0.1834446584897341 0 0.14172685770208041 0.18088834424850889 0 0.1589643083315804 0.1699886255623487 0 0.1402599975996246 0.1687496010839549 0 0.14172685770208041 0.18088834424850889 0 0.1589643083315804 0.1699886255623487 0 0.14172685770208041 0.18088834424850889 0 0.15664227980061579 0.1834446584897341 0 0.14735069213281321 0.19092796682168489 0 0.14172685770208041 0.18088834424850889 0 0.15664227980061579 0.1834446584897341 0 0.1492794596183103 0.15557552201751701 0 0.1402599975996246 0.1687496010839549 0 0.1589643083315804 0.1699886255623487 0 0.1492794596183103 0.15557552201751701 0 0.13636128964255501 0.15303395959459851 0 0.1402599975996246 0.1687496010839549 0 0.1492794596183103 0.15557552201751701 0 0.1589643083315804 0.1699886255623487 0 0.16307655427518189 0.1461583771030025 0 0.1589643083315804 0.1699886255623487 0 0.1832181015668064 0.15465227861531949 0 0.16307655427518189 0.1461583771030025 0 0.1589643083315804 0.1699886255623487 0 0.16307655427518189 0.1461583771030025 0 0.1589643083315804 0.1699886255623487 0 0.1832181015668064 0.15465227861531949 0 0.1589643083315804 0.1699886255623487 0 0.15664227980061579 0.1834446584897341 0 0.17367876449497299 0.17356388092826039 0 0.15664227980061579 0.1834446584897341 0 0.17803712215301101 0.18711146321258301 0 0.15664227980061579 0.1834446584897341 0 0.17367876449497299 0.17356388092826039 0 0.17803712215301101 0.18711146321258301 0 0.1589643083315804 0.1699886255623487 0 0.15664227980061579 0.1834446584897341 0 0.17367876449497299 0.17356388092826039 0 0.17803712215301101 0.18711146321258301 0 0.1915320106228488 0.17262237876131631 0 0.1589643083315804 0.1699886255623487 0 0.17367876449497299 0.17356388092826039 0 0.1832181015668064 0.15465227861531949 0 0.17367876449497299 0.17356388092826039 0 0.1832181015668064 0.15465227861531949 0 0.1915320106228488 0.17262237876131631 0 0.1832181015668064 0.15465227861531949 0 0.18154761934540289 0.13534417850528041 0 0.16307655427518189 0.1461583771030025 0 0.18154761934540289 0.13534417850528041 0 0.19370351113240411 0.1202502215829211 0 0.16718880021878149 0.12232812864365609 0 0.16307655427518189 0.1461583771030025 0 0.16718880021878149 0.12232812864365609 0 0.14773514824261011 0.13994704674368119 0 0.16307655427518189 0.1461583771030025 0 0.16718880021878149 0.12232812864365609 0 0.18154761934540289 0.13534417850528041 0 0.16307655427518189 0.1461583771030025 0 0.16718880021878149 0.12232812864365609 0 0.14248646727170791 0.24329921538672239 0 0.16890701105638031 0.23504418317664161 0 0.14248646727170791 0.24329921538672239 0 0.116065923487036 0.25155424759680489 0 0.14248646727170791 0.24329921538672239 0 0.1287590091161889 0.22454109023782651 0 0.116065923487036 0.25155424759680489 0 0.14248646727170791 0.24329921538672239 0 0.1287590091161889 0.22454109023782651 0 0.14216045677169509 0.2226427774354276 0 0.1287590091161889 0.22454109023782651 0 0.14216045677169509 0.2226427774354276 0 0.13903299807830019 0.21154409335764149 0 0.14248646727170791 0.24329921538672239 0 0.14216045677169509 0.2226427774354276 0 0.16890701105638031 0.23504418317664161 0 0.14216045677169509 0.2226427774354276 0 0.1513137794066001 0.21432303737238931 0 0.16890701105638031 0.23504418317664161 0 0.15183105921464751 0.210852851725322 0 0.13241563583181001 0.2003476577346209 0 0.15183105921464751 0.210852851725322 0 0.13903299807830019 0.21154409335764149 0 0.13241563583181001 0.2003476577346209 0 0.1513137794066001 0.21432303737238931 0 0.15183105921464751 0.210852851725322 0 0.14522842943996589 0.21534193400985699 0 0.1513137794066001 0.21432303737238931 0 0.15183105921464751 0.210852851725322 0 0.15183105921464751 0.210852851725322 0 0.14522842943996589 0.21534193400985699 0 0.13903299807830019 0.21154409335764149 0 0.14216045677169509 0.2226427774354276 0 0.1513137794066001 0.21432303737238931 0 0.14522842943996589 0.21534193400985699 0 0.14216045677169509 0.2226427774354276 0 0.14522842943996589 0.21534193400985699 0 0.13903299807830019 0.21154409335764149 0 0.1287590091161889 0.22454109023782651 0 0.13903299807830019 0.21154409335764149 0 0.12714211421566091 0.2115365522170618 0 0.11958782189190099 0.20227867846385961 0 0.12714211421566091 0.2115365522170618 0 0.13241563583181001 0.2003476577346209 0 0.13903299807830019 0.21154409335764149 0 0.12714211421566091 0.2115365522170618 0 0.13241563583181001 0.2003476577346209 0 0.1210814068145178 0.19423580856195369 0 0.13241563583181001 0.2003476577346209 0 0.13808072668616231 0.19149491569441959 0 0.1210814068145178 0.19423580856195369 0 0.14172685770208041 0.18088834424850889 0 0.13808072668616231 0.19149491569441959 0 0.1210814068145178 0.19423580856195369 0 0.14172685770208041 0.18088834424850889 0 0.1210814068145178 0.19423580856195369 0 0.13241563583181001 0.2003476577346209 0 0.15664227980061579 0.1834446584897341 0 0.15183105921464751 0.210852851725322 0 0.14735069213281321 0.19092796682168489 0 0.14172685770208041 0.18088834424850889 0 0.13808072668616231 0.19149491569441959 0 0.14735069213281321 0.19092796682168489 0 0.15183105921464751 0.210852851725322 0 0.13808072668616231 0.19149491569441959 0 0.14735069213281321 0.19092796682168489 0 0.15664227980061579 0.1834446584897341 0 0.15183105921464751 0.210852851725322 0 0.15183105921464751 0.210852851725322 0 0.13241563583181001 0.2003476577346209 0 0.13808072668616231 0.19149491569441959 0 0.15183105921464751 0.210852851725322 0 0.13808072668616231 0.19149491569441959 0 0.15664227980061579 0.1834446584897341 0 0.17803712215301101 0.18711146321258301 0 0.17078007948547791 0.20461318166966591 0 0.15664227980061579 0.1834446584897341 0 0.15183105921464751 0.210852851725322 0 0.17078007948547791 0.20461318166966591 0 0.17803712215301101 0.18711146321258301 0 0.18699821765939811 0.20575379358823331 0 0.17078007948547791 0.20461318166966591 0 0.18699821765939811 0.20575379358823331 0 0.18150256540618689 0.21619068467845909 0 0.17078007948547791 0.20461318166966591 0 0.18150256540618689 0.21619068467845909 0 0.17078007948547791 0.20461318166966591 0 0.1696832039875637 0.2204437538389574 0 0.15183105921464751 0.210852851725322 0 0.1696832039875637 0.2204437538389574 0 0.15183105921464751 0.210852851725322 0 0.17078007948547791 0.20461318166966591 0 0.1696832039875637 0.2204437538389574 0 0.15183105921464751 0.210852851725322 0 0.16890701105638031 0.23504418317664161 0 0.15183105921464751 0.210852851725322 0 0.1696832039875637 0.2204437538389574 0 0.16890701105638031 0.23504418317664161 0 0.1513137794066001 0.21432303737238931 0 0.15183105921464751 0.210852851725322 0 0.16890701105638031 0.23504418317664161 0 0.1696832039875637 0.2204437538389574 0 0.1730962958839812 0.23373525170759399 0 0.16890701105638031 0.23504418317664161 0 0.18150256540618689 0.21619068467845909 0 0.1696832039875637 0.2204437538389574 0 0.1874551123034256 0.23002704556275291 0 0.1696832039875637 0.2204437538389574 0 0.1874551123034256 0.23002704556275291 0 0.1730962958839812 0.23373525170759399 0 0.1696832039875637 0.2204437538389574 0 0.1874551123034256 0.23002704556275291 0 0.16890701105638031 0.23504418317664161 0 0.18564289691528729 0.25868749876629671 0 0.1821848497420967 0.24129823675235251 0 0.16890701105638031 0.23504418317664161 0 0.18564289691528729 0.25868749876629671 0 0.1730962958839812 0.23373525170759399 0 0.1821848497420967 0.24129823675235251 0 0.16890701105638031 0.23504418317664161 0 0.1874551123034256 0.23002704556275291 0 0.1730962958839812 0.23373525170759399 0 0.1821848497420967 0.24129823675235251 0 0.14248646727170791 0.24329921538672239 0 0.16890701105638031 0.23504418317664161 0 0.1631161995596529 0.25657386530356069 0 0.1730962958839812 0.23373525170759399 0 0.16890701105638031 0.23504418317664161 0 0.2052270206192876 0.23961033728654851 0 0.2245441737887168 0.23093760545441711 0 0.21458810326103989 0.25029177234766842 0 0.2052270206192876 0.23961033728654851 0 0.2050239072751949 0.2492833193895482 0 0.21458810326103989 0.25029177234766842 0 0.2052270206192876 0.23961033728654851 0 0.2050239072751949 0.2492833193895482 0 0.1956251304139873 0.24830732682566101 0 0.1874551123034256 0.23002704556275291 0 0.1821848497420967 0.24129823675235251 0 0.1956251304139873 0.24830732682566101 0 0.1874551123034256 0.23002704556275291 0 0.2052270206192876 0.23961033728654851 0 0.1821848497420967 0.24129823675235251 0 0.1956251304139873 0.24830732682566101 0 0.18564289691528729 0.25868749876629671 0 0.1874551123034256 0.23002704556275291 0 0.2052270206192876 0.23961033728654851 0 0.1956251304139873 0.24830732682566101 0 0.1874551123034256 0.23002704556275291 0 0.2052270206192876 0.23961033728654851 0 0.20110338325899621 0.22697869990708769 0 0.18150256540618689 0.21619068467845909 0 0.1874551123034256 0.23002704556275291 0 0.19422843088031849 0.2167901493339745 0 0.1874551123034256 0.23002704556275291 0 0.20110338325899621 0.22697869990708769 0 0.19422843088031849 0.2167901493339745 0 0.20110338325899621 0.22697869990708769 0 0.2086865974780466 0.21738525977654841 0 0.19422843088031849 0.2167901493339745 0 0.2052270206192876 0.23961033728654851 0 0.21155197229915221 0.22775520817690251 0 0.2245441737887168 0.23093760545441711 0 0.20110338325899621 0.22697869990708769 0 0.21155197229915221 0.22775520817690251 0 0.2086865974780466 0.21738525977654841 0 0.2052270206192876 0.23961033728654851 0 0.20110338325899621 0.22697869990708769 0 0.21155197229915221 0.22775520817690251 0 0.21155197229915221 0.22775520817690251 0 0.2086865974780466 0.21738525977654841 0 0.22156171208109349 0.2232889965660497 0 0.211417792929007 0.20448623071467029 0 0.2086865974780466 0.21738525977654841 0 0.22411523440486891 0.2128525325182862 0 0.2086865974780466 0.21738525977654841 0 0.22411523440486891 0.2128525325182862 0 0.22156171208109349 0.2232889965660497 0 0.211417792929007 0.20448623071467029 0 0.2086865974780466 0.21738525977654841 0 0.19996516513116139 0.20542151256053021 0 0.2086865974780466 0.21738525977654841 0 0.19422843088031849 0.2167901493339745 0 0.19996516513116139 0.20542151256053021 0 0.18699821765939811 0.20575379358823331 0 0.18150256540618689 0.21619068467845909 0 0.19422843088031849 0.2167901493339745 0 0.18699821765939811 0.20575379358823331 0 0.19422843088031849 0.2167901493339745 0 0.19996516513116139 0.20542151256053021 0 0.18699821765939811 0.20575379358823331 0 0.19996516513116139 0.20542151256053021 0 0.19943196450540629 0.19077826793543179 0 0.17803712215301101 0.18711146321258301 0 0.19943196450540629 0.19077826793543179 0 0.17803712215301101 0.18711146321258301 0 0.18699821765939811 0.20575379358823331 0 0.19943196450540629 0.19077826793543179 0 0.211417792929007 0.20448623071467029 0 0.19943196450540629 0.19077826793543179 0 0.22082680685780151 0.19444507265828059 0 0.19943196450540629 0.19077826793543179 0 0.22082680685780151 0.19444507265828059 0 0.211417792929007 0.20448623071467029 0 0.19996516513116139 0.20542151256053021 0 0.19943196450540629 0.19077826793543179 0 0.22082680685780151 0.19444507265828059 0 0.2418323282778008 0.1922485172988235 0 0.23200417938957321 0.20455559625434991 0 0.22082680685780151 0.19444507265828059 0 0.2418323282778008 0.1922485172988235 0 0.2298041727050075 0.1787595393801808 0 0.2418323282778008 0.1922485172988235 0 0.24124234801782149 0.21867626254200909 0 0.2418323282778008 0.1922485172988235 0 0.24124234801782149 0.21867626254200909 0 0.25471258750952741 0.20148162901819469 0 0.2418323282778008 0.1922485172988235 0 0.24124234801782149 0.21867626254200909 0 0.23200417938957321 0.20455559625434991 0 0.24124234801782149 0.21867626254200909 0 0.25357276657721323 0.21641202867955539 0 0.25471258750952741 0.20148162901819469 0 0.24124234801782149 0.21867626254200909 0 0.22411523440486891 0.2128525325182862 0 0.2303270751280653 0.22194856436908961 0 0.211417792929007 0.20448623071467029 0 0.22082680685780151 0.19444507265828059 0 0.22411523440486891 0.2128525325182862 0 0.22082680685780151 0.19444507265828059 0 0.23200417938957321 0.20455559625434991 0 0.22411523440486891 0.2128525325182862 0 0.24124234801782149 0.21867626254200909 0 0.23200417938957321 0.20455559625434991 0 0.22411523440486891 0.2128525325182862 0 0.22411523440486891 0.2128525325182862 0 0.22156171208109349 0.2232889965660497 0 0.2303270751280653 0.22194856436908961 0 0.22156171208109349 0.2232889965660497 0 0.2245441737887168 0.23093760545441711 0 0.2301452193877111 0.22885480910105491 0 0.21155197229915221 0.22775520817690251 0 0.22156171208109349 0.2232889965660497 0 0.2245441737887168 0.23093760545441711 0 0.2301452193877111 0.22885480910105491 0 0.23408043491912681 0.23335190051361199 0 0.23787356880598759 0.22384871304106421 0 0.2301452193877111 0.22885480910105491 0 0.23408043491912681 0.23335190051361199 0 0.2258394828391487 0.23585902185418811 0 0.2245441737887168 0.23093760545441711 0 0.2301452193877111 0.22885480910105491 0 0.2258394828391487 0.23585902185418811 0 0.2301452193877111 0.22885480910105491 0 0.2303270751280653 0.22194856436908961 0 0.23787356880598759 0.22384871304106421 0 0.22156171208109349 0.2232889965660497 0 0.2301452193877111 0.22885480910105491 0 0.2303270751280653 0.22194856436908961 0 0.24124234801782149 0.21867626254200909 0 0.2303270751280653 0.22194856436908961 0 0.23787356880598759 0.22384871304106421 0 0.24124234801782149 0.21867626254200909 0 0.23787356880598759 0.22384871304106421 0 0.25357276657721323 0.21641202867955539 0 0.23408043491912681 0.23335190051361199 0 0.24868260911088891 0.2303107595792985 0 0.25357276657721323 0.21641202867955539 0 0.23408043491912681 0.23335190051361199 0 0.23787356880598759 0.22384871304106421 0 0.25357276657721323 0.21641202867955539 0 0.23408043491912681 0.23335190051361199 0 0.25357276657721323 0.21641202867955539 0 0.24868260911088891 0.2303107595792985 0 0.2392512687495113 0.23539683186585869 0 0.2471090749199483 0.2357199094212839 0 0.23408043491912681 0.23335190051361199 0 0.24868260911088891 0.2303107595792985 0 0.2392512687495113 0.23539683186585869 0 0.23408043491912681 0.23335190051361199 0 0.2356673672060029 0.23553231024254659 0 0.23369101455560959 0.23545012385447089 0 0.2356673672060029 0.23553231024254659 0 0.23652425047500741 0.24096462129343871 0 0.23369101455560959 0.23545012385447089 0 0.23652425047500741 0.24096462129343871 0 0.2392512687495113 0.23539683186585869 0 0.24523436150048811 0.24199469982198529 0 0.2356673672060029 0.23553231024254659 0 0.23652425047500741 0.24096462129343871 0 0.2392512687495113 0.23539683186585869 0 0.23408043491912681 0.23335190051361199 0 0.2356673672060029 0.23553231024254659 0 0.2392512687495113 0.23539683186585869 0 0.24523436150048811 0.24199469982198529 0 0.2471090749199483 0.2357199094212839 0 0.25452501640087027 0.2374112721999547 0 0.2392512687495113 0.23539683186585869 0 0.24523436150048811 0.24199469982198529 0 0.2471090749199483 0.2357199094212839 0 0.24523436150048811 0.24199469982198529 0 0.23995652529561701 0.25039133628829258 0 0.25404003316197471 0.25208422786308371 0 0.23652425047500741 0.24096462129343871 0 0.24523436150048811 0.24199469982198529 0 0.23995652529561701 0.25039133628829258 0 0.23652425047500741 0.24096462129343871 0 0.23169913173193779 0.25404958449575432 0 0.23995652529561701 0.25039133628829258 0 0.23369101455560959 0.23545012385447089 0 0.2170338530129477 0.25958452376210089 0 0.21458810326103989 0.25029177234766842 0 0.23408043491912681 0.23335190051361199 0 0.23369101455560959 0.23545012385447089 0 0.21458810326103989 0.25029177234766842 0 0.23408043491912681 0.23335190051361199 0 0.21458810326103989 0.25029177234766842 0 0.2245441737887168 0.23093760545441711 0 0.21458810326103989 0.25029177234766842 0 0.23408043491912681 0.23335190051361199 0 0.2258394828391487 0.23585902185418811 0 0.21458810326103989 0.25029177234766842 0 0.23369101455560959 0.23545012385447089 0 0.2170338530129477 0.25958452376210089 0 0.23169913173193779 0.25404958449575432 0 0.23652425047500741 0.24096462129343871 0 0.23369101455560959 0.23545012385447089 0 0.23169913173193779 0.25404958449575432 0 0.23369101455560959 0.23545012385447089 0 0.2170338530129477 0.25958452376210089 0 0.2245441737887168 0.23093760545441711 0 0.2258394828391487 0.23585902185418811 0 0.21458810326103989 0.25029177234766842 0 0.2074718948020329 0.13931593166829101 0 0.2035930282546865 0.1573108976369578 0 0.22801201431925219 0.15227861461809999 0 0.2074718948020329 0.13931593166829101 0 0.22815060196587239 0.13250420183309389 0 0.2202182220460269 0.1181723145221887 0 0.2074718948020329 0.13931593166829101 0 0.2202182220460269 0.1181723145221887 0 0.19370351113240411 0.1202502215829211 0 0.18154761934540289 0.13534417850528041 0 0.2074718948020329 0.13931593166829101 0 0.19370351113240411 0.1202502215829211 0 0.1832181015668064 0.15465227861531949 0 0.2074718948020329 0.13931593166829101 0 0.1832181015668064 0.15465227861531949 0 0.18154761934540289 0.13534417850528041 0 0.2074718948020329 0.13931593166829101 0 0.1832181015668064 0.15465227861531949 0 0.2074718948020329 0.13931593166829101 0 0.2035930282546865 0.1573108976369578 0 0.1832181015668064 0.15465227861531949 0 0.1915320106228488 0.17262237876131631 0 0.2035930282546865 0.1573108976369578 0 0.1915320106228488 0.17262237876131631 0 0.21309098299550949 0.1707274381193544 0 0.2035930282546865 0.1573108976369578 0 0.19943196450540629 0.19077826793543179 0 0.1915320106228488 0.17262237876131631 0 0.21309098299550949 0.1707274381193544 0 0.17803712215301101 0.18711146321258301 0 0.19943196450540629 0.19077826793543179 0 0.1915320106228488 0.17262237876131631 0 0.19943196450540629 0.19077826793543179 0 0.22082680685780151 0.19444507265828059 0 0.21309098299550949 0.1707274381193544 0 0.21309098299550949 0.1707274381193544 0 0.2035930282546865 0.1573108976369578 0 0.22801201431925219 0.15227861461809999 0 0.2298041727050075 0.1787595393801808 0 0.2424223085377801 0.16582077205563811 0 0.22801201431925219 0.15227861461809999 0 0.21309098299550949 0.1707274381193544 0 0.2298041727050075 0.1787595393801808 0 0.22801201431925219 0.15227861461809999 0 0.22082680685780151 0.19444507265828059 0 0.21309098299550949 0.1707274381193544 0 0.2298041727050075 0.1787595393801808 0 0.2418323282778008 0.1922485172988235 0 0.2424223085377801 0.16582077205563811 0 0.2418323282778008 0.1922485172988235 0 0.2424223085377801 0.16582077205563811 0 0.26032431562704572 0.18342712708893841 0 0.2418323282778008 0.1922485172988235 0 0.2298041727050075 0.1787595393801808 0 0.2424223085377801 0.16582077205563811 0 0.2424223085377801 0.16582077205563811 0 0.24301228879775941 0.13939302681245261 0 0.2424223085377801 0.16582077205563811 0 0.24301228879775941 0.13939302681245261 0 0.25486404381895789 0.1523024957907583 0 0.22801201431925219 0.15227861461809999 0 0.23648687609860089 0.13476882232929049 0 0.24301228879775941 0.13939302681245261 0 0.2424223085377801 0.16582077205563811 0 0.22801201431925219 0.15227861461809999 0 0.24301228879775941 0.13939302681245261 0 0.2074718948020329 0.13931593166829101 0 0.22801201431925219 0.15227861461809999 0 0.22815060196587239 0.13250420183309389 0 0.22815060196587239 0.13250420183309389 0 0.24420216851797599 0.1292372680552665 0 0.2202182220460269 0.1181723145221887 0 0.22801201431925219 0.15227861461809999 0 0.22815060196587239 0.13250420183309389 0 0.23648687609860089 0.13476882232929049 0 0.22815060196587239 0.13250420183309389 0 0.23648687609860089 0.13476882232929049 0 0.24420216851797599 0.1292372680552665 0 0.23648687609860089 0.13476882232929049 0 0.24301228879775941 0.13939302681245261 0 0.24420216851797599 0.1292372680552665 0 0.24646482385440791 0.1109165710353929 0 0.23770217468454991 0.11680213067385049 0 0.255186127323073 0.11543194682551421 0 0.24420216851797599 0.1292372680552665 0 0.23770217468454991 0.11680213067385049 0 0.255186127323073 0.11543194682551421 0 0.23770217468454991 0.11680213067385049 0 0.255186127323073 0.11543194682551421 0 0.23770217468454991 0.11680213067385049 0 0.24055722746134861 0.1095612663226197 0 0.23538797832625211 0.10692464088038291 0 0.24646482385440791 0.1109165710353929 0 0.23770217468454991 0.11680213067385049 0 0.24055722746134861 0.1095612663226197 0 0.24174744587836799 0.1033548466348798 0 0.22816008327650389 0.097918375238235045 0 0.24736227196270541 0.090270970101712061 0 0.22816008327650389 0.097918375238235045 0 0.24736227196270541 0.090270970101712061 0 0.24174744587836799 0.1033548466348798 0 0.24736227196270541 0.090270970101712061 0 0.25459763100830068 0.096141582858552177 0 0.24174744587836799 0.1033548466348798 0 0.25459763100830068 0.096141582858552177 0 0.24646482385440791 0.1109165710353929 0 0.24174744587836799 0.1033548466348798 0 0.25655208948606423 0.10927836717886751 0 0.24174744587836799 0.1033548466348798 0 0.25655208948606423 0.10927836717886751 0 0.24646482385440791 0.1109165710353929 0 0.24055722746134861 0.1095612663226197 0 0.24174744587836799 0.1033548466348798 0 0.23538797832625211 0.10692464088038291 0 0.24174744587836799 0.1033548466348798 0 0.22816008327650389 0.097918375238235045 0 0.24055722746134861 0.1095612663226197 0 0.23538797832625211 0.10692464088038291 0 0.24174744587836799 0.1033548466348798 0 0.23538797832625211 0.10692464088038291 0 0.24174744587836799 0.1033548466348798 0 0.24174744587836799 0.1033548466348798 0 0.22816008327650389 0.097918375238235045 0 0.23538797832625211 0.10692464088038291 0 0.22816008327650389 0.097918375238235045 0 0.22436085098549791 0.1097634104313145 0 0.23770217468454991 0.11680213067385049 0 0.2202182220460269 0.1181723145221887 0 0.23770217468454991 0.11680213067385049 0 0.2202182220460269 0.1181723145221887 0 0.22436085098549791 0.1097634104313145 0 0.24420216851797599 0.1292372680552665 0 0.23770217468454991 0.11680213067385049 0 0.2202182220460269 0.1181723145221887 0 0.24420216851797599 0.1292372680552665 0 0.2202182220460269 0.1181723145221887 0 0.23770217468454991 0.11680213067385049 0 0.23538797832625211 0.10692464088038291 0 0.22436085098549791 0.1097634104313145 0 0.2202182220460269 0.1181723145221887 0 0.20033579659415629 0.10899959084191641 0 0.19370351113240411 0.1202502215829211 0 0.2202182220460269 0.1181723145221887 0 0.20033579659415629 0.10899959084191641 0 0.2202182220460269 0.1181723145221887 0 0.19370351113240411 0.1202502215829211 0 0.2202182220460269 0.1181723145221887 0 0.22436085098549791 0.1097634104313145 0 0.20033579659415629 0.10899959084191641 0 0.22816008327650389 0.097918375238235045 0 0.22436085098549791 0.1097634104313145 0 0.20033579659415629 0.10899959084191641 0 0.22816008327650389 0.097918375238235045 0 0.20033579659415629 0.10899959084191641 0 0.2016134769563831 0.087296750559026068 0 0.22816008327650389 0.097918375238235045 0 0.20033579659415629 0.10899959084191641 0 0.20033579659415629 0.10899959084191641 0 0.18422746814952201 0.1154148446289336 0 0.1860496622757298 0.1024087067025775 0 0.20033579659415629 0.10899959084191641 0 0.2016134769563831 0.087296750559026068 0 0.1860496622757298 0.1024087067025775 0 0.20033579659415629 0.10899959084191641 0 0.1860496622757298 0.1024087067025775 0 0.20033579659415629 0.10899959084191641 0 0.19370351113240411 0.1202502215829211 0 0.18422746814952201 0.1154148446289336 0 0.20033579659415629 0.10899959084191641 0 0.18422746814952201 0.1154148446289336 0 0.19220101611619109 0.069455466931817506 0 0.2016134769563831 0.087296750559026068 0 0.22553753830923129 0.072562856517635971 0 0.19220101611619109 0.069455466931817506 0 0.22553753830923129 0.072562856517635971 0 0.20371280465575431 0.054854742933563613 0 0.19220101611619109 0.069455466931817506 0 0.2016134769563831 0.087296750559026068 0 0.17506687063626211 0.076675125879817507 0 0.2016134769563831 0.087296750559026068 0 0.17506687063626211 0.076675125879817507 0 0.2016134769563831 0.087296750559026068 0 0.1860496622757298 0.1024087067025775 0 0.17954517331912459 0.085943521096986275 0 0.22816008327650389 0.097918375238235045 0 0.2016134769563831 0.087296750559026068 0 0.22553753830923129 0.072562856517635971 0 0.22816008327650389 0.097918375238235045 0 0.2016134769563831 0.087296750559026068 0 0.22553753830923129 0.072562856517635971 0 0.20371280465575431 0.054854742933563613 0 0.22816008327650389 0.097918375238235045 0 0.22553753830923129 0.072562856517635971 0 0.24736227196270541 0.090270970101712061 0 0.22553753830923129 0.072562856517635971 0 0.24736227196270541 0.090270970101712061 0 0.22553753830923129 0.072562856517635971 0 0.24736227196270541 0.090270970101712061 0 0.24874122334595 0.07170785510379532 0 0.22553753830923129 0.072562856517635971 0 0.24874122334595 0.07170785510379532 0 0.24629062771517271 0.052820950830226497 0 0.24629062771517271 0.052820950830226497 0 0.22540450977275331 0.044226989078737088 0 0.24629062771517271 0.052820950830226497 0 0.2492733855269578 0.041579555173777823 0 0.22540450977275331 0.044226989078737088 0 0.2492733855269578 0.041579555173777823 0 0.23050941707716249 0.025621187905106171 0 0.2492733855269578 0.041579555173777823 0 0.22540450977275331 0.044226989078737088 0 0.23050941707716249 0.025621187905106171 0 0.22540450977275331 0.044226989078737088 0 0.23050941707716249 0.025621187905106171 0 0.21805144048265651 0.031797176764528597 0 0.22553753830923129 0.072562856517635971 0 0.24629062771517271 0.052820950830226497 0 0.22540450977275331 0.044226989078737088 0 0.23790413247208811 0.0091049515404343275 0 0.25322369798355371 0.0032948183560677501 0 0.2464198669495459 -0.012097030270161889 0 0.23790413247208811 0.0091049515404343275 0 0.25442723867738032 0.016379625870619269 0 0.25322369798355371 0.0032948183560677501 0 0.2492733855269578 0.041579555173777823 0 0.24818833723327199 0.02644705719899533 0 0.23050941707716249 0.025621187905106171 0 0.23790413247208811 0.0091049515404343275 0 0.24818833723327199 0.02644705719899533 0 0.25442723867738032 0.016379625870619269 0 0.23790413247208811 0.0091049515404343275 0 0.24818833723327199 0.02644705719899533 0 0.23050941707716249 0.025621187905106171 0 0.23050941707716249 0.025621187905106171 0 0.2117734432503762 0.02170750274702346 0 0.21805144048265651 0.031797176764528597 0 0.23050941707716249 0.025621187905106171 0 0.21174544862736719 0.0096628206364345465 0 0.23050941707716249 0.025621187905106171 0 0.22518260227175371 0.0072623370788317187 0 0.21174544862736719 0.0096628206364345465 0 0.23790413247208811 0.0091049515404343275 0 0.22518260227175371 0.0072623370788317187 0 0.2300866381754704 -0.0072438550720441714 0 0.23790413247208811 0.0091049515404343275 0 0.23050941707716249 0.025621187905106171 0 0.22518260227175371 0.0072623370788317187 0 0.21174544862736719 0.0096628206364345465 0 0.2117734432503762 0.02170750274702346 0 0.20589386385567829 -0.0063134785331596111 0 0.2117734432503762 0.02170750274702346 0 0.19985428483697371 0.01027601627170664 0 0.20589386385567829 -0.0063134785331596111 0 0.2117734432503762 0.02170750274702346 0 0.20589386385567829 -0.0063134785331596111 0 0.22518260227175371 0.0072623370788317187 0 0.21174544862736719 0.0096628206364345465 0 0.2185782736923042 -0.0038367730406402641 0 0.23050941707716249 0.025621187905106171 0 0.21174544862736719 0.0096628206364345465 0 0.2117734432503762 0.02170750274702346 0 0.2117734432503762 0.02170750274702346 0 0.19994459845139961 0.023663902980434019 0 0.19985428483697371 0.01027601627170664 0 0.2117734432503762 0.02170750274702346 0 0.21805144048265651 0.031797176764528597 0 0.20451839183033399 0.035633027327247678 0 0.2117734432503762 0.02170750274702346 0 0.19994459845139961 0.023663902980434019 0 0.20451839183033399 0.035633027327247678 0 0.19994459845139961 0.023663902980434019 0 0.20451839183033399 0.035633027327247678 0 0.1836322738879155 0.027039065575756291 0 0.19994459845139961 0.023663902980434019 0 0.19985428483697371 0.01027601627170664 0 0.1836322738879155 0.027039065575756291 0 0.19985428483697371 0.01027601627170664 0 0.20589386385567829 -0.0063134785331596111 0 0.18863989258252481 -0.001979820774580698 0 0.19985428483697371 0.01027601627170664 0 0.1836322738879155 0.027039065575756291 0 0.18863989258252481 -0.001979820774580698 0 0.22553753830923129 0.072562856517635971 0 0.22540450977275331 0.044226989078737088 0 0.20371280465575431 0.054854742933563613 0 0.22540450977275331 0.044226989078737088 0 0.20451839183033399 0.035633027327247678 0 0.22540450977275331 0.044226989078737088 0 0.21805144048265651 0.031797176764528597 0 0.20451839183033399 0.035633027327247678 0 0.22540450977275331 0.044226989078737088 0 0.20371280465575431 0.054854742933563613 0 0.20451839183033399 0.035633027327247678 0 0.20451839183033399 0.035633027327247678 0 0.1818880710022803 0.03714662934948755 0 0.1836322738879155 0.027039065575756291 0 0.20371280465575431 0.054854742933563613 0 0.20451839183033399 0.035633027327247678 0 0.1818880710022803 0.03714662934948755 0 0.20371280465575431 0.054854742933563613 0 0.1818880710022803 0.03714662934948755 0 0.20451839183033399 0.035633027327247678 0 0.1836322738879155 0.027039065575756291 0 0.20371280465575431 0.054854742933563613 0 0.17847747081927551 0.05691087761465332 0 0.1818880710022803 0.03714662934948755 0 0.19220101611619109 0.069455466931817506 0 0.20371280465575431 0.054854742933563613 0 0.17847747081927551 0.05691087761465332 0 0.17847747081927551 0.05691087761465332 0 0.1818880710022803 0.03714662934948755 0 0.17847747081927551 0.05691087761465332 0 0.1818880710022803 0.03714662934948755 0 0.1636569447874848 0.036789081642687432 0 0.1818880710022803 0.03714662934948755 0 0.1836322738879155 0.027039065575756291 0 0.1818880710022803 0.03714662934948755 0 0.1636569447874848 0.036789081642687432 0 0.1620242678869008 0.02102957209859084 0 0.17847747081927551 0.05691087761465332 0 0.1636569447874848 0.036789081642687432 0 0.15962551614652079 0.053115759904931073 0 0.17847747081927551 0.05691087761465332 0 0.15962551614652079 0.053115759904931073 0 0.16641746421004469 0.065589342706300277 0 0.15962551614652079 0.053115759904931073 0 0.15045482833334159 0.067212260357143019 0 0.16641746421004469 0.065589342706300277 0 0.1716695151525548 0.011722155214289249 0 0.17506184651935949 -0.0021247232161890161 0 0.18863989258252481 -0.001979820774580698 0 0.1836322738879155 0.027039065575756291 0 0.18863989258252481 -0.001979820774580698 0 0.1836322738879155 0.027039065575756291 0 0.1716695151525548 0.011722155214289249 0 0.18863989258252481 -0.001979820774580698 0 0.1818880710022803 0.03714662934948755 0 0.1730573255808272 0.02268781650565178 0 0.1620242678869008 0.02102957209859084 0 0.1818880710022803 0.03714662934948755 0 0.1620242678869008 0.02102957209859084 0 0.1730573255808272 0.02268781650565178 0 0.1836322738879155 0.027039065575756291 0 0.1716695151525548 0.011722155214289249 0 0.1730573255808272 0.02268781650565178 0 0.1836322738879155 0.027039065575756291 0 0.1818880710022803 0.03714662934948755 0 0.1730573255808272 0.02268781650565178 0 0.1836322738879155 0.027039065575756291 0 0.1636569447874848 0.036789081642687432 0 0.1620242678869008 0.02102957209859084 0 0.15032019737810451 0.03113296745297477 0 0.1730573255808272 0.02268781650565178 0 0.1620242678869008 0.02102957209859084 0 0.1716695151525548 0.011722155214289249 0 0.1620242678869008 0.02102957209859084 0 0.1716695151525548 0.011722155214289249 0 0.15871689523486121 0.010399441389301141 0 0.1716695151525548 0.011722155214289249 0 0.15871689523486121 0.010399441389301141 0 0.1628037813635097 0.0015330777282007481 0 0.15871689523486121 0.010399441389301141 0 0.1628037813635097 0.0015330777282007481 0 0.15453230216132671 0.0032055715019124438 0 0.1716695151525548 0.011722155214289249 0 0.1628037813635097 0.0015330777282007481 0 0.17506184651935949 -0.0021247232161890161 0 0.1620242678869008 0.02102957209859084 0 0.14216046477152491 0.0049125148476896544 0 0.15871689523486121 0.010399441389301141 0 0.14216046477152491 0.0049125148476896544 0 0.15453230216132671 0.0032055715019124438 0 0.14216046477152491 0.0049125148476896544 0 0.15453230216132671 0.0032055715019124438 0 0.15849764294065671 -0.0060544572746906826 0 0.1620242678869008 0.02102957209859084 0 0.15871689523486121 0.010399441389301141 0 0.14216046477152491 0.0049125148476896544 0 0.1620242678869008 0.02102957209859084 0 0.14216046477152491 0.0049125148476896544 0 0.1432298655490542 0.02239521632663263 0 0.1620242678869008 0.02102957209859084 0 0.1432298655490542 0.02239521632663263 0 0.15032019737810451 0.03113296745297477 0 0.1432298655490542 0.02239521632663263 0 0.15032019737810451 0.03113296745297477 0 0.1366405524080008 0.032741533152345258 0 0.1432298655490542 0.02239521632663263 0 0.12659142849079691 0.028091664155532971 0 0.1366405524080008 0.032741533152345258 0 0.14216046477152491 0.0049125148476896544 0 0.1432298655490542 0.02239521632663263 0 0.12659142849079691 0.028091664155532971 0 0.14216046477152491 0.0049125148476896544 0 0.12659142849079691 0.028091664155532971 0 0.1323442420055404 0.014884056975098 0 0.14216046477152491 0.0049125148476896544 0 0.12659142849079691 0.028091664155532971 0 0.11882011836095251 0.0065886106746579649 0 0.12659142849079691 0.028091664155532971 0 0.1323442420055404 0.014884056975098 0 0.12659142849079691 0.028091664155532971 0 0.1366405524080008 0.032741533152345258 0 0.11882011836095251 0.0065886106746579649 0 0.1323442420055404 0.014884056975098 0 0.13735218555535891 0.001011181807127467 0 0.1323442420055404 0.014884056975098 0 0.13735218555535891 0.001011181807127467 0 0.14216046477152491 0.0049125148476896544 0 0.1323442420055404 0.014884056975098 0 0.13735218555535891 0.001011181807127467 0 0.14216046477152491 0.0049125148476896544 0 0.13735218555535891 0.001011181807127467 0 0.15962551614652079 0.053115759904931073 0 0.1452456698728295 0.044396077507560729 0 0.15045482833334159 0.067212260357143019 0 0.1452456698728295 0.044396077507560729 0 0.12683439495817461 0.052003073372435288 0 0.15045482833334159 0.067212260357143019 0 0.1636569447874848 0.036789081642687432 0 0.15032019737810451 0.03113296745297477 0 0.1452456698728295 0.044396077507560729 0 0.1636569447874848 0.036789081642687432 0 0.15962551614652079 0.053115759904931073 0 0.1452456698728295 0.044396077507560729 0 0.1636569447874848 0.036789081642687432 0 0.1452456698728295 0.044396077507560729 0 0.15032019737810451 0.03113296745297477 0 0.1452456698728295 0.044396077507560729 0 0.1366405524080008 0.032741533152345258 0 0.1452456698728295 0.044396077507560729 0 0.13015300311198849 0.040381385354086502 0 0.12683439495817461 0.052003073372435288 0 0.1452456698728295 0.044396077507560729 0 0.1366405524080008 0.032741533152345258 0 0.13015300311198849 0.040381385354086502 0 0.12659142849079691 0.028091664155532971 0 0.1366405524080008 0.032741533152345258 0 0.13015300311198849 0.040381385354086502 0 0.12683439495817461 0.052003073372435288 0 0.13134854049252651 0.064566646620811727 0 0.15045482833334159 0.067212260357143019 0 0.1452456698728295 0.044396077507560729 0 0.12683439495817461 0.052003073372435288 0 0.12683439495817461 0.052003073372435288 0 0.15045482833334159 0.067212260357143019 0 0.1213053233293625 0.063977455960140386 0 0.12683439495817461 0.052003073372435288 0 0.13134854049252651 0.064566646620811727 0 0.13134854049252651 0.064566646620811727 0 0.12679961534922851 0.075073796793526271 0 0.15045482833334159 0.067212260357143019 0 0.1213053233293625 0.063977455960140386 0 0.13134854049252651 0.064566646620811727 0 0.12679961534922851 0.075073796793526271 0 0.12679961534922851 0.075073796793526271 0 0.15045482833334159 0.067212260357143019 0 0.1492815716532653 0.085445809678383625 0 0.1185648575779607 0.095458187827811403 0 0.12679961534922851 0.075073796793526271 0 0.13332649773741079 0.089989738391902788 0 0.1492815716532653 0.085445809678383625 0 0.13332649773741079 0.089989738391902788 0 0.13865994636918871 0.10398115926788989 0 0.12679961534922851 0.075073796793526271 0 0.1492815716532653 0.085445809678383625 0 0.12679961534922851 0.075073796793526271 0 0.1492815716532653 0.085445809678383625 0 0.13332649773741079 0.089989738391902788 0 0.123281054128593 0.11724462113534739 0 0.1185648575779607 0.095458187827811403 0 0.13865994636918871 0.10398115926788989 0 0.1185648575779607 0.095458187827811403 0 0.13332649773741079 0.089989738391902788 0 0.13865994636918871 0.10398115926788989 0 0.123281054128593 0.11724462113534739 0 0.13865994636918871 0.10398115926788989 0 0.13947052033133081 0.1245003570974072 0 0.13947052033133081 0.1245003570974072 0 0.15026369300765779 0.1129544164764977 0 0.16718880021878149 0.12232812864365609 0 0.13947052033133081 0.1245003570974072 0 0.16718880021878149 0.12232812864365609 0 0.13865994636918871 0.10398115926788989 0 0.13947052033133081 0.1245003570974072 0 0.15026369300765779 0.1129544164764977 0 0.1492815716532653 0.085445809678383625 0 0.13865994636918871 0.10398115926788989 0 0.15573550511132991 0.1010080208970377 0 0.13865994636918871 0.10398115926788989 0 0.15026369300765779 0.1129544164764977 0 0.15573550511132991 0.1010080208970377 0 0.15573550511132991 0.1010080208970377 0 0.17176352795730221 0.095817822563241214 0 0.16718880021878149 0.12232812864365609 0 0.17176352795730221 0.095817822563241214 0 0.16718880021878149 0.12232812864365609 0 0.1492815716532653 0.085445809678383625 0 0.15573550511132991 0.1010080208970377 0 0.17176352795730221 0.095817822563241214 0 0.15026369300765779 0.1129544164764977 0 0.15573550511132991 0.1010080208970377 0 0.16718880021878149 0.12232812864365609 0 0.16718880021878149 0.12232812864365609 0 0.18422746814952201 0.1154148446289336 0 0.17176352795730221 0.095817822563241214 0 0.16718880021878149 0.12232812864365609 0 0.18422746814952201 0.1154148446289336 0 0.19370351113240411 0.1202502215829211 0 0.16718880021878149 0.12232812864365609 0 0.19370351113240411 0.1202502215829211 0 0.16718880021878149 0.12232812864365609 0 0.18422746814952201 0.1154148446289336 0 0.17176352795730221 0.095817822563241214 0 0.18422746814952201 0.1154148446289336 0 0.1860496622757298 0.1024087067025775 0 0.17176352795730221 0.095817822563241214 0 0.1860496622757298 0.1024087067025775 0 0.17954517331912459 0.085943521096986275 0 0.17176352795730221 0.095817822563241214 0 0.1860496622757298 0.1024087067025775 0 0.2016134769563831 0.087296750559026068 0 0.17954517331912459 0.085943521096986275 0 0.17506687063626211 0.076675125879817507 0 0.17176352795730221 0.095817822563241214 0 0.17407526170850959 0.082421447341849294 0 0.17176352795730221 0.095817822563241214 0 0.17954517331912459 0.085943521096986275 0 0.17407526170850959 0.082421447341849294 0 0.17954517331912459 0.085943521096986275 0 0.17407526170850959 0.082421447341849294 0 0.17506687063626211 0.076675125879817507 0 0.17407526170850959 0.082421447341849294 0 0.17506687063626211 0.076675125879817507 0 0.17954517331912459 0.085943521096986275 0 0.17407526170850959 0.082421447341849294 0 0.17847747081927551 0.05691087761465332 0 0.17506687063626211 0.076675125879817507 0 0.19220101611619109 0.069455466931817506 0 0.17847747081927551 0.05691087761465332 0 0.17506687063626211 0.076675125879817507 0 0.17847747081927551 0.05691087761465332 0 0.17506687063626211 0.076675125879817507 0 0.16641746421004469 0.065589342706300277 0 0.17407526170850959 0.082421447341849294 0 0.17506687063626211 0.076675125879817507 0 0.16846263511482451 0.074032689774956653 0 0.15045482833334159 0.067212260357143019 0 0.16846263511482451 0.074032689774956653 0 0.16641746421004469 0.065589342706300277 0 0.17506687063626211 0.076675125879817507 0 0.16846263511482451 0.074032689774956653 0 0.16641746421004469 0.065589342706300277 0 0.15045482833334159 0.067212260357143019 0 0.17407526170850959 0.082421447341849294 0 0.16846263511482451 0.074032689774956653 0 0.17506687063626211 0.076675125879817507 0 0.16846263511482451 0.074032689774956653 0 0.15045482833334159 0.067212260357143019 0 0.17407526170850959 0.082421447341849294 0 0.1492815716532653 0.085445809678383625 0 0.17176352795730221 0.095817822563241214 0 0.1492815716532653 0.085445809678383625 0 0.17176352795730221 0.095817822563241214 0 0.17407526170850959 0.082421447341849294 0 0.15045482833334159 0.067212260357143019 0 0.1492815716532653 0.085445809678383625 0 0.17407526170850959 0.082421447341849294 0 0.094789198081262169 0.47221984895451657 0 0.09870107108427445 0.5 0 0.1248616532684987 0.47476888169724352 0 0.09870107108427445 0.5 0 0.1248616532684987 0.47476888169724352 0 0.1287333349596296 0.50000000000000233 0 0.1248616532684987 0.47476888169724352 0 0.1154926134483955 0.45328817880533262 0 0.094789198081262169 0.47221984895451657 0 0.1248616532684987 0.47476888169724352 0 0.1154926134483955 0.45328817880533262 0 0.1248616532684987 0.47476888169724352 0 0.1205619018159948 0.44674810255646558 0 0.1248616532684987 0.47476888169724352 0 0.1154926134483955 0.45328817880533262 0 0.1205619018159948 0.44674810255646558 0 0.1154926134483955 0.45328817880533262 0 0.106123573628292 0.43180747591342172 0 0.1154926134483955 0.45328817880533262 0 0.1205619018159948 0.44674810255646558 0 0.106123573628292 0.43180747591342172 0 0.1154926134483955 0.45328817880533262 0 0.096722182691352548 0.44869154901932268 0 0.106123573628292 0.43180747591342172 0 0.094789198081262169 0.47221984895451657 0 0.1154926134483955 0.45328817880533262 0 0.096722182691352548 0.44869154901932268 0 0.094789198081262169 0.47221984895451657 0 0.077453222292990773 0.45016302493177879 0 0.067202034968243438 0.47028323083424428 0 0.094789198081262169 0.47221984895451657 0 0.096722182691352548 0.44869154901932268 0 0.077453222292990773 0.45016302493177879 0 0.096722182691352548 0.44869154901932268 0 0.077453222292990773 0.45016302493177879 0 0.085233479690329184 0.42595657570789891 0 0.077453222292990773 0.45016302493177879 0 0.085233479690329184 0.42595657570789891 0 0.077453222292990773 0.45016302493177879 0 0.055846149836862702 0.43889490050586683 0 0.065639666334966471 0.42409002317344818 0 0.077453222292990773 0.45016302493177879 0 0.067202034968243438 0.47028323083424428 0 0.051776939420019832 0.45519588853091181 0 0.094789198081262169 0.47221984895451657 0 0.067202034968243438 0.47028323083424428 0 0.068668807208919325 0.5 0 0.094789198081262169 0.47221984895451657 0 0.09870107108427445 0.5 0 0.068668807208919325 0.5 0 0.068668807208919325 0.5 0 0.043814234576468783 0.4752156274217324 0 0.038636543333564137 0.5 0 0.067202034968243438 0.47028323083424428 0 0.068668807208919325 0.5 0 0.043814234576468783 0.4752156274217324 0 0.038636543333564137 0.5 0 0.0095498935665802413 0.47810272379952351 0 0.0086042794582089632 0.5 0 0.043814234576468783 0.4752156274217324 0 0.038636543333564137 0.5 0 0.0095498935665802413 0.47810272379952351 0 0.043814234576468783 0.4752156274217324 0 0.0095498935665802413 0.47810272379952351 0 0.02936257191825143 0.45548825099001988 0 -0.0044763741368290672 0.43313315307665529 0 0.006403582431216831 0.45126676372832991 0 0.01131617767293759 0.43066417693356068 0 0.006403582431216831 0.45126676372832991 0 0.024585063983693121 0.43937755350337049 0 0.01131617767293759 0.43066417693356068 0 -0.0062093312902834459 0.46527566221073008 0 0.0095498935665802413 0.47810272379952351 0 0.006403582431216831 0.45126676372832991 0 0.0095498935665802413 0.47810272379952351 0 0.006403582431216831 0.45126676372832991 0 0.02936257191825143 0.45548825099001988 0 0.02936257191825143 0.45548825099001988 0 0.024585063983693121 0.43937755350337049 0 0.039439570502417587 0.44016889882154447 0 0.006403582431216831 0.45126676372832991 0 0.02936257191825143 0.45548825099001988 0 0.024585063983693121 0.43937755350337049 0 0.02936257191825143 0.45548825099001988 0 0.039439570502417587 0.44016889882154447 0 0.051776939420019832 0.45519588853091181 0 0.043814234576468783 0.4752156274217324 0 0.02936257191825143 0.45548825099001988 0 0.051776939420019832 0.45519588853091181 0 0.067202034968243438 0.47028323083424428 0 0.043814234576468783 0.4752156274217324 0 0.051776939420019832 0.45519588853091181 0 0.039439570502417587 0.44016889882154447 0 0.051776939420019832 0.45519588853091181 0 0.055846149836862702 0.43889490050586683 0 0.077453222292990773 0.45016302493177879 0 0.051776939420019832 0.45519588853091181 0 0.055846149836862702 0.43889490050586683 0 0.055846149836862702 0.43889490050586683 0 0.044352211855280779 0.42435697566478181 0 0.065639666334966471 0.42409002317344818 0 0.054179592762823331 0.4124556941646933 0 0.065774511826563423 0.40583773171119408 0 0.065639666334966471 0.42409002317344818 0 0.054179592762823331 0.4124556941646933 0 0.044352211855280779 0.42435697566478181 0 0.042551786202842029 0.40583695196884878 0 0.054179592762823331 0.4124556941646933 0 0.044352211855280779 0.42435697566478181 0 0.065639666334966471 0.42409002317344818 0 0.054179592762823331 0.4124556941646933 0 0.052579787594463898 0.40215678830519391 0 0.065774511826563423 0.40583773171119408 0 0.054179592762823331 0.4124556941646933 0 0.042551786202842029 0.40583695196884878 0 0.052579787594463898 0.40215678830519391 0 0.031615607723292562 0.41237007764590089 0 0.044352211855280779 0.42435697566478181 0 0.042551786202842029 0.40583695196884878 0 0.031615607723292562 0.41237007764590089 0 0.044352211855280779 0.42435697566478181 0 0.029348552931666359 0.42650056435783129 0 0.039439570502417587 0.44016889882154447 0 0.055846149836862702 0.43889490050586683 0 0.044352211855280779 0.42435697566478181 0 0.039439570502417587 0.44016889882154447 0 0.044352211855280779 0.42435697566478181 0 0.029348552931666359 0.42650056435783129 0 0.024585063983693121 0.43937755350337049 0 0.039439570502417587 0.44016889882154447 0 0.029348552931666359 0.42650056435783129 0 0.024585063983693121 0.43937755350337049 0 0.029348552931666359 0.42650056435783129 0 0.01131617767293759 0.43066417693356068 0 0.029348552931666359 0.42650056435783129 0 0.019479081626689841 0.41692126840220728 0 0.01131617767293759 0.43066417693356068 0 0.031615607723292562 0.41237007764590089 0 0.029348552931666359 0.42650056435783129 0 0.019479081626689841 0.41692126840220728 0 0.031615607723292562 0.41237007764590089 0 0.019479081626689841 0.41692126840220728 0 0.02210553341445062 0.40298972327242938 0 0.019479081626689841 0.41692126840220728 0 0.0046995574085186929 0.41194005205042061 0 0.02210553341445062 0.40298972327242938 0 0.019479081626689841 0.41692126840220728 0 0.0046995574085186929 0.41194005205042061 0 0.01131617767293759 0.43066417693356068 0 -0.0044763741368290672 0.43313315307665529 0 0.0046995574085186929 0.41194005205042061 0 0.01131617767293759 0.43066417693356068 0 -0.0068648610501423502 0.39382000907293813 0 0.0053185270157129726 0.37689571945341471 0 0.0079727676898529512 0.39395805239723503 0 0.0053185270157129726 0.37689571945341471 0 0.0079727676898529512 0.39395805239723503 0 0.017055050774382831 0.3783760363496293 0 0.0053185270157129726 0.37689571945341471 0 0.017055050774382831 0.3783760363496293 0 0.014905446519761849 0.37011919055753012 0 -0.0068648610501423502 0.39382000907293813 0 0.0046995574085186929 0.41194005205042061 0 0.0079727676898529512 0.39395805239723503 0 0.0046995574085186929 0.41194005205042061 0 0.0079727676898529512 0.39395805239723503 0 0.02210553341445062 0.40298972327242938 0 0.0079727676898529512 0.39395805239723503 0 0.02210553341445062 0.40298972327242938 0 0.02735486101880703 0.39232044610694311 0 0.031615607723292562 0.41237007764590089 0 0.02210553341445062 0.40298972327242938 0 0.03492587150599015 0.39714318271575322 0 0.02210553341445062 0.40298972327242938 0 0.02735486101880703 0.39232044610694311 0 0.03492587150599015 0.39714318271575322 0 0.0079727676898529512 0.39395805239723503 0 0.02735486101880703 0.39232044610694311 0 0.033420514628485373 0.38302977191180709 0 0.017055050774382831 0.3783760363496293 0 0.033420514628485373 0.38302977191180709 0 0.023779055828078009 0.37097747554075361 0 0.0079727676898529512 0.39395805239723503 0 0.017055050774382831 0.3783760363496293 0 0.033420514628485373 0.38302977191180709 0 0.0079727676898529512 0.39395805239723503 0 0.033420514628485373 0.38302977191180709 0 0.02735486101880703 0.39232044610694311 0 0.032859848824407727 0.38560668074253002 0 0.033420514628485373 0.38302977191180709 0 0.02735486101880703 0.39232044610694311 0 0.032859848824407727 0.38560668074253002 0 0.032844630049655758 0.3911952656019041 0 0.033420514628485373 0.38302977191180709 0 0.040531910439000007 0.38820627445006711 0 0.055078026168592691 0.37372917012189599 0 0.033420514628485373 0.38302977191180709 0 0.055078026168592691 0.37372917012189599 0 0.032859848824407727 0.38560668074253002 0 0.033420514628485373 0.38302977191180709 0 0.032859848824407727 0.38560668074253002 0 0.040531910439000007 0.38820627445006711 0 0.032844630049655758 0.3911952656019041 0 0.032859848824407727 0.38560668074253002 0 0.033420514628485373 0.38302977191180709 0 0.040531910439000007 0.38820627445006711 0 0.031615607723292562 0.41237007764590089 0 0.03492587150599015 0.39714318271575322 0 0.042551786202842029 0.40583695196884878 0 0.040531910439000007 0.38820627445006711 0 0.03492587150599015 0.39714318271575322 0 0.032844630049655758 0.3911952656019041 0 0.02735486101880703 0.39232044610694311 0 0.03492587150599015 0.39714318271575322 0 0.032844630049655758 0.3911952656019041 0 0.040531910439000007 0.38820627445006711 0 0.03492587150599015 0.39714318271575322 0 0.044409534997012647 0.39663533348309749 0 0.040531910439000007 0.38820627445006711 0 0.044409534997012647 0.39663533348309749 0 0.05145831924276717 0.38983346997562462 0 0.044409534997012647 0.39663533348309749 0 0.042551786202842029 0.40583695196884878 0 0.052579787594463898 0.40215678830519391 0 0.03492587150599015 0.39714318271575322 0 0.044409534997012647 0.39663533348309749 0 0.042551786202842029 0.40583695196884878 0 0.052579787594463898 0.40215678830519391 0 0.065929237187869999 0.38841376689227869 0 0.065774511826563423 0.40583773171119408 0 0.044409534997012647 0.39663533348309749 0 0.052579787594463898 0.40215678830519391 0 0.05145831924276717 0.38983346997562462 0 0.052579787594463898 0.40215678830519391 0 0.05145831924276717 0.38983346997562462 0 0.065929237187869999 0.38841376689227869 0 0.05145831924276717 0.38983346997562462 0 0.065929237187869999 0.38841376689227869 0 0.055078026168592691 0.37372917012189599 0 0.040531910439000007 0.38820627445006711 0 0.05145831924276717 0.38983346997562462 0 0.055078026168592691 0.37372917012189599 0 0.065929237187869999 0.38841376689227869 0 0.07065435961583541 0.37741521318853999 0 0.055078026168592691 0.37372917012189599 0 0.065929237187869999 0.38841376689227869 0 0.07065435961583541 0.37741521318853999 0 0.084874637398179506 0.3830893474080016 0 0.065929237187869999 0.38841376689227869 0 0.084874637398179506 0.3830893474080016 0 0.078183007061163587 0.39730645121706609 0 0.084874637398179506 0.3830893474080016 0 0.09301373708766289 0.40175012648401748 0 0.1017514530376761 0.37456476915266362 0 0.084874637398179506 0.3830893474080016 0 0.1017514530376761 0.37456476915266362 0 0.089894590955766338 0.37016501712229671 0 0.084874637398179506 0.3830893474080016 0 0.09301373708766289 0.40175012648401748 0 0.084874637398179506 0.3830893474080016 0 0.09301373708766289 0.40175012648401748 0 0.078183007061163587 0.39730645121706609 0 0.09301373708766289 0.40175012648401748 0 0.078183007061163587 0.39730645121706609 0 0.0779125114683729 0.4107996813321716 0 0.065929237187869999 0.38841376689227869 0 0.078183007061163587 0.39730645121706609 0 0.065774511826563423 0.40583773171119408 0 0.078183007061163587 0.39730645121706609 0 0.065774511826563423 0.40583773171119408 0 0.0779125114683729 0.4107996813321716 0 0.065774511826563423 0.40583773171119408 0 0.0779125114683729 0.4107996813321716 0 0.065639666334966471 0.42409002317344818 0 0.0779125114683729 0.4107996813321716 0 0.065639666334966471 0.42409002317344818 0 0.085233479690329184 0.42595657570789891 0 0.077453222292990773 0.45016302493177879 0 0.065639666334966471 0.42409002317344818 0 0.085233479690329184 0.42595657570789891 0 0.09301373708766289 0.40175012648401748 0 0.085233479690329184 0.42595657570789891 0 0.09301373708766289 0.40175012648401748 0 0.0779125114683729 0.4107996813321716 0 0.085233479690329184 0.42595657570789891 0 0.09301373708766289 0.40175012648401748 0 0.085233479690329184 0.42595657570789891 0 0.096641093798834857 0.4103746730739769 0 0.096641093798834857 0.4103746730739769 0 0.106123573628292 0.43180747591342172 0 0.096641093798834857 0.4103746730739769 0 0.1162621503634904 0.41872732341568758 0 0.11303311796937431 0.39768424579749467 0 0.096641093798834857 0.4103746730739769 0 0.106123573628292 0.43180747591342172 0 0.1162621503634904 0.41872732341568758 0 0.096641093798834857 0.4103746730739769 0 0.1162621503634904 0.41872732341568758 0 0.085233479690329184 0.42595657570789891 0 0.096641093798834857 0.4103746730739769 0 0.106123573628292 0.43180747591342172 0 0.096722182691352548 0.44869154901932268 0 0.085233479690329184 0.42595657570789891 0 0.106123573628292 0.43180747591342172 0 0.1205619018159948 0.44674810255646558 0 0.1162621503634904 0.41872732341568758 0 0.1205619018159948 0.44674810255646558 0 0.106123573628292 0.43180747591342172 0 0.1162621503634904 0.41872732341568758 0 0.1162621503634904 0.41872732341568758 0 0.11303311796937431 0.39768424579749467 0 0.11303311796937431 0.39768424579749467 0 0.1231373165426977 0.3806134049577457 0 0.1271742827044339 0.39597619803598749 0 0.1162621503634904 0.41872732341568758 0 0.11303311796937431 0.39768424579749467 0 0.1271742827044339 0.39597619803598749 0 0.11303311796937431 0.39768424579749467 0 0.1098040855752573 0.37664116817930182 0 0.11303311796937431 0.39768424579749467 0 0.1098040855752573 0.37664116817930182 0 0.1231373165426977 0.3806134049577457 0 0.09301373708766289 0.40175012648401748 0 0.10162794664532369 0.38287681265592 0 0.1017514530376761 0.37456476915266362 0 0.11303311796937431 0.39768424579749467 0 0.1098040855752573 0.37664116817930182 0 0.10162794664532369 0.38287681265592 0 0.09301373708766289 0.40175012648401748 0 0.1017514530376761 0.37456476915266362 0 0.09301373708766289 0.40175012648401748 0 0.096641093798834857 0.4103746730739769 0 0.10162794664532369 0.38287681265592 0 0.096641093798834857 0.4103746730739769 0 0.10162794664532369 0.38287681265592 0 0.096641093798834857 0.4103746730739769 0 0.11303311796937431 0.39768424579749467 0 0.10162794664532369 0.38287681265592 0 0.09301373708766289 0.40175012648401748 0 0.096641093798834857 0.4103746730739769 0 0.10657505318114149 0.3555980905611088 0 0.1040837309638282 0.33936254988137232 0 0.10657505318114149 0.3555980905611088 0 0.096269577202366938 0.34885221845001108 0 0.090674694454237537 0.35844253683721511 0 0.10657505318114149 0.3555980905611088 0 0.1081370103155585 0.34698533999968961 0 0.1040837309638282 0.33936254988137232 0 0.10657505318114149 0.3555980905611088 0 0.096269577202366938 0.34885221845001108 0 0.1040837309638282 0.33936254988137232 0 0.10657505318114149 0.3555980905611088 0 0.1081370103155585 0.34698533999968961 0 0.1081370103155585 0.34698533999968961 0 0.1105857944332822 0.35159063999376577 0 0.10657505318114149 0.3555980905611088 0 0.1081370103155585 0.34698533999968961 0 0.1105857944332822 0.35159063999376577 0 0.10657505318114149 0.3555980905611088 0 0.097223947907205094 0.36469260341832099 0 0.090674694454237537 0.35844253683721511 0 0.1098040855752573 0.37664116817930182 0 0.10657505318114149 0.3555980905611088 0 0.1098040855752573 0.37664116817930182 0 0.10162794664532369 0.38287681265592 0 0.10657505318114149 0.3555980905611088 0 0.10657505318114149 0.3555980905611088 0 0.097223947907205094 0.36469260341832099 0 0.1017514530376761 0.37456476915266362 0 0.10162794664532369 0.38287681265592 0 0.10657505318114149 0.3555980905611088 0 0.10162794664532369 0.38287681265592 0 0.10657505318114149 0.3555980905611088 0 0.1017514530376761 0.37456476915266362 0 0.097223947907205094 0.36469260341832099 0 0.1017514530376761 0.37456476915266362 0 0.089894590955766338 0.37016501712229671 0 0.1231373165426977 0.3806134049577457 0 0.1176766025370503 0.36283148293627721 0 0.13271547193899449 0.36524458735671972 0 0.1098040855752573 0.37664116817930182 0 0.10657505318114149 0.3555980905611088 0 0.1176766025370503 0.36283148293627721 0 0.1098040855752573 0.37664116817930182 0 0.1231373165426977 0.3806134049577457 0 0.1176766025370503 0.36283148293627721 0 0.1176766025370503 0.36283148293627721 0 0.1232256624926347 0.35239419723674059 0 0.13271547193899449 0.36524458735671972 0 0.10657505318114149 0.3555980905611088 0 0.1176766025370503 0.36283148293627721 0 0.1105857944332822 0.35159063999376577 0 0.1176766025370503 0.36283148293627721 0 0.1232256624926347 0.35239419723674059 0 0.1105857944332822 0.35159063999376577 0 0.1081370103155585 0.34698533999968961 0 0.1105857944332822 0.35159063999376577 0 0.1168368962248217 0.34531303274388031 0 0.1232256624926347 0.35239419723674059 0 0.1105857944332822 0.35159063999376577 0 0.1168368962248217 0.34531303274388031 0 0.1232256624926347 0.35239419723674059 0 0.1168368962248217 0.34531303274388031 0 0.1260676383484185 0.3399282146226113 0 0.1081370103155585 0.34698533999968961 0 0.1173014636805894 0.33730338313169689 0 0.1117137236550247 0.32726307032677399 0 0.1081370103155585 0.34698533999968961 0 0.1117137236550247 0.32726307032677399 0 0.1168368962248217 0.34531303274388031 0 0.1173014636805894 0.33730338313169689 0 0.1260676383484185 0.3399282146226113 0 0.1173014636805894 0.33730338313169689 0 0.12375204985912221 0.32702725796552912 0 0.1260676383484185 0.3399282146226113 0 0.1173014636805894 0.33730338313169689 0 0.12375204985912221 0.32702725796552912 0 0.1117137236550247 0.32726307032677399 0 0.1081370103155585 0.34698533999968961 0 0.1168368962248217 0.34531303274388031 0 0.1173014636805894 0.33730338313169689 0 0.1117137236550247 0.32726307032677399 0 0.11529043699448981 0.30754080065385803 0 0.1117137236550247 0.32726307032677399 0 0.1095765413243488 0.31862098055757049 0 0.11529043699448981 0.30754080065385803 0 0.1214195525311879 0.31440901896845502 0 0.1117137236550247 0.32726307032677399 0 0.11529043699448981 0.30754080065385803 0 0.1214195525311879 0.31440901896845502 0 0.12375204985912221 0.32702725796552912 0 0.12817088130983889 0.317450689473041 0 0.1214195525311879 0.31440901896845502 0 0.12375204985912221 0.32702725796552912 0 0.1117137236550247 0.32726307032677399 0 0.1040837309638282 0.33936254988137232 0 0.090103400857782137 0.31307047550514489 0 0.1040837309638282 0.33936254988137232 0 0.1025673515982234 0.32948055280164651 0 0.090103400857782137 0.31307047550514489 0 0.10278173829001019 0.3206216626476312 0 0.1025673515982234 0.32948055280164651 0 0.090103400857782137 0.31307047550514489 0 0.1095765413243488 0.31862098055757049 0 0.10278173829001019 0.3206216626476312 0 0.099947674014671917 0.31467323404701991 0 0.1095765413243488 0.31862098055757049 0 0.099947674014671917 0.31467323404701991 0 0.09732687347400408 0.30507295899279041 0 0.1117137236550247 0.32726307032677399 0 0.1095765413243488 0.31862098055757049 0 0.10278173829001019 0.3206216626476312 0 0.1117137236550247 0.32726307032677399 0 0.10278173829001019 0.3206216626476312 0 0.1025673515982234 0.32948055280164651 0 0.10278173829001019 0.3206216626476312 0 0.099947674014671917 0.31467323404701991 0 0.090103400857782137 0.31307047550514489 0 0.096269577202366938 0.34885221845001108 0 0.1040837309638282 0.33936254988137232 0 0.085896102217652828 0.34083244099607402 0 0.1081370103155585 0.34698533999968961 0 0.1117137236550247 0.32726307032677399 0 0.1040837309638282 0.33936254988137232 0 0.1081370103155585 0.34698533999968961 0 0.1040837309638282 0.33936254988137232 0 0.1117137236550247 0.32726307032677399 0 0.1040837309638282 0.33936254988137232 0 0.1025673515982234 0.32948055280164651 0 0.1040837309638282 0.33936254988137232 0 0.1025673515982234 0.32948055280164651 0 0.1040837309638282 0.33936254988137232 0 0.085896102217652828 0.34083244099607402 0 0.090103400857782137 0.31307047550514489 0 0.085896102217652828 0.34083244099607402 0 0.090103400857782137 0.31307047550514489 0 0.073944851781294785 0.32640562720437011 0 0.073944851781294785 0.32640562720437011 0 0.05926959110604698 0.32438382341666039 0 0.066452600317618793 0.30933520022964911 0 0.090103400857782137 0.31307047550514489 0 0.073944851781294785 0.32640562720437011 0 0.066452600317618793 0.30933520022964911 0 0.068002564407373206 0.3444061958743222 0 0.05926959110604698 0.32438382341666039 0 0.085896102217652828 0.34083244099607402 0 0.073944851781294785 0.32640562720437011 0 0.068002564407373206 0.3444061958743222 0 0.073944851781294785 0.32640562720437011 0 0.068002564407373206 0.3444061958743222 0 0.05926959110604698 0.32438382341666039 0 0.068002564407373206 0.3444061958743222 0 0.081709153938225559 0.35166937446406898 0 0.076735537708699481 0.364428568331984 0 0.068002564407373206 0.3444061958743222 0 0.076735537708699481 0.364428568331984 0 0.068002564407373206 0.3444061958743222 0 0.076735537708699481 0.364428568331984 0 0.058880509289504487 0.35752542115937253 0 0.085896102217652828 0.34083244099607402 0 0.068002564407373206 0.3444061958743222 0 0.081709153938225559 0.35166937446406898 0 0.081709153938225559 0.35166937446406898 0 0.090674694454237537 0.35844253683721511 0 0.076735537708699481 0.364428568331984 0 0.096269577202366938 0.34885221845001108 0 0.081709153938225559 0.35166937446406898 0 0.090674694454237537 0.35844253683721511 0 0.096269577202366938 0.34885221845001108 0 0.085896102217652828 0.34083244099607402 0 0.081709153938225559 0.35166937446406898 0 0.084874637398179506 0.3830893474080016 0 0.089894590955766338 0.37016501712229671 0 0.076735537708699481 0.364428568331984 0 0.084874637398179506 0.3830893474080016 0 0.076735537708699481 0.364428568331984 0 0.097223947907205094 0.36469260341832099 0 0.090674694454237537 0.35844253683721511 0 0.089894590955766338 0.37016501712229671 0 0.090674694454237537 0.35844253683721511 0 0.089894590955766338 0.37016501712229671 0 0.076735537708699481 0.364428568331984 0 0.090674694454237537 0.35844253683721511 0 0.076735537708699481 0.364428568331984 0 0.076735537708699481 0.364428568331984 0 0.055078026168592691 0.37372917012189599 0 0.058880509289504487 0.35752542115937253 0 0.07065435961583541 0.37741521318853999 0 0.084874637398179506 0.3830893474080016 0 0.076735537708699481 0.364428568331984 0 0.07065435961583541 0.37741521318853999 0 0.076735537708699481 0.364428568331984 0 0.055078026168592691 0.37372917012189599 0 0.076735537708699481 0.364428568331984 0 0.055078026168592691 0.37372917012189599 0 0.055078026168592691 0.37372917012189599 0 0.058880509289504487 0.35752542115937253 0 0.039125882353897343 0.35680699826087081 0 0.068002564407373206 0.3444061958743222 0 0.058880509289504487 0.35752542115937253 0 0.05148455776782021 0.34576385860545072 0 0.058880509289504487 0.35752542115937253 0 0.05148455776782021 0.34576385860545072 0 0.039125882353897343 0.35680699826087081 0 0.039125882353897343 0.35680699826087081 0 0.031548662582759998 0.36398682567210089 0 0.025752053585936779 0.33511492304397028 0 0.05148455776782021 0.34576385860545072 0 0.039125882353897343 0.35680699826087081 0 0.044831250079309708 0.3305842246099347 0 0.033420514628485373 0.38302977191180709 0 0.039125882353897343 0.35680699826087081 0 0.031548662582759998 0.36398682567210089 0 0.033420514628485373 0.38302977191180709 0 0.055078026168592691 0.37372917012189599 0 0.039125882353897343 0.35680699826087081 0 0.033420514628485373 0.38302977191180709 0 0.039125882353897343 0.35680699826087081 0 0.033420514628485373 0.38302977191180709 0 0.031548662582759998 0.36398682567210089 0 0.023779055828078009 0.37097747554075361 0 0.017055050774382831 0.3783760363496293 0 0.023779055828078009 0.37097747554075361 0 0.014905446519761849 0.37011919055753012 0 0.023779055828078009 0.37097747554075361 0 0.019349684376360511 0.36318206543595072 0 0.014905446519761849 0.37011919055753012 0 0.031548662582759998 0.36398682567210089 0 0.019349684376360511 0.36318206543595072 0 0.019690074755218789 0.35178644121934483 0 0.031548662582759998 0.36398682567210089 0 0.023779055828078009 0.37097747554075361 0 0.019349684376360511 0.36318206543595072 0 0.031548662582759998 0.36398682567210089 0 0.025752053585936779 0.33511492304397028 0 0.031548662582759998 0.36398682567210089 0 0.019690074755218789 0.35178644121934483 0 0.025752053585936779 0.33511492304397028 0 0.019349684376360511 0.36318206543595072 0 0.019690074755218789 0.35178644121934483 0 0.0119730942360182 0.35563939605115702 0 0.0119730942360182 0.35563939605115702 0 0.0038095970876644218 0.35606187191015221 0 0.0077169544749549623 0.36306791211952738 0 -0.0077202170519437719 0.34710906184019069 0 0.0082446038140756572 0.34376242611402219 0 0.0038095970876644218 0.35606187191015221 0 0.0119730942360182 0.35563939605115702 0 0.0082446038140756572 0.34376242611402219 0 0.0038095970876644218 0.35606187191015221 0 0.019690074755218789 0.35178644121934483 0 0.0119730942360182 0.35563939605115702 0 0.0082446038140756572 0.34376242611402219 0 -0.0045677851665312944 0.36532665559408428 0 0.0038095970876644218 0.35606187191015221 0 0.0077169544749549623 0.36306791211952738 0 -0.0087141207398781558 0.37710904293520409 0 0.0053185270157129726 0.37689571945341471 0 0.0077169544749549623 0.36306791211952738 0 0.0053185270157129726 0.37689571945341471 0 0.0077169544749549623 0.36306791211952738 0 0.014905446519761849 0.37011919055753012 0 0.019349684376360511 0.36318206543595072 0 0.0077169544749549623 0.36306791211952738 0 0.014905446519761849 0.37011919055753012 0 0.019349684376360511 0.36318206543595072 0 0.0119730942360182 0.35563939605115702 0 0.0077169544749549623 0.36306791211952738 0 -0.009249588209606344 0.30814111102660002 0 0.0094307060340404689 0.32376070079746733 0 0.01995544458911469 0.30624302041583928 0 -0.005758602284471958 0.33512988219008361 0 0.0082446038140756572 0.34376242611402219 0 0.0094307060340404689 0.32376070079746733 0 0.0082446038140756572 0.34376242611402219 0 0.0094307060340404689 0.32376070079746733 0 0.025752053585936779 0.33511492304397028 0 0.019690074755218789 0.35178644121934483 0 0.0082446038140756572 0.34376242611402219 0 0.025752053585936779 0.33511492304397028 0 0.025752053585936779 0.33511492304397028 0 0.01995544458911469 0.30624302041583928 0 0.025752053585936779 0.33511492304397028 0 0.034898059553693392 0.31581284699138767 0 0.01995544458911469 0.30624302041583928 0 0.0094307060340404689 0.32376070079746733 0 0.025752053585936779 0.33511492304397028 0 0.01995544458911469 0.30624302041583928 0 0.034898059553693392 0.31581284699138767 0 0.044831250079309708 0.3305842246099347 0 0.05053661780472133 0.30436145095899841 0 0.025752053585936779 0.33511492304397028 0 0.034898059553693392 0.31581284699138767 0 0.044831250079309708 0.3305842246099347 0 0.039125882353897343 0.35680699826087081 0 0.025752053585936779 0.33511492304397028 0 0.044831250079309708 0.3305842246099347 0 0.039125882353897343 0.35680699826087081 0 0.044831250079309708 0.3305842246099347 0 0.068002564407373206 0.3444061958743222 0 0.05148455776782021 0.34576385860545072 0 0.05926959110604698 0.32438382341666039 0 0.05148455776782021 0.34576385860545072 0 0.044831250079309708 0.3305842246099347 0 0.05926959110604698 0.32438382341666039 0 0.044831250079309708 0.3305842246099347 0 0.05053661780472133 0.30436145095899841 0 0.044831250079309708 0.3305842246099347 0 0.05926959110604698 0.32438382341666039 0 0.05053661780472133 0.30436145095899841 0 0.05926959110604698 0.32438382341666039 0 0.05053661780472133 0.30436145095899841 0 0.05926959110604698 0.32438382341666039 0 0.05053661780472133 0.30436145095899841 0 0.066452600317618793 0.30933520022964911 0 0.059204269303370749 0.30137448027593422 0 0.05053661780472133 0.30436145095899841 0 0.066452600317618793 0.30933520022964911 0 0.04765756321016474 0.29776054867416191 0 0.05053661780472133 0.30436145095899841 0 0.052561166870736087 0.29505630281458828 0 0.059204269303370749 0.30137448027593422 0 0.05053661780472133 0.30436145095899841 0 0.052561166870736087 0.29505630281458828 0 0.05053661780472133 0.30436145095899841 0 0.052561166870736087 0.29505630281458828 0 0.04765756321016474 0.29776054867416191 0 0.05053661780472133 0.30436145095899841 0 0.052561166870736087 0.29505630281458828 0 0.036977033779240318 0.28312664447104818 0 0.062988366650143207 0.29302398426469728 0 0.036977033779240318 0.28312664447104818 0 0.048149862160842181 0.27985089866820428 0 0.062988366650143207 0.29302398426469728 0 0.036977033779240318 0.28312664447104818 0 0.062988366650143207 0.29302398426469728 0 0.048149862160842181 0.27985089866820428 0 0.054778979573680928 0.27715841955607551 0 0.062988366650143207 0.29302398426469728 0 0.059204269303370749 0.30137448027593422 0 0.052561166870736087 0.29505630281458828 0 0.062988366650143207 0.29302398426469728 0 0.04765756321016474 0.29776054867416191 0 0.036186098738389023 0.29603891009636157 0 0.036977033779240318 0.28312664447104818 0 0.04765756321016474 0.29776054867416191 0 0.052561166870736087 0.29505630281458828 0 0.036977033779240318 0.28312664447104818 0 0.036186098738389023 0.29603891009636157 0 0.036977033779240318 0.28312664447104818 0 0.027757552790527541 0.29644954410470781 0 0.034898059553693392 0.31581284699138767 0 0.05053661780472133 0.30436145095899841 0 0.039754971674175903 0.30430037111620312 0 0.04765756321016474 0.29776054867416191 0 0.05053661780472133 0.30436145095899841 0 0.039754971674175903 0.30430037111620312 0 0.04765756321016474 0.29776054867416191 0 0.036186098738389023 0.29603891009636157 0 0.039754971674175903 0.30430037111620312 0 0.036186098738389023 0.29603891009636157 0 0.039754971674175903 0.30430037111620312 0 0.028740536311392211 0.30567206060121932 0 0.034898059553693392 0.31581284699138767 0 0.039754971674175903 0.30430037111620312 0 0.028740536311392211 0.30567206060121932 0 0.034898059553693392 0.31581284699138767 0 0.028740536311392211 0.30567206060121932 0 0.01995544458911469 0.30624302041583928 0 0.028740536311392211 0.30567206060121932 0 0.01995544458911469 0.30624302041583928 0 0.01995544458911469 0.30624302041583928 0 0.027757552790527541 0.29644954410470781 0 0.016928650534501429 0.29116708493907051 0 0.01995544458911469 0.30624302041583928 0 0.016928650534501429 0.29116708493907051 0 0.036186098738389023 0.29603891009636157 0 0.028740536311392211 0.30567206060121932 0 0.027757552790527541 0.29644954410470781 0 0.028740536311392211 0.30567206060121932 0 0.01995544458911469 0.30624302041583928 0 0.027757552790527541 0.29644954410470781 0 0.036977033779240318 0.28312664447104818 0 0.016928650534501429 0.29116708493907051 0 0.013901856479889301 0.2760911494623014 0 0.036977033779240318 0.28312664447104818 0 0.027757552790527541 0.29644954410470781 0 0.016928650534501429 0.29116708493907051 0 0.016928650534501429 0.29116708493907051 0 0.0075090435902615098 0.27971283806045072 0 0.013901856479889301 0.2760911494623014 0 0.016928650534501429 0.29116708493907051 0 0.013901856479889301 0.2760911494623014 0 0.016928650534501429 0.29116708493907051 0 0.002380999114604244 0.28599596302517022 0 0.0075090435902615098 0.27971283806045072 0 0.016928650534501429 0.29116708493907051 0 0.002380999114604244 0.28599596302517022 0 0.0038021096493471361 0.29689124930627131 0 0.01995544458911469 0.30624302041583928 0 0.016928650534501429 0.29116708493907051 0 0.0038021096493471361 0.29689124930627131 0 -0.009249588209606344 0.30814111102660002 0 0.01995544458911469 0.30624302041583928 0 -0.009249588209606344 0.30814111102660002 0 0.01995544458911469 0.30624302041583928 0 0.0038021096493471361 0.29689124930627131 0 0.012944211518790589 0.24639919126045251 0 0.001894876929373096 0.24743045501984201 0 0.027350481215018482 0.26092432701142793 0 0.001894876929373096 0.24743045501984201 0 0.01235577794179212 0.26160751525750708 0 0.027350481215018482 0.26092432701142793 0 0.001894876929373096 0.24743045501984201 0 0.027350481215018482 0.26092432701142793 0 0.01235577794179212 0.26160751525750708 0 0.0066431973405819862 0.26423936680728111 0 0.01332705073189009 0.26743114199411 0 0.001894876929373096 0.24743045501984201 0 0.01235577794179212 0.26160751525750708 0 0.0027594708259384838 0.25829047161104352 0 0.01235577794179212 0.26160751525750708 0 0.0027594708259384838 0.25829047161104352 0 0.0066431973405819862 0.26423936680728111 0 -0.00067809962666212902 0.26216505597133072 0 0.0027594708259384838 0.25829047161104352 0 0.0066431973405819862 0.26423936680728111 0 -0.00067809962666212902 0.26216505597133072 0 0.0066431973405819862 0.26423936680728111 0 0.010965700908337589 0.27322930467739909 0 -0.001267499687089951 0.2776013217203892 0 0.0075090435902615098 0.27971283806045072 0 0.010965700908337589 0.27322930467739909 0 -0.001267499687089951 0.2776013217203892 0 0.002380999114604244 0.28599596302517022 0 0.0075090435902615098 0.27971283806045072 0 0.0075090435902615098 0.27971283806045072 0 0.013901856479889301 0.2760911494623014 0 0.010965700908337589 0.27322930467739909 0 0.010965700908337589 0.27322930467739909 0 0.01332705073189009 0.26743114199411 0 0.022419763759722669 0.26962443384228668 0 0.0066431973405819862 0.26423936680728111 0 0.010965700908337589 0.27322930467739909 0 0.01332705073189009 0.26743114199411 0 0.036977033779240318 0.28312664447104818 0 0.010965700908337589 0.27322930467739909 0 0.022419763759722669 0.26962443384228668 0 0.01235577794179212 0.26160751525750708 0 0.01332705073189009 0.26743114199411 0 0.022419763759722669 0.26962443384228668 0 0.036977033779240318 0.28312664447104818 0 0.013901856479889301 0.2760911494623014 0 0.010965700908337589 0.27322930467739909 0 0.036977033779240318 0.28312664447104818 0 0.010965700908337589 0.27322930467739909 0 0.036977033779240318 0.28312664447104818 0 0.022419763759722669 0.26962443384228668 0 0.032397819765571212 0.27218151163944088 0 0.022419763759722669 0.26962443384228668 0 0.027350481215018482 0.26092432701142793 0 0.032397819765571212 0.27218151163944088 0 0.018629400856135309 0.24429501886194191 0 0.012944211518790589 0.24639919126045251 0 0.027350481215018482 0.26092432701142793 0 0.018629400856135309 0.24429501886194191 0 0.027350481215018482 0.26092432701142793 0 0.02692674034290404 0.25134916217479408 0 0.01235577794179212 0.26160751525750708 0 0.022419763759722669 0.26962443384228668 0 0.027350481215018482 0.26092432701142793 0 0.027350481215018482 0.26092432701142793 0 0.02692674034290404 0.25134916217479408 0 0.036501911092354018 0.25177276941539839 0 0.027350481215018482 0.26092432701142793 0 0.036501911092354018 0.25177276941539839 0 0.052806085500663583 0.27441819900301412 0 0.036501911092354018 0.25177276941539839 0 0.052806085500663583 0.27441819900301412 0 0.027350481215018482 0.26092432701142793 0 0.039536256484267153 0.27410031615862712 0 0.052806085500663583 0.27441819900301412 0 0.027350481215018482 0.26092432701142793 0 0.052806085500663583 0.27441819900301412 0 0.036977033779240318 0.28312664447104818 0 0.032397819765571212 0.27218151163944088 0 0.039536256484267153 0.27410031615862712 0 0.027350481215018482 0.26092432701142793 0 0.032397819765571212 0.27218151163944088 0 0.039536256484267153 0.27410031615862712 0 0.039536256484267153 0.27410031615862712 0 0.048149862160842181 0.27985089866820428 0 0.052806085500663583 0.27441819900301412 0 0.036977033779240318 0.28312664447104818 0 0.039536256484267153 0.27410031615862712 0 0.048149862160842181 0.27985089866820428 0 0.052806085500663583 0.27441819900301412 0 0.051790667069154861 0.2547103276228454 0 0.069466372585565969 0.27425949764399721 0 0.052806085500663583 0.27441819900301412 0 0.054778979573680928 0.27715841955607551 0 0.076123070751733898 0.28677840112891878 0 0.048149862160842181 0.27985089866820428 0 0.052806085500663583 0.27441819900301412 0 0.054778979573680928 0.27715841955607551 0 0.052806085500663583 0.27441819900301412 0 0.054778979573680928 0.27715841955607551 0 0.051790667069154861 0.2547103276228454 0 0.069466372585565969 0.27425949764399721 0 0.036501911092354018 0.25177276941539839 0 0.052806085500663583 0.27441819900301412 0 0.051790667069154861 0.2547103276228454 0 0.051790667069154861 0.2547103276228454 0 0.062472563593505302 0.26110660749064829 0 0.069466372585565969 0.27425949764399721 0 0.051790667069154861 0.2547103276228454 0 0.062472563593505302 0.26110660749064829 0 0.063392491700480919 0.2510828642249095 0 0.07090317009537217 0.25886987532900169 0 0.089645379702363526 0.25980927980688501 0 0.066829182329119829 0.26693814307945207 0 0.063392491700480919 0.2510828642249095 0 0.07090317009537217 0.25886987532900169 0 0.074261774750864804 0.25289133929391111 0 0.062472563593505302 0.26110660749064829 0 0.063392491700480919 0.2510828642249095 0 0.07090317009537217 0.25886987532900169 0 0.062472563593505302 0.26110660749064829 0 0.07090317009537217 0.25886987532900169 0 0.066829182329119829 0.26693814307945207 0 0.07090317009537217 0.25886987532900169 0 0.074261774750864804 0.25289133929391111 0 0.089645379702363526 0.25980927980688501 0 0.072073934872957782 0.23900016577853919 0 0.074261774750864804 0.25289133929391111 0 0.089645379702363526 0.25980927980688501 0 0.089645379702363526 0.25980927980688501 0 0.066829182329119829 0.26693814307945207 0 0.089645379702363526 0.25980927980688501 0 0.084738505220855201 0.27427167124983992 0 0.066829182329119829 0.26693814307945207 0 0.084738505220855201 0.27427167124983992 0 0.069466372585565969 0.27425949764399721 0 0.085077205623658711 0.29152493742801078 0 0.084738505220855201 0.27427167124983992 0 0.095910340366493346 0.28464594086445177 0 0.099818528257267281 0.27185690653089678 0 0.089645379702363526 0.25980927980688501 0 0.084738505220855201 0.27427167124983992 0 0.099818528257267281 0.27185690653089678 0 0.084738505220855201 0.27427167124983992 0 0.066829182329119829 0.26693814307945207 0 0.069466372585565969 0.27425949764399721 0 0.052806085500663583 0.27441819900301412 0 0.069466372585565969 0.27425949764399721 0 0.076123070751733898 0.28677840112891878 0 0.052806085500663583 0.27441819900301412 0 0.076123070751733898 0.28677840112891878 0 0.069466372585565969 0.27425949764399721 0 0.076123070751733898 0.28677840112891878 0 0.062472563593505302 0.26110660749064829 0 0.069466372585565969 0.27425949764399721 0 0.062472563593505302 0.26110660749064829 0 0.066829182329119829 0.26693814307945207 0 0.069466372585565969 0.27425949764399721 0 0.069466372585565969 0.27425949764399721 0 0.085077205623658711 0.29152493742801078 0 0.069466372585565969 0.27425949764399721 0 0.076123070751733898 0.28677840112891878 0 0.085077205623658711 0.29152493742801078 0 0.062988366650143207 0.29302398426469728 0 0.076123070751733898 0.28677840112891878 0 0.066452600317618793 0.30933520022964911 0 0.054778979573680928 0.27715841955607551 0 0.062988366650143207 0.29302398426469728 0 0.076123070751733898 0.28677840112891878 0 0.090103400857782137 0.31307047550514489 0 0.076123070751733898 0.28677840112891878 0 0.066452600317618793 0.30933520022964911 0 0.059204269303370749 0.30137448027593422 0 0.062988366650143207 0.29302398426469728 0 0.066452600317618793 0.30933520022964911 0 0.090103400857782137 0.31307047550514489 0 0.076123070751733898 0.28677840112891878 0 0.085077205623658711 0.29152493742801078 0 0.090103400857782137 0.31307047550514489 0 0.076123070751733898 0.28677840112891878 0 0.090103400857782137 0.31307047550514489 0 0.085077205623658711 0.29152493742801078 0 0.09732687347400408 0.30507295899279041 0 0.085077205623658711 0.29152493742801078 0 0.09732687347400408 0.30507295899279041 0 0.084738505220855201 0.27427167124983992 0 0.085077205623658711 0.29152493742801078 0 0.095910340366493346 0.28464594086445177 0 0.076123070751733898 0.28677840112891878 0 0.085077205623658711 0.29152493742801078 0 0.085077205623658711 0.29152493742801078 0 0.095910340366493346 0.28464594086445177 0 0.10018382130907411 0.29953286904093468 0 0.085077205623658711 0.29152493742801078 0 0.10018382130907411 0.29953286904093468 0 0.095910340366493346 0.28464594086445177 0 0.10809736708577181 0.28553666446189058 0 0.10018382130907411 0.29953286904093468 0 0.10809736708577181 0.28553666446189058 0 0.10018382130907411 0.29953286904093468 0 0.10959494141679089 0.29761357018739809 0 0.099947674014671917 0.31467323404701991 0 0.090103400857782137 0.31307047550514489 0 0.09732687347400408 0.30507295899279041 0 0.085077205623658711 0.29152493742801078 0 0.09732687347400408 0.30507295899279041 0 0.10018382130907411 0.29953286904093468 0 0.09732687347400408 0.30507295899279041 0 0.10018382130907411 0.29953286904093468 0 0.1055944182754792 0.3076919023112884 0 0.10018382130907411 0.29953286904093468 0 0.11529043699448981 0.30754080065385803 0 0.10959494141679089 0.29761357018739809 0 0.10018382130907411 0.29953286904093468 0 0.11529043699448981 0.30754080065385803 0 0.1095765413243488 0.31862098055757049 0 0.09732687347400408 0.30507295899279041 0 0.1055944182754792 0.3076919023112884 0 0.10018382130907411 0.29953286904093468 0 0.1055944182754792 0.3076919023112884 0 0.11529043699448981 0.30754080065385803 0 0.1095765413243488 0.31862098055757049 0 0.09732687347400408 0.30507295899279041 0 0.1095765413243488 0.31862098055757049 0 0.1055944182754792 0.3076919023112884 0 0.11529043699448981 0.30754080065385803 0 0.11529043699448981 0.30754080065385803 0 0.11637637905870279 0.30155283343175482 0 0.11810871752106521 0.30621928700195911 0 0.11529043699448981 0.30754080065385803 0 0.10959494141679089 0.29761357018739809 0 0.11637637905870279 0.30155283343175482 0 0.10959494141679089 0.29761357018739809 0 0.11637637905870279 0.30155283343175482 0 0.1164892219926046 0.29243334627748818 0 0.11529043699448981 0.30754080065385803 0 0.11637637905870279 0.30155283343175482 0 0.11637637905870279 0.30155283343175482 0 0.1222906650571363 0.2985709440566281 0 0.1164892219926046 0.29243334627748818 0 0.1222906650571363 0.2985709440566281 0 0.1206025954822835 0.30378795350269022 0 0.1243783730770044 0.30485679470236721 0 0.11637637905870279 0.30155283343175482 0 0.1222906650571363 0.2985709440566281 0 0.1206025954822835 0.30378795350269022 0 0.11637637905870279 0.30155283343175482 0 0.1206025954822835 0.30378795350269022 0 0.11810871752106521 0.30621928700195911 0 0.1206025954822835 0.30378795350269022 0 0.11810871752106521 0.30621928700195911 0 0.1213521300308707 0.30775440284793348 0 0.11529043699448981 0.30754080065385803 0 0.11810871752106521 0.30621928700195911 0 0.11930841490252821 0.30912172642276631 0 0.11810871752106521 0.30621928700195911 0 0.1213521300308707 0.30775440284793348 0 0.11930841490252821 0.30912172642276631 0 0.1243783730770044 0.30485679470236721 0 0.1213521300308707 0.30775440284793348 0 0.1244342991148414 0.30898461385241399 0 0.1206025954822835 0.30378795350269022 0 0.1243783730770044 0.30485679470236721 0 0.1213521300308707 0.30775440284793348 0 0.1214195525311879 0.31440901896845502 0 0.1244342991148414 0.30898461385241399 0 0.12900107104525951 0.30968741412501871 0 0.1214195525311879 0.31440901896845502 0 0.1213521300308707 0.30775440284793348 0 0.1244342991148414 0.30898461385241399 0 0.1214195525311879 0.31440901896845502 0 0.11529043699448981 0.30754080065385803 0 0.11930841490252821 0.30912172642276631 0 0.1214195525311879 0.31440901896845502 0 0.1213521300308707 0.30775440284793348 0 0.11930841490252821 0.30912172642276631 0 0.10809736708577181 0.28553666446189058 0 0.1164892219926046 0.29243334627748818 0 0.1210835213650209 0.28058702695229848 0 0.10809736708577181 0.28553666446189058 0 0.10959494141679089 0.29761357018739809 0 0.1164892219926046 0.29243334627748818 0 0.1222906650571363 0.2985709440566281 0 0.1164892219926046 0.29243334627748818 0 0.12596292383497329 0.28976449579057961 0 0.1164892219926046 0.29243334627748818 0 0.1210835213650209 0.28058702695229848 0 0.12596292383497329 0.28976449579057961 0 0.10809736708577181 0.28553666446189058 0 0.1210835213650209 0.28058702695229848 0 0.1147979612748997 0.2707881575742877 0 0.1210835213650209 0.28058702695229848 0 0.1147979612748997 0.2707881575742877 0 0.12791172371537049 0.26609555254785411 0 0.1147979612748997 0.2707881575742877 0 0.116065923487036 0.25155424759680489 0 0.099818528257267281 0.27185690653089678 0 0.1147979612748997 0.2707881575742877 0 0.116065923487036 0.25155424759680489 0 0.12791172371537049 0.26609555254785411 0 0.089645379702363526 0.25980927980688501 0 0.116065923487036 0.25155424759680489 0 0.089645379702363526 0.25980927980688501 0 0.116065923487036 0.25155424759680489 0 0.099818528257267281 0.27185690653089678 0 0.089645379702363526 0.25980927980688501 0 0.099818528257267281 0.27185690653089678 0 0.095910340366493346 0.28464594086445177 0 0.10809736708577181 0.28553666446189058 0 0.099818528257267281 0.27185690653089678 0 0.10809736708577181 0.28553666446189058 0 0.1147979612748997 0.2707881575742877 0 0.099818528257267281 0.27185690653089678 0 0.14627836463393121 0.26809473379089088 0 0.14256315404166739 0.2804585798755338 0 0.1332419302865058 0.27890394506169119 0 0.14627836463393121 0.26809473379089088 0 0.14256315404166739 0.2804585798755338 0 0.15383705453569649 0.27951082009548711 0 0.14627836463393121 0.26809473379089088 0 0.15383705453569649 0.27951082009548711 0 0.1609818760820641 0.2708255403471686 0 0.14248646727170791 0.24329921538672239 0 0.14627836463393121 0.26809473379089088 0 0.1631161995596529 0.25657386530356069 0 0.14248646727170791 0.24329921538672239 0 0.116065923487036 0.25155424759680489 0 0.12791172371537049 0.26609555254785411 0 0.14248646727170791 0.24329921538672239 0 0.14627836463393121 0.26809473379089088 0 0.12791172371537049 0.26609555254785411 0 0.14627836463393121 0.26809473379089088 0 0.12791172371537049 0.26609555254785411 0 0.1332419302865058 0.27890394506169119 0 0.1210835213650209 0.28058702695229848 0 0.12791172371537049 0.26609555254785411 0 0.1332419302865058 0.27890394506169119 0 0.1332419302865058 0.27890394506169119 0 0.12596292383497329 0.28976449579057961 0 0.13463915166403909 0.29011289163129678 0 0.1210835213650209 0.28058702695229848 0 0.1332419302865058 0.27890394506169119 0 0.12596292383497329 0.28976449579057961 0 0.1222906650571363 0.2985709440566281 0 0.12596292383497329 0.28976449579057961 0 0.12923992476061211 0.29615108028493942 0 0.12596292383497329 0.28976449579057961 0 0.12923992476061211 0.29615108028493942 0 0.13463915166403909 0.29011289163129678 0 0.13463915166403909 0.29011289163129678 0 0.13544399911061031 0.29845687749894129 0 0.1416447250157222 0.29544082675589128 0 0.12923992476061211 0.29615108028493942 0 0.13463915166403909 0.29011289163129678 0 0.13544399911061031 0.29845687749894129 0 0.14256315404166739 0.2804585798755338 0 0.1332419302865058 0.27890394506169119 0 0.13463915166403909 0.29011289163129678 0 0.1243783730770044 0.30485679470236721 0 0.1244342991148414 0.30898461385241399 0 0.12900107104525951 0.30968741412501871 0 0.1243783730770044 0.30485679470236721 0 0.12900107104525951 0.30968741412501871 0 0.1290658347258283 0.30205966601357243 0 0.12900107104525951 0.30968741412501871 0 0.1290658347258283 0.30205966601357243 0 0.1340409753043473 0.30463488541353972 0 0.1222906650571363 0.2985709440566281 0 0.1243783730770044 0.30485679470236721 0 0.1290658347258283 0.30205966601357243 0 0.1222906650571363 0.2985709440566281 0 0.12923992476061211 0.29615108028493942 0 0.1290658347258283 0.30205966601357243 0 0.12923992476061211 0.29615108028493942 0 0.1290658347258283 0.30205966601357243 0 0.13544399911061031 0.29845687749894129 0 0.13544399911061031 0.29845687749894129 0 0.14170706289926879 0.30357921339911909 0 0.1416447250157222 0.29544082675589128 0 0.13544399911061031 0.29845687749894129 0 0.1340409753043473 0.30463488541353972 0 0.14170706289926879 0.30357921339911909 0 0.1290658347258283 0.30205966601357243 0 0.13544399911061031 0.29845687749894129 0 0.1340409753043473 0.30463488541353972 0 0.13598458437900529 0.30983158877234418 0 0.14130712994747449 0.31140798331507108 0 0.14170706289926879 0.30357921339911909 0 0.12900107104525951 0.30968741412501871 0 0.1340409753043473 0.30463488541353972 0 0.13598458437900529 0.30983158877234418 0 0.1340409753043473 0.30463488541353972 0 0.13598458437900529 0.30983158877234418 0 0.14170706289926879 0.30357921339911909 0 0.13598458437900529 0.30983158877234418 0 0.14130712994747449 0.31140798331507108 0 0.13528824775885559 0.3155805734405937 0 0.12900107104525951 0.30968741412501871 0 0.13598458437900529 0.30983158877234418 0 0.13528824775885559 0.3155805734405937 0 0.1483486037307668 0.31106151759990119 0 0.14130712994747449 0.31140798331507108 0 0.14170706289926879 0.30357921339911909 0 0.1483486037307668 0.31106151759990119 0 0.14170706289926879 0.30357921339911909 0 0.1513591925520972 0.30423422291399321 0 0.14170706289926879 0.30357921339911909 0 0.14924189349128261 0.29698436464102829 0 0.1513591925520972 0.30423422291399321 0 0.14170706289926879 0.30357921339911909 0 0.14924189349128261 0.29698436464102829 0 0.1416447250157222 0.29544082675589128 0 0.1513591925520972 0.30423422291399321 0 0.15847128754916129 0.30901971199088751 0 0.1567398971697517 0.30020769771567818 0 0.14924189349128261 0.29698436464102829 0 0.1513591925520972 0.30423422291399321 0 0.1567398971697517 0.30020769771567818 0 0.1483486037307668 0.31106151759990119 0 0.1513591925520972 0.30423422291399321 0 0.15847128754916129 0.30901971199088751 0 0.1483486037307668 0.31106151759990119 0 0.15847128754916129 0.30901971199088751 0 0.1531779528472626 0.31690967251270458 0 0.14256315404166739 0.2804585798755338 0 0.15383705453569649 0.27951082009548711 0 0.14728728951424691 0.28871625735014939 0 0.14256315404166739 0.2804585798755338 0 0.13463915166403909 0.29011289163129678 0 0.14728728951424691 0.28871625735014939 0 0.14924189349128261 0.29698436464102829 0 0.14728728951424691 0.28871625735014939 0 0.1416447250157222 0.29544082675589128 0 0.13463915166403909 0.29011289163129678 0 0.14728728951424691 0.28871625735014939 0 0.1416447250157222 0.29544082675589128 0 0.14924189349128261 0.29698436464102829 0 0.1576814993112734 0.29111844862325259 0 0.1567398971697517 0.30020769771567818 0 0.14924189349128261 0.29698436464102829 0 0.14728728951424691 0.28871625735014939 0 0.1576814993112734 0.29111844862325259 0 0.15383705453569649 0.27951082009548711 0 0.14728728951424691 0.28871625735014939 0 0.1576814993112734 0.29111844862325259 0 0.15383705453569649 0.27951082009548711 0 0.1576814993112734 0.29111844862325259 0 0.16532030222413041 0.28061774918364429 0 0.1576814993112734 0.29111844862325259 0 0.1689979645595176 0.28949488405725932 0 0.16532030222413041 0.28061774918364429 0 0.1576814993112734 0.29111844862325259 0 0.1689979645595176 0.28949488405725932 0 0.16694561294494401 0.29968174040922901 0 0.1689979645595176 0.28949488405725932 0 0.16694561294494401 0.29968174040922901 0 0.17866142019044989 0.29199773726540068 0 0.1689979645595176 0.28949488405725932 0 0.17498255083596301 0.28300150235233201 0 0.16532030222413041 0.28061774918364429 0 0.1576814993112734 0.29111844862325259 0 0.1567398971697517 0.30020769771567818 0 0.16694561294494401 0.29968174040922901 0 0.15847128754916129 0.30901971199088751 0 0.1567398971697517 0.30020769771567818 0 0.16694561294494401 0.29968174040922901 0 0.16694561294494401 0.29968174040922901 0 0.17666858027807311 0.3015349886251833 0 0.1707678241303611 0.31259989648156872 0 0.15847128754916129 0.30901971199088751 0 0.16694561294494401 0.29968174040922901 0 0.1707678241303611 0.31259989648156872 0 0.17666858027807311 0.3015349886251833 0 0.18371952992762389 0.30785332357736089 0 0.1707678241303611 0.31259989648156872 0 0.16694561294494401 0.29968174040922901 0 0.17666858027807311 0.3015349886251833 0 0.17866142019044989 0.29199773726540068 0 0.17666858027807311 0.3015349886251833 0 0.18371952992762389 0.30785332357736089 0 0.1898902111984884 0.29891268329407239 0 0.18371952992762389 0.30785332357736089 0 0.1898902111984884 0.29891268329407239 0 0.17666858027807311 0.3015349886251833 0 0.17866142019044989 0.29199773726540068 0 0.1898902111984884 0.29891268329407239 0 0.17498255083596301 0.28300150235233201 0 0.17866142019044989 0.29199773726540068 0 0.1849298445554361 0.28099903695767547 0 0.1689979645595176 0.28949488405725932 0 0.17498255083596301 0.28300150235233201 0 0.17866142019044989 0.29199773726540068 0 0.17866142019044989 0.29199773726540068 0 0.18677859260729601 0.28760164196875848 0 0.1898902111984884 0.29891268329407239 0 0.17866142019044989 0.29199773726540068 0 0.18677859260729601 0.28760164196875848 0 0.1849298445554361 0.28099903695767547 0 0.1849298445554361 0.28099903695767547 0 0.17528279401001801 0.2714166079934146 0 0.19094745617081291 0.27038549871767581 0 0.17528279401001801 0.2714166079934146 0 0.18564289691528729 0.25868749876629671 0 0.19094745617081291 0.27038549871767581 0 0.17498255083596301 0.28300150235233201 0 0.1849298445554361 0.28099903695767547 0 0.17528279401001801 0.2714166079934146 0 0.17528279401001801 0.2714166079934146 0 0.16532030222413041 0.28061774918364429 0 0.1609818760820641 0.2708255403471686 0 0.17498255083596301 0.28300150235233201 0 0.17528279401001801 0.2714166079934146 0 0.16532030222413041 0.28061774918364429 0 0.17528279401001801 0.2714166079934146 0 0.1609818760820641 0.2708255403471686 0 0.1631161995596529 0.25657386530356069 0 0.15383705453569649 0.27951082009548711 0 0.16532030222413041 0.28061774918364429 0 0.1609818760820641 0.2708255403471686 0 0.14627836463393121 0.26809473379089088 0 0.1609818760820641 0.2708255403471686 0 0.1631161995596529 0.25657386530356069 0 0.16890701105638031 0.23504418317664161 0 0.1631161995596529 0.25657386530356069 0 0.18564289691528729 0.25868749876629671 0 0.17528279401001801 0.2714166079934146 0 0.1631161995596529 0.25657386530356069 0 0.18564289691528729 0.25868749876629671 0 0.1956251304139873 0.24830732682566101 0 0.18564289691528729 0.25868749876629671 0 0.20465537480646501 0.25892384109831479 0 0.18564289691528729 0.25868749876629671 0 0.19094745617081291 0.27038549871767581 0 0.20465537480646501 0.25892384109831479 0 0.2050239072751949 0.2492833193895482 0 0.1956251304139873 0.24830732682566101 0 0.20465537480646501 0.25892384109831479 0 0.19094745617081291 0.27038549871767581 0 0.20212350544635149 0.27452240688285762 0 0.1917381003592612 0.28136787577326228 0 0.1849298445554361 0.28099903695767547 0 0.19094745617081291 0.27038549871767581 0 0.1917381003592612 0.28136787577326228 0 0.19094745617081291 0.27038549871767581 0 0.20212350544635149 0.27452240688285762 0 0.20465537480646501 0.25892384109831479 0 0.21559138507808229 0.27635001083075639 0 0.2170338530129477 0.25958452376210089 0 0.2223889939606305 0.26849190584137572 0 0.20212350544635149 0.27452240688285762 0 0.2170338530129477 0.25958452376210089 0 0.20037669147028589 0.28371892366973078 0 0.2170338530129477 0.25958452376210089 0 0.20037669147028589 0.28371892366973078 0 0.21559138507808229 0.27635001083075639 0 0.2170338530129477 0.25958452376210089 0 0.20037669147028589 0.28371892366973078 0 0.20212350544635149 0.27452240688285762 0 0.20465537480646501 0.25892384109831479 0 0.21458810326103989 0.25029177234766842 0 0.20212350544635149 0.27452240688285762 0 0.2170338530129477 0.25958452376210089 0 0.21458810326103989 0.25029177234766842 0 0.20212350544635149 0.27452240688285762 0 0.21458810326103989 0.25029177234766842 0 0.2050239072751949 0.2492833193895482 0 0.20465537480646501 0.25892384109831479 0 0.21458810326103989 0.25029177234766842 0 0.20465537480646501 0.25892384109831479 0 0.21458810326103989 0.25029177234766842 0 0.23169913173193779 0.25404958449575432 0 0.22942687348362151 0.26728355318502178 0 0.24090080429007341 0.26281353644332878 0 0.23169913173193779 0.25404958449575432 0 0.2249153238939712 0.26221153605608138 0 0.22942687348362151 0.26728355318502178 0 0.2170338530129477 0.25958452376210089 0 0.2249153238939712 0.26221153605608138 0 0.2223889939606305 0.26849190584137572 0 0.2170338530129477 0.25958452376210089 0 0.23169913173193779 0.25404958449575432 0 0.2249153238939712 0.26221153605608138 0 0.2223889939606305 0.26849190584137572 0 0.2255322572178127 0.27738204478537232 0 0.22942687348362151 0.26728355318502178 0 0.2249153238939712 0.26221153605608138 0 0.2223889939606305 0.26849190584137572 0 0.22942687348362151 0.26728355318502178 0 0.21559138507808229 0.27635001083075639 0 0.2255322572178127 0.27738204478537232 0 0.21985426169801439 0.28935406669317137 0 0.21559138507808229 0.27635001083075639 0 0.2223889939606305 0.26849190584137572 0 0.2255322572178127 0.27738204478537232 0 0.2255322572178127 0.27738204478537232 0 0.23621117140834261 0.27732665952701641 0 0.23095623596381579 0.2876536505458 0 0.2255322572178127 0.27738204478537232 0 0.22942687348362151 0.26728355318502178 0 0.23621117140834261 0.27732665952701641 0 0.23621117140834261 0.27732665952701641 0 0.24818821145747599 0.27522177653690871 0 0.24090080429007341 0.26281353644332878 0 0.22942687348362151 0.26728355318502178 0 0.23621117140834261 0.27732665952701641 0 0.24090080429007341 0.26281353644332878 0 0.24818821145747599 0.27522177653690871 0 0.24090080429007341 0.26281353644332878 0 0.25530776412370298 0.26639583896058622 0 0.23995652529561701 0.25039133628829258 0 0.24090080429007341 0.26281353644332878 0 0.25404003316197471 0.25208422786308371 0 0.23169913173193779 0.25404958449575432 0 0.23995652529561701 0.25039133628829258 0 0.24090080429007341 0.26281353644332878 0 0.23765651747073049 0.31117848176507701 0 0.2454028482605469 0.29267792886045368 0 0.25114017462525878 0.31153615041935723 0 0.23765651747073049 0.31117848176507701 0 0.2454028482605469 0.29267792886045368 0 0.2283396740985745 0.30195705682751389 0 0.2454028482605469 0.29267792886045368 0 0.23095623596381579 0.2876536505458 0 0.2283396740985745 0.30195705682751389 0 0.23621117140834261 0.27732665952701641 0 0.24818821145747599 0.27522177653690871 0 0.2454028482605469 0.29267792886045368 0 0.23621117140834261 0.27732665952701641 0 0.2454028482605469 0.29267792886045368 0 0.23095623596381579 0.2876536505458 0 0.2255322572178127 0.27738204478537232 0 0.23095623596381579 0.2876536505458 0 0.21985426169801439 0.28935406669317137 0 0.23095623596381579 0.2876536505458 0 0.21985426169801439 0.28935406669317137 0 0.2283396740985745 0.30195705682751389 0 0.2283396740985745 0.30195705682751389 0 0.2184758680590754 0.31184724711422762 0 0.22801070301179061 0.32060690690137728 0 0.21985426169801439 0.28935406669317137 0 0.2283396740985745 0.30195705682751389 0 0.21670572119465931 0.30172893354768798 0 0.23765651747073049 0.31117848176507701 0 0.2283396740985745 0.30195705682751389 0 0.22801070301179061 0.32060690690137728 0 0.2283396740985745 0.30195705682751389 0 0.2184758680590754 0.31184724711422762 0 0.21670572119465931 0.30172893354768798 0 0.2184758680590754 0.31184724711422762 0 0.21670572119465931 0.30172893354768798 0 0.20632342479934371 0.30585855598863948 0 0.21670572119465931 0.30172893354768798 0 0.20632342479934371 0.30585855598863948 0 0.21141614329998781 0.29390938293380992 0 0.20632342479934371 0.30585855598863948 0 0.21141614329998781 0.29390938293380992 0 0.2042452804315445 0.29308429151921322 0 0.21559138507808229 0.27635001083075639 0 0.21985426169801439 0.28935406669317137 0 0.2104384150331686 0.28649738738125968 0 0.21985426169801439 0.28935406669317137 0 0.21141614329998781 0.29390938293380992 0 0.2104384150331686 0.28649738738125968 0 0.21985426169801439 0.28935406669317137 0 0.21670572119465931 0.30172893354768798 0 0.21141614329998781 0.29390938293380992 0 0.21141614329998781 0.29390938293380992 0 0.2042452804315445 0.29308429151921322 0 0.2104384150331686 0.28649738738125968 0 0.2042452804315445 0.29308429151921322 0 0.2104384150331686 0.28649738738125968 0 0.20037669147028589 0.28371892366973078 0 0.21559138507808229 0.27635001083075639 0 0.2104384150331686 0.28649738738125968 0 0.20037669147028589 0.28371892366973078 0 0.20212350544635149 0.27452240688285762 0 0.20037669147028589 0.28371892366973078 0 0.1898902111984884 0.29891268329407239 0 0.18677859260729601 0.28760164196875848 0 0.1917381003592612 0.28136787577326228 0 0.1898902111984884 0.29891268329407239 0 0.20037669147028589 0.28371892366973078 0 0.1976595376627992 0.29976589533378561 0 0.1898902111984884 0.29891268329407239 0 0.2042452804315445 0.29308429151921322 0 0.20037669147028589 0.28371892366973078 0 0.1976595376627992 0.29976589533378561 0 0.20212350544635149 0.27452240688285762 0 0.1898902111984884 0.29891268329407239 0 0.20212350544635149 0.27452240688285762 0 0.1917381003592612 0.28136787577326228 0 0.1898902111984884 0.29891268329407239 0 0.20037669147028589 0.28371892366973078 0 0.1898902111984884 0.29891268329407239 0 0.18677859260729601 0.28760164196875848 0 0.1849298445554361 0.28099903695767547 0 0.1917381003592612 0.28136787577326228 0 0.20632342479934371 0.30585855598863948 0 0.19412409721151189 0.30848045781950378 0 0.19635424873152091 0.31866253726922511 0 0.20632342479934371 0.30585855598863948 0 0.1976595376627992 0.29976589533378561 0 0.19412409721151189 0.30848045781950378 0 0.20632342479934371 0.30585855598863948 0 0.2042452804315445 0.29308429151921322 0 0.1976595376627992 0.29976589533378561 0 0.18371952992762389 0.30785332357736089 0 0.1976595376627992 0.29976589533378561 0 0.1898902111984884 0.29891268329407239 0 0.18371952992762389 0.30785332357736089 0 0.19412409721151189 0.30848045781950378 0 0.19635424873152091 0.31866253726922511 0 0.18371952992762389 0.30785332357736089 0 0.1976595376627992 0.29976589533378561 0 0.19412409721151189 0.30848045781950378 0 0.19635424873152091 0.31866253726922511 0 0.19329834396814641 0.33328399686629978 0 0.21150607161232149 0.3245036863190196 0 0.19635424873152091 0.31866253726922511 0 0.19329834396814641 0.33328399686629978 0 0.1818581672390053 0.32281790922797782 0 0.19329834396814641 0.33328399686629978 0 0.20841238186686439 0.34472105417207632 0 0.1876990638134575 0.35190483133425488 0 0.19329834396814641 0.33328399686629978 0 0.21150607161232149 0.3245036863190196 0 0.20841238186686439 0.34472105417207632 0 0.21150607161232149 0.3245036863190196 0 0.22736457019319431 0.33776348264759248 0 0.20841238186686439 0.34472105417207632 0 0.20632342479934371 0.30585855598863948 0 0.19635424873152091 0.31866253726922511 0 0.21150607161232149 0.3245036863190196 0 0.2184758680590754 0.31184724711422762 0 0.20632342479934371 0.30585855598863948 0 0.21150607161232149 0.3245036863190196 0 0.21150607161232149 0.3245036863190196 0 0.22801070301179061 0.32060690690137728 0 0.22736457019319431 0.33776348264759248 0 0.2184758680590754 0.31184724711422762 0 0.21150607161232149 0.3245036863190196 0 0.22801070301179061 0.32060690690137728 0 0.22801070301179061 0.32060690690137728 0 0.22736457019319431 0.33776348264759248 0 0.24490867605631639 0.32967072069511189 0 0.22736457019319431 0.33776348264759248 0 0.24490867605631639 0.32967072069511189 0 0.24521693247762111 0.35027114815259558 0 0.23765651747073049 0.31117848176507701 0 0.22801070301179061 0.32060690690137728 0 0.24490867605631639 0.32967072069511189 0 0.23765651747073049 0.31117848176507701 0 0.24490867605631639 0.32967072069511189 0 0.25114017462525878 0.31153615041935723 0 0.24305895760768401 0.36641304215893011 0 0.24521693247762111 0.35027114815259558 0 0.22613265613425179 0.35680737964537468 0 0.22736457019319431 0.33776348264759248 0 0.24521693247762111 0.35027114815259558 0 0.22613265613425179 0.35680737964537468 0 0.22736457019319431 0.33776348264759248 0 0.22613265613425179 0.35680737964537468 0 0.20841238186686439 0.34472105417207632 0 0.22613265613425179 0.35680737964537468 0 0.20200890290724041 0.36500873302905812 0 0.22860253219506471 0.37841014948266538 0 0.24305895760768401 0.36641304215893011 0 0.22613265613425179 0.35680737964537468 0 0.22860253219506471 0.37841014948266538 0 0.20200890290724041 0.36500873302905812 0 0.22860253219506471 0.37841014948266538 0 0.22613265613425179 0.35680737964537468 0 0.20841238186686439 0.34472105417207632 0 0.20200890290724041 0.36500873302905812 0 0.20841238186686439 0.34472105417207632 0 0.1876990638134575 0.35190483133425488 0 0.20200890290724041 0.36500873302905812 0 0.1876990638134575 0.35190483133425488 0 0.20200890290724041 0.36500873302905812 0 0.17637045729064621 0.37495278481954358 0 0.1876990638134575 0.35190483133425488 0 0.17637045729064621 0.37495278481954358 0 0.16909864488713719 0.35514267549568418 0 0.15975417249048229 0.36968310563447321 0 0.16909864488713719 0.35514267549568418 0 0.14990537096685039 0.36070173528474042 0 0.17637045729064621 0.37495278481954358 0 0.15975417249048229 0.36968310563447321 0 0.16909864488713719 0.35514267549568418 0 0.16909864488713719 0.35514267549568418 0 0.1770056519607103 0.33831974362286749 0 0.1619384281755652 0.34052596047808847 0 0.16909864488713719 0.35514267549568418 0 0.14990537096685039 0.36070173528474042 0 0.15416632756111201 0.34898696826244741 0 0.16909864488713719 0.35514267549568418 0 0.1619384281755652 0.34052596047808847 0 0.15416632756111201 0.34898696826244741 0 0.1876990638134575 0.35190483133425488 0 0.16909864488713719 0.35514267549568418 0 0.1770056519607103 0.33831974362286749 0 0.19329834396814641 0.33328399686629978 0 0.1770056519607103 0.33831974362286749 0 0.1818581672390053 0.32281790922797782 0 0.19329834396814641 0.33328399686629978 0 0.1876990638134575 0.35190483133425488 0 0.1770056519607103 0.33831974362286749 0 0.1770056519607103 0.33831974362286749 0 0.1818581672390053 0.32281790922797782 0 0.1657389141743941 0.32607447656151611 0 0.1818581672390053 0.32281790922797782 0 0.1707678241303611 0.31259989648156872 0 0.1657389141743941 0.32607447656151611 0 0.18371952992762389 0.30785332357736089 0 0.19635424873152091 0.31866253726922511 0 0.1818581672390053 0.32281790922797782 0 0.18371952992762389 0.30785332357736089 0 0.1818581672390053 0.32281790922797782 0 0.1707678241303611 0.31259989648156872 0 0.1707678241303611 0.31259989648156872 0 0.1657389141743941 0.32607447656151611 0 0.16084478468494731 0.31759224325908281 0 0.1657389141743941 0.32607447656151611 0 0.15632698434060879 0.32309477146443721 0 0.16084478468494731 0.31759224325908281 0 0.1657389141743941 0.32607447656151611 0 0.15632698434060879 0.32309477146443721 0 0.1534459738215358 0.33116830427909388 0 0.15847128754916129 0.30901971199088751 0 0.1707678241303611 0.31259989648156872 0 0.16084478468494731 0.31759224325908281 0 0.15847128754916129 0.30901971199088751 0 0.16084478468494731 0.31759224325908281 0 0.1531779528472626 0.31690967251270458 0 0.15632698434060879 0.32309477146443721 0 0.16084478468494731 0.31759224325908281 0 0.1531779528472626 0.31690967251270458 0 0.1770056519607103 0.33831974362286749 0 0.1657389141743941 0.32607447656151611 0 0.1619384281755652 0.34052596047808847 0 0.1657389141743941 0.32607447656151611 0 0.1619384281755652 0.34052596047808847 0 0.1534459738215358 0.33116830427909388 0 0.1619384281755652 0.34052596047808847 0 0.14537830609435001 0.34101383565047871 0 0.15416632756111201 0.34898696826244741 0 0.1619384281755652 0.34052596047808847 0 0.1534459738215358 0.33116830427909388 0 0.14537830609435001 0.34101383565047871 0 0.1534459738215358 0.33116830427909388 0 0.1427633336259623 0.33140140495610498 0 0.14842729617490411 0.32372916070978858 0 0.1534459738215358 0.33116830427909388 0 0.1427633336259623 0.33140140495610498 0 0.14537830609435001 0.34101383565047871 0 0.1427633336259623 0.33140140495610498 0 0.14537830609435001 0.34101383565047871 0 0.13654253772275141 0.33890423694427602 0 0.1483486037307668 0.31106151759990119 0 0.1531779528472626 0.31690967251270458 0 0.14487070829517959 0.31682928085866202 0 0.1531779528472626 0.31690967251270458 0 0.14842729617490411 0.32372916070978858 0 0.14487070829517959 0.31682928085866202 0 0.15632698434060879 0.32309477146443721 0 0.1534459738215358 0.33116830427909388 0 0.14842729617490411 0.32372916070978858 0 0.15632698434060879 0.32309477146443721 0 0.1531779528472626 0.31690967251270458 0 0.14842729617490411 0.32372916070978858 0 0.1427633336259623 0.33140140495610498 0 0.14842729617490411 0.32372916070978858 0 0.1402378637359267 0.32270884290342983 0 0.14842729617490411 0.32372916070978858 0 0.14487070829517959 0.31682928085866202 0 0.1402378637359267 0.32270884290342983 0 0.1483486037307668 0.31106151759990119 0 0.14130712994747449 0.31140798331507108 0 0.14487070829517959 0.31682928085866202 0 0.14130712994747449 0.31140798331507108 0 0.14487070829517959 0.31682928085866202 0 0.13528824775885559 0.3155805734405937 0 0.14487070829517959 0.31682928085866202 0 0.13528824775885559 0.3155805734405937 0 0.1402378637359267 0.32270884290342983 0 0.13528824775885559 0.3155805734405937 0 0.1330765722643745 0.32249408610517011 0 0.1402378637359267 0.32270884290342983 0 0.1330765722643745 0.32249408610517011 0 0.1402378637359267 0.32270884290342983 0 0.13309473665224339 0.33072661256584468 0 0.12375204985912221 0.32702725796552912 0 0.1330765722643745 0.32249408610517011 0 0.13309473665224339 0.33072661256584468 0 0.12375204985912221 0.32702725796552912 0 0.1330765722643745 0.32249408610517011 0 0.12817088130983889 0.317450689473041 0 0.13528824775885559 0.3155805734405937 0 0.1330765722643745 0.32249408610517011 0 0.12817088130983889 0.317450689473041 0 0.1214195525311879 0.31440901896845502 0 0.12900107104525951 0.30968741412501871 0 0.12817088130983889 0.317450689473041 0 0.12900107104525951 0.30968741412501871 0 0.13528824775885559 0.3155805734405937 0 0.12817088130983889 0.317450689473041 0 0.14537830609435001 0.34101383565047871 0 0.13654253772275141 0.33890423694427602 0 0.13685475473781181 0.34959577292381833 0 0.13654253772275141 0.33890423694427602 0 0.1260676383484185 0.3399282146226113 0 0.13685475473781181 0.34959577292381833 0 0.1427633336259623 0.33140140495610498 0 0.13654253772275141 0.33890423694427602 0 0.13309473665224339 0.33072661256584468 0 0.1427633336259623 0.33140140495610498 0 0.1402378637359267 0.32270884290342983 0 0.13309473665224339 0.33072661256584468 0 0.12375204985912221 0.32702725796552912 0 0.13309473665224339 0.33072661256584468 0 0.1260676383484185 0.3399282146226113 0 0.13654253772275141 0.33890423694427602 0 0.13309473665224339 0.33072661256584468 0 0.1260676383484185 0.3399282146226113 0 0.1232256624926347 0.35239419723674059 0 0.13685475473781181 0.34959577292381833 0 0.13271547193899449 0.36524458735671972 0 0.1232256624926347 0.35239419723674059 0 0.1260676383484185 0.3399282146226113 0 0.13685475473781181 0.34959577292381833 0 0.13685475473781181 0.34959577292381833 0 0.13271547193899449 0.36524458735671972 0 0.14990537096685039 0.36070173528474042 0 0.13271547193899449 0.36524458735671972 0 0.14727668153694909 0.37350977329143831 0 0.1384203385310763 0.3853027474406937 0 0.13271547193899449 0.36524458735671972 0 0.14727668153694909 0.37350977329143831 0 0.14990537096685039 0.36070173528474042 0 0.15975417249048229 0.36968310563447321 0 0.14727668153694909 0.37350977329143831 0 0.14990537096685039 0.36070173528474042 0 0.14537830609435001 0.34101383565047871 0 0.13685475473781181 0.34959577292381833 0 0.15416632756111201 0.34898696826244741 0 0.13685475473781181 0.34959577292381833 0 0.14990537096685039 0.36070173528474042 0 0.15416632756111201 0.34898696826244741 0 0.15196678808574959 0.39634912392256672 0 0.1402717845598023 0.40641241395674649 0 0.16129649351817349 0.40676751558544272 0 0.15196678808574959 0.39634912392256672 0 0.1384203385310763 0.3853027474406937 0 0.1402717845598023 0.40641241395674649 0 0.15196678808574959 0.39634912392256672 0 0.15611970777082879 0.38410855928095938 0 0.1384203385310763 0.3853027474406937 0 0.14727668153694909 0.37350977329143831 0 0.15611970777082879 0.38410855928095938 0 0.1384203385310763 0.3853027474406937 0 0.15975417249048229 0.36968310563447321 0 0.14727668153694909 0.37350977329143831 0 0.15611970777082879 0.38410855928095938 0 0.1231373165426977 0.3806134049577457 0 0.13271547193899449 0.36524458735671972 0 0.1384203385310763 0.3853027474406937 0 0.1231373165426977 0.3806134049577457 0 0.1384203385310763 0.3853027474406937 0 0.1271742827044339 0.39597619803598749 0 0.1384203385310763 0.3853027474406937 0 0.1271742827044339 0.39597619803598749 0 0.1402717845598023 0.40641241395674649 0 0.1162621503634904 0.41872732341568758 0 0.1271742827044339 0.39597619803598749 0 0.1402717845598023 0.40641241395674649 0 0.1162621503634904 0.41872732341568758 0 0.1402717845598023 0.40641241395674649 0 0.14380353536204241 0.43078456768362461 0 0.1162621503634904 0.41872732341568758 0 0.14380353536204241 0.43078456768362461 0 0.1205619018159948 0.44674810255646558 0 0.1162621503634904 0.41872732341568758 0 0.13914808732176639 0.43525501877606959 0 0.1162621503634904 0.41872732341568758 0 0.13914808732176639 0.43525501877606959 0 0.14380353536204241 0.43078456768362461 0 0.1402717845598023 0.40641241395674649 0 0.16129649351817349 0.40676751558544272 0 0.1583102357697074 0.42239552662274649 0 0.1402717845598023 0.40641241395674649 0 0.14380353536204241 0.43078456768362461 0 0.1583102357697074 0.42239552662274649 0 0.16129649351817349 0.40676751558544272 0 0.17483444504792359 0.42517132393635743 0 0.1767108048052333 0.40648620419478521 0 0.16129649351817349 0.40676751558544272 0 0.1583102357697074 0.42239552662274649 0 0.17483444504792359 0.42517132393635743 0 0.1583102357697074 0.42239552662274649 0 0.17483444504792359 0.42517132393635743 0 0.1713449203605947 0.44284181195156158 0 0.14380353536204241 0.43078456768362461 0 0.1713449203605947 0.44284181195156158 0 0.14380353536204241 0.43078456768362461 0 0.1583102357697074 0.42239552662274649 0 0.1713449203605947 0.44284181195156158 0 0.17483444504792359 0.42517132393635743 0 0.18216746451451801 0.43740730714955978 0 0.1713449203605947 0.44284181195156158 0 0.17483444504792359 0.42517132393635743 0 0.1713449203605947 0.44284181195156158 0 0.17483444504792359 0.42517132393635743 0 0.1894098998784805 0.41329321868770491 0 0.19020123220431809 0.42989189963497759 0 0.17483444504792359 0.42517132393635743 0 0.18216746451451801 0.43740730714955978 0 0.19020123220431809 0.42989189963497759 0 0.17483444504792359 0.42517132393635743 0 0.1767108048052333 0.40648620419478521 0 0.1894098998784805 0.41329321868770491 0 0.1767108048052333 0.40648620419478521 0 0.16971698500113649 0.39319336099264368 0 0.18829620058045249 0.39400560177177729 0 0.1767108048052333 0.40648620419478521 0 0.18829620058045249 0.39400560177177729 0 0.1894098998784805 0.41329321868770491 0 0.15196678808574959 0.39634912392256672 0 0.15611970777082879 0.38410855928095938 0 0.16971698500113649 0.39319336099264368 0 0.15196678808574959 0.39634912392256672 0 0.16129649351817349 0.40676751558544272 0 0.16971698500113649 0.39319336099264368 0 0.16129649351817349 0.40676751558544272 0 0.1767108048052333 0.40648620419478521 0 0.16971698500113649 0.39319336099264368 0 0.17637045729064621 0.37495278481954358 0 0.15975417249048229 0.36968310563447321 0 0.15611970777082879 0.38410855928095938 0 0.17637045729064621 0.37495278481954358 0 0.15611970777082879 0.38410855928095938 0 0.16971698500113649 0.39319336099264368 0 0.17637045729064621 0.37495278481954358 0 0.16971698500113649 0.39319336099264368 0 0.18829620058045249 0.39400560177177729 0 0.20200890290724041 0.36500873302905812 0 0.18829620058045249 0.39400560177177729 0 0.21022739730807871 0.38998636848418261 0 0.20200890290724041 0.36500873302905812 0 0.17637045729064621 0.37495278481954358 0 0.18829620058045249 0.39400560177177729 0 0.18829620058045249 0.39400560177177729 0 0.21022739730807871 0.38998636848418261 0 0.20498907662426999 0.40636669370009521 0 0.18829620058045249 0.39400560177177729 0 0.20498907662426999 0.40636669370009521 0 0.1894098998784805 0.41329321868770491 0 0.21022739730807871 0.38998636848418261 0 0.225418264115859 0.4045632601918206 0 0.20498907662426999 0.40636669370009521 0 0.20200890290724041 0.36500873302905812 0 0.21022739730807871 0.38998636848418261 0 0.22860253219506471 0.37841014948266538 0 0.21022739730807871 0.38998636848418261 0 0.22860253219506471 0.37841014948266538 0 0.225418264115859 0.4045632601918206 0 0.225418264115859 0.4045632601918206 0 0.2490748840761759 0.41447913741323361 0 0.25519616148288887 0.39181156593627298 0 0.22860253219506471 0.37841014948266538 0 0.225418264115859 0.4045632601918206 0 0.25519616148288887 0.39181156593627298 0 0.22860253219506471 0.37841014948266538 0 0.25519616148288887 0.39181156593627298 0 0.24305895760768401 0.36641304215893011 0 0.22860253219506471 0.37841014948266538 0 0.25519616148288887 0.39181156593627298 0 0.2490748840761759 0.41447913741323361 0 0.23040520055063371 0.42472223384156732 0 0.24517769652138269 0.43868647355565088 0 0.225418264115859 0.4045632601918206 0 0.2490748840761759 0.41447913741323361 0 0.23040520055063371 0.42472223384156732 0 0.225418264115859 0.4045632601918206 0 0.23040520055063371 0.42472223384156732 0 0.20794960100346549 0.42683021087399747 0 0.23040520055063371 0.42472223384156732 0 0.20794960100346549 0.42683021087399747 0 0.2229924843016429 0.43948176305630821 0 0.23040520055063371 0.42472223384156732 0 0.2229924843016429 0.43948176305630821 0 0.24517769652138269 0.43868647355565088 0 0.225418264115859 0.4045632601918206 0 0.20794960100346549 0.42683021087399747 0 0.20498907662426999 0.40636669370009521 0 0.20794960100346549 0.42683021087399747 0 0.20498907662426999 0.40636669370009521 0 0.1894098998784805 0.41329321868770491 0 0.20794960100346549 0.42683021087399747 0 0.19020123220431809 0.42989189963497759 0 0.19426067079655579 0.44330707928475449 0 0.20794960100346549 0.42683021087399747 0 0.1894098998784805 0.41329321868770491 0 0.19020123220431809 0.42989189963497759 0 0.18216746451451801 0.43740730714955978 0 0.19020123220431809 0.42989189963497759 0 0.19426067079655579 0.44330707928475449 0 0.19426067079655579 0.44330707928475449 0 0.1940681668251448 0.45640187690020761 0 0.18254949088188149 0.4477470207382499 0 0.19426067079655579 0.44330707928475449 0 0.1940681668251448 0.45640187690020761 0 0.20814429074563079 0.44944136850783811 0 0.1940681668251448 0.45640187690020761 0 0.20814429074563079 0.44944136850783811 0 0.2039949308663013 0.472197178379127 0 0.1940681668251448 0.45640187690020761 0 0.2039949308663013 0.472197178379127 0 0.18608081776579821 0.46867989557539208 0 0.1940681668251448 0.45640187690020761 0 0.18608081776579821 0.46867989557539208 0 0.18254949088188149 0.4477470207382499 0 0.20814429074563079 0.44944136850783811 0 0.22852149564367849 0.45772005811557609 0 0.2039949308663013 0.472197178379127 0 0.20794960100346549 0.42683021087399747 0 0.19426067079655579 0.44330707928475449 0 0.20814429074563079 0.44944136850783811 0 0.20794960100346549 0.42683021087399747 0 0.20814429074563079 0.44944136850783811 0 0.2229924843016429 0.43948176305630821 0 0.2229924843016429 0.43948176305630821 0 0.22852149564367849 0.45772005811557609 0 0.24517769652138269 0.43868647355565088 0 0.20814429074563079 0.44944136850783811 0 0.2229924843016429 0.43948176305630821 0 0.22852149564367849 0.45772005811557609 0 0.22852149564367849 0.45772005811557609 0 0.2480713074063006 0.45455858161591112 0 0.2508124586903176 0.47172026355836871 0 0.22852149564367849 0.45772005811557609 0 0.2480713074063006 0.45455858161591112 0 0.24517769652138269 0.43868647355565088 0 0.24658834009167641 0.5 0 0.2268462464291012 0.47913099520174052 0 0.2508124586903176 0.47172026355836871 0 0.22852149564367849 0.45772005811557609 0 0.2268462464291012 0.47913099520174052 0 0.2508124586903176 0.47172026355836871 0 0.22852149564367849 0.45772005811557609 0 0.2268462464291012 0.47913099520174052 0 0.2039949308663013 0.472197178379127 0 0.24658834009167641 0.5 0 0.2268462464291012 0.47913099520174052 0 0.21774471386125249 0.5 0 0.2039949308663013 0.472197178379127 0 0.18890108763082861 0.5 0 0.18608081776579821 0.46867989557539208 0 0.21774471386125249 0.5 0 0.2039949308663013 0.472197178379127 0 0.18890108763082861 0.5 0 0.2268462464291012 0.47913099520174052 0 0.21774471386125249 0.5 0 0.2039949308663013 0.472197178379127 0 0.18890108763082861 0.5 0 0.16570119088049859 0.47142090597577962 0 0.18608081776579821 0.46867989557539208 0 0.18890108763082861 0.5 0 0.1600574614004048 0.499999999999998 0 0.16570119088049859 0.47142090597577962 0 0.1600574614004048 0.499999999999998 0 0.16570119088049859 0.47142090597577962 0 0.1600574614004048 0.499999999999998 0 0.16570119088049859 0.47142090597577962 0 0.1473140710794911 0.47841155746419622 0 0.16570119088049859 0.47142090597577962 0 0.18608081776579821 0.46867989557539208 0 0.18254949088188149 0.4477470207382499 0 0.16570119088049859 0.47142090597577962 0 0.18254949088188149 0.4477470207382499 0 0.1713449203605947 0.44284181195156158 0 0.18216746451451801 0.43740730714955978 0 0.19426067079655579 0.44330707928475449 0 0.18254949088188149 0.4477470207382499 0 0.18254949088188149 0.4477470207382499 0 0.1713449203605947 0.44284181195156158 0 0.18216746451451801 0.43740730714955978 0 0.18254949088188149 0.4477470207382499 0 0.1713449203605947 0.44284181195156158 0 0.16570119088049859 0.47142090597577962 0 0.1713449203605947 0.44284181195156158 0 0.16570119088049859 0.47142090597577962 0 0.1713449203605947 0.44284181195156158 0 0.15076126992746861 0.45128164001408699 0 0.16570119088049859 0.47142090597577962 0 0.14979107830043681 0.4659705410046826 0 0.15076126992746861 0.45128164001408699 0 0.14979107830043681 0.4659705410046826 0 0.15076126992746861 0.45128164001408699 0 0.13538778131428869 0.46276806056466779 0 0.13914808732176639 0.43525501877606959 0 0.14380353536204241 0.43078456768362461 0 0.15076126992746861 0.45128164001408699 0 0.14380353536204241 0.43078456768362461 0 0.1713449203605947 0.44284181195156158 0 0.15076126992746861 0.45128164001408699 0 0.13914808732176639 0.43525501877606959 0 0.15076126992746861 0.45128164001408699 0 0.13538778131428869 0.46276806056466779 0 0.13914808732176639 0.43525501877606959 0 0.13538778131428869 0.46276806056466779 0 0.1205619018159948 0.44674810255646558 0 0.13914808732176639 0.43525501877606959 0 0.13538778131428869 0.46276806056466779 0 0.1248616532684987 0.47476888169724352 0 0.1205619018159948 0.44674810255646558 0 0.13538778131428869 0.46276806056466779 0 0.13538778131428869 0.46276806056466779 0 0.13162747530681079 0.49028110235326611 0 0.1248616532684987 0.47476888169724352 0 0.13538778131428869 0.46276806056466779 0 0.13162747530681079 0.49028110235326611 0 0.13538778131428869 0.46276806056466779 0 0.13162747530681079 0.49028110235326611 0 0.1473140710794911 0.47841155746419622 0 0.1248616532684987 0.47476888169724352 0 0.13162747530681079 0.49028110235326611 0 0.1248616532684987 0.47476888169724352 0 0.1287333349596296 0.50000000000000233 0 0.1248616532684987 0.47476888169724352 0 0.13162747530681079 0.49028110235326611 0 0.1287333349596296 0.50000000000000233 0 0.13162747530681079 0.49028110235326611 0 0.1302991587401483 0.50000000000000044 0 0.13162747530681079 0.49028110235326611 0 0.1302991587401483 0.50000000000000044 0 0.13586647714571501 0.50000000000000044 0 0.13162747530681079 0.49028110235326611 0 0.1287333349596296 0.50000000000000233 0 0.1302991587401483 0.50000000000000044 0 0.13162747530681079 0.49028110235326611 0 0.13586647714571501 0.50000000000000044 0 0.14406777576738011 0.49099847585001533 0 0.13162747530681079 0.49028110235326611 0 0.13586647714571501 0.50000000000000044 0 0.1600574614004048 0.499999999999998 0 0.13586647714571501 0.50000000000000044 0 0.14406777576738011 0.49099847585001533 0 0.1600574614004048 0.499999999999998 0 0.14406777576738011 0.49099847585001533 0 0.1473140710794911 0.47841155746419622 0 0.13162747530681079 0.49028110235326611 0 0.14406777576738011 0.49099847585001533 0 0.1473140710794911 0.47841155746419622 0 0.16570119088049859 0.47142090597577962 0 0.14979107830043681 0.4659705410046826 0 0.1473140710794911 0.47841155746419622 0 0.14979107830043681 0.4659705410046826 0 0.13538778131428869 0.46276806056466779 0 0.1473140710794911 0.47841155746419622 0 0.3484716028812469 0.46927922019571022 0 0.3639431844790027 0.47792576209206161 0 0.36215729707138089 0.45952194433731441 0 0.3484716028812469 0.46927922019571022 0 0.34825454286986979 0.4866410253547736 0 0.3639431844790027 0.47792576209206161 0 0.34825454286986979 0.4866410253547736 0 0.36196284501337178 0.5 0 0.3639431844790027 0.47792576209206161 0 0.34825454286986979 0.4866410253547736 0 0.36196284501337178 0.5 0 0.33311921878294798 0.5 0 0.36196284501337178 0.5 0 0.3639431844790027 0.47792576209206161 0 0.38120033573297152 0.48442634992442057 0 0.3639431844790027 0.47792576209206161 0 0.37844435483634198 0.4675903904274426 0 0.38120033573297152 0.48442634992442057 0 0.3639431844790027 0.47792576209206161 0 0.36215729707138089 0.45952194433731441 0 0.37844435483634198 0.4675903904274426 0 0.36215729707138089 0.45952194433731441 0 0.37809165231809289 0.44568724501072521 0 0.37844435483634198 0.4675903904274426 0 0.36215729707138089 0.45952194433731441 0 0.35494335133579169 0.44207750056399991 0 0.37809165231809289 0.44568724501072521 0 0.35494335133579169 0.44207750056399991 0 0.365542703577178 0.42914551292816783 0 0.37809165231809289 0.44568724501072521 0 0.35494335133579169 0.44207750056399991 0 0.33746945485668051 0.4332718215327816 0 0.35494335133579169 0.44207750056399991 0 0.33933393763431879 0.44574212964051668 0 0.33746945485668051 0.4332718215327816 0 0.36215729707138089 0.45952194433731441 0 0.35494335133579169 0.44207750056399991 0 0.34904963657780902 0.45457154773394731 0 0.35494335133579169 0.44207750056399991 0 0.34904963657780902 0.45457154773394731 0 0.33933393763431879 0.44574212964051668 0 0.3484716028812469 0.46927922019571022 0 0.36215729707138089 0.45952194433731441 0 0.34904963657780902 0.45457154773394731 0 0.3484716028812469 0.46927922019571022 0 0.34904963657780902 0.45457154773394731 0 0.33768006752307722 0.45817683321967928 0 0.33768006752307722 0.45817683321967928 0 0.32516604183334019 0.44948070643492349 0 0.3263791186886712 0.4718105620932988 0 0.3484716028812469 0.46927922019571022 0 0.33768006752307722 0.45817683321967928 0 0.3263791186886712 0.4718105620932988 0 0.33933393763431879 0.44574212964051668 0 0.32516604183334019 0.44948070643492349 0 0.33457771181584611 0.43369686048393857 0 0.32516604183334019 0.44948070643492349 0 0.33457771181584611 0.43369686048393857 0 0.33933393763431879 0.44574212964051668 0 0.33457771181584611 0.43369686048393857 0 0.33746945485668051 0.4332718215327816 0 0.34904963657780902 0.45457154773394731 0 0.33768006752307722 0.45817683321967928 0 0.33933393763431879 0.44574212964051668 0 0.33768006752307722 0.45817683321967928 0 0.33933393763431879 0.44574212964051668 0 0.32516604183334019 0.44948070643492349 0 0.32516604183334019 0.44948070643492349 0 0.30610823095482448 0.43788140873538328 0 0.33457771181584611 0.43369686048393857 0 0.32516604183334019 0.44948070643492349 0 0.30909376894118562 0.45443190325323968 0 0.30610823095482448 0.43788140873538328 0 0.32516604183334019 0.44948070643492349 0 0.3263791186886712 0.4718105620932988 0 0.30909376894118562 0.45443190325323968 0 0.3263791186886712 0.4718105620932988 0 0.30059931196992168 0.47005809262963882 0 0.31153103284441203 0.48323920778459489 0 0.3484716028812469 0.46927922019571022 0 0.34825454286986979 0.4866410253547736 0 0.3263791186886712 0.4718105620932988 0 0.34825454286986979 0.4866410253547736 0 0.3263791186886712 0.4718105620932988 0 0.33311921878294798 0.5 0 0.3263791186886712 0.4718105620932988 0 0.33311921878294798 0.5 0 0.31153103284441203 0.48323920778459489 0 0.33311921878294798 0.5 0 0.30427559255252412 0.5 0 0.31153103284441203 0.48323920778459489 0 0.30427559255252412 0.5 0 0.31153103284441203 0.48323920778459489 0 0.29110307967174748 0.48580921065493432 0 0.30059931196992168 0.47005809262963882 0 0.31153103284441203 0.48323920778459489 0 0.29110307967174748 0.48580921065493432 0 0.30059931196992168 0.47005809262963882 0 0.29110307967174748 0.48580921065493432 0 0.27585954767988607 0.47408041721782612 0 0.30427559255252412 0.5 0 0.29110307967174748 0.48580921065493432 0 0.27543196632210021 0.5 0 0.27543196632210021 0.5 0 0.27585954767988607 0.47408041721782612 0 0.26198527678341299 0.48673919500437729 0 0.29110307967174748 0.48580921065493432 0 0.27543196632210021 0.5 0 0.27585954767988607 0.47408041721782612 0 0.27585954767988607 0.47408041721782612 0 0.2508124586903176 0.47172026355836871 0 0.26198527678341299 0.48673919500437729 0 0.24658834009167641 0.5 0 0.2508124586903176 0.47172026355836871 0 0.26198527678341299 0.48673919500437729 0 0.24658834009167641 0.5 0 0.27543196632210021 0.5 0 0.26198527678341299 0.48673919500437729 0 0.2480713074063006 0.45455858161591112 0 0.24517769652138269 0.43868647355565088 0 0.26777357876982372 0.45010753123404867 0 0.24517769652138269 0.43868647355565088 0 0.26777357876982372 0.45010753123404867 0 0.26600993858745892 0.42808938636359573 0 0.2480713074063006 0.45455858161591112 0 0.2508124586903176 0.47172026355836871 0 0.26777357876982372 0.45010753123404867 0 0.27585954767988607 0.47408041721782612 0 0.2508124586903176 0.47172026355836871 0 0.26777357876982372 0.45010753123404867 0 0.27585954767988607 0.47408041721782612 0 0.26777357876982372 0.45010753123404867 0 0.28975077836376328 0.45156795454144122 0 0.26777357876982372 0.45010753123404867 0 0.28975077836376328 0.45156795454144122 0 0.28607917402868899 0.43188291486824332 0 0.28975077836376328 0.45156795454144122 0 0.30610823095482448 0.43788140873538328 0 0.28607917402868899 0.43188291486824332 0 0.30059931196992168 0.47005809262963882 0 0.27585954767988607 0.47408041721782612 0 0.28975077836376328 0.45156795454144122 0 0.3263791186886712 0.4718105620932988 0 0.30059931196992168 0.47005809262963882 0 0.30909376894118562 0.45443190325323968 0 0.30059931196992168 0.47005809262963882 0 0.28975077836376328 0.45156795454144122 0 0.30909376894118562 0.45443190325323968 0 0.28975077836376328 0.45156795454144122 0 0.30909376894118562 0.45443190325323968 0 0.30610823095482448 0.43788140873538328 0 0.30610823095482448 0.43788140873538328 0 0.30869255759955722 0.41877018355733042 0 0.28607917402868899 0.43188291486824332 0 0.3075810200549029 0.4073564129674252 0 0.30869255759955722 0.41877018355733042 0 0.30232024370737348 0.40459188745546998 0 0.31142364564813352 0.41093370315849659 0 0.3075810200549029 0.4073564129674252 0 0.31015955469665918 0.40201373970895371 0 0.31142364564813352 0.41093370315849659 0 0.3075810200549029 0.4073564129674252 0 0.30869255759955722 0.41877018355733042 0 0.30869255759955722 0.41877018355733042 0 0.29605666041485018 0.40551048050067168 0 0.30232024370737348 0.40459188745546998 0 0.30869255759955722 0.41877018355733042 0 0.2819443595412231 0.40529087474680159 0 0.30869255759955722 0.41877018355733042 0 0.2819443595412231 0.40529087474680159 0 0.29605666041485018 0.40551048050067168 0 0.30869255759955722 0.41877018355733042 0 0.28607917402868899 0.43188291486824332 0 0.2819443595412231 0.40529087474680159 0 0.2490748840761759 0.41447913741323361 0 0.26600993858745892 0.42808938636359573 0 0.2819443595412231 0.40529087474680159 0 0.26777357876982372 0.45010753123404867 0 0.28607917402868899 0.43188291486824332 0 0.26600993858745892 0.42808938636359573 0 0.28607917402868899 0.43188291486824332 0 0.26600993858745892 0.42808938636359573 0 0.2819443595412231 0.40529087474680159 0 0.2490748840761759 0.41447913741323361 0 0.24517769652138269 0.43868647355565088 0 0.26600993858745892 0.42808938636359573 0 0.2490748840761759 0.41447913741323361 0 0.25519616148288887 0.39181156593627298 0 0.2819443595412231 0.40529087474680159 0 0.25519616148288887 0.39181156593627298 0 0.2618259464583832 0.36726095095448358 0 0.25519616148288887 0.39181156593627298 0 0.27405714121884811 0.38409687161834088 0 0.2618259464583832 0.36726095095448358 0 0.24305895760768401 0.36641304215893011 0 0.25519616148288887 0.39181156593627298 0 0.2618259464583832 0.36726095095448358 0 0.2490748840761759 0.41447913741323361 0 0.25519616148288887 0.39181156593627298 0 0.27405714121884811 0.38409687161834088 0 0.2819443595412231 0.40529087474680159 0 0.28762179706039948 0.39125587461843808 0 0.25519616148288887 0.39181156593627298 0 0.2819443595412231 0.40529087474680159 0 0.25519616148288887 0.39181156593627298 0 0.27405714121884811 0.38409687161834088 0 0.2819443595412231 0.40529087474680159 0 0.27405714121884811 0.38409687161834088 0 0.28403056220722062 0.37531448917755911 0 0.2737626695690904 0.37327007608818358 0 0.27405714121884811 0.38409687161834088 0 0.28403056220722062 0.37531448917755911 0 0.28762179706039948 0.39125587461843808 0 0.29405085274881382 0.37834813740539031 0 0.28762179706039948 0.39125587461843808 0 0.30049862001061489 0.39881078008944609 0 0.28403056220722062 0.37531448917755911 0 0.29405085274881382 0.37834813740539031 0 0.28762179706039948 0.39125587461843808 0 0.2819443595412231 0.40529087474680159 0 0.28762179706039948 0.39125587461843808 0 0.29316512877403511 0.40022580951085568 0 0.28762179706039948 0.39125587461843808 0 0.29316512877403511 0.40022580951085568 0 0.30049862001061489 0.39881078008944609 0 0.2819443595412231 0.40529087474680159 0 0.29316512877403511 0.40022580951085568 0 0.29605666041485018 0.40551048050067168 0 0.29316512877403511 0.40022580951085568 0 0.29605666041485018 0.40551048050067168 0 0.30042223720462058 0.4004666581126537 0 0.29605666041485018 0.40551048050067168 0 0.30232024370737348 0.40459188745546998 0 0.30042223720462058 0.4004666581126537 0 0.29316512877403511 0.40022580951085568 0 0.30042223720462058 0.4004666581126537 0 0.30049862001061489 0.39881078008944609 0 0.30042223720462058 0.4004666581126537 0 0.30049862001061489 0.39881078008944609 0 0.30232024370737348 0.40459188745546998 0 0.30049862001061489 0.39881078008944609 0 0.30232024370737348 0.40459188745546998 0 0.30049862001061489 0.39881078008944609 0 0.30430913302558388 0.40020258685778032 0 0.30232024370737348 0.40459188745546998 0 0.30042223720462058 0.4004666581126537 0 0.30049862001061489 0.39881078008944609 0 0.30049862001061489 0.39881078008944609 0 0.30098622665836988 0.38824011406760628 0 0.30049862001061489 0.39881078008944609 0 0.30430913302558388 0.40020258685778032 0 0.30098622665836988 0.38824011406760628 0 0.30098622665836988 0.38824011406760628 0 0.30110064445947421 0.38575968774854158 0 0.31262554991773928 0.39787599139405988 0 0.31015955469665918 0.40201373970895371 0 0.30098622665836988 0.38824011406760628 0 0.30110064445947421 0.38575968774854158 0 0.31262554991773928 0.39787599139405988 0 0.30430913302558388 0.40020258685778032 0 0.31015955469665918 0.40201373970895371 0 0.30098622665836988 0.38824011406760628 0 0.31015955469665918 0.40201373970895371 0 0.30098622665836988 0.38824011406760628 0 0.31262554991773928 0.39787599139405988 0 0.3075810200549029 0.4073564129674252 0 0.30232024370737348 0.40459188745546998 0 0.30430913302558388 0.40020258685778032 0 0.3075810200549029 0.4073564129674252 0 0.30430913302558388 0.40020258685778032 0 0.31015955469665918 0.40201373970895371 0 0.29405085274881382 0.37834813740539031 0 0.30049862001061489 0.39881078008944609 0 0.29405085274881382 0.37834813740539031 0 0.30049862001061489 0.39881078008944609 0 0.30098622665836988 0.38824011406760628 0 0.30110064445947421 0.38575968774854158 0 0.30177514978199971 0.3711373061071076 0 0.30110064445947421 0.38575968774854158 0 0.3104817065657739 0.3858680532317833 0 0.30177514978199971 0.3711373061071076 0 0.29405085274881382 0.37834813740539031 0 0.30110064445947421 0.38575968774854158 0 0.30177514978199971 0.3711373061071076 0 0.29405085274881382 0.37834813740539031 0 0.30110064445947421 0.38575968774854158 0 0.29405085274881382 0.37834813740539031 0 0.30098622665836988 0.38824011406760628 0 0.30110064445947421 0.38575968774854158 0 0.29405085274881382 0.37834813740539031 0 0.30098622665836988 0.38824011406760628 0 0.30098622665836988 0.38824011406760628 0 0.30110064445947421 0.38575968774854158 0 0.30110064445947421 0.38575968774854158 0 0.3104817065657739 0.3858680532317833 0 0.31262554991773928 0.39787599139405988 0 0.3104817065657739 0.3858680532317833 0 0.30177514978199971 0.3711373061071076 0 0.3104817065657739 0.3858680532317833 0 0.31717345926189522 0.3709258031848055 0 0.30177514978199971 0.3711373061071076 0 0.3104817065657739 0.3858680532317833 0 0.3376156911696272 0.37620073599141618 0 0.3104817065657739 0.3858680532317833 0 0.3376156911696272 0.37620073599141618 0 0.31717345926189522 0.3709258031848055 0 0.3104817065657739 0.3858680532317833 0 0.3376156911696272 0.37620073599141618 0 0.3351802944883514 0.39738750443412002 0 0.3376156911696272 0.37620073599141618 0 0.3351802944883514 0.39738750443412002 0 0.34879159400795012 0.38769315231290841 0 0.3351802944883514 0.39738750443412002 0 0.33658962428999861 0.41133204962483783 0 0.34988972217452752 0.40801784569160632 0 0.3351802944883514 0.39738750443412002 0 0.32415045537600512 0.40999229503957763 0 0.33658962428999861 0.41133204962483783 0 0.3351802944883514 0.39738750443412002 0 0.31909953512109351 0.40044867980609039 0 0.32415045537600512 0.40999229503957763 0 0.3104817065657739 0.3858680532317833 0 0.3351802944883514 0.39738750443412002 0 0.31909953512109351 0.40044867980609039 0 0.3104817065657739 0.3858680532317833 0 0.31909953512109351 0.40044867980609039 0 0.3104817065657739 0.3858680532317833 0 0.31262554991773928 0.39787599139405988 0 0.31909953512109351 0.40044867980609039 0 0.31262554991773928 0.39787599139405988 0 0.32415045537600512 0.40999229503957763 0 0.31015955469665918 0.40201373970895371 0 0.31262554991773928 0.39787599139405988 0 0.32415045537600512 0.40999229503957763 0 0.31262554991773928 0.39787599139405988 0 0.31909953512109351 0.40044867980609039 0 0.32415045537600512 0.40999229503957763 0 0.31015955469665918 0.40201373970895371 0 0.31933288273494848 0.41578736535030097 0 0.32415045537600512 0.40999229503957763 0 0.31142364564813352 0.41093370315849659 0 0.31015955469665918 0.40201373970895371 0 0.31933288273494848 0.41578736535030097 0 0.30869255759955722 0.41877018355733042 0 0.31933288273494848 0.41578736535030097 0 0.32906281765607392 0.42006619542527468 0 0.31015955469665918 0.40201373970895371 0 0.31933288273494848 0.41578736535030097 0 0.31142364564813352 0.41093370315849659 0 0.30869255759955722 0.41877018355733042 0 0.31933288273494848 0.41578736535030097 0 0.31933288273494848 0.41578736535030097 0 0.32415045537600512 0.40999229503957763 0 0.32906281765607392 0.42006619542527468 0 0.30869255759955722 0.41877018355733042 0 0.33457771181584611 0.43369686048393857 0 0.33544075565789128 0.43224949236785898 0 0.30869255759955722 0.41877018355733042 0 0.33544075565789128 0.43224949236785898 0 0.30610823095482448 0.43788140873538328 0 0.30869255759955722 0.41877018355733042 0 0.33457771181584611 0.43369686048393857 0 0.30869255759955722 0.41877018355733042 0 0.33544075565789128 0.43224949236785898 0 0.32906281765607392 0.42006619542527468 0 0.30610823095482448 0.43788140873538328 0 0.33457771181584611 0.43369686048393857 0 0.33457771181584611 0.43369686048393857 0 0.33544075565789128 0.43224949236785898 0 0.33746945485668051 0.4332718215327816 0 0.33457771181584611 0.43369686048393857 0 0.33544075565789128 0.43224949236785898 0 0.33544075565789128 0.43224949236785898 0 0.33746945485668051 0.4332718215327816 0 0.35001853239939229 0.42365555934674631 0 0.33544075565789128 0.43224949236785898 0 0.33746945485668051 0.4332718215327816 0 0.33457771181584611 0.43369686048393857 0 0.33746945485668051 0.4332718215327816 0 0.33544075565789128 0.43224949236785898 0 0.33658962428999861 0.41133204962483783 0 0.34988972217452752 0.40801784569160632 0 0.33544075565789128 0.43224949236785898 0 0.32906281765607392 0.42006619542527468 0 0.33658962428999861 0.41133204962483783 0 0.33544075565789128 0.43224949236785898 0 0.34988972217452752 0.40801784569160632 0 0.32415045537600512 0.40999229503957763 0 0.32906281765607392 0.42006619542527468 0 0.33658962428999861 0.41133204962483783 0 0.33544075565789128 0.43224949236785898 0 0.34988972217452752 0.40801784569160632 0 0.35001853239939229 0.42365555934674631 0 0.34988972217452752 0.40801784569160632 0 0.36165970526353591 0.41519797525725338 0 0.36412400085156282 0.39702719229323191 0 0.34988972217452752 0.40801784569160632 0 0.35001853239939229 0.42365555934674631 0 0.36165970526353591 0.41519797525725338 0 0.35494335133579169 0.44207750056399991 0 0.33746945485668051 0.4332718215327816 0 0.365542703577178 0.42914551292816783 0 0.33746945485668051 0.4332718215327816 0 0.35001853239939229 0.42365555934674631 0 0.365542703577178 0.42914551292816783 0 0.33746945485668051 0.4332718215327816 0 0.365542703577178 0.42914551292816783 0 0.35001853239939229 0.42365555934674631 0 0.365542703577178 0.42914551292816783 0 0.36165970526353591 0.41519797525725338 0 0.365542703577178 0.42914551292816783 0 0.36165970526353591 0.41519797525725338 0 0.37744029411777058 0.41252948965876268 0 0.36165970526353591 0.41519797525725338 0 0.36412400085156282 0.39702719229323191 0 0.37744029411777058 0.41252948965876268 0 0.36412400085156282 0.39702719229323191 0 0.38026367080056678 0.39066664182047522 0 0.37744029411777058 0.41252948965876268 0 0.34988972217452752 0.40801784569160632 0 0.36412400085156282 0.39702719229323191 0 0.36433868869116592 0.38378619901535488 0 0.36433868869116592 0.38378619901535488 0 0.3773824667175657 0.37546563606013739 0 0.38026367080056678 0.39066664182047522 0 0.36433868869116592 0.38378619901535488 0 0.36474967577348072 0.36653341875104961 0 0.3773824667175657 0.37546563606013739 0 0.36412400085156282 0.39702719229323191 0 0.36433868869116592 0.38378619901535488 0 0.38026367080056678 0.39066664182047522 0 0.36433868869116592 0.38378619901535488 0 0.36474967577348072 0.36653341875104961 0 0.36412400085156282 0.39702719229323191 0 0.36433868869116592 0.38378619901535488 0 0.3376156911696272 0.37620073599141618 0 0.34879159400795012 0.38769315231290841 0 0.36474967577348072 0.36653341875104961 0 0.36433868869116592 0.38378619901535488 0 0.34879159400795012 0.38769315231290841 0 0.36474967577348072 0.36653341875104961 0 0.3351802944883514 0.39738750443412002 0 0.34988972217452752 0.40801784569160632 0 0.34879159400795012 0.38769315231290841 0 0.34988972217452752 0.40801784569160632 0 0.36433868869116592 0.38378619901535488 0 0.34988972217452752 0.40801784569160632 0 0.36433868869116592 0.38378619901535488 0 0.34879159400795012 0.38769315231290841 0 0.34699100967064078 0.35539672769273539 0 0.36474967577348072 0.36653341875104961 0 0.36518945593320651 0.34509967395937191 0 0.34699100967064078 0.35539672769273539 0 0.36518945593320651 0.34509967395937191 0 0.348137396692076 0.34077307725183559 0 0.3376156911696272 0.37620073599141618 0 0.34699100967064078 0.35539672769273539 0 0.36474967577348072 0.36653341875104961 0 0.3376156911696272 0.37620073599141618 0 0.36474967577348072 0.36653341875104961 0 0.36474967577348072 0.36653341875104961 0 0.36518945593320651 0.34509967395937191 0 0.36474967577348072 0.36653341875104961 0 0.36518945593320651 0.34509967395937191 0 0.3855881021147175 0.35910908792858098 0 0.36518945593320651 0.34509967395937191 0 0.36562923609293069 0.32366592916769399 0 0.36518945593320651 0.34509967395937191 0 0.36562923609293069 0.32366592916769399 0 0.348137396692076 0.34077307725183559 0 0.36518945593320651 0.34509967395937191 0 0.36562923609293069 0.32366592916769399 0 0.38128435600444488 0.32837669887387311 0 0.36562923609293069 0.32366592916769399 0 0.36606901625265492 0.30223218437601618 0 0.38242981621443428 0.31397380775534678 0 0.36562923609293069 0.32366592916769399 0 0.36606901625265492 0.30223218437601618 0 0.36562923609293069 0.32366592916769399 0 0.34238706329751362 0.32476320095938682 0 0.35183379698966949 0.31056891257481539 0 0.36562923609293069 0.32366592916769399 0 0.348137396692076 0.34077307725183559 0 0.34238706329751362 0.32476320095938682 0 0.348137396692076 0.34077307725183559 0 0.33072504187423118 0.34237289876026822 0 0.34238706329751362 0.32476320095938682 0 0.33072504187423118 0.34237289876026822 0 0.34238706329751362 0.32476320095938682 0 0.32122702449841589 0.32177081607522939 0 0.34238706329751362 0.32476320095938682 0 0.33644502425256478 0.30910566618648461 0 0.35183379698966949 0.31056891257481539 0 0.34238706329751362 0.32476320095938682 0 0.32122702449841589 0.32177081607522939 0 0.33644502425256478 0.30910566618648461 0 0.32122702449841589 0.32177081607522939 0 0.31445651652981632 0.33878768779705848 0 0.30372390616191358 0.32889084998335888 0 0.33072504187423118 0.34237289876026822 0 0.32122702449841589 0.32177081607522939 0 0.31445651652981632 0.33878768779705848 0 0.33072504187423118 0.34237289876026822 0 0.31445651652981632 0.33878768779705848 0 0.31594857135045817 0.35062531106266931 0 0.33072504187423118 0.34237289876026822 0 0.31594857135045817 0.35062531106266931 0 0.32442852787466708 0.36030442639367111 0 0.31594857135045817 0.35062531106266931 0 0.32442852787466708 0.36030442639367111 0 0.31156622091740832 0.36111849420004938 0 0.34699100967064078 0.35539672769273539 0 0.348137396692076 0.34077307725183559 0 0.33072504187423118 0.34237289876026822 0 0.34699100967064078 0.35539672769273539 0 0.33072504187423118 0.34237289876026822 0 0.32442852787466708 0.36030442639367111 0 0.3376156911696272 0.37620073599141618 0 0.34699100967064078 0.35539672769273539 0 0.32442852787466708 0.36030442639367111 0 0.3376156911696272 0.37620073599141618 0 0.32442852787466708 0.36030442639367111 0 0.31717345926189522 0.3709258031848055 0 0.32442852787466708 0.36030442639367111 0 0.31717345926189522 0.3709258031848055 0 0.31156622091740832 0.36111849420004938 0 0.30177514978199971 0.3711373061071076 0 0.30274952797195698 0.35001407804523332 0 0.31717345926189522 0.3709258031848055 0 0.31156622091740832 0.36111849420004938 0 0.30177514978199971 0.3711373061071076 0 0.31156622091740832 0.36111849420004938 0 0.30177514978199971 0.3711373061071076 0 0.30274952797195698 0.35001407804523332 0 0.30177514978199971 0.3711373061071076 0 0.30274952797195698 0.35001407804523332 0 0.29106955940472562 0.3530243656434488 0 0.31445651652981632 0.33878768779705848 0 0.31594857135045817 0.35062531106266931 0 0.30274952797195698 0.35001407804523332 0 0.31594857135045817 0.35062531106266931 0 0.31156622091740832 0.36111849420004938 0 0.30274952797195698 0.35001407804523332 0 0.29106955940472562 0.3530243656434488 0 0.28705150305193838 0.35613499197806497 0 0.28036396902745148 0.33491142517978989 0 0.28705150305193838 0.35613499197806497 0 0.28036396902745148 0.33491142517978989 0 0.28705150305193838 0.35613499197806497 0 0.27644360280618341 0.34191623842927221 0 0.28036396902745148 0.33491142517978989 0 0.29106955940472562 0.3530243656434488 0 0.28036396902745148 0.33491142517978989 0 0.30274952797195698 0.35001407804523332 0 0.29106955940472562 0.3530243656434488 0 0.29374099595638509 0.3392252011883215 0 0.28705150305193838 0.35613499197806497 0 0.28458867991473008 0.36361942358965982 0 0.27543832275303448 0.34988028840297991 0 0.29405085274881382 0.37834813740539031 0 0.28705150305193838 0.35613499197806497 0 0.28458867991473008 0.36361942358965982 0 0.29405085274881382 0.37834813740539031 0 0.28705150305193838 0.35613499197806497 0 0.30177514978199971 0.3711373061071076 0 0.29106955940472562 0.3530243656434488 0 0.29405085274881382 0.37834813740539031 0 0.30177514978199971 0.3711373061071076 0 0.28705150305193838 0.35613499197806497 0 0.30177514978199971 0.3711373061071076 0 0.29106955940472562 0.3530243656434488 0 0.28705150305193838 0.35613499197806497 0 0.29405085274881382 0.37834813740539031 0 0.28458867991473008 0.36361942358965982 0 0.28403056220722062 0.37531448917755911 0 0.2815017213106239 0.3651550498314205 0 0.27898286169525299 0.37041503512408969 0 0.29405085274881382 0.37834813740539031 0 0.2815017213106239 0.3651550498314205 0 0.28403056220722062 0.37531448917755911 0 0.29405085274881382 0.37834813740539031 0 0.2815017213106239 0.3651550498314205 0 0.29405085274881382 0.37834813740539031 0 0.28458867991473008 0.36361942358965982 0 0.2815017213106239 0.3651550498314205 0 0.28403056220722062 0.37531448917755911 0 0.27898286169525299 0.37041503512408969 0 0.2737626695690904 0.37327007608818358 0 0.27663649369407689 0.36792052539919551 0 0.2737626695690904 0.37327007608818358 0 0.27125000512352843 0.36234153133647429 0 0.27405714121884811 0.38409687161834088 0 0.2737626695690904 0.37327007608818358 0 0.2618259464583832 0.36726095095448358 0 0.2815017213106239 0.3651550498314205 0 0.27898286169525299 0.37041503512408969 0 0.27663649369407689 0.36792052539919551 0 0.27898286169525299 0.37041503512408969 0 0.27663649369407689 0.36792052539919551 0 0.2737626695690904 0.37327007608818358 0 0.2737626695690904 0.37327007608818358 0 0.27125000512352843 0.36234153133647429 0 0.2618259464583832 0.36726095095448358 0 0.27125000512352843 0.36234153133647429 0 0.26895258987243392 0.3519619622574508 0 0.2618259464583832 0.36726095095448358 0 0.2815017213106239 0.3651550498314205 0 0.27125000512352843 0.36234153133647429 0 0.26895258987243392 0.3519619622574508 0 0.2815017213106239 0.3651550498314205 0 0.27663649369407689 0.36792052539919551 0 0.27125000512352843 0.36234153133647429 0 0.28458867991473008 0.36361942358965982 0 0.2815017213106239 0.3651550498314205 0 0.27543832275303448 0.34988028840297991 0 0.2815017213106239 0.3651550498314205 0 0.26895258987243392 0.3519619622574508 0 0.28458867991473008 0.36361942358965982 0 0.27543832275303448 0.34988028840297991 0 0.26895258987243392 0.3519619622574508 0 0.2618259464583832 0.36726095095448358 0 0.2684557314338783 0.34271033597269462 0 0.2815017213106239 0.3651550498314205 0 0.27543832275303448 0.34988028840297991 0 0.26895258987243392 0.3519619622574508 0 0.28705150305193838 0.35613499197806497 0 0.27543832275303448 0.34988028840297991 0 0.27644360280618341 0.34191623842927221 0 0.27543832275303448 0.34988028840297991 0 0.2684557314338783 0.34271033597269462 0 0.27644360280618341 0.34191623842927221 0 0.27543832275303448 0.34988028840297991 0 0.26895258987243392 0.3519619622574508 0 0.2684557314338783 0.34271033597269462 0 0.2618259464583832 0.36726095095448358 0 0.2684557314338783 0.34271033597269462 0 0.24521693247762111 0.35027114815259558 0 0.2618259464583832 0.36726095095448358 0 0.2684557314338783 0.34271033597269462 0 0.24305895760768401 0.36641304215893011 0 0.24521693247762111 0.35027114815259558 0 0.2618259464583832 0.36726095095448358 0 0.24490867605631639 0.32967072069511189 0 0.26050839607327853 0.32387463406168998 0 0.25114017462525878 0.31153615041935723 0 0.26050839607327853 0.32387463406168998 0 0.25114017462525878 0.31153615041935723 0 0.26342424027676908 0.31148804944983333 0 0.24490867605631639 0.32967072069511189 0 0.26050839607327853 0.32387463406168998 0 0.2684557314338783 0.34271033597269462 0 0.24490867605631639 0.32967072069511189 0 0.24521693247762111 0.35027114815259558 0 0.2684557314338783 0.34271033597269462 0 0.26050839607327853 0.32387463406168998 0 0.2684557314338783 0.34271033597269462 0 0.27508551640937329 0.31815972099090539 0 0.2684557314338783 0.34271033597269462 0 0.27508551640937329 0.31815972099090539 0 0.2684557314338783 0.34271033597269462 0 0.27787730485363338 0.33070420273373929 0 0.27508551640937329 0.31815972099090539 0 0.2684557314338783 0.34271033597269462 0 0.27644360280618341 0.34191623842927221 0 0.27787730485363338 0.33070420273373929 0 0.27644360280618341 0.34191623842927221 0 0.28036396902745148 0.33491142517978989 0 0.27787730485363338 0.33070420273373929 0 0.28036396902745148 0.33491142517978989 0 0.27787730485363338 0.33070420273373929 0 0.28036396902745148 0.33491142517978989 0 0.27787730485363338 0.33070420273373929 0 0.27508551640937329 0.31815972099090539 0 0.28036396902745148 0.33491142517978989 0 0.27508551640937329 0.31815972099090539 0 0.26050839607327853 0.32387463406168998 0 0.27508551640937329 0.31815972099090539 0 0.26342424027676908 0.31148804944983333 0 0.27584787744150779 0.31533663815394608 0 0.27508551640937329 0.31815972099090539 0 0.2839587577339367 0.31315639516335231 0 0.27584787744150779 0.31533663815394608 0 0.27508551640937329 0.31815972099090539 0 0.28036396902745148 0.33491142517978989 0 0.27508551640937329 0.31815972099090539 0 0.28884331716543121 0.32432796479040632 0 0.27508551640937329 0.31815972099090539 0 0.2839587577339367 0.31315639516335231 0 0.28884331716543121 0.32432796479040632 0 0.2839587577339367 0.31315639516335231 0 0.28884331716543121 0.32432796479040632 0 0.29436859405188742 0.31561290386725788 0 0.28884331716543121 0.32432796479040632 0 0.29436859405188742 0.31561290386725788 0 0.30372390616191358 0.32889084998335888 0 0.29106955940472562 0.3530243656434488 0 0.28036396902745148 0.33491142517978989 0 0.29374099595638509 0.3392252011883215 0 0.28036396902745148 0.33491142517978989 0 0.28884331716543121 0.32432796479040632 0 0.29374099595638509 0.3392252011883215 0 0.28884331716543121 0.32432796479040632 0 0.29374099595638509 0.3392252011883215 0 0.30372390616191358 0.32889084998335888 0 0.30274952797195698 0.35001407804523332 0 0.29374099595638509 0.3392252011883215 0 0.30372390616191358 0.32889084998335888 0 0.31445651652981632 0.33878768779705848 0 0.30274952797195698 0.35001407804523332 0 0.30372390616191358 0.32889084998335888 0 0.30274952797195698 0.35001407804523332 0 0.30372390616191358 0.32889084998335888 0 0.29436859405188742 0.31561290386725788 0 0.30372390616191358 0.32889084998335888 0 0.30469828435187041 0.30776762192148471 0 0.32122702449841589 0.32177081607522939 0 0.30372390616191358 0.32889084998335888 0 0.30469828435187041 0.30776762192148471 0 0.30372390616191358 0.32889084998335888 0 0.30469828435187041 0.30776762192148471 0 0.30469828435187041 0.30776762192148471 0 0.29887142377560671 0.29447355700322281 0 0.31975384086217118 0.29390073052843008 0 0.30469828435187041 0.30776762192148471 0 0.29887142377560671 0.29447355700322281 0 0.29061870484628499 0.30392168747768772 0 0.29887142377560671 0.29447355700322281 0 0.29803417524575498 0.27809430922643119 0 0.31975384086217118 0.29390073052843008 0 0.29887142377560671 0.29447355700322281 0 0.28125211357195179 0.28868343586208051 0 0.29803417524575498 0.27809430922643119 0 0.29887142377560671 0.29447355700322281 0 0.28125211357195179 0.28868343586208051 0 0.29061870484628499 0.30392168747768772 0 0.29436859405188742 0.31561290386725788 0 0.30469828435187041 0.30776762192148471 0 0.29061870484628499 0.30392168747768772 0 0.2839587577339367 0.31315639516335231 0 0.29436859405188742 0.31561290386725788 0 0.29061870484628499 0.30392168747768772 0 0.28125211357195179 0.28868343586208051 0 0.29061870484628499 0.30392168747768772 0 0.27979091010679558 0.3031930520058399 0 0.2839587577339367 0.31315639516335231 0 0.29061870484628499 0.30392168747768772 0 0.27979091010679558 0.3031930520058399 0 0.27584787744150779 0.31533663815394608 0 0.2839587577339367 0.31315639516335231 0 0.27979091010679558 0.3031930520058399 0 0.27584787744150779 0.31533663815394608 0 0.27979091010679558 0.3031930520058399 0 0.26696287399916629 0.2923816923273807 0 0.27508551640937329 0.31815972099090539 0 0.26696287399916629 0.2923816923273807 0 0.27508551640937329 0.31815972099090539 0 0.26696287399916629 0.2923816923273807 0 0.26342424027676908 0.31148804944983333 0 0.27584787744150779 0.31533663815394608 0 0.27508551640937329 0.31815972099090539 0 0.26696287399916629 0.2923816923273807 0 0.28125211357195179 0.28868343586208051 0 0.26696287399916629 0.2923816923273807 0 0.26185531842249993 0.2787869231154117 0 0.28125211357195179 0.28868343586208051 0 0.27979091010679558 0.3031930520058399 0 0.26696287399916629 0.2923816923273807 0 0.2454028482605469 0.29267792886045368 0 0.26696287399916629 0.2923816923273807 0 0.26185531842249993 0.2787869231154117 0 0.24818821145747599 0.27522177653690871 0 0.2454028482605469 0.29267792886045368 0 0.26185531842249993 0.2787869231154117 0 0.26696287399916629 0.2923816923273807 0 0.25114017462525878 0.31153615041935723 0 0.26342424027676908 0.31148804944983333 0 0.2454028482605469 0.29267792886045368 0 0.26696287399916629 0.2923816923273807 0 0.25114017462525878 0.31153615041935723 0 0.25404003316197471 0.25208422786308371 0 0.25530776412370298 0.26639583896058622 0 0.27103688063193948 0.26427270241964718 0 0.24090080429007341 0.26281353644332878 0 0.25404003316197471 0.25208422786308371 0 0.25530776412370298 0.26639583896058622 0 0.25530776412370298 0.26639583896058622 0 0.26185531842249993 0.2787869231154117 0 0.27103688063193948 0.26427270241964718 0 0.24818821145747599 0.27522177653690871 0 0.25530776412370298 0.26639583896058622 0 0.26185531842249993 0.2787869231154117 0 0.28125211357195179 0.28868343586208051 0 0.26185531842249993 0.2787869231154117 0 0.27103688063193948 0.26427270241964718 0 0.25404003316197471 0.25208422786308371 0 0.27103688063193948 0.26427270241964718 0 0.27355486584907379 0.24364475180805101 0 0.27103688063193948 0.26427270241964718 0 0.29692855903906679 0.25537037528416417 0 0.27355486584907379 0.24364475180805101 0 0.27103688063193948 0.26427270241964718 0 0.29803417524575498 0.27809430922643119 0 0.29692855903906679 0.25537037528416417 0 0.28125211357195179 0.28868343586208051 0 0.27103688063193948 0.26427270241964718 0 0.29803417524575498 0.27809430922643119 0 0.29803417524575498 0.27809430922643119 0 0.29692855903906679 0.25537037528416417 0 0.32239972953691409 0.26902358330948362 0 0.29692855903906679 0.25537037528416417 0 0.32239972953691409 0.26902358330948362 0 0.32448256229391081 0.244023600812113 0 0.34859232732963041 0.2656914204712259 0 0.32448256229391081 0.244023600812113 0 0.35052125483258301 0.2434514759103418 0 0.32239972953691409 0.26902358330948362 0 0.34859232732963041 0.2656914204712259 0 0.32448256229391081 0.244023600812113 0 0.32239972953691409 0.26902358330948362 0 0.34580587121379802 0.29027056413174801 0 0.34859232732963041 0.2656914204712259 0 0.32239972953691409 0.26902358330948362 0 0.34859232732963041 0.2656914204712259 0 0.29803417524575498 0.27809430922643119 0 0.32239972953691409 0.26902358330948362 0 0.31975384086217118 0.29390073052843008 0 0.32122702449841589 0.32177081607522939 0 0.30469828435187041 0.30776762192148471 0 0.31975384086217118 0.29390073052843008 0 0.32122702449841589 0.32177081607522939 0 0.31975384086217118 0.29390073052843008 0 0.33644502425256478 0.30910566618648461 0 0.31975384086217118 0.29390073052843008 0 0.33644502425256478 0.30910566618648461 0 0.34580587121379802 0.29027056413174801 0 0.32239972953691409 0.26902358330948362 0 0.31975384086217118 0.29390073052843008 0 0.34580587121379802 0.29027056413174801 0 0.34580587121379802 0.29027056413174801 0 0.35183379698966949 0.31056891257481539 0 0.36606901625265492 0.30223218437601618 0 0.33644502425256478 0.30910566618648461 0 0.34580587121379802 0.29027056413174801 0 0.35183379698966949 0.31056891257481539 0 0.36562923609293069 0.32366592916769399 0 0.35183379698966949 0.31056891257481539 0 0.36606901625265492 0.30223218437601618 0 0.36606901625265492 0.30223218437601618 0 0.37288852905391068 0.28307277276217568 0 0.38313639778678782 0.29894980138166888 0 0.34580587121379802 0.29027056413174801 0 0.36606901625265492 0.30223218437601618 0 0.37288852905391068 0.28307277276217568 0 0.37288852905391068 0.28307277276217568 0 0.37478492512234668 0.26235925763296819 0 0.34859232732963041 0.2656914204712259 0 0.37478492512234668 0.26235925763296819 0 0.34859232732963041 0.2656914204712259 0 0.37478492512234668 0.26235925763296819 0 0.34859232732963041 0.2656914204712259 0 0.35052125483258301 0.2434514759103418 0 0.34580587121379802 0.29027056413174801 0 0.37288852905391068 0.28307277276217568 0 0.34859232732963041 0.2656914204712259 0 0.40237095019481112 0.27711100542787093 0 0.40097752291506289 0.25902709479471048 0 0.38795285511664351 0.27501277358291848 0 0.40237095019481112 0.27711100542787093 0 0.38795285511664351 0.27501277358291848 0 0.39245341439736259 0.28869000139839213 0 0.37478492512234668 0.26235925763296819 0 0.40097752291506289 0.25902709479471048 0 0.37478492512234668 0.26235925763296819 0 0.40097752291506289 0.25902709479471048 0 0.38795285511664351 0.27501277358291848 0 0.37478492512234668 0.26235925763296819 0 0.40097752291506289 0.25902709479471048 0 0.39333580902427501 0.24081282939082621 0 0.37288852905391068 0.28307277276217568 0 0.37478492512234668 0.26235925763296819 0 0.38795285511664351 0.27501277358291848 0 0.37288852905391068 0.28307277276217568 0 0.38795285511664351 0.27501277358291848 0 0.39245341439736259 0.28869000139839213 0 0.37288852905391068 0.28307277276217568 0 0.38313639778678782 0.29894980138166888 0 0.39245341439736259 0.28869000139839213 0 0.38313639778678782 0.29894980138166888 0 0.40184121301557668 0.30678024061641418 0 0.38242981621443428 0.31397380775534678 0 0.36606901625265492 0.30223218437601618 0 0.38313639778678782 0.29894980138166888 0 0.38242981621443428 0.31397380775534678 0 0.38313639778678782 0.29894980138166888 0 0.40184121301557668 0.30678024061641418 0 0.39245341439736259 0.28869000139839213 0 0.40184121301557668 0.30678024061641418 0 0.39245341439736259 0.28869000139839213 0 0.4080647950624654 0.29173952990842672 0 0.40237095019481112 0.27711100542787093 0 0.39245341439736259 0.28869000139839213 0 0.4080647950624654 0.29173952990842672 0 0.4080647950624654 0.29173952990842672 0 0.42111158276914429 0.29961990628964941 0 0.41801819212357011 0.2740782959756311 0 0.42111158276914429 0.29961990628964941 0 0.41801819212357011 0.2740782959756311 0 0.42111158276914429 0.29961990628964941 0 0.41431845905081632 0.31211616404088999 0 0.42420497341471841 0.32516151660366771 0 0.40184121301557668 0.30678024061641418 0 0.41169384258873692 0.3030193229363472 0 0.41431845905081632 0.31211616404088999 0 0.4080647950624654 0.29173952990842672 0 0.41169384258873692 0.3030193229363472 0 0.42111158276914429 0.29961990628964941 0 0.40184121301557668 0.30678024061641418 0 0.4080647950624654 0.29173952990842672 0 0.41169384258873692 0.3030193229363472 0 0.41169384258873692 0.3030193229363472 0 0.42111158276914429 0.29961990628964941 0 0.41431845905081632 0.31211616404088999 0 0.42111158276914429 0.29961990628964941 0 0.42420497341471841 0.32516151660366771 0 0.42111158276914429 0.29961990628964941 0 0.42968026012840121 0.30115694743242971 0 0.43130474666914309 0.31304161877190062 0 0.42968026012840121 0.30115694743242971 0 0.44258646999382029 0.30990113159980692 0 0.42968026012840121 0.30115694743242971 0 0.44258646999382029 0.30990113159980692 0 0.43130474666914309 0.31304161877190062 0 0.42111158276914429 0.29961990628964941 0 0.42800801910193731 0.28582653817902792 0 0.41801819212357011 0.2740782959756311 0 0.42968026012840121 0.30115694743242971 0 0.42800801910193731 0.28582653817902792 0 0.44797459424715858 0.28113195035900113 0 0.42111158276914429 0.29961990628964941 0 0.42968026012840121 0.30115694743242971 0 0.42800801910193731 0.28582653817902792 0 0.4349067289361882 0.26981889711766149 0 0.41801819212357011 0.2740782959756311 0 0.42717012070777932 0.25569493195645271 0 0.42800801910193731 0.28582653817902792 0 0.4349067289361882 0.26981889711766149 0 0.44797459424715858 0.28113195035900113 0 0.42800801910193731 0.28582653817902792 0 0.4349067289361882 0.26981889711766149 0 0.41801819212357011 0.2740782959756311 0 0.40237095019481112 0.27711100542787093 0 0.4080647950624654 0.29173952990842672 0 0.41801819212357011 0.2740782959756311 0 0.40237095019481112 0.27711100542787093 0 0.40097752291506289 0.25902709479471048 0 0.41801819212357011 0.2740782959756311 0 0.40097752291506289 0.25902709479471048 0 0.42717012070777932 0.25569493195645271 0 0.40097752291506289 0.25902709479471048 0 0.41801819212357011 0.2740782959756311 0 0.42717012070777932 0.25569493195645271 0 0.40097752291506289 0.25902709479471048 0 0.42717012070777932 0.25569493195645271 0 0.41286841049430861 0.24788583003777651 0 0.42717012070777932 0.25569493195645271 0 0.45336271850049548 0.25236276911819511 0 0.42717012070777932 0.25569493195645271 0 0.45336271850049548 0.25236276911819511 0 0.44134696414428898 0.24814556957704689 0 0.4349067289361882 0.26981889711766149 0 0.42717012070777932 0.25569493195645271 0 0.45336271850049548 0.25236276911819511 0 0.44797459424715858 0.28113195035900113 0 0.45336271850049548 0.25236276911819511 0 0.4349067289361882 0.26981889711766149 0 0.44797459424715858 0.28113195035900113 0 0.45336271850049548 0.25236276911819511 0 0.44797459424715858 0.28113195035900113 0 0.46860043072286323 0.26090172283992602 0 0.47518926652314969 0.27560515809727743 0 0.44797459424715858 0.28113195035900113 0 0.45336271850049548 0.25236276911819511 0 0.46860043072286323 0.26090172283992602 0 0.45336271850049548 0.25236276911819511 0 0.46860043072286323 0.26090172283992602 0 0.48180965237011408 0.2487438147612096 0 0.45336271850049548 0.25236276911819511 0 0.48180965237011408 0.2487438147612096 0 0.46860043072286323 0.26090172283992602 0 0.48241006781490819 0.26268970127635521 0 0.48180965237011408 0.2487438147612096 0 0.46860043072286323 0.26090172283992602 0 0.48241006781490819 0.26268970127635521 0 0.47518926652314969 0.27560515809727743 0 0.48241006781490819 0.26268970127635521 0 0.47518926652314969 0.27560515809727743 0 0.48864569132575902 0.27555399191102209 0 0.48864569132575902 0.27555399191102209 0 0.5 0.25788891558126559 0 0.5 0.28784398070901179 0 0.48241006781490819 0.26268970127635521 0 0.5 0.25788891558126559 0 0.48180965237011408 0.2487438147612096 0 0.48241006781490819 0.26268970127635521 0 0.48864569132575902 0.27555399191102209 0 0.5 0.25788891558126559 0 0.49687855588093471 0.30562269631142192 0 0.5 0.28784398070901179 0 0.5 0.31779904583675789 0 0.48491490847636098 0.30901068293115042 0 0.49687855588093471 0.30562269631142192 0 0.48562912229073679 0.29374220389120048 0 0.48491490847636098 0.30901068293115042 0 0.49687855588093471 0.30562269631142192 0 0.48893996521802741 0.32077530068026477 0 0.48864569132575902 0.27555399191102209 0 0.5 0.28784398070901179 0 0.48562912229073679 0.29374220389120048 0 0.49687855588093471 0.30562269631142192 0 0.5 0.28784398070901179 0 0.48562912229073679 0.29374220389120048 0 0.47518926652314969 0.27560515809727743 0 0.48864569132575902 0.27555399191102209 0 0.48562912229073679 0.29374220389120048 0 0.47518926652314969 0.27560515809727743 0 0.48562912229073679 0.29374220389120048 0 0.46816558308298489 0.29083511245767268 0 0.48562912229073679 0.29374220389120048 0 0.47222103054853309 0.30536857664361422 0 0.46816558308298489 0.29083511245767268 0 0.48491490847636098 0.30901068293115042 0 0.48562912229073679 0.29374220389120048 0 0.47222103054853309 0.30536857664361422 0 0.48491490847636098 0.30901068293115042 0 0.47222103054853309 0.30536857664361422 0 0.47648252662976798 0.31886183994020412 0 0.47222103054853309 0.30536857664361422 0 0.45866337291811637 0.30169365927876157 0 0.46179392227446953 0.32291451832445861 0 0.45866337291811637 0.30169365927876157 0 0.44258646999382029 0.30990113159980692 0 0.46179392227446953 0.32291451832445861 0 0.47222103054853309 0.30536857664361422 0 0.45866337291811637 0.30169365927876157 0 0.46816558308298489 0.29083511245767268 0 0.44797459424715858 0.28113195035900113 0 0.45866337291811637 0.30169365927876157 0 0.46816558308298489 0.29083511245767268 0 0.44797459424715858 0.28113195035900113 0 0.47518926652314969 0.27560515809727743 0 0.46816558308298489 0.29083511245767268 0 0.44797459424715858 0.28113195035900113 0 0.44258646999382029 0.30990113159980692 0 0.42968026012840121 0.30115694743242971 0 0.44797459424715858 0.28113195035900113 0 0.44258646999382029 0.30990113159980692 0 0.44797459424715858 0.28113195035900113 0 0.45866337291811637 0.30169365927876157 0 0.44258646999382029 0.30990113159980692 0 0.44258646999382029 0.30990113159980692 0 0.46179392227446953 0.32291451832445861 0 0.44258646999382029 0.30990113159980692 0 0.43894044703962998 0.32936859193394902 0 0.46179392227446953 0.32291451832445861 0 0.44258646999382029 0.30990113159980692 0 0.43894044703962998 0.32936859193394902 0 0.44258646999382029 0.30990113159980692 0 0.43894044703962998 0.32936859193394902 0 0.43130474666914309 0.31304161877190062 0 0.43894044703962998 0.32936859193394902 0 0.45181909328986353 0.33594590439129729 0 0.43529442408543872 0.34883605226809089 0 0.43894044703962998 0.32936859193394902 0 0.45181909328986353 0.33594590439129729 0 0.46179392227446953 0.32291451832445861 0 0.45181909328986353 0.33594590439129729 0 0.46495921083649527 0.33796731498031379 0 0.45493863887308472 0.34850758154427958 0 0.45181909328986353 0.33594590439129729 0 0.46495921083649527 0.33796731498031379 0 0.46179392227446953 0.32291451832445861 0 0.47648252662976798 0.31886183994020412 0 0.48100137455512032 0.33592790504910791 0 0.48893996521802741 0.32077530068026477 0 0.46179392227446953 0.32291451832445861 0 0.47648252662976798 0.31886183994020412 0 0.48100137455512032 0.33592790504910791 0 0.47222103054853309 0.30536857664361422 0 0.46179392227446953 0.32291451832445861 0 0.47648252662976798 0.31886183994020412 0 0.48491490847636098 0.30901068293115042 0 0.47648252662976798 0.31886183994020412 0 0.48893996521802741 0.32077530068026477 0 0.46179392227446953 0.32291451832445861 0 0.48100137455512032 0.33592790504910791 0 0.46495921083649527 0.33796731498031379 0 0.48100137455512032 0.33592790504910791 0 0.47458285366073072 0.34817911082046721 0 0.46495921083649527 0.33796731498031379 0 0.46179392227446953 0.32291451832445861 0 0.48100137455512032 0.33592790504910791 0 0.48100137455512032 0.33592790504910791 0 0.47458285366073072 0.34817911082046721 0 0.48100137455512032 0.33592790504910791 0 0.48893996521802741 0.32077530068026477 0 0.48100137455512032 0.33592790504910791 0 0.4984937498586452 0.34777929695842291 0 0.5 0.31779904583675789 0 0.48893996521802741 0.32077530068026477 0 0.4984937498586452 0.34777929695842291 0 0.5 0.31779904583675789 0 0.4984937498586452 0.34777929695842291 0 0.50000000000000433 0.34775411096450393 0 0.48100137455512032 0.33592790504910791 0 0.48893996521802741 0.32077530068026477 0 0.4984937498586452 0.34777929695842291 0 0.49687855588093471 0.30562269631142192 0 0.48893996521802741 0.32077530068026477 0 0.49687855588093471 0.30562269631142192 0 0.5 0.31779904583675789 0 0.48893996521802741 0.32077530068026477 0 0.5 0.37175840028027313 0 0.48688174284785979 0.35971936811564431 0 0.50000000000000433 0.34775411096450393 0 0.5 0.37175840028027313 0 0.48688174284785979 0.35971936811564431 0 0.48177296974371542 0.3780796821533936 0 0.48100137455512032 0.33592790504910791 0 0.4984937498586452 0.34777929695842291 0 0.47458285366073072 0.34817911082046721 0 0.48688174284785979 0.35971936811564431 0 0.4984937498586452 0.34777929695842291 0 0.47458285366073072 0.34817911082046721 0 0.48688174284785979 0.35971936811564431 0 0.4984937498586452 0.34777929695842291 0 0.50000000000000433 0.34775411096450393 0 0.4984937498586452 0.34777929695842291 0 0.47458285366073072 0.34817911082046721 0 0.4984937498586452 0.34777929695842291 0 0.50000000000000433 0.34775411096450393 0 0.48688174284785979 0.35971936811564431 0 0.47458285366073072 0.34817911082046721 0 0.46644088382406917 0.36371991056145853 0 0.47458285366073072 0.34817911082046721 0 0.46644088382406917 0.36371991056145853 0 0.46644088382406917 0.36371991056145853 0 0.45829891398740957 0.37926071030245079 0 0.48177296974371542 0.3780796821533936 0 0.48688174284785979 0.35971936811564431 0 0.46644088382406917 0.36371991056145853 0 0.48177296974371542 0.3780796821533936 0 0.46644088382406917 0.36371991056145853 0 0.45829891398740957 0.37926071030245079 0 0.46644088382406917 0.36371991056145853 0 0.45450488254489102 0.36219879314378839 0 0.45829891398740957 0.37926071030245079 0 0.46495921083649527 0.33796731498031379 0 0.47458285366073072 0.34817911082046721 0 0.45493863887308472 0.34850758154427958 0 0.47458285366073072 0.34817911082046721 0 0.45493863887308472 0.34850758154427958 0 0.47458285366073072 0.34817911082046721 0 0.46644088382406917 0.36371991056145853 0 0.45493863887308472 0.34850758154427958 0 0.46644088382406917 0.36371991056145853 0 0.45450488254489102 0.36219879314378839 0 0.45493863887308472 0.34850758154427958 0 0.45181909328986353 0.33594590439129729 0 0.45493863887308472 0.34850758154427958 0 0.43529442408543872 0.34883605226809089 0 0.45493863887308472 0.34850758154427958 0 0.44448268479035308 0.35511800724889642 0 0.43529442408543872 0.34883605226809089 0 0.45493863887308472 0.34850758154427958 0 0.43529442408543872 0.34883605226809089 0 0.45450488254489102 0.36219879314378839 0 0.45493863887308472 0.34850758154427958 0 0.44448268479035308 0.35511800724889642 0 0.44448268479035308 0.35511800724889642 0 0.44279863902385319 0.36498191861006751 0 0.43487683942449812 0.35106569067825599 0 0.44448268479035308 0.35511800724889642 0 0.43529442408543872 0.34883605226809089 0 0.43487683942449812 0.35106569067825599 0 0.45450488254489102 0.36219879314378839 0 0.44279863902385319 0.36498191861006751 0 0.45829891398740957 0.37926071030245079 0 0.44279863902385319 0.36498191861006751 0 0.45829891398740957 0.37926071030245079 0 0.45450488254489102 0.36219879314378839 0 0.44448268479035308 0.35511800724889642 0 0.44279863902385319 0.36498191861006751 0 0.42892444364691579 0.3641293946929936 0 0.42225433889660879 0.37545697575276449 0 0.43605286711449009 0.38080977408974359 0 0.44279863902385319 0.36498191861006751 0 0.42892444364691579 0.3641293946929936 0 0.43605286711449009 0.38080977408974359 0 0.44279863902385319 0.36498191861006751 0 0.42892444364691579 0.3641293946929936 0 0.42729836406029548 0.35070312691768563 0 0.42892444364691579 0.3641293946929936 0 0.41660844069210962 0.35988002802349189 0 0.42225433889660879 0.37545697575276449 0 0.41660844069210962 0.35988002802349189 0 0.40918213701441342 0.3736144609854074 0 0.42225433889660879 0.37545697575276449 0 0.41660844069210962 0.35988002802349189 0 0.40918213701441342 0.3736144609854074 0 0.40205795884979889 0.36380219258680641 0 0.40642652845595439 0.35168475710611302 0 0.41593005466970517 0.35003896004439389 0 0.41338688547046137 0.33788792813028518 0 0.41660844069210962 0.35988002802349189 0 0.40642652845595439 0.35168475710611302 0 0.40205795884979889 0.36380219258680641 0 0.41660844069210962 0.35988002802349189 0 0.40642652845595439 0.35168475710611302 0 0.41593005466970517 0.35003896004439389 0 0.41660844069210962 0.35988002802349189 0 0.41593005466970517 0.35003896004439389 0 0.42729836406029548 0.35070312691768563 0 0.42729836406029548 0.35070312691768563 0 0.41338688547046137 0.33788792813028518 0 0.41593005466970517 0.35003896004439389 0 0.42729836406029548 0.35070312691768563 0 0.41338688547046137 0.33788792813028518 0 0.42892444364691579 0.3641293946929936 0 0.41660844069210962 0.35988002802349189 0 0.42729836406029548 0.35070312691768563 0 0.42892444364691579 0.3641293946929936 0 0.42729836406029548 0.35070312691768563 0 0.44279863902385319 0.36498191861006751 0 0.42729836406029548 0.35070312691768563 0 0.43487683942449812 0.35106569067825599 0 0.44279863902385319 0.36498191861006751 0 0.42729836406029548 0.35070312691768563 0 0.43109136567724748 0.3489063315667284 0 0.43529442408543872 0.34883605226809089 0 0.42729836406029548 0.35070312691768563 0 0.43109136567724748 0.3489063315667284 0 0.43487683942449812 0.35106569067825599 0 0.43109136567724748 0.3489063315667284 0 0.43529442408543872 0.34883605226809089 0 0.43487683942449812 0.35106569067825599 0 0.43529442408543872 0.34883605226809089 0 0.43487683942449812 0.35106569067825599 0 0.42729836406029548 0.35070312691768563 0 0.42420497341471841 0.32516151660366771 0 0.43894044703962998 0.32936859193394902 0 0.43529442408543872 0.34883605226809089 0 0.43894044703962998 0.32936859193394902 0 0.43109136567724748 0.3489063315667284 0 0.43529442408543872 0.34883605226809089 0 0.42729836406029548 0.35070312691768563 0 0.43109136567724748 0.3489063315667284 0 0.42420497341471841 0.32516151660366771 0 0.43894044703962998 0.32936859193394902 0 0.43109136567724748 0.3489063315667284 0 0.42420497341471841 0.32516151660366771 0 0.43894044703962998 0.32936859193394902 0 0.43130474666914309 0.31304161877190062 0 0.42420497341471841 0.32516151660366771 0 0.42111158276914429 0.29961990628964941 0 0.43130474666914309 0.31304161877190062 0 0.42420497341471841 0.32516151660366771 0 0.40184121301557668 0.30678024061641418 0 0.41431845905081632 0.31211616404088999 0 0.41140534993910638 0.32360132811636988 0 0.41431845905081632 0.31211616404088999 0 0.42420497341471841 0.32516151660366771 0 0.41140534993910638 0.32360132811636988 0 0.42729836406029548 0.35070312691768563 0 0.42420497341471841 0.32516151660366771 0 0.41338688547046137 0.33788792813028518 0 0.42420497341471841 0.32516151660366771 0 0.41140534993910638 0.32360132811636988 0 0.41338688547046137 0.33788792813028518 0 0.41140534993910638 0.32360132811636988 0 0.41338688547046137 0.33788792813028518 0 0.39947540688062583 0.32507272934288628 0 0.41338688547046137 0.33788792813028518 0 0.39947540688062583 0.32507272934288628 0 0.40642652845595439 0.35168475710611302 0 0.41338688547046137 0.33788792813028518 0 0.39105145014164849 0.3414869239971704 0 0.41338688547046137 0.33788792813028518 0 0.39105145014164849 0.3414869239971704 0 0.39947540688062583 0.32507272934288628 0 0.40184121301557668 0.30678024061641418 0 0.41140534993910638 0.32360132811636988 0 0.39947540688062583 0.32507272934288628 0 0.40184121301557668 0.30678024061641418 0 0.39947540688062583 0.32507272934288628 0 0.38242981621443428 0.31397380775534678 0 0.36562923609293069 0.32366592916769399 0 0.38242981621443428 0.31397380775534678 0 0.38128435600444488 0.32837669887387311 0 0.39947540688062583 0.32507272934288628 0 0.38242981621443428 0.31397380775534678 0 0.38128435600444488 0.32837669887387311 0 0.39105145014164849 0.3414869239971704 0 0.39947540688062583 0.32507272934288628 0 0.38128435600444488 0.32837669887387311 0 0.36518945593320651 0.34509967395937191 0 0.39105145014164849 0.3414869239971704 0 0.38128435600444488 0.32837669887387311 0 0.36518945593320651 0.34509967395937191 0 0.39105145014164849 0.3414869239971704 0 0.3855881021147175 0.35910908792858098 0 0.36474967577348072 0.36653341875104961 0 0.3855881021147175 0.35910908792858098 0 0.3855881021147175 0.35910908792858098 0 0.39248458597179969 0.37472262889043839 0 0.3773824667175657 0.37546563606013739 0 0.36474967577348072 0.36653341875104961 0 0.3855881021147175 0.35910908792858098 0 0.3773824667175657 0.37546563606013739 0 0.40918213701441342 0.3736144609854074 0 0.39248458597179969 0.37472262889043839 0 0.40205795884979889 0.36380219258680641 0 0.3855881021147175 0.35910908792858098 0 0.39248458597179969 0.37472262889043839 0 0.40205795884979889 0.36380219258680641 0 0.40642652845595439 0.35168475710611302 0 0.39105145014164849 0.3414869239971704 0 0.3855881021147175 0.35910908792858098 0 0.40642652845595439 0.35168475710611302 0 0.3855881021147175 0.35910908792858098 0 0.40642652845595439 0.35168475710611302 0 0.3855881021147175 0.35910908792858098 0 0.40205795884979889 0.36380219258680641 0 0.39221066862400811 0.40518894945558848 0 0.39940032860097008 0.38986983405391068 0 0.41033309730305728 0.40785957742124029 0 0.40918213701441342 0.3736144609854074 0 0.39248458597179969 0.37472262889043839 0 0.39940032860097008 0.38986983405391068 0 0.39248458597179969 0.37472262889043839 0 0.39940032860097008 0.38986983405391068 0 0.38026367080056678 0.39066664182047522 0 0.39248458597179969 0.37472262889043839 0 0.3773824667175657 0.37546563606013739 0 0.38026367080056678 0.39066664182047522 0 0.39221066862400811 0.40518894945558848 0 0.39940032860097008 0.38986983405391068 0 0.38026367080056678 0.39066664182047522 0 0.39221066862400811 0.40518894945558848 0 0.38026367080056678 0.39066664182047522 0 0.37744029411777058 0.41252948965876268 0 0.39221066862400811 0.40518894945558848 0 0.37744029411777058 0.41252948965876268 0 0.39361595229767549 0.42501920432355378 0 0.365542703577178 0.42914551292816783 0 0.39361595229767549 0.42501920432355378 0 0.37809165231809289 0.44568724501072521 0 0.365542703577178 0.42914551292816783 0 0.37744029411777058 0.41252948965876268 0 0.39361595229767549 0.42501920432355378 0 0.365542703577178 0.42914551292816783 0 0.39361595229767549 0.42501920432355378 0 0.39361595229767549 0.42501920432355378 0 0.41035062152962531 0.4256058815429955 0 0.40092741287151468 0.44093224530230651 0 0.39361595229767549 0.42501920432355378 0 0.40092741287151468 0.44093224530230651 0 0.37809165231809289 0.44568724501072521 0 0.39361595229767549 0.42501920432355378 0 0.41033309730305728 0.40785957742124029 0 0.41035062152962531 0.4256058815429955 0 0.39221066862400811 0.40518894945558848 0 0.39361595229767549 0.42501920432355378 0 0.41033309730305728 0.40785957742124029 0 0.41033309730305728 0.40785957742124029 0 0.41035062152962531 0.4256058815429955 0 0.42646345733135449 0.42088686527347441 0 0.41035062152962531 0.4256058815429955 0 0.4216403136361262 0.43569606407888728 0 0.42646345733135449 0.42088686527347441 0 0.41035062152962531 0.4256058815429955 0 0.4216403136361262 0.43569606407888728 0 0.40092741287151468 0.44093224530230651 0 0.43504649219903713 0.43385430946487219 0 0.42646345733135449 0.42088686527347441 0 0.44292677264660579 0.42392515796168401 0 0.4216403136361262 0.43569606407888728 0 0.43504649219903713 0.43385430946487219 0 0.42646345733135449 0.42088686527347441 0 0.4216403136361262 0.43569606407888728 0 0.43504649219903713 0.43385430946487219 0 0.4309855774719657 0.44262377444488737 0 0.41033309730305728 0.40785957742124029 0 0.42646345733135449 0.42088686527347441 0 0.43473852811684172 0.40482082561786309 0 0.42646345733135449 0.42088686527347441 0 0.43473852811684172 0.40482082561786309 0 0.44292677264660579 0.42392515796168401 0 0.43473852811684172 0.40482082561786309 0 0.42003555557297712 0.38799376876492359 0 0.43605286711449009 0.38080977408974359 0 0.41033309730305728 0.40785957742124029 0 0.43473852811684172 0.40482082561786309 0 0.42003555557297712 0.38799376876492359 0 0.39940032860097008 0.38986983405391068 0 0.41033309730305728 0.40785957742124029 0 0.42003555557297712 0.38799376876492359 0 0.40918213701441342 0.3736144609854074 0 0.39940032860097008 0.38986983405391068 0 0.42003555557297712 0.38799376876492359 0 0.40918213701441342 0.3736144609854074 0 0.42003555557297712 0.38799376876492359 0 0.42225433889660879 0.37545697575276449 0 0.42003555557297712 0.38799376876492359 0 0.42225433889660879 0.37545697575276449 0 0.43605286711449009 0.38080977408974359 0 0.44279863902385319 0.36498191861006751 0 0.43605286711449009 0.38080977408974359 0 0.45829891398740957 0.37926071030245079 0 0.43605286711449009 0.38080977408974359 0 0.44916269767969552 0.39669925538146661 0 0.45829891398740957 0.37926071030245079 0 0.43473852811684172 0.40482082561786309 0 0.43605286711449009 0.38080977408974359 0 0.44916269767969552 0.39669925538146661 0 0.43473852811684172 0.40482082561786309 0 0.44916269767969552 0.39669925538146661 0 0.45819524916971172 0.41557138043250991 0 0.44916269767969552 0.39669925538146661 0 0.47914945699370431 0.3984681476517854 0 0.45819524916971172 0.41557138043250991 0 0.44916269767969552 0.39669925538146661 0 0.45829891398740957 0.37926071030245079 0 0.47914945699370431 0.3984681476517854 0 0.45829891398740957 0.37926071030245079 0 0.47914945699370431 0.3984681476517854 0 0.44916269767969552 0.39669925538146661 0 0.45829891398740957 0.37926071030245079 0 0.45829891398740957 0.37926071030245079 0 0.48177296974371542 0.3780796821533936 0 0.47914945699370431 0.3984681476517854 0 0.47914945699370431 0.3984681476517854 0 0.5 0.39471699264069632 0 0.49999999999999928 0.41767558500111929 0 0.48177296974371542 0.3780796821533936 0 0.47914945699370431 0.3984681476517854 0 0.5 0.39471699264069632 0 0.5 0.37175840028027313 0 0.48177296974371542 0.3780796821533936 0 0.5 0.39471699264069632 0 0.48950419912568011 0.43203648207583117 0 0.49999999999999928 0.41767558500111929 0 0.47941257652712138 0.42859526255965119 0 0.48950419912568011 0.43203648207583117 0 0.49999999999999928 0.41767558500111929 0 0.50000000000000022 0.44212157098762489 0 0.49999999999999928 0.41767558500111929 0 0.47638758820359789 0.4177788365799131 0 0.47941257652712138 0.42859526255965119 0 0.47914945699370431 0.3984681476517854 0 0.49999999999999928 0.41767558500111929 0 0.47638758820359789 0.4177788365799131 0 0.47914945699370431 0.3984681476517854 0 0.49999999999999928 0.41767558500111929 0 0.47914945699370431 0.3984681476517854 0 0.47638758820359789 0.4177788365799131 0 0.45819524916971172 0.41557138043250991 0 0.47638758820359789 0.4177788365799131 0 0.46959145424244531 0.42892785421681912 0 0.47941257652712138 0.42859526255965119 0 0.48950419912568011 0.43203648207583117 0 0.47941257652712138 0.42859526255965119 0 0.47860421997559988 0.43975350975492877 0 0.46959145424244531 0.42892785421681912 0 0.47941257652712138 0.42859526255965119 0 0.47860421997559988 0.43975350975492877 0 0.46959145424244531 0.42892785421681912 0 0.45720843995119947 0.43738544852223271 0 0.45819524916971172 0.41557138043250991 0 0.46959145424244531 0.42892785421681912 0 0.45720843995119947 0.43738544852223271 0 0.47860421997559988 0.43975350975492877 0 0.47638758820359789 0.4177788365799131 0 0.46959145424244531 0.42892785421681912 0 0.45819524916971172 0.41557138043250991 0 0.43473852811684172 0.40482082561786309 0 0.45819524916971172 0.41557138043250991 0 0.44292677264660579 0.42392515796168401 0 0.45720843995119947 0.43738544852223271 0 0.45819524916971172 0.41557138043250991 0 0.44292677264660579 0.42392515796168401 0 0.45720843995119947 0.43738544852223271 0 0.44292677264660579 0.42392515796168401 0 0.44501475256406542 0.43710487641451851 0 0.43504649219903713 0.43385430946487219 0 0.44292677264660579 0.42392515796168401 0 0.44501475256406542 0.43710487641451851 0 0.44501475256406542 0.43710487641451851 0 0.44086930591740259 0.443703986550611 0 0.44426520485267701 0.44828521544284999 0 0.43504649219903713 0.43385430946487219 0 0.44501475256406542 0.43710487641451851 0 0.44086930591740259 0.443703986550611 0 0.44576605402647751 0.45131382091928901 0 0.43097115028835131 0.45382894378787952 0 0.4371491165808723 0.44919465112914592 0 0.44086930591740259 0.443703986550611 0 0.44106718496795649 0.44783878756079798 0 0.4371491165808723 0.44919465112914592 0 0.44106718496795649 0.44783878756079798 0 0.44576605402647751 0.45131382091928901 0 0.4371491165808723 0.44919465112914592 0 0.44086930591740259 0.443703986550611 0 0.44426520485267701 0.44828521544284999 0 0.44106718496795649 0.44783878756079798 0 0.44426520485267701 0.44828521544284999 0 0.44576605402647751 0.45131382091928901 0 0.44086930591740259 0.443703986550611 0 0.44106718496795649 0.44783878756079798 0 0.44426520485267701 0.44828521544284999 0 0.45720843995119947 0.43738544852223271 0 0.44501475256406542 0.43710487641451851 0 0.44426520485267701 0.44828521544284999 0 0.44576605402647751 0.45131382091928901 0 0.44334270512280699 0.46695283516179431 0 0.45751300038554987 0.46615712058798953 0 0.44426520485267701 0.44828521544284999 0 0.45751300038554987 0.46615712058798953 0 0.44576605402647751 0.45131382091928901 0 0.44334270512280699 0.46695283516179431 0 0.42744619309891668 0.4675425472795256 0 0.44426520485267701 0.44828521544284999 0 0.44576605402647751 0.45131382091928901 0 0.45751300038554987 0.46615712058798953 0 0.44426520485267701 0.44828521544284999 0 0.45751300038554987 0.46615712058798953 0 0.47213260242633898 0.44992772785007767 0 0.44426520485267701 0.44828521544284999 0 0.47213260242633898 0.44992772785007767 0 0.45720843995119947 0.43738544852223271 0 0.47860421997559988 0.43975350975492877 0 0.45720843995119947 0.43738544852223271 0 0.44426520485267701 0.44828521544284999 0 0.47213260242633898 0.44992772785007767 0 0.47213260242633898 0.44992772785007767 0 0.47860421997559988 0.43975350975492877 0 0.50000000000000067 0.45157024025730719 0 0.45720843995119947 0.43738544852223271 0 0.47213260242633898 0.44992772785007767 0 0.47860421997559988 0.43975350975492877 0 0.47213260242633898 0.44992772785007767 0 0.48064266697128027 0.4673483066551633 0 0.50000000000000067 0.45157024025730719 0 0.45751300038554987 0.46615712058798953 0 0.47213260242633898 0.44992772785007767 0 0.48064266697128027 0.4673483066551633 0 0.48064266697128027 0.4673483066551633 0 0.5 0.46843982966384828 0 0.50000000000000067 0.45157024025730719 0 0.47860421997559988 0.43975350975492877 0 0.50000000000000022 0.44212157098762489 0 0.47860421997559988 0.43975350975492877 0 0.50000000000000067 0.45157024025730719 0 0.50000000000000022 0.44212157098762489 0 0.47213260242633898 0.44992772785007767 0 0.50000000000000067 0.45157024025730719 0 0.48950419912568011 0.43203648207583117 0 0.47860421997559988 0.43975350975492877 0 0.50000000000000022 0.44212157098762489 0 0.48834007405180069 0.49233461120087918 0 0.50000000000000222 0.48530941907038949 0 0.47076079591842229 0.48402902573312923 0 0.48834007405180069 0.49233461120087918 0 0.5 0.5 0 0.48259950028877657 0.49999999999999922 0 0.50000000000000222 0.48530941907038949 0 0.47076079591842229 0.48402902573312923 0 0.48834007405180069 0.49233461120087918 0 0.5 0.5 0 0.50000000000000222 0.48530941907038949 0 0.50000000000000222 0.48530941907038949 0 0.48785086572242647 0.47628164528063233 0 0.47076079591842229 0.48402902573312923 0 0.48064266697128027 0.4673483066551633 0 0.5 0.46843982966384828 0 0.48785086572242647 0.47628164528063233 0 0.5 0.46843982966384828 0 0.50000000000000222 0.48530941907038949 0 0.48785086572242647 0.47628164528063233 0 0.45751300038554987 0.46615712058798953 0 0.48064266697128027 0.4673483066551633 0 0.47076079591842229 0.48402902573312923 0 0.48064266697128027 0.4673483066551633 0 0.48785086572242647 0.47628164528063233 0 0.47076079591842229 0.48402902573312923 0 0.47076079591842229 0.48402902573312923 0 0.48259950028877657 0.49999999999999922 0 0.45965124302753141 0.5 0 0.48834007405180069 0.49233461120087918 0 0.47076079591842229 0.48402902573312923 0 0.48259950028877657 0.49999999999999922 0 0.47076079591842229 0.48402902573312923 0 0.48259950028877657 0.49999999999999922 0 0.47076079591842229 0.48402902573312923 0 0.45965124302753141 0.5 0 0.44264557298028417 0.48279785186037327 0 0.45751300038554987 0.46615712058798953 0 0.47076079591842229 0.48402902573312923 0 0.47076079591842229 0.48402902573312923 0 0.44264557298028417 0.48279785186037327 0 0.45751300038554987 0.46615712058798953 0 0.47076079591842229 0.48402902573312923 0 0.44264557298028417 0.48279785186037327 0 0.44334270512280699 0.46695283516179431 0 0.44264557298028417 0.48279785186037327 0 0.42744619309891668 0.4675425472795256 0 0.44334270512280699 0.46695283516179431 0 0.45751300038554987 0.46615712058798953 0 0.44264557298028417 0.48279785186037327 0 0.45965124302753141 0.5 0 0.44264557298028417 0.48279785186037327 0 0.43670298576628619 0.5 0 0.44264557298028417 0.48279785186037327 0 0.42814010978677508 0.48883471415535268 0 0.41453035004214622 0.48156667798761449 0 0.43670298576628619 0.5 0 0.42814010978677508 0.48883471415535268 0 0.41868153035838401 0.49097432677342312 0 0.44264557298028417 0.48279785186037327 0 0.43670298576628619 0.5 0 0.42814010978677508 0.48883471415535268 0 0.43670298576628619 0.5 0 0.41375472850504103 0.5 0 0.41868153035838401 0.49097432677342312 0 0.41375472850504103 0.5 0 0.41868153035838401 0.49097432677342312 0 0.40912633217135602 0.48377127363976219 0 0.42814010978677508 0.48883471415535268 0 0.41868153035838401 0.49097432677342312 0 0.41453035004214622 0.48156667798761449 0 0.41868153035838401 0.49097432677342312 0 0.40912633217135602 0.48377127363976219 0 0.41453035004214622 0.48156667798761449 0 0.40882198151684829 0.470458307354371 0 0.40912633217135602 0.48377127363976219 0 0.42744619309891668 0.4675425472795256 0 0.40912633217135602 0.48377127363976219 0 0.42744619309891668 0.4675425472795256 0 0.40912633217135602 0.48377127363976219 0 0.41453035004214622 0.48156667798761449 0 0.42744619309891668 0.4675425472795256 0 0.40882198151684829 0.470458307354371 0 0.40912633217135602 0.48377127363976219 0 0.40257181831080802 0.47789339995616598 0 0.44264557298028417 0.48279785186037327 0 0.41453035004214622 0.48156667798761449 0 0.44264557298028417 0.48279785186037327 0 0.41453035004214622 0.48156667798761449 0 0.42744619309891668 0.4675425472795256 0 0.44576605402647751 0.45131382091928901 0 0.42744619309891668 0.4675425472795256 0 0.44576605402647751 0.45131382091928901 0 0.43097115028835131 0.45382894378787952 0 0.42744619309891668 0.4675425472795256 0 0.43097115028835131 0.45382894378787952 0 0.42744619309891668 0.4675425472795256 0 0.41709851720120961 0.46055572465752248 0 0.44086930591740259 0.443703986550611 0 0.4309855774719657 0.44262377444488737 0 0.4371491165808723 0.44919465112914592 0 0.43504649219903713 0.43385430946487219 0 0.44086930591740259 0.443703986550611 0 0.4309855774719657 0.44262377444488737 0 0.43097115028835131 0.45382894378787952 0 0.4309855774719657 0.44262377444488737 0 0.4371491165808723 0.44919465112914592 0 0.43097115028835131 0.45382894378787952 0 0.4309855774719657 0.44262377444488737 0 0.41665312800777271 0.44940921386284588 0 0.4216403136361262 0.43569606407888728 0 0.4309855774719657 0.44262377444488737 0 0.41665312800777271 0.44940921386284588 0 0.41665312800777271 0.44940921386284588 0 0.4029362549212489 0.45832899449672349 0 0.40092741287151468 0.44093224530230651 0 0.4216403136361262 0.43569606407888728 0 0.41665312800777271 0.44940921386284588 0 0.40092741287151468 0.44093224530230651 0 0.40882198151684829 0.470458307354371 0 0.42744619309891668 0.4675425472795256 0 0.41709851720120961 0.46055572465752248 0 0.43097115028835131 0.45382894378787952 0 0.41665312800777271 0.44940921386284588 0 0.41709851720120961 0.46055572465752248 0 0.41665312800777271 0.44940921386284588 0 0.41709851720120961 0.46055572465752248 0 0.4029362549212489 0.45832899449672349 0 0.40882198151684829 0.470458307354371 0 0.41709851720120961 0.46055572465752248 0 0.4029362549212489 0.45832899449672349 0 0.40882198151684829 0.470458307354371 0 0.4029362549212489 0.45832899449672349 0 0.3944208343110962 0.47305259584339332 0 0.4029362549212489 0.45832899449672349 0 0.38943508825963058 0.45629052964312111 0 0.3944208343110962 0.47305259584339332 0 0.4029362549212489 0.45832899449672349 0 0.40092741287151468 0.44093224530230651 0 0.38943508825963058 0.45629052964312111 0 0.40092741287151468 0.44093224530230651 0 0.37809165231809289 0.44568724501072521 0 0.38943508825963058 0.45629052964312111 0 0.37809165231809289 0.44568724501072521 0 0.38943508825963058 0.45629052964312111 0 0.37844435483634198 0.4675903904274426 0 0.38943508825963058 0.45629052964312111 0 0.37844435483634198 0.4675903904274426 0 0.3944208343110962 0.47305259584339332 0 0.37844435483634198 0.4675903904274426 0 0.38120033573297152 0.48442634992442057 0 0.3944208343110962 0.47305259584339332 0 0.38120033573297152 0.48442634992442057 0 0.3944208343110962 0.47305259584339332 0 0.39562515835400552 0.48382872387274839 0 0.36196284501337178 0.5 0 0.38120033573297152 0.48442634992442057 0 0.39080647124379558 0.49999999999999922 0 0.38120033573297152 0.48442634992442057 0 0.39080647124379558 0.49999999999999922 0 0.39562515835400552 0.48382872387274839 0 0.40912633217135602 0.48377127363976219 0 0.39080647124379558 0.49999999999999922 0 0.40912633217135602 0.48377127363976219 0 0.39080647124379558 0.49999999999999922 0 0.39562515835400552 0.48382872387274839 0 0.41375472850504103 0.5 0 0.40912633217135602 0.48377127363976219 0 0.39080647124379558 0.49999999999999922 0 0.40912633217135602 0.48377127363976219 0 0.40257181831080802 0.47789339995616598 0 0.39562515835400552 0.48382872387274839 0 0.40882198151684829 0.470458307354371 0 0.40257181831080802 0.47789339995616598 0 0.3944208343110962 0.47305259584339332 0 0.40257181831080802 0.47789339995616598 0 0.3944208343110962 0.47305259584339332 0 0.39562515835400552 0.48382872387274839 0 0.34137977846588119 0.091947059702449957 0 0.3184977734976509 0.082531855017860187 0 0.34137977846588119 0.091947059702449957 0 0.33853514524224232 0.092154422351098803 0 0.3184977734976509 0.082531855017860187 0 0.33853514524224232 0.092154422351098803 0 0.3184977734976509 0.082531855017860187 0 0.3305269393921435 0.093893314460775035 0 0.34137977846588119 0.091947059702449957 0 0.33488127772135701 0.070909675734900868 0 0.3184977734976509 0.082531855017860187 0 0.33488127772135701 0.070909675734900868 0 0.35624300874513559 0.071190975121652081 0 0.33828509493208109 0.051113002016081502 0 0.3184977734976509 0.082531855017860187 0 0.31750720709783492 0.060828210965220328 0 0.30506359630307739 0.067813250175554993 0 0.33488127772135701 0.070909675734900868 0 0.32846421329825382 0.059059627678852658 0 0.31750720709783492 0.060828210965220328 0 0.33488127772135701 0.070909675734900868 0 0.3184977734976509 0.082531855017860187 0 0.31750720709783492 0.060828210965220328 0 0.3184977734976509 0.082531855017860187 0 0.3254096333834442 0.096971455496547829 0 0.3305269393921435 0.093893314460775035 0 0.3184977734976509 0.082531855017860187 0 0.3254096333834442 0.096971455496547829 0 0.31111548734401751 0.094174984339189319 0 0.3254096333834442 0.096971455496547829 0 0.33219394353324039 0.1121017755840282 0 0.31111548734401751 0.094174984339189319 0 0.33219394353324039 0.1121017755840282 0 0.31111548734401751 0.094174984339189319 0 0.33219394353324039 0.1121017755840282 0 0.31151194808720201 0.1150643222194616 0 0.31111548734401751 0.094174984339189319 0 0.33219394353324039 0.1121017755840282 0 0.31151194808720201 0.1150643222194616 0 0.32387679174541939 0.1297141718462434 0 0.33219394353324039 0.1121017755840282 0 0.32387679174541939 0.1297141718462434 0 0.35327239972246333 0.1300285668288671 0 0.33219394353324039 0.1121017755840282 0 0.35327239972246333 0.1300285668288671 0 0.33219394353324039 0.1121017755840282 0 0.34279585490336462 0.1026082003979065 0 0.35159211237321392 0.11222190062690381 0 0.33853514524224232 0.092154422351098803 0 0.3305269393921435 0.093893314460775035 0 0.33650548478629722 0.09727411407467923 0 0.3254096333834442 0.096971455496547829 0 0.33351858274250701 0.1005678965871936 0 0.3305269393921435 0.093893314460775035 0 0.33351858274250701 0.1005678965871936 0 0.3305269393921435 0.093893314460775035 0 0.33650548478629722 0.09727411407467923 0 0.3254096333834442 0.096971455496547829 0 0.33219394353324039 0.1121017755840282 0 0.33351858274250701 0.1005678965871936 0 0.33219394353324039 0.1121017755840282 0 0.33351858274250701 0.1005678965871936 0 0.34279585490336462 0.1026082003979065 0 0.33351858274250701 0.1005678965871936 0 0.34279585490336462 0.1026082003979065 0 0.33650548478629722 0.09727411407467923 0 0.33853514524224232 0.092154422351098803 0 0.34279585490336462 0.1026082003979065 0 0.33650548478629722 0.09727411407467923 0 0.34279585490336462 0.1026082003979065 0 0.35159211237321392 0.11222190062690381 0 0.36426178343411147 0.1013622643870397 0 0.33853514524224232 0.092154422351098803 0 0.34279585490336462 0.1026082003979065 0 0.36426178343411147 0.1013622643870397 0 0.34137977846588119 0.091947059702449957 0 0.33853514524224232 0.092154422351098803 0 0.36426178343411147 0.1013622643870397 0 0.33853514524224232 0.092154422351098803 0 0.36426178343411147 0.1013622643870397 0 0.34137977846588119 0.091947059702449957 0 0.36426178343411147 0.1013622643870397 0 0.33219394353324039 0.1121017755840282 0 0.35159211237321392 0.11222190062690381 0 0.35327239972246333 0.1300285668288671 0 0.35159211237321392 0.11222190062690381 0 0.36649271172908648 0.1176987398754743 0 0.35327239972246333 0.1300285668288671 0 0.35159211237321392 0.11222190062690381 0 0.36649271172908648 0.1176987398754743 0 0.36426178343411147 0.1013622643870397 0 0.36649271172908648 0.1176987398754743 0 0.36938385952287339 0.13266757129752671 0 0.38138511069115272 0.12353481432135879 0 0.36649271172908648 0.1176987398754743 0 0.36426178343411147 0.1013622643870397 0 0.3795225325030368 0.1068242515199407 0 0.36426178343411147 0.1013622643870397 0 0.3795225325030368 0.1068242515199407 0 0.36426178343411147 0.1013622643870397 0 0.3742009225581896 0.091268948227223284 0 0.3795225325030368 0.1068242515199407 0 0.3742009225581896 0.091268948227223284 0 0.35754778501084228 0.087847667021068221 0 0.35624300874513559 0.071190975121652081 0 0.36426178343411147 0.1013622643870397 0 0.3742009225581896 0.091268948227223284 0 0.35754778501084228 0.087847667021068221 0 0.3742009225581896 0.091268948227223284 0 0.35624300874513559 0.071190975121652081 0 0.34137977846588119 0.091947059702449957 0 0.35754778501084228 0.087847667021068221 0 0.35624300874513559 0.071190975121652081 0 0.34137977846588119 0.091947059702449957 0 0.36426178343411147 0.1013622643870397 0 0.35754778501084228 0.087847667021068221 0 0.34137977846588119 0.091947059702449957 0 0.33488127772135701 0.070909675734900868 0 0.35624300874513559 0.071190975121652081 0 0.3742009225581896 0.091268948227223284 0 0.35624300874513559 0.071190975121652081 0 0.37575225644292037 0.071709270247263784 0 0.35624300874513559 0.071190975121652081 0 0.36737709041569239 0.056764699852256018 0 0.37575225644292037 0.071709270247263784 0 0.36737709041569239 0.056764699852256018 0 0.36443667806580698 0.054513224756226962 0 0.39058826119953283 0.057913447496371839 0 0.36443667806580698 0.054513224756226962 0 0.36984281421283938 0.03924660656396721 0 0.37608467898805159 0.048096788967416412 0 0.36984281421283938 0.03924660656396721 0 0.35576481933353549 0.041718099984820838 0 0.3798040161112804 0.028996110171619349 0 0.35576481933353549 0.041718099984820838 0 0.36136411866671431 0.026161729739540451 0 0.37786156531075732 0.02725125369877367 0 0.35576481933353549 0.041718099984820838 0 0.3798040161112804 0.028996110171619349 0 0.37786156531075732 0.02725125369877367 0 0.35576481933353549 0.041718099984820838 0 0.3798040161112804 0.028996110171619349 0 0.36984281421283938 0.03924660656396721 0 0.37726993283737248 0.041439113600633092 0 0.37608467898805159 0.048096788967416412 0 0.36984281421283938 0.03924660656396721 0 0.37675727284589372 0.036323400775862158 0 0.37726993283737248 0.041439113600633092 0 0.36443667806580698 0.054513224756226962 0 0.36984281421283938 0.03924660656396721 0 0.35576481933353549 0.041718099984820838 0 0.35576481933353549 0.041718099984820838 0 0.36136411866671431 0.026161729739540451 0 0.34099279295720591 0.031691385536231111 0 0.35576481933353549 0.041718099984820838 0 0.34539840685914608 0.044617690611648012 0 0.34099279295720591 0.031691385536231111 0 0.35624300874513559 0.071190975121652081 0 0.34416591963185211 0.055615952208139578 0 0.33828509493208109 0.051113002016081502 0 0.36443667806580698 0.054513224756226962 0 0.34416591963185211 0.055615952208139578 0 0.33828509493208109 0.051113002016081502 0 0.36737709041569239 0.056764699852256018 0 0.34416591963185211 0.055615952208139578 0 0.35624300874513559 0.071190975121652081 0 0.33828509493208109 0.051113002016081502 0 0.35624300874513559 0.071190975121652081 0 0.36737709041569239 0.056764699852256018 0 0.34416591963185211 0.055615952208139578 0 0.36443667806580698 0.054513224756226962 0 0.33828509493208109 0.051113002016081502 0 0.36443667806580698 0.054513224756226962 0 0.34539840685914608 0.044617690611648012 0 0.33828509493208109 0.051113002016081502 0 0.36443667806580698 0.054513224756226962 0 0.35576481933353549 0.041718099984820838 0 0.34539840685914608 0.044617690611648012 0 0.36737709041569239 0.056764699852256018 0 0.36443667806580698 0.054513224756226962 0 0.34416591963185211 0.055615952208139578 0 0.35686418876597309 0.010252504770385159 0 0.37537418671591988 0.012891754799621079 0 0.3700201466167648 -0.002195575246397889 0 0.35686418876597309 0.010252504770385159 0 0.37786156531075732 0.02725125369877367 0 0.36136411866671431 0.026161729739540451 0 0.35686418876597309 0.010252504770385159 0 0.37786156531075732 0.02725125369877367 0 0.35686418876597309 0.010252504770385159 0 0.37537418671591988 0.012891754799621079 0 0.37786156531075732 0.02725125369877367 0 0.36136411866671431 0.026161729739540451 0 0.35686418876597309 0.010252504770385159 0 0.34167945108238768 0.015605415956853899 0 0.36136411866671431 0.026161729739540451 0 0.34167945108238768 0.015605415956853899 0 0.34099279295720591 0.031691385536231111 0 0.35686418876597309 0.010252504770385159 0 0.34167945108238768 0.015605415956853899 0 0.33586681222118892 -0.0067462441580033658 0 0.35686418876597309 0.010252504770385159 0 0.33586681222118892 -0.0067462441580033658 0 0.34167945108238768 0.015605415956853899 0 0.32490055802469708 0.021190940670656921 0 0.33586681222118892 -0.0067462441580033658 0 0.34167945108238768 0.015605415956853899 0 0.32490055802469708 0.021190940670656921 0 0.34099279295720591 0.031691385536231111 0 0.32490055802469708 0.021190940670656921 0 0.34099279295720591 0.031691385536231111 0 0.32801258046435111 0.036170166979635328 0 0.32490055802469708 0.021190940670656921 0 0.31497710433926901 0.036033128519756527 0 0.30595588987094691 0.026092456194660541 0 0.32490055802469708 0.021190940670656921 0 0.31046320235639918 0.0067575729804437252 0 0.30595588987094691 0.026092456194660541 0 0.32490055802469708 0.021190940670656921 0 0.32801258046435111 0.036170166979635328 0 0.31497710433926901 0.036033128519756527 0 0.32490055802469708 0.021190940670656921 0 0.31046320235639918 0.0067575729804437252 0 0.33586681222118892 -0.0067462441580033658 0 0.33488127772135701 0.070909675734900868 0 0.32846421329825382 0.059059627678852658 0 0.33828509493208109 0.051113002016081502 0 0.33828509493208109 0.051113002016081502 0 0.33632782521092219 0.048924662700562782 0 0.31456469921871788 0.048028881697348168 0 0.34539840685914608 0.044617690611648012 0 0.33828509493208109 0.051113002016081502 0 0.33632782521092219 0.048924662700562782 0 0.33828509493208109 0.051113002016081502 0 0.33632782521092219 0.048924662700562782 0 0.34539840685914608 0.044617690611648012 0 0.33609782728063148 0.04111054955314445 0 0.34099279295720591 0.031691385536231111 0 0.34539840685914608 0.044617690611648012 0 0.33632782521092219 0.048924662700562782 0 0.33609782728063148 0.04111054955314445 0 0.33609782728063148 0.04111054955314445 0 0.34099279295720591 0.031691385536231111 0 0.32801258046435111 0.036170166979635328 0 0.33632782521092219 0.048924662700562782 0 0.33609782728063148 0.04111054955314445 0 0.33051084790212298 0.042529329228536181 0 0.33632782521092219 0.048924662700562782 0 0.33051084790212298 0.042529329228536181 0 0.32327528761916352 0.043108517346294839 0 0.33609782728063148 0.04111054955314445 0 0.33051084790212298 0.042529329228536181 0 0.32801258046435111 0.036170166979635328 0 0.33632782521092219 0.048924662700562782 0 0.32327528761916352 0.043108517346294839 0 0.31456469921871788 0.048028881697348168 0 0.33051084790212298 0.042529329228536181 0 0.32327528761916352 0.043108517346294839 0 0.32801258046435111 0.036170166979635328 0 0.32327528761916352 0.043108517346294839 0 0.32801258046435111 0.036170166979635328 0 0.31497710433926901 0.036033128519756527 0 0.32327528761916352 0.043108517346294839 0 0.31497710433926901 0.036033128519756527 0 0.31456469921871788 0.048028881697348168 0 0.33828509493208109 0.051113002016081502 0 0.31456469921871788 0.048028881697348168 0 0.32846421329825382 0.059059627678852658 0 0.33828509493208109 0.051113002016081502 0 0.31456469921871788 0.048028881697348168 0 0.32846421329825382 0.059059627678852658 0 0.31456469921871788 0.048028881697348168 0 0.31750720709783492 0.060828210965220328 0 0.31456469921871788 0.048028881697348168 0 0.31750720709783492 0.060828210965220328 0 0.30386903740065402 0.05697431224277244 0 0.31750720709783492 0.060828210965220328 0 0.30386903740065402 0.05697431224277244 0 0.30506359630307739 0.067813250175554993 0 0.31456469921871788 0.048028881697348168 0 0.30386903740065402 0.05697431224277244 0 0.29084430350535467 0.044944761378613682 0 0.30386903740065402 0.05697431224277244 0 0.29325963230024937 0.057606978803657879 0 0.29690158384745241 0.06457818982176422 0 0.31456469921871788 0.048028881697348168 0 0.30257644158749403 0.037675663858353942 0 0.29084430350535467 0.044944761378613682 0 0.31456469921871788 0.048028881697348168 0 0.29084430350535467 0.044944761378613682 0 0.30257644158749403 0.037675663858353942 0 0.28728110375769011 0.032980092644635972 0 0.30595588987094691 0.026092456194660541 0 0.31497710433926901 0.036033128519756527 0 0.31456469921871788 0.048028881697348168 0 0.30257644158749403 0.037675663858353942 0 0.31497710433926901 0.036033128519756527 0 0.30257644158749403 0.037675663858353942 0 0.30595588987094691 0.026092456194660541 0 0.28728110375769011 0.032980092644635972 0 0.28354425329012439 0.021068516806879451 0 0.27754771987688809 0.040797440569893019 0 0.30257644158749403 0.037675663858353942 0 0.29084430350535467 0.044944761378613682 0 0.28728110375769011 0.032980092644635972 0 0.28728110375769011 0.032980092644635972 0 0.2844924432277231 0.043204628682168907 0 0.27754771987688809 0.040797440569893019 0 0.29084430350535467 0.044944761378613682 0 0.28728110375769011 0.032980092644635972 0 0.2844924432277231 0.043204628682168907 0 0.2844924432277231 0.043204628682168907 0 0.28229664577095948 0.054096220135532967 0 0.27754771987688809 0.040797440569893019 0 0.29084430350535467 0.044944761378613682 0 0.2844924432277231 0.043204628682168907 0 0.28229664577095948 0.054096220135532967 0 0.29084430350535467 0.044944761378613682 0 0.28229664577095948 0.054096220135532967 0 0.29325963230024937 0.057606978803657879 0 0.28229664577095948 0.054096220135532967 0 0.28695696052130792 0.062426000594819037 0 0.29325963230024937 0.057606978803657879 0 0.28229664577095948 0.054096220135532967 0 0.28695696052130792 0.062426000594819037 0 0.27961998430175328 0.060695812266760227 0 0.28695696052130792 0.062426000594819037 0 0.29325963230024937 0.057606978803657879 0 0.29690158384745241 0.06457818982176422 0 0.30386903740065402 0.05697431224277244 0 0.29084430350535467 0.044944761378613682 0 0.29325963230024937 0.057606978803657879 0 0.31046320235639918 0.0067575729804437252 0 0.29633736445586178 0.016145334388179639 0 0.2895407867033607 0.0013395930438658619 0 0.31046320235639918 0.0067575729804437252 0 0.30595588987094691 0.026092456194660541 0 0.29633736445586178 0.016145334388179639 0 0.28728110375769011 0.032980092644635972 0 0.29633736445586178 0.016145334388179639 0 0.28354425329012439 0.021068516806879451 0 0.28728110375769011 0.032980092644635972 0 0.30595588987094691 0.026092456194660541 0 0.29633736445586178 0.016145334388179639 0 0.29633736445586178 0.016145334388179639 0 0.28354425329012439 0.021068516806879451 0 0.2895407867033607 0.0013395930438658619 0 0.28354425329012439 0.021068516806879451 0 0.2895407867033607 0.0013395930438658619 0 0.27605408581287011 0.0090157940159830471 0 0.28354425329012439 0.021068516806879451 0 0.2895407867033607 0.0013395930438658619 0 0.2895407867033607 0.0013395930438658619 0 0.27605408581287011 0.0090157940159830471 0 0.26778398551549509 -0.0036893303100333872 0 0.27605408581287011 0.0090157940159830471 0 0.26417056773795178 0.0090152440179189393 0 0.26778398551549509 -0.0036893303100333872 0 0.27605408581287011 0.0090157940159830471 0 0.26936383070045983 0.02007531215695801 0 0.26417056773795178 0.0090152440179189393 0 0.28354425329012439 0.021068516806879451 0 0.27754771987688809 0.040797440569893019 0 0.28354425329012439 0.021068516806879451 0 0.27605408581287011 0.0090157940159830471 0 0.26936383070045983 0.02007531215695801 0 0.28354425329012439 0.021068516806879451 0 0.26936383070045983 0.02007531215695801 0 0.27332262009486957 0.033728107725222278 0 0.26936383070045983 0.02007531215695801 0 0.26667678125960848 0.028969541142501901 0 0.27332262009486957 0.033728107725222278 0 0.26936383070045983 0.02007531215695801 0 0.26667678125960848 0.028969541142501901 0 0.25978705670837199 0.02772172808684556 0 0.26667678125960848 0.028969541142501901 0 0.25978705670837199 0.02772172808684556 0 0.26423361753473251 0.034353016600981737 0 0.24818833723327199 0.02644705719899533 0 0.25978705670837199 0.02772172808684556 0 0.25442723867738032 0.016379625870619269 0 0.24818833723327199 0.02644705719899533 0 0.25978705670837199 0.02772172808684556 0 0.25704478259505842 0.035809011079610743 0 0.26936383070045983 0.02007531215695801 0 0.25978705670837199 0.02772172808684556 0 0.25442723867738032 0.016379625870619269 0 0.26936383070045983 0.02007531215695801 0 0.25442723867738032 0.016379625870619269 0 0.26417056773795178 0.0090152440179189393 0 0.25442723867738032 0.016379625870619269 0 0.26417056773795178 0.0090152440179189393 0 0.25322369798355371 0.0032948183560677501 0 0.26417056773795178 0.0090152440179189393 0 0.25322369798355371 0.0032948183560677501 0 0.26778398551549509 -0.0036893303100333872 0 0.28229664577095948 0.054096220135532967 0 0.27155118646365262 0.060526364332906778 0 0.27754771987688809 0.040797440569893019 0 0.26803735397675288 0.057537922442449492 0 0.27155118646365262 0.060526364332906778 0 0.27754771987688809 0.040797440569893019 0 0.27155118646365262 0.060526364332906778 0 0.27754771987688809 0.040797440569893019 0 0.26803735397675288 0.057537922442449492 0 0.26717674565759131 0.061414912581717808 0 0.27155118646365262 0.060526364332906778 0 0.26803735397675288 0.057537922442449492 0 0.26717674565759131 0.061414912581717808 0 0.26717674565759131 0.061414912581717808 0 0.27082486665434358 0.062915996334918609 0 0.26717674565759131 0.061414912581717808 0 0.27155118646365262 0.060526364332906778 0 0.27082486665434358 0.062915996334918609 0 0.27155118646365262 0.060526364332906778 0 0.27082486665434358 0.062915996334918609 0 0.26803735397675288 0.057537922442449492 0 0.27155118646365262 0.060526364332906778 0 0.27155118646365262 0.060526364332906778 0 0.27961998430175328 0.060695812266760227 0 0.27767514445109232 0.065734664003783444 0 0.28229664577095948 0.054096220135532967 0 0.27155118646365262 0.060526364332906778 0 0.27961998430175328 0.060695812266760227 0 0.28354425329012439 0.021068516806879451 0 0.27754771987688809 0.040797440569893019 0 0.27332262009486957 0.033728107725222278 0 0.26803735397675288 0.057537922442449492 0 0.27754771987688809 0.040797440569893019 0 0.27332262009486957 0.033728107725222278 0 0.26803735397675288 0.057537922442449492 0 0.27332262009486957 0.033728107725222278 0 0.26337349528673171 0.044011131262296957 0 0.26803735397675288 0.057537922442449492 0 0.27332262009486957 0.033728107725222278 0 0.26667678125960848 0.028969541142501901 0 0.27332262009486957 0.033728107725222278 0 0.26423361753473251 0.034353016600981737 0 0.27332262009486957 0.033728107725222278 0 0.26337349528673171 0.044011131262296957 0 0.26423361753473251 0.034353016600981737 0 0.25978705670837199 0.02772172808684556 0 0.26423361753473251 0.034353016600981737 0 0.25704478259505842 0.035809011079610743 0 0.26337349528673171 0.044011131262296957 0 0.26423361753473251 0.034353016600981737 0 0.25704478259505842 0.035809011079610743 0 0.2492733855269578 0.041579555173777823 0 0.24818833723327199 0.02644705719899533 0 0.25704478259505842 0.035809011079610743 0 0.2492733855269578 0.041579555173777823 0 0.26337349528673171 0.044011131262296957 0 0.25704478259505842 0.035809011079610743 0 0.2492733855269578 0.041579555173777823 0 0.26803735397675288 0.057537922442449492 0 0.26337349528673171 0.044011131262296957 0 0.2492733855269578 0.041579555173777823 0 0.26803735397675288 0.057537922442449492 0 0.24629062771517271 0.052820950830226497 0 0.2492733855269578 0.041579555173777823 0 0.26803735397675288 0.057537922442449492 0 0.24874122334595 0.07170785510379532 0 0.24629062771517271 0.052820950830226497 0 0.26717674565759131 0.061414912581717808 0 0.24629062771517271 0.052820950830226497 0 0.26717674565759131 0.061414912581717808 0 0.24629062771517271 0.052820950830226497 0 0.26803735397675288 0.057537922442449492 0 0.26717674565759131 0.061414912581717808 0 0.24874122334595 0.07170785510379532 0 0.26717674565759131 0.061414912581717808 0 0.26207170159221099 0.084412837492877896 0 0.26717674565759131 0.061414912581717808 0 0.26207170159221099 0.084412837492877896 0 0.26717674565759131 0.061414912581717808 0 0.26459661937193729 0.083407271434054076 0 0.26207170159221099 0.084412837492877896 0 0.24736227196270541 0.090270970101712061 0 0.24874122334595 0.07170785510379532 0 0.26207170159221099 0.084412837492877896 0 0.24736227196270541 0.090270970101712061 0 0.26207170159221099 0.084412837492877896 0 0.24736227196270541 0.090270970101712061 0 0.26016144869860108 0.09301841504440217 0 0.25459763100830068 0.096141582858552177 0 0.24736227196270541 0.090270970101712061 0 0.26207170159221099 0.084412837492877896 0 0.26016144869860108 0.09301841504440217 0 0.24736227196270541 0.090270970101712061 0 0.25459763100830068 0.096141582858552177 0 0.26459661937193729 0.083407271434054076 0 0.26207170159221099 0.084412837492877896 0 0.26207170159221099 0.084412837492877896 0 0.26016144869860108 0.09301841504440217 0 0.26459661937193729 0.083407271434054076 0 0.2619867778419176 0.09199379318438361 0 0.26207170159221099 0.084412837492877896 0 0.2619867778419176 0.09199379318438361 0 0.26016144869860108 0.09301841504440217 0 0.26459661937193729 0.083407271434054076 0 0.26207170159221099 0.084412837492877896 0 0.2619867778419176 0.09199379318438361 0 0.2619867778419176 0.09199379318438361 0 0.26016144869860108 0.09301841504440217 0 0.26459661937193729 0.083407271434054076 0 0.28765643041333783 0.074223541376674432 0 0.26459661937193729 0.083407271434054076 0 0.27601190449835611 0.084120993139366301 0 0.28765643041333783 0.074223541376674432 0 0.2619867778419176 0.09199379318438361 0 0.27601190449835611 0.084120993139366301 0 0.27597760534302263 0.093816081557894046 0 0.2619867778419176 0.09199379318438361 0 0.27601190449835611 0.084120993139366301 0 0.26459661937193729 0.083407271434054076 0 0.2619867778419176 0.09199379318438361 0 0.27601190449835611 0.084120993139366301 0 0.27601190449835611 0.084120993139366301 0 0.28527214605629803 0.093542631019163408 0 0.27597760534302263 0.093816081557894046 0 0.26459661937193729 0.083407271434054076 0 0.27082486665434358 0.062915996334918609 0 0.26717674565759131 0.061414912581717808 0 0.26459661937193729 0.083407271434054076 0 0.27082486665434358 0.062915996334918609 0 0.26459661937193729 0.083407271434054076 0 0.27082486665434358 0.062915996334918609 0 0.27767514445109232 0.065734664003783444 0 0.26459661937193729 0.083407271434054076 0 0.27767514445109232 0.065734664003783444 0 0.28765643041333783 0.074223541376674432 0 0.27155118646365262 0.060526364332906778 0 0.27082486665434358 0.062915996334918609 0 0.27767514445109232 0.065734664003783444 0 0.27082486665434358 0.062915996334918609 0 0.27767514445109232 0.065734664003783444 0 0.27155118646365262 0.060526364332906778 0 0.27767514445109232 0.065734664003783444 0 0.27767514445109232 0.065734664003783444 0 0.28765643041333783 0.074223541376674432 0 0.27767514445109232 0.065734664003783444 0 0.29306802488508721 0.072068336257275281 0 0.28695696052130792 0.062426000594819037 0 0.27961998430175328 0.060695812266760227 0 0.27767514445109232 0.065734664003783444 0 0.28695696052130792 0.062426000594819037 0 0.27767514445109232 0.065734664003783444 0 0.29306802488508721 0.072068336257275281 0 0.28695696052130792 0.062426000594819037 0 0.29306802488508721 0.072068336257275281 0 0.29690158384745241 0.06457818982176422 0 0.29561576852942001 0.073116650333272012 0 0.29306802488508721 0.072068336257275281 0 0.29561576852942001 0.073116650333272012 0 0.29306802488508721 0.072068336257275281 0 0.29003703115479512 0.076248193094349867 0 0.29306802488508721 0.072068336257275281 0 0.28765643041333783 0.074223541376674432 0 0.29306802488508721 0.072068336257275281 0 0.29003703115479512 0.076248193094349867 0 0.28765643041333783 0.074223541376674432 0 0.29561576852942001 0.073116650333272012 0 0.29003703115479512 0.076248193094349867 0 0.27767514445109232 0.065734664003783444 0 0.29306802488508721 0.072068336257275281 0 0.28765643041333783 0.074223541376674432 0 0.29003703115479512 0.076248193094349867 0 0.28765643041333783 0.074223541376674432 0 0.27601190449835611 0.084120993139366301 0 0.29003703115479512 0.076248193094349867 0 0.27601190449835611 0.084120993139366301 0 0.29003703115479512 0.076248193094349867 0 0.28765643041333783 0.074223541376674432 0 0.27601190449835611 0.084120993139366301 0 0.29003703115479512 0.076248193094349867 0 0.28870857493654689 0.086239244916881869 0 0.27601190449835611 0.084120993139366301 0 0.28870857493654689 0.086239244916881869 0 0.28527214605629803 0.093542631019163408 0 0.28870857493654689 0.086239244916881869 0 0.28527214605629803 0.093542631019163408 0 0.29246213629446111 0.095768124011444758 0 0.28870857493654689 0.086239244916881869 0 0.29698271976236568 0.089899813846382556 0 0.29246213629446111 0.095768124011444758 0 0.29003703115479512 0.076248193094349867 0 0.28870857493654689 0.086239244916881869 0 0.29698271976236568 0.089899813846382556 0 0.29561576852942001 0.073116650333272012 0 0.29003703115479512 0.076248193094349867 0 0.31111548734401751 0.094174984339189319 0 0.29003703115479512 0.076248193094349867 0 0.31111548734401751 0.094174984339189319 0 0.29003703115479512 0.076248193094349867 0 0.29698271976236568 0.089899813846382556 0 0.31111548734401751 0.094174984339189319 0 0.3184977734976509 0.082531855017860187 0 0.29561576852942001 0.073116650333272012 0 0.31111548734401751 0.094174984339189319 0 0.3184977734976509 0.082531855017860187 0 0.29561576852942001 0.073116650333272012 0 0.3184977734976509 0.082531855017860187 0 0.29561576852942001 0.073116650333272012 0 0.30506359630307739 0.067813250175554993 0 0.31750720709783492 0.060828210965220328 0 0.30506359630307739 0.067813250175554993 0 0.29306802488508721 0.072068336257275281 0 0.30506359630307739 0.067813250175554993 0 0.29690158384745241 0.06457818982176422 0 0.30386903740065402 0.05697431224277244 0 0.30506359630307739 0.067813250175554993 0 0.29690158384745241 0.06457818982176422 0 0.29306802488508721 0.072068336257275281 0 0.30506359630307739 0.067813250175554993 0 0.29561576852942001 0.073116650333272012 0 0.30506359630307739 0.067813250175554993 0 0.29561576852942001 0.073116650333272012 0 0.29306802488508721 0.072068336257275281 0 0.30506359630307739 0.067813250175554993 0 0.31151194808720201 0.1150643222194616 0 0.30247500772594699 0.1071381656543656 0 0.29129275041579278 0.1172303442398579 0 0.31151194808720201 0.1150643222194616 0 0.29622008012258699 0.12991313160987961 0 0.32387679174541939 0.1297141718462434 0 0.31151194808720201 0.1150643222194616 0 0.29129275041579278 0.1172303442398579 0 0.29622008012258699 0.12991313160987961 0 0.31151194808720201 0.1150643222194616 0 0.31111548734401751 0.094174984339189319 0 0.30247500772594699 0.1071381656543656 0 0.31111548734401751 0.094174984339189319 0 0.30128354362195031 0.098124169066782854 0 0.30247500772594699 0.1071381656543656 0 0.29698271976236568 0.089899813846382556 0 0.30128354362195031 0.098124169066782854 0 0.29246213629446111 0.095768124011444758 0 0.29698271976236568 0.089899813846382556 0 0.31111548734401751 0.094174984339189319 0 0.30128354362195031 0.098124169066782854 0 0.30128354362195031 0.098124169066782854 0 0.30247500772594699 0.1071381656543656 0 0.29260899031297011 0.10538418601464609 0 0.29260899031297011 0.10538418601464609 0 0.29246213629446111 0.095768124011444758 0 0.28702757351663483 0.1001100210532227 0 0.30128354362195031 0.098124169066782854 0 0.29260899031297011 0.10538418601464609 0 0.29246213629446111 0.095768124011444758 0 0.28527214605629803 0.093542631019163408 0 0.29246213629446111 0.095768124011444758 0 0.28702757351663483 0.1001100210532227 0 0.28527214605629803 0.093542631019163408 0 0.28702757351663483 0.1001100210532227 0 0.28108272677848523 0.099874609951530163 0 0.29260899031297011 0.10538418601464609 0 0.28356239405763972 0.106033323917978 0 0.28664880997705461 0.11131452551203889 0 0.29260899031297011 0.10538418601464609 0 0.28702757351663483 0.1001100210532227 0 0.28356239405763972 0.106033323917978 0 0.28702757351663483 0.1001100210532227 0 0.28356239405763972 0.106033323917978 0 0.28108272677848523 0.099874609951530163 0 0.28356239405763972 0.106033323917978 0 0.2814598539497668 0.10990299155730229 0 0.28664880997705461 0.11131452551203889 0 0.27786688771157569 0.1150217509861922 0 0.29622008012258699 0.12991313160987961 0 0.28664880997705461 0.11131452551203889 0 0.29129275041579278 0.1172303442398579 0 0.27786688771157569 0.1150217509861922 0 0.27786688771157569 0.1150217509861922 0 0.27913813953766042 0.12972245958528131 0 0.29622008012258699 0.12991313160987961 0 0.29129275041579278 0.1172303442398579 0 0.27786688771157569 0.1150217509861922 0 0.29622008012258699 0.12991313160987961 0 0.2814598539497668 0.10990299155730229 0 0.28664880997705461 0.11131452551203889 0 0.27786688771157569 0.1150217509861922 0 0.30247500772594699 0.1071381656543656 0 0.29260899031297011 0.10538418601464609 0 0.29129275041579278 0.1172303442398579 0 0.29260899031297011 0.10538418601464609 0 0.28664880997705461 0.11131452551203889 0 0.29129275041579278 0.1172303442398579 0 0.27418517611644572 0.1163335826691398 0 0.26638390190257438 0.1102685147937751 0 0.25655208948606423 0.10927836717886751 0 0.27786688771157569 0.1150217509861922 0 0.27418517611644572 0.1163335826691398 0 0.27913813953766042 0.12972245958528131 0 0.27418517611644572 0.1163335826691398 0 0.27248198541775659 0.12784311929978001 0 0.27913813953766042 0.12972245958528131 0 0.2814598539497668 0.10990299155730229 0 0.27786688771157569 0.1150217509861922 0 0.27702128122739278 0.10689832557857171 0 0.27786688771157569 0.1150217509861922 0 0.27418517611644572 0.1163335826691398 0 0.26638390190257438 0.1102685147937751 0 0.27418517611644572 0.1163335826691398 0 0.26888095198589312 0.11979825388229511 0 0.26487973471170051 0.1148861259760711 0 0.27418517611644572 0.1163335826691398 0 0.26888095198589312 0.11979825388229511 0 0.27248198541775659 0.12784311929978001 0 0.26888095198589312 0.11979825388229511 0 0.26519442307348812 0.1188177922564181 0 0.26487973471170051 0.1148861259760711 0 0.26888095198589312 0.11979825388229511 0 0.26562400985315288 0.1251654340079911 0 0.27248198541775659 0.12784311929978001 0 0.26888095198589312 0.11979825388229511 0 0.26519442307348812 0.1188177922564181 0 0.26562400985315288 0.1251654340079911 0 0.27786688771157569 0.1150217509861922 0 0.26638390190257438 0.1102685147937751 0 0.25872482925013801 0.09949030162923457 0 0.27786688771157569 0.1150217509861922 0 0.25872482925013801 0.09949030162923457 0 0.27786688771157569 0.1150217509861922 0 0.27150352658480642 0.1040925172930806 0 0.25872482925013801 0.09949030162923457 0 0.28527214605629803 0.093542631019163408 0 0.27597760534302263 0.093816081557894046 0 0.28108272677848523 0.099874609951530163 0 0.27597760534302263 0.093816081557894046 0 0.28108272677848523 0.099874609951530163 0 0.27461357126647679 0.10027579108255071 0 0.27786688771157569 0.1150217509861922 0 0.27702128122739278 0.10689832557857171 0 0.27150352658480642 0.1040925172930806 0 0.27461357126647679 0.10027579108255071 0 0.27702128122739278 0.10689832557857171 0 0.27150352658480642 0.1040925172930806 0 0.28356239405763972 0.106033323917978 0 0.28108272677848523 0.099874609951530163 0 0.27702128122739278 0.10689832557857171 0 0.28108272677848523 0.099874609951530163 0 0.27461357126647679 0.10027579108255071 0 0.27702128122739278 0.10689832557857171 0 0.28356239405763972 0.106033323917978 0 0.2814598539497668 0.10990299155730229 0 0.27702128122739278 0.10689832557857171 0 0.2619867778419176 0.09199379318438361 0 0.27597760534302263 0.093816081557894046 0 0.26850219741802223 0.0981363484555835 0 0.27150352658480642 0.1040925172930806 0 0.26850219741802223 0.0981363484555835 0 0.25872482925013801 0.09949030162923457 0 0.27461357126647679 0.10027579108255071 0 0.27150352658480642 0.1040925172930806 0 0.26850219741802223 0.0981363484555835 0 0.27597760534302263 0.093816081557894046 0 0.27461357126647679 0.10027579108255071 0 0.26850219741802223 0.0981363484555835 0 0.2619867778419176 0.09199379318438361 0 0.26850219741802223 0.0981363484555835 0 0.25872482925013801 0.09949030162923457 0 0.2619867778419176 0.09199379318438361 0 0.26016144869860108 0.09301841504440217 0 0.25872482925013801 0.09949030162923457 0 0.2619867778419176 0.09199379318438361 0 0.25872482925013801 0.09949030162923457 0 0.26016144869860108 0.09301841504440217 0 0.25872482925013801 0.09949030162923457 0 0.26016144869860108 0.09301841504440217 0 0.25872482925013801 0.09949030162923457 0 0.25459763100830068 0.096141582858552177 0 0.26638390190257438 0.1102685147937751 0 0.25872482925013801 0.09949030162923457 0 0.26054083413963042 0.1068609537315081 0 0.26638390190257438 0.1102685147937751 0 0.26054083413963042 0.1068609537315081 0 0.25655208948606423 0.10927836717886751 0 0.25872482925013801 0.09949030162923457 0 0.258042440935632 0.10497087790269199 0 0.26054083413963042 0.1068609537315081 0 0.25872482925013801 0.09949030162923457 0 0.258042440935632 0.10497087790269199 0 0.258042440935632 0.10497087790269199 0 0.26054083413963042 0.1068609537315081 0 0.25655208948606423 0.10927836717886751 0 0.25872482925013801 0.09949030162923457 0 0.25655208948606423 0.10927836717886751 0 0.25872482925013801 0.09949030162923457 0 0.25655208948606423 0.10927836717886751 0 0.25459763100830068 0.096141582858552177 0 0.24174744587836799 0.1033548466348798 0 0.25655208948606423 0.10927836717886751 0 0.25459763100830068 0.096141582858552177 0 0.25872482925013801 0.09949030162923457 0 0.258042440935632 0.10497087790269199 0 0.25655208948606423 0.10927836717886751 0 0.25872482925013801 0.09949030162923457 0 0.25459763100830068 0.096141582858552177 0 0.26016144869860108 0.09301841504440217 0 0.25459763100830068 0.096141582858552177 0 0.27418517611644572 0.1163335826691398 0 0.25655208948606423 0.10927836717886751 0 0.26487973471170051 0.1148861259760711 0 0.27418517611644572 0.1163335826691398 0 0.25655208948606423 0.10927836717886751 0 0.2613903323121034 0.11972876860365821 0 0.25824300399834771 0.11754386918627879 0 0.25813574029091341 0.12532111527980791 0 0.2613903323121034 0.11972876860365821 0 0.25824300399834771 0.11754386918627879 0 0.26064106818342869 0.11649387083006101 0 0.2613903323121034 0.11972876860365821 0 0.26303182906276251 0.1167652494283456 0 0.26064106818342869 0.11649387083006101 0 0.2613903323121034 0.11972876860365821 0 0.25813574029091341 0.12532111527980791 0 0.26562400985315288 0.1251654340079911 0 0.2613903323121034 0.11972876860365821 0 0.26519442307348812 0.1188177922564181 0 0.26562400985315288 0.1251654340079911 0 0.2613903323121034 0.11972876860365821 0 0.26519442307348812 0.1188177922564181 0 0.26303182906276251 0.1167652494283456 0 0.26487973471170051 0.1148861259760711 0 0.2618287337373767 0.1148464313763837 0 0.2589676606418963 0.1122376160430168 0 0.25655208948606423 0.10927836717886751 0 0.26487973471170051 0.1148861259760711 0 0.2589676606418963 0.1122376160430168 0 0.26519442307348812 0.1188177922564181 0 0.26487973471170051 0.1148861259760711 0 0.26303182906276251 0.1167652494283456 0 0.26487973471170051 0.1148861259760711 0 0.2618287337373767 0.1148464313763837 0 0.26303182906276251 0.1167652494283456 0 0.2618287337373767 0.1148464313763837 0 0.26303182906276251 0.1167652494283456 0 0.26064106818342869 0.11649387083006101 0 0.2618287337373767 0.1148464313763837 0 0.26064106818342869 0.11649387083006101 0 0.26015078570541528 0.1146524558252945 0 0.2618287337373767 0.1148464313763837 0 0.2589676606418963 0.1122376160430168 0 0.26015078570541528 0.1146524558252945 0 0.2589676606418963 0.1122376160430168 0 0.26015078570541528 0.1146524558252945 0 0.25777400528710798 0.1147846643059361 0 0.25824300399834771 0.11754386918627879 0 0.26015078570541528 0.1146524558252945 0 0.25777400528710798 0.1147846643059361 0 0.25824300399834771 0.11754386918627879 0 0.26064106818342869 0.11649387083006101 0 0.26015078570541528 0.1146524558252945 0 0.24646482385440791 0.1109165710353929 0 0.25655208948606423 0.10927836717886751 0 0.255186127323073 0.11543194682551421 0 0.25824300399834771 0.11754386918627879 0 0.25777400528710798 0.1147846643059361 0 0.255186127323073 0.11543194682551421 0 0.2589676606418963 0.1122376160430168 0 0.25777400528710798 0.1147846643059361 0 0.255186127323073 0.11543194682551421 0 0.25655208948606423 0.10927836717886751 0 0.255186127323073 0.11543194682551421 0 0.25655208948606423 0.10927836717886751 0 0.2589676606418963 0.1122376160430168 0 0.255186127323073 0.11543194682551421 0 0.255186127323073 0.11543194682551421 0 0.25238596385504641 0.12804651946228041 0 0.24420216851797599 0.1292372680552665 0 0.255186127323073 0.11543194682551421 0 0.25238596385504641 0.12804651946228041 0 0.255186127323073 0.11543194682551421 0 0.25238596385504641 0.12804651946228041 0 0.25813574029091341 0.12532111527980791 0 0.25824300399834771 0.11754386918627879 0 0.255186127323073 0.11543194682551421 0 0.25813574029091341 0.12532111527980791 0 0.25238596385504641 0.12804651946228041 0 0.25813574029091341 0.12532111527980791 0 0.26818611498992623 0.1403022215883418 0 0.24420216851797599 0.1292372680552665 0 0.26818611498992623 0.1403022215883418 0 0.24301228879775941 0.13939302681245261 0 0.24420216851797599 0.1292372680552665 0 0.26818611498992623 0.1403022215883418 0 0.24420216851797599 0.1292372680552665 0 0.25238596385504641 0.12804651946228041 0 0.26818611498992623 0.1403022215883418 0 0.25813574029091341 0.12532111527980791 0 0.26562400985315288 0.1251654340079911 0 0.26818611498992623 0.1403022215883418 0 0.27248198541775659 0.12784311929978001 0 0.26818611498992623 0.1403022215883418 0 0.27913813953766042 0.12972245958528131 0 0.26562400985315288 0.1251654340079911 0 0.27248198541775659 0.12784311929978001 0 0.26818611498992623 0.1403022215883418 0 0.26818611498992623 0.1403022215883418 0 0.27913813953766042 0.12972245958528131 0 0.28414721419066807 0.1482284927670183 0 0.26818611498992623 0.1403022215883418 0 0.26583546295036609 0.16369396270660089 0 0.28414721419066807 0.1482284927670183 0 0.26818611498992623 0.1403022215883418 0 0.25486404381895789 0.1523024957907583 0 0.26583546295036609 0.16369396270660089 0 0.24301228879775941 0.13939302681245261 0 0.26818611498992623 0.1403022215883418 0 0.25486404381895789 0.1523024957907583 0 0.2424223085377801 0.16582077205563811 0 0.25486404381895789 0.1523024957907583 0 0.26583546295036609 0.16369396270660089 0 0.2424223085377801 0.16582077205563811 0 0.26032431562704572 0.18342712708893841 0 0.26583546295036609 0.16369396270660089 0 0.26032431562704572 0.18342712708893841 0 0.27712404590978218 0.18082877805207789 0 0.26583546295036609 0.16369396270660089 0 0.27712404590978218 0.18082877805207789 0 0.26583546295036609 0.16369396270660089 0 0.28977860037431658 0.16805367250728201 0 0.26583546295036609 0.16369396270660089 0 0.28977860037431658 0.16805367250728201 0 0.28414721419066807 0.1482284927670183 0 0.27712404590978218 0.18082877805207789 0 0.28977860037431658 0.16805367250728201 0 0.29478084704188562 0.18627619782702401 0 0.28977860037431658 0.16805367250728201 0 0.29478084704188562 0.18627619782702401 0 0.31259037162619269 0.16725562300018509 0 0.29478084704188562 0.18627619782702401 0 0.31732062797233113 0.1926592597090995 0 0.31259037162619269 0.16725562300018509 0 0.28977860037431658 0.16805367250728201 0 0.29946190776947251 0.15165108642358641 0 0.31259037162619269 0.16725562300018509 0 0.29946190776947251 0.15165108642358641 0 0.31457327253359829 0.14480451223356691 0 0.31259037162619269 0.16725562300018509 0 0.29946190776947251 0.15165108642358641 0 0.29622008012258699 0.12991313160987961 0 0.31457327253359829 0.14480451223356691 0 0.29622008012258699 0.12991313160987961 0 0.31457327253359829 0.14480451223356691 0 0.29622008012258699 0.12991313160987961 0 0.32387679174541939 0.1297141718462434 0 0.31457327253359829 0.14480451223356691 0 0.27913813953766042 0.12972245958528131 0 0.29622008012258699 0.12991313160987961 0 0.28414721419066807 0.1482284927670183 0 0.29946190776947251 0.15165108642358641 0 0.29622008012258699 0.12991313160987961 0 0.28414721419066807 0.1482284927670183 0 0.28977860037431658 0.16805367250728201 0 0.29946190776947251 0.15165108642358641 0 0.28414721419066807 0.1482284927670183 0 0.27355486584907379 0.24364475180805101 0 0.25452501640087027 0.2374112721999547 0 0.26408278890255732 0.22479217687295791 0 0.25404003316197471 0.25208422786308371 0 0.27355486584907379 0.24364475180805101 0 0.25452501640087027 0.2374112721999547 0 0.24523436150048811 0.24199469982198529 0 0.25404003316197471 0.25208422786308371 0 0.25452501640087027 0.2374112721999547 0 0.24868260911088891 0.2303107595792985 0 0.2471090749199483 0.2357199094212839 0 0.25452501640087027 0.2374112721999547 0 0.24868260911088891 0.2303107595792985 0 0.25452501640087027 0.2374112721999547 0 0.26408278890255732 0.22479217687295791 0 0.24868260911088891 0.2303107595792985 0 0.26408278890255732 0.22479217687295791 0 0.25357276657721323 0.21641202867955539 0 0.27355486584907379 0.24364475180805101 0 0.26408278890255732 0.22479217687295791 0 0.28109637724199782 0.22150209212538899 0 0.26408278890255732 0.22479217687295791 0 0.28109637724199782 0.22150209212538899 0 0.27306509823529962 0.19947215684549871 0 0.26408278890255732 0.22479217687295791 0 0.25357276657721323 0.21641202867955539 0 0.27306509823529962 0.19947215684549871 0 0.25357276657721323 0.21641202867955539 0 0.25471258750952741 0.20148162901819469 0 0.27306509823529962 0.19947215684549871 0 0.25357276657721323 0.21641202867955539 0 0.27306509823529962 0.19947215684549871 0 0.2418323282778008 0.1922485172988235 0 0.26032431562704572 0.18342712708893841 0 0.25471258750952741 0.20148162901819469 0 0.26032431562704572 0.18342712708893841 0 0.25471258750952741 0.20148162901819469 0 0.27306509823529962 0.19947215684549871 0 0.26032431562704572 0.18342712708893841 0 0.27712404590978218 0.18082877805207789 0 0.27306509823529962 0.19947215684549871 0 0.29478084704188562 0.18627619782702401 0 0.27306509823529962 0.19947215684549871 0 0.29788838547339219 0.20777731020547871 0 0.27712404590978218 0.18082877805207789 0 0.29478084704188562 0.18627619782702401 0 0.27306509823529962 0.19947215684549871 0 0.29478084704188562 0.18627619782702401 0 0.29788838547339219 0.20777731020547871 0 0.31732062797233113 0.1926592597090995 0 0.29788838547339219 0.20777731020547871 0 0.31916040529159301 0.2166328624030785 0 0.31732062797233113 0.1926592597090995 0 0.28109637724199782 0.22150209212538899 0 0.27306509823529962 0.19947215684549871 0 0.29788838547339219 0.20777731020547871 0 0.28109637724199782 0.22150209212538899 0 0.29788838547339219 0.20777731020547871 0 0.29668368374297521 0.23238313674276659 0 0.27355486584907379 0.24364475180805101 0 0.28109637724199782 0.22150209212538899 0 0.29668368374297521 0.23238313674276659 0 0.29788838547339219 0.20777731020547871 0 0.29668368374297521 0.23238313674276659 0 0.31916040529159301 0.2166328624030785 0 0.29692855903906679 0.25537037528416417 0 0.29668368374297521 0.23238313674276659 0 0.32448256229391081 0.244023600812113 0 0.29692855903906679 0.25537037528416417 0 0.27355486584907379 0.24364475180805101 0 0.29668368374297521 0.23238313674276659 0 0.32448256229391081 0.244023600812113 0 0.33724611662768478 0.226971671205 0 0.35052125483258301 0.2434514759103418 0 0.32448256229391081 0.244023600812113 0 0.33724611662768478 0.226971671205 0 0.31916040529159301 0.2166328624030785 0 0.29668368374297521 0.23238313674276659 0 0.32448256229391081 0.244023600812113 0 0.31916040529159301 0.2166328624030785 0 0.33724611662768478 0.226971671205 0 0.31916040529159301 0.2166328624030785 0 0.34036716376080012 0.20191553243135291 0 0.31916040529159301 0.2166328624030785 0 0.31732062797233113 0.1926592597090995 0 0.34036716376080012 0.20191553243135291 0 0.31732062797233113 0.1926592597090995 0 0.34036716376080012 0.20191553243135291 0 0.33327910971122948 0.1769249887409369 0 0.34036716376080012 0.20191553243135291 0 0.33327910971122948 0.1769249887409369 0 0.35363051640006049 0.1838751638919715 0 0.34036716376080012 0.20191553243135291 0 0.36940151407566268 0.20038014978660379 0 0.35363051640006049 0.1838751638919715 0 0.36940151407566268 0.20038014978660379 0 0.35418005050780299 0.2186338278764331 0 0.36970064025412291 0.2313836502337521 0 0.34036716376080012 0.20191553243135291 0 0.36940151407566268 0.20038014978660379 0 0.35418005050780299 0.2186338278764331 0 0.33724611662768478 0.226971671205 0 0.34036716376080012 0.20191553243135291 0 0.35418005050780299 0.2186338278764331 0 0.33724611662768478 0.226971671205 0 0.35418005050780299 0.2186338278764331 0 0.35052125483258301 0.2434514759103418 0 0.35418005050780299 0.2186338278764331 0 0.36970064025412291 0.2313836502337521 0 0.35052125483258301 0.2434514759103418 0 0.37478492512234668 0.26235925763296819 0 0.36970064025412291 0.2313836502337521 0 0.35052125483258301 0.2434514759103418 0 0.33497932682518311 0.1519205034936916 0 0.32387679174541939 0.1297141718462434 0 0.35327239972246333 0.1300285668288671 0 0.33497932682518311 0.1519205034936916 0 0.31457327253359829 0.14480451223356691 0 0.31259037162619269 0.16725562300018509 0 0.33497932682518311 0.1519205034936916 0 0.32387679174541939 0.1297141718462434 0 0.31457327253359829 0.14480451223356691 0 0.33497932682518311 0.1519205034936916 0 0.31259037162619269 0.16725562300018509 0 0.33327910971122948 0.1769249887409369 0 0.31732062797233113 0.1926592597090995 0 0.31259037162619269 0.16725562300018509 0 0.33327910971122948 0.1769249887409369 0 0.33497932682518311 0.1519205034936916 0 0.33327910971122948 0.1769249887409369 0 0.34907151432127381 0.16521020144779211 0 0.34907151432127381 0.16521020144779211 0 0.35363051640006049 0.1838751638919715 0 0.37277469716236061 0.17385369407461371 0 0.33327910971122948 0.1769249887409369 0 0.34907151432127381 0.16521020144779211 0 0.35363051640006049 0.1838751638919715 0 0.36940151407566268 0.20038014978660379 0 0.35363051640006049 0.1838751638919715 0 0.37277469716236061 0.17385369407461371 0 0.37277469716236061 0.17385369407461371 0 0.36285879787080821 0.15032831482926681 0 0.3843829660287168 0.1587008111838667 0 0.34907151432127381 0.16521020144779211 0 0.37277469716236061 0.17385369407461371 0 0.36285879787080821 0.15032831482926681 0 0.36285879787080821 0.15032831482926681 0 0.36938385952287339 0.13266757129752671 0 0.38232915319187621 0.14145147187989651 0 0.33497932682518311 0.1519205034936916 0 0.36285879787080821 0.15032831482926681 0 0.35327239972246333 0.1300285668288671 0 0.33497932682518311 0.1519205034936916 0 0.34907151432127381 0.16521020144779211 0 0.36285879787080821 0.15032831482926681 0 0.36649271172908648 0.1176987398754743 0 0.35327239972246333 0.1300285668288671 0 0.36938385952287339 0.13266757129752671 0 0.36285879787080821 0.15032831482926681 0 0.35327239972246333 0.1300285668288671 0 0.36938385952287339 0.13266757129752671 0 0.39421974672685411 0.13240309148155921 0 0.38232915319187621 0.14145147187989651 0 0.38138511069115272 0.12353481432135879 0 0.36938385952287339 0.13266757129752671 0 0.38232915319187621 0.14145147187989651 0 0.38138511069115272 0.12353481432135879 0 0.39421974672685411 0.13240309148155921 0 0.41199731756477831 0.13352747615702071 0 0.3942733283070321 0.11371104406223111 0 0.39421974672685411 0.13240309148155921 0 0.40120830104283178 0.15077536395034899 0 0.41199731756477831 0.13352747615702071 0 0.39421974672685411 0.13240309148155921 0 0.40120830104283178 0.15077536395034899 0 0.38232915319187621 0.14145147187989651 0 0.36285879787080821 0.15032831482926681 0 0.38232915319187621 0.14145147187989651 0 0.3843829660287168 0.1587008111838667 0 0.40120830104283178 0.15077536395034899 0 0.38232915319187621 0.14145147187989651 0 0.3843829660287168 0.1587008111838667 0 0.37277469716236061 0.17385369407461371 0 0.3843829660287168 0.1587008111838667 0 0.39936082591505218 0.176604797209717 0 0.37277469716236061 0.17385369407461371 0 0.39936082591505218 0.176604797209717 0 0.38992891259608609 0.19548318162929729 0 0.40120830104283178 0.15077536395034899 0 0.39936082591505218 0.176604797209717 0 0.41410660213767347 0.1652382216241598 0 0.40120830104283178 0.15077536395034899 0 0.3843829660287168 0.1587008111838667 0 0.39936082591505218 0.176604797209717 0 0.40120830104283178 0.15077536395034899 0 0.41410660213767347 0.1652382216241598 0 0.42972130682252457 0.1533439082518103 0 0.39936082591505218 0.176604797209717 0 0.41410660213767347 0.1652382216241598 0 0.42626679864566441 0.18172907206941921 0 0.42626679864566441 0.18172907206941921 0 0.42972130682252457 0.1533439082518103 0 0.45055708181009879 0.1690731760043504 0 0.41410660213767347 0.1652382216241598 0 0.42626679864566441 0.18172907206941921 0 0.42972130682252457 0.1533439082518103 0 0.42972130682252457 0.1533439082518103 0 0.43054248402473921 0.1250848439374013 0 0.44904083753606949 0.1441389705362057 0 0.42972130682252457 0.1533439082518103 0 0.43054248402473921 0.1250848439374013 0 0.41199731756477831 0.13352747615702071 0 0.43054248402473921 0.1250848439374013 0 0.41199731756477831 0.13352747615702071 0 0.41135066019799099 0.1182158826350982 0 0.40120830104283178 0.15077536395034899 0 0.42972130682252457 0.1533439082518103 0 0.41199731756477831 0.13352747615702071 0 0.42972130682252457 0.1533439082518103 0 0.41199731756477831 0.13352747615702071 0 0.40097752291506289 0.25902709479471048 0 0.39333580902427501 0.24081282939082621 0 0.41286841049430861 0.24788583003777651 0 0.37478492512234668 0.26235925763296819 0 0.36970064025412291 0.2313836502337521 0 0.39333580902427501 0.24081282939082621 0 0.36970064025412291 0.2313836502337521 0 0.39333580902427501 0.24081282939082621 0 0.39338333076520482 0.2163019563834182 0 0.39338333076520482 0.2163019563834182 0 0.41736514745474701 0.23222376298023259 0 0.39333580902427501 0.24081282939082621 0 0.39338333076520482 0.2163019563834182 0 0.41736514745474701 0.23222376298023259 0 0.39338333076520482 0.2163019563834182 0 0.38992891259608609 0.19548318162929729 0 0.41508715600771068 0.20488700545500521 0 0.36940151407566268 0.20038014978660379 0 0.39338333076520482 0.2163019563834182 0 0.36940151407566268 0.20038014978660379 0 0.39338333076520482 0.2163019563834182 0 0.38992891259608609 0.19548318162929729 0 0.36940151407566268 0.20038014978660379 0 0.36970064025412291 0.2313836502337521 0 0.39338333076520482 0.2163019563834182 0 0.36940151407566268 0.20038014978660379 0 0.37277469716236061 0.17385369407461371 0 0.38992891259608609 0.19548318162929729 0 0.39936082591505218 0.176604797209717 0 0.38992891259608609 0.19548318162929729 0 0.41508715600771068 0.20488700545500521 0 0.39936082591505218 0.176604797209717 0 0.42626679864566441 0.18172907206941921 0 0.41508715600771068 0.20488700545500521 0 0.42626679864566441 0.18172907206941921 0 0.44140000057487638 0.20455834627575151 0 0.44473765559285833 0.18692520255949671 0 0.42626679864566441 0.18172907206941921 0 0.41508715600771068 0.20488700545500521 0 0.44140000057487638 0.20455834627575151 0 0.41508715600771068 0.20488700545500521 0 0.43790507610234408 0.2273079216372012 0 0.44140000057487638 0.20455834627575151 0 0.39338333076520482 0.2163019563834182 0 0.41508715600771068 0.20488700545500521 0 0.41736514745474701 0.23222376298023259 0 0.41508715600771068 0.20488700545500521 0 0.41736514745474701 0.23222376298023259 0 0.43790507610234408 0.2273079216372012 0 0.42717012070777932 0.25569493195645271 0 0.41736514745474701 0.23222376298023259 0 0.44134696414428898 0.24814556957704689 0 0.41736514745474701 0.23222376298023259 0 0.44134696414428898 0.24814556957704689 0 0.41736514745474701 0.23222376298023259 0 0.44134696414428898 0.24814556957704689 0 0.43790507610234408 0.2273079216372012 0 0.39333580902427501 0.24081282939082621 0 0.41736514745474701 0.23222376298023259 0 0.41286841049430861 0.24788583003777651 0 0.42717012070777932 0.25569493195645271 0 0.41736514745474701 0.23222376298023259 0 0.41286841049430861 0.24788583003777651 0 0.45336271850049548 0.25236276911819511 0 0.45602225988021539 0.23816249748875179 0 0.48180965237011408 0.2487438147612096 0 0.45336271850049548 0.25236276911819511 0 0.45602225988021539 0.23816249748875179 0 0.44134696414428898 0.24814556957704689 0 0.44600400848591359 0.23698591979390529 0 0.43790507610234408 0.2273079216372012 0 0.45336271850049548 0.25236276911819511 0 0.44134696414428898 0.24814556957704689 0 0.44600400848591359 0.23698591979390529 0 0.45336271850049548 0.25236276911819511 0 0.45602225988021539 0.23816249748875179 0 0.44600400848591359 0.23698591979390529 0 0.45602225988021539 0.23816249748875179 0 0.44600400848591359 0.23698591979390529 0 0.45492939023952461 0.2194397610932603 0 0.44600400848591359 0.23698591979390529 0 0.43790507610234408 0.2273079216372012 0 0.45492939023952461 0.2194397610932603 0 0.45602225988021539 0.23816249748875179 0 0.45492939023952461 0.2194397610932603 0 0.47419086539053962 0.2296972043723752 0 0.45492939023952461 0.2194397610932603 0 0.46072674134079361 0.19234021588846559 0 0.47847088324409548 0.2092058758105422 0 0.45492939023952461 0.2194397610932603 0 0.44140000057487638 0.20455834627575151 0 0.46072674134079361 0.19234021588846559 0 0.43790507610234408 0.2273079216372012 0 0.45492939023952461 0.2194397610932603 0 0.44140000057487638 0.20455834627575151 0 0.44140000057487638 0.20455834627575151 0 0.46072674134079361 0.19234021588846559 0 0.44473765559285833 0.18692520255949671 0 0.46072674134079361 0.19234021588846559 0 0.4812983336831132 0.1885899983914231 0 0.47847088324409548 0.2092058758105422 0 0.4812983336831132 0.1885899983914231 0 0.5 0.19797878532577309 0 0.47847088324409548 0.2092058758105422 0 0.5 0.19797878532577309 0 0.47847088324409548 0.2092058758105422 0 0.5 0.22793385045351919 0 0.47847088324409548 0.2092058758105422 0 0.47419086539053962 0.2296972043723752 0 0.5 0.22793385045351919 0 0.45492939023952461 0.2194397610932603 0 0.47847088324409548 0.2092058758105422 0 0.47419086539053962 0.2296972043723752 0 0.5 0.25788891558126559 0 0.5 0.22793385045351919 0 0.48180965237011408 0.2487438147612096 0 0.47419086539053962 0.2296972043723752 0 0.5 0.22793385045351919 0 0.48180965237011408 0.2487438147612096 0 0.45602225988021539 0.23816249748875179 0 0.47419086539053962 0.2296972043723752 0 0.48180965237011408 0.2487438147612096 0 0.46287167922105149 0.15545842773829099 0 0.44904083753606949 0.1441389705362057 0 0.45055708181009879 0.1690731760043504 0 0.46287167922105149 0.15545842773829099 0 0.46355845200513762 0.13850516077978961 0 0.47909635670674228 0.14767892477560191 0 0.46287167922105149 0.15545842773829099 0 0.46355845200513762 0.13850516077978961 0 0.44904083753606949 0.1441389705362057 0 0.46355845200513762 0.13850516077978961 0 0.47795750643906171 0.12649365297180731 0 0.4559740449914913 0.1245921335342187 0 0.46355845200513762 0.13850516077978961 0 0.44904083753606949 0.1441389705362057 0 0.4559740449914913 0.1245921335342187 0 0.43054248402473921 0.1250848439374013 0 0.44904083753606949 0.1441389705362057 0 0.4559740449914913 0.1245921335342187 0 0.42972130682252457 0.1533439082518103 0 0.44904083753606949 0.1441389705362057 0 0.45055708181009879 0.1690731760043504 0 0.42626679864566441 0.18172907206941921 0 0.45055708181009879 0.1690731760043504 0 0.44473765559285833 0.18692520255949671 0 0.46072674134079361 0.19234021588846559 0 0.45055708181009879 0.1690731760043504 0 0.44473765559285833 0.18692520255949671 0 0.46072674134079361 0.19234021588846559 0 0.45055708181009879 0.1690731760043504 0 0.4752785409050499 0.1685484481011886 0 0.46287167922105149 0.15545842773829099 0 0.45055708181009879 0.1690731760043504 0 0.4752785409050499 0.1685484481011886 0 0.45055708181009879 0.1690731760043504 0 0.4752785409050499 0.1685484481011886 0 0.46287167922105149 0.15545842773829099 0 0.4752785409050499 0.1685484481011886 0 0.47909635670674228 0.14767892477560191 0 0.46072674134079361 0.19234021588846559 0 0.4812983336831132 0.1885899983914231 0 0.4752785409050499 0.1685484481011886 0 0.4812983336831132 0.1885899983914231 0 0.4752785409050499 0.1685484481011886 0 0.50000000000000111 0.1680237201980268 0 0.4812983336831132 0.1885899983914231 0 0.5 0.19797878532577309 0 0.50000000000000111 0.1680237201980268 0 0.4752785409050499 0.1685484481011886 0 0.50000000000000111 0.1680237201980268 0 0.4752785409050499 0.1685484481011886 0 0.50000000000000111 0.1680237201980268 0 0.47909635670674228 0.14767892477560191 0 0.50000000000000111 0.1680237201980268 0 0.5 0.14405257421324749 0 0.47909635670674228 0.14767892477560191 0 0.46355845200513762 0.13850516077978961 0 0.47909635670674228 0.14767892477560191 0 0.47795750643906171 0.12649365297180731 0 0.5 0.14405257421324749 0 0.47795750643906171 0.12649365297180731 0 0.5 0.12008142822846821 0 0.5 0.14405257421324749 0 0.47909635670674228 0.14767892477560191 0 0.47795750643906171 0.12649365297180731 0 0.47795750643906171 0.12649365297180731 0 0.5 0.12008142822846821 0 0.48437617198066579 0.1083096126220475 0 0.48437617198066579 0.1083096126220475 0 0.5 0.096110282243688894 0 0.4787628640296252 0.09057766153942011 0 0.5 0.12008142822846821 0 0.48437617198066579 0.1083096126220475 0 0.5 0.096110282243688894 0 0.48437617198066579 0.1083096126220475 0 0.4787628640296252 0.09057766153942011 0 0.46516048943464161 0.10828503812685281 0 0.47795750643906171 0.12649365297180731 0 0.48437617198066579 0.1083096126220475 0 0.46516048943464161 0.10828503812685281 0 0.49999999999999389 0.072139136258909636 0 0.47264706529987838 0.068582714068275596 0 0.5 0.096110282243688894 0 0.49999999999999389 0.072139136258909636 0 0.4787628640296252 0.09057766153942011 0 0.49999999999999389 0.072139136258909636 0 0.4787628640296252 0.09057766153942011 0 0.47264706529987838 0.068582714068275596 0 0.47264706529987838 0.068582714068275596 0 0.44529413059976319 0.065026291877640793 0 0.47264706529987838 0.068582714068275596 0 0.45009241250792742 0.089848104882156193 0 0.44529413059976319 0.065026291877640793 0 0.4787628640296252 0.09057766153942011 0 0.47264706529987838 0.068582714068275596 0 0.45009241250792742 0.089848104882156193 0 0.45009241250792742 0.089848104882156193 0 0.44529413059976319 0.065026291877640793 0 0.42710943965072512 0.080764761008918995 0 0.4559740449914913 0.1245921335342187 0 0.46516048943464161 0.10828503812685281 0 0.44660059903698529 0.1095612823054605 0 0.47795750643906171 0.12649365297180731 0 0.4559740449914913 0.1245921335342187 0 0.46516048943464161 0.10828503812685281 0 0.45009241250792742 0.089848104882156193 0 0.46516048943464161 0.10828503812685281 0 0.44660059903698529 0.1095612823054605 0 0.4787628640296252 0.09057766153942011 0 0.45009241250792742 0.089848104882156193 0 0.46516048943464161 0.10828503812685281 0 0.45009241250792742 0.089848104882156193 0 0.44660059903698529 0.1095612823054605 0 0.42999027194599682 0.1018780191517587 0 0.43054248402473921 0.1250848439374013 0 0.4559740449914913 0.1245921335342187 0 0.44660059903698529 0.1095612823054605 0 0.43054248402473921 0.1250848439374013 0 0.44660059903698529 0.1095612823054605 0 0.42999027194599682 0.1018780191517587 0 0.43054248402473921 0.1250848439374013 0 0.41661501870526302 0.10782610780512 0 0.42999027194599682 0.1018780191517587 0 0.43054248402473921 0.1250848439374013 0 0.41135066019799099 0.1182158826350982 0 0.41661501870526302 0.10782610780512 0 0.43054248402473921 0.1250848439374013 0 0.41135066019799099 0.1182158826350982 0 0.41135066019799099 0.1182158826350982 0 0.41661501870526302 0.10782610780512 0 0.40605193543095291 0.1101899923625959 0 0.41199731756477831 0.13352747615702071 0 0.40856435551682457 0.1195913393650266 0 0.41135066019799099 0.1182158826350982 0 0.41661501870526302 0.10782610780512 0 0.42999027194599682 0.1018780191517587 0 0.41050144950628809 0.092342992232264526 0 0.41661501870526302 0.10782610780512 0 0.41050144950628809 0.092342992232264526 0 0.40408322644931421 0.10337105767737099 0 0.41661501870526302 0.10782610780512 0 0.40605193543095291 0.1101899923625959 0 0.40408322644931421 0.10337105767737099 0 0.45009241250792742 0.089848104882156193 0 0.42999027194599682 0.1018780191517587 0 0.42710943965072512 0.080764761008918995 0 0.42999027194599682 0.1018780191517587 0 0.42710943965072512 0.080764761008918995 0 0.41050144950628809 0.092342992232264526 0 0.44529413059976319 0.065026291877640793 0 0.42710943965072512 0.080764761008918995 0 0.41794119589964812 0.061469869687005997 0 0.44529413059976319 0.065026291877640793 0 0.41794119589964812 0.061469869687005997 0 0.42710943965072512 0.080764761008918995 0 0.40780427562880051 0.074340584248736047 0 0.41794119589964812 0.061469869687005997 0 0.42710943965072512 0.080764761008918995 0 0.40780427562880051 0.074340584248736047 0 0.41050144950628809 0.092342992232264526 0 0.41050144950628809 0.092342992232264526 0 0.39288103188780799 0.079211850819119467 0 0.39173805803946632 0.094638931286680023 0 0.40780427562880051 0.074340584248736047 0 0.41050144950628809 0.092342992232264526 0 0.39288103188780799 0.079211850819119467 0 0.40780427562880051 0.074340584248736047 0 0.39058826119953283 0.057913447496371839 0 0.41794119589964812 0.061469869687005997 0 0.40780427562880051 0.074340584248736047 0 0.39288103188780799 0.079211850819119467 0 0.39058826119953283 0.057913447496371839 0 0.39288103188780799 0.079211850819119467 0 0.37575225644292037 0.071709270247263784 0 0.39058826119953283 0.057913447496371839 0 0.3742009225581896 0.091268948227223284 0 0.39288103188780799 0.079211850819119467 0 0.39173805803946632 0.094638931286680023 0 0.3742009225581896 0.091268948227223284 0 0.39288103188780799 0.079211850819119467 0 0.37575225644292037 0.071709270247263784 0 0.3742009225581896 0.091268948227223284 0 0.39215883637124299 0.11134692133279479 0 0.39173805803946632 0.094638931286680023 0 0.3742009225581896 0.091268948227223284 0 0.39215883637124299 0.11134692133279479 0 0.3742009225581896 0.091268948227223284 0 0.3795225325030368 0.1068242515199407 0 0.39215883637124299 0.11134692133279479 0 0.3795225325030368 0.1068242515199407 0 0.39215883637124299 0.11134692133279479 0 0.3795225325030368 0.1068242515199407 0 0.38138511069115272 0.12353481432135879 0 0.3942733283070321 0.11371104406223111 0 0.36649271172908648 0.1176987398754743 0 0.3795225325030368 0.1068242515199407 0 0.38138511069115272 0.12353481432135879 0 0.39421974672685411 0.13240309148155921 0 0.38138511069115272 0.12353481432135879 0 0.3942733283070321 0.11371104406223111 0 0.3795225325030368 0.1068242515199407 0 0.3942733283070321 0.11371104406223111 0 0.3795225325030368 0.1068242515199407 0 0.39215883637124299 0.11134692133279479 0 0.3942733283070321 0.11371104406223111 0 0.41135066019799099 0.1182158826350982 0 0.39215883637124299 0.11134692133279479 0 0.40605193543095291 0.1101899923625959 0 0.41135066019799099 0.1182158826350982 0 0.39215883637124299 0.11134692133279479 0 0.3942733283070321 0.11371104406223111 0 0.41135066019799099 0.1182158826350982 0 0.39215883637124299 0.11134692133279479 0 0.41199731756477831 0.13352747615702071 0 0.40856435551682457 0.1195913393650266 0 0.3942733283070321 0.11371104406223111 0 0.41199731756477831 0.13352747615702071 0 0.3942733283070321 0.11371104406223111 0 0.40856435551682457 0.1195913393650266 0 0.41135066019799099 0.1182158826350982 0 0.3942733283070321 0.11371104406223111 0 0.39215883637124299 0.11134692133279479 0 0.3942733283070321 0.11371104406223111 0 0.40856435551682457 0.1195913393650266 0 0.3942733283070321 0.11371104406223111 0 0.39215883637124299 0.11134692133279479 0 0.40408322644931421 0.10337105767737099 0 0.39173805803946632 0.094638931286680023 0 0.39215883637124299 0.11134692133279479 0 0.40605193543095291 0.1101899923625959 0 0.40408322644931421 0.10337105767737099 0 0.41050144950628809 0.092342992232264526 0 0.40408322644931421 0.10337105767737099 0 0.39173805803946632 0.094638931286680023 0 0.4038432128890253 0.016274120358417851 0 0.39452024459155199 0.029629145094844 0 0.3798040161112804 0.028996110171619349 0 0.4038432128890253 0.016274120358417851 0 0.39452024459155199 0.029629145094844 0 0.40714332068978548 0.032011032787191827 0 0.4038432128890253 0.016274120358417851 0 0.3798040161112804 0.028996110171619349 0 0.4038432128890253 0.016274120358417851 0 0.39390920682105918 0.0040204267233196643 0 0.38813729234829519 0.016219836643301819 0 0.4038432128890253 0.016274120358417851 0 0.39390920682105918 0.0040204267233196643 0 0.40369857438468087 -0.0060371637805465179 0 0.39390920682105918 0.0040204267233196643 0 0.38212023564171321 0.001094655884648786 0 0.38813729234829519 0.016219836643301819 0 0.38212023564171321 0.001094655884648786 0 0.37537418671591988 0.012891754799621079 0 0.3700201466167648 -0.002195575246397889 0 0.38212023564171321 0.001094655884648786 0 0.37537418671591988 0.012891754799621079 0 0.38813729234829519 0.016219836643301819 0 0.38029426512156322 0.021339738828328979 0 0.38813729234829519 0.016219836643301819 0 0.3798040161112804 0.028996110171619349 0 0.4038432128890253 0.016274120358417851 0 0.38813729234829519 0.016219836643301819 0 0.3798040161112804 0.028996110171619349 0 0.37537418671591988 0.012891754799621079 0 0.38029426512156322 0.021339738828328979 0 0.37786156531075732 0.02725125369877367 0 0.37537418671591988 0.012891754799621079 0 0.38029426512156322 0.021339738828328979 0 0.38813729234829519 0.016219836643301819 0 0.39452024459155199 0.029629145094844 0 0.3798040161112804 0.028996110171619349 0 0.384792923869274 0.033192425096464057 0 0.38029426512156322 0.021339738828328979 0 0.3798040161112804 0.028996110171619349 0 0.37786156531075732 0.02725125369877367 0 0.36984281421283938 0.03924660656396721 0 0.3798040161112804 0.028996110171619349 0 0.37675727284589372 0.036323400775862158 0 0.3798040161112804 0.028996110171619349 0 0.38012370578730592 0.033949837724153123 0 0.37675727284589372 0.036323400775862158 0 0.3798040161112804 0.028996110171619349 0 0.38012370578730592 0.033949837724153123 0 0.384792923869274 0.033192425096464057 0 0.38012370578730592 0.033949837724153123 0 0.38115894465086869 0.037510150111343843 0 0.384792923869274 0.033192425096464057 0 0.38012370578730592 0.033949837724153123 0 0.38115894465086869 0.037510150111343843 0 0.37675727284589372 0.036323400775862158 0 0.38115894465086869 0.037510150111343843 0 0.37675727284589372 0.036323400775862158 0 0.37726993283737248 0.041439113600633092 0 0.37726993283737248 0.041439113600633092 0 0.38325871491723518 0.0441773091346798 0 0.37608467898805159 0.048096788967416412 0 0.38115894465086869 0.037510150111343843 0 0.37726993283737248 0.041439113600633092 0 0.38325871491723518 0.0441773091346798 0 0.38115894465086869 0.037510150111343843 0 0.38325871491723518 0.0441773091346798 0 0.38884635116990662 0.036871995634108659 0 0.38325871491723518 0.0441773091346798 0 0.38884635116990662 0.036871995634108659 0 0.39118926401298038 0.043344116461786472 0 0.39452024459155199 0.029629145094844 0 0.38884635116990662 0.036871995634108659 0 0.384792923869274 0.033192425096464057 0 0.38115894465086869 0.037510150111343843 0 0.38884635116990662 0.036871995634108659 0 0.384792923869274 0.033192425096464057 0 0.36737709041569239 0.056764699852256018 0 0.39058826119953283 0.057913447496371839 0 0.36443667806580698 0.054513224756226962 0 0.37608467898805159 0.048096788967416412 0 0.39058826119953283 0.057913447496371839 0 0.36737709041569239 0.056764699852256018 0 0.37575225644292037 0.071709270247263784 0 0.39058826119953283 0.057913447496371839 0 0.36443667806580698 0.054513224756226962 0 0.39058826119953283 0.057913447496371839 0 0.38325871491723518 0.0441773091346798 0 0.37608467898805159 0.048096788967416412 0 0.39058826119953283 0.057913447496371839 0 0.38325871491723518 0.0441773091346798 0 0.39058826119953283 0.057913447496371839 0 0.39118926401298038 0.043344116461786472 0 0.39058826119953283 0.057913447496371839 0 0.39917917489280202 0.048669550515315511 0 0.40824027372044169 0.058787065978875973 0 0.39058826119953283 0.057913447496371839 0 0.40824027372044169 0.058787065978875973 0 0.39058826119953283 0.057913447496371839 0 0.41794119589964812 0.061469869687005997 0 0.40824027372044169 0.058787065978875973 0 0.39058826119953283 0.057913447496371839 0 0.41794119589964812 0.061469869687005997 0 0.39058826119953283 0.057913447496371839 0 0.39917917489280202 0.048669550515315511 0 0.39118926401298038 0.043344116461786472 0 0.39917917489280202 0.048669550515315511 0 0.40803146459590139 0.044566129264659721 0 0.40824027372044169 0.058787065978875973 0 0.39452024459155199 0.029629145094844 0 0.38884635116990662 0.036871995634108659 0 0.39784661093515339 0.038736993374884177 0 0.39917917489280202 0.048669550515315511 0 0.39784661093515339 0.038736993374884177 0 0.39118926401298038 0.043344116461786472 0 0.38884635116990662 0.036871995634108659 0 0.39784661093515339 0.038736993374884177 0 0.39118926401298038 0.043344116461786472 0 0.39917917489280202 0.048669550515315511 0 0.39784661093515339 0.038736993374884177 0 0.40803146459590139 0.044566129264659721 0 0.39452024459155199 0.029629145094844 0 0.39784661093515339 0.038736993374884177 0 0.40714332068978548 0.032011032787191827 0 0.39784661093515339 0.038736993374884177 0 0.40714332068978548 0.032011032787191827 0 0.40803146459590139 0.044566129264659721 0 0.40714332068978548 0.032011032787191827 0 0.40803146459590139 0.044566129264659721 0 0.41964440497126981 0.040250358009145122 0 0.40803146459590139 0.044566129264659721 0 0.41964440497126981 0.040250358009145122 0 0.41733432138732551 0.050785193364838402 0 0.40714332068978548 0.032011032787191827 0 0.41964440497126981 0.040250358009145122 0 0.41891932927970088 0.026081136014491389 0 0.40824027372044169 0.058787065978875973 0 0.41733432138732551 0.050785193364838402 0 0.42589228624135061 0.059660684461379461 0 0.40824027372044169 0.058787065978875973 0 0.42589228624135061 0.059660684461379461 0 0.41794119589964812 0.061469869687005997 0 0.40824027372044169 0.058787065978875973 0 0.42589228624135061 0.059660684461379461 0 0.40803146459590139 0.044566129264659721 0 0.40824027372044169 0.058787065978875973 0 0.41733432138732551 0.050785193364838402 0 0.41964440497126981 0.040250358009145122 0 0.41733432138732551 0.050785193364838402 0 0.42647272639553008 0.050672874727357403 0 0.44529413059976319 0.065026291877640793 0 0.42589228624135061 0.059660684461379461 0 0.43583307009461808 0.053135938561971199 0 0.44529413059976319 0.065026291877640793 0 0.41794119589964812 0.061469869687005997 0 0.42589228624135061 0.059660684461379461 0 0.42589228624135061 0.059660684461379461 0 0.42647272639553008 0.050672874727357403 0 0.43583307009461808 0.053135938561971199 0 0.41733432138732551 0.050785193364838402 0 0.42589228624135061 0.059660684461379461 0 0.42647272639553008 0.050672874727357403 0 0.42647272639553008 0.050672874727357403 0 0.43583307009461808 0.053135938561971199 0 0.4340740022190257 0.043822740937536728 0 0.41964440497126981 0.040250358009145122 0 0.42987588244635011 0.033334548906864728 0 0.41891932927970088 0.026081136014491389 0 0.41964440497126981 0.040250358009145122 0 0.4340740022190257 0.043822740937536728 0 0.42987588244635011 0.033334548906864728 0 0.41964440497126981 0.040250358009145122 0 0.42647272639553008 0.050672874727357403 0 0.4340740022190257 0.043822740937536728 0 0.4340740022190257 0.043822740937536728 0 0.42987588244635011 0.033334548906864728 0 0.44528176508543132 0.032905620831071007 0 0.42987588244635011 0.033334548906864728 0 0.43184963590009789 0.021236349906575389 0 0.44528176508543132 0.032905620831071007 0 0.43184963590009789 0.021236349906575389 0 0.42259879527057942 0.015927249454054739 0 0.43188165484739188 0.01287087804949661 0 0.43184963590009789 0.021236349906575389 0 0.42259879527057942 0.015927249454054739 0 0.41891932927970088 0.026081136014491389 0 0.42987588244635011 0.033334548906864728 0 0.43184963590009789 0.021236349906575389 0 0.41891932927970088 0.026081136014491389 0 0.4038432128890253 0.016274120358417851 0 0.42259879527057942 0.015927249454054739 0 0.41891932927970088 0.026081136014491389 0 0.4038432128890253 0.016274120358417851 0 0.40714332068978548 0.032011032787191827 0 0.41891932927970088 0.026081136014491389 0 0.4038432128890253 0.016274120358417851 0 0.41402040698134779 -0.0025911497673051101 0 0.40369857438468087 -0.0060371637805465179 0 0.4038432128890253 0.016274120358417851 0 0.42788240966677021 0.003552130545216341 0 0.4038432128890253 0.016274120358417851 0 0.42101935538117791 0.0050386314779034547 0 0.41402040698134779 -0.0025911497673051101 0 0.4038432128890253 0.016274120358417851 0 0.42259879527057942 0.015927249454054739 0 0.42788240966677021 0.003552130545216341 0 0.4038432128890253 0.016274120358417851 0 0.42101935538117791 0.0050386314779034547 0 0.42788240966677021 0.003552130545216341 0 0.42788240966677021 0.003552130545216341 0 0.43188165484739188 0.01287087804949661 0 0.44740740452026229 0.01137317045841814 0 0.42259879527057942 0.015927249454054739 0 0.42788240966677021 0.003552130545216341 0 0.43188165484739188 0.01287087804949661 0 0.43184963590009789 0.021236349906575389 0 0.43188165484739188 0.01287087804949661 0 0.44740740452026229 0.01137317045841814 0 0.42788240966677021 0.003552130545216341 0 0.44740740452026229 0.01137317045841814 0 0.45192160644451512 -0.0091698592679851504 0 0.43184963590009789 0.021236349906575389 0 0.44740740452026229 0.01137317045841814 0 0.44528176508543132 0.032905620831071007 0 0.44740740452026229 0.01137317045841814 0 0.44528176508543132 0.032905620831071007 0 0.46875558315454652 0.02621282055229885 0 0.44740740452026229 0.01137317045841814 0 0.4740075662235973 0.0028935560396234419 0 0.46875558315454652 0.02621282055229885 0 0.44740740452026229 0.01137317045841814 0 0.4740075662235973 0.0028935560396234419 0 0.45192160644451512 -0.0091698592679851504 0 0.44529413059976319 0.065026291877640793 0 0.44587589901867808 0.047550444472131762 0 0.4614262583005877 0.04791767975015173 0 0.44529413059976319 0.065026291877640793 0 0.43583307009461808 0.053135938561971199 0 0.44587589901867808 0.047550444472131762 0 0.43583307009461808 0.053135938561971199 0 0.4340740022190257 0.043822740937536728 0 0.44587589901867808 0.047550444472131762 0 0.44587589901867808 0.047550444472131762 0 0.44528176508543132 0.032905620831071007 0 0.4614262583005877 0.04791767975015173 0 0.4340740022190257 0.043822740937536728 0 0.44587589901867808 0.047550444472131762 0 0.44528176508543132 0.032905620831071007 0 0.44528176508543132 0.032905620831071007 0 0.4614262583005877 0.04791767975015173 0 0.46875558315454652 0.02621282055229885 0 0.47264706529987838 0.068582714068275596 0 0.44529413059976319 0.065026291877640793 0 0.4614262583005877 0.04791767975015173 0 0.47264706529987838 0.068582714068275596 0 0.4614262583005877 0.04791767975015173 0 0.48053199367993171 0.043851827509569327 0 0.4614262583005877 0.04791767975015173 0 0.48053199367993171 0.043851827509569327 0 0.46875558315454652 0.02621282055229885 0 0.48053199367993171 0.043851827509569327 0 0.5 0.04545089247058498 0 0.5 0.018762648682260189 0 0.49999999999999389 0.072139136258909636 0 0.47264706529987838 0.068582714068275596 0 0.48053199367993171 0.043851827509569327 0 0.49999999999999389 0.072139136258909636 0 0.48053199367993171 0.043851827509569327 0 0.5 0.04545089247058498 0 0.48053199367993171 0.043851827509569327 0 0.46875558315454652 0.02621282055229885 0 0.5 0.018762648682260189 0 0.4740075662235973 0.0028935560396234419 0 0.46875558315454652 0.02621282055229885 0 0.5 0.018762648682260189 0 0.4740075662235973 0.0028935560396234419 0 0.5 0.018762648682260189 0 0.5 -0.0079255951060647756 0 0.4740075662235973 0.0028935560396234419 0 0.5 -0.0079255951060647756 0 0.47596080322225992 -0.02189184908118659 0 0.47596080322225992 -0.02189184908118659 0 0.50000000000000377 -0.034613838894389633 0 0.5 -0.0079255951060647756 0 0.47596080322225992 -0.02189184908118659 0 0.50000000000000377 -0.034613838894389633 0 0.47596080322225992 -0.02189184908118659 0 0.50000000000000377 -0.034613838894389633 0 0.48339532061042467 -0.042675677639817791 0 0.50000000000000377 -0.034613838894389633 0 0.5 -0.052291970509826757 0 0.48339532061042467 -0.042675677639817791 0 0.5 -0.052291970509826757 0 0.48378938215607542 -0.060491629721736481 0 0.49999999999999678 -0.069970102125263903 0 0.5 -0.052291970509826757 0 0.48378938215607542 -0.060491629721736481 0 0.48339532061042467 -0.042675677639817791 0 0.48378938215607542 -0.060491629721736481 0 0.47035919737641452 -0.05083356829212015 0 0.48339532061042467 -0.042675677639817791 0 0.48378938215607542 -0.060491629721736481 0 0.47035919737641452 -0.05083356829212015 0 0.46263532094350251 -0.0655193079319734 0 0.47596080322225992 -0.02189184908118659 0 0.48339532061042467 -0.042675677639817791 0 0.46122373864745198 -0.034064038759572521 0 0.47035919737641452 -0.05083356829212015 0 0.48339532061042467 -0.042675677639817791 0 0.46122373864745198 -0.034064038759572521 0 0.46122373864745198 -0.034064038759572521 0 0.45641225836005789 -0.05051217933658872 0 0.44483042593949818 -0.041063070916932051 0 0.47035919737641452 -0.05083356829212015 0 0.46122373864745198 -0.034064038759572521 0 0.45641225836005789 -0.05051217933658872 0 0.45641225836005789 -0.05051217933658872 0 0.44526353314296241 -0.062107813217869068 0 0.46263532094350251 -0.0655193079319734 0 0.47035919737641452 -0.05083356829212015 0 0.45641225836005789 -0.05051217933658872 0 0.46263532094350251 -0.0655193079319734 0 0.45641225836005789 -0.05051217933658872 0 0.44526353314296241 -0.062107813217869068 0 0.44483042593949818 -0.041063070916932051 0 0.44526353314296241 -0.062107813217869068 0 0.44483042593949818 -0.041063070916932051 0 0.42768193525564641 -0.052738548234870043 0 0.46122373864745198 -0.034064038759572521 0 0.44483042593949818 -0.041063070916932051 0 0.44260817666721519 -0.025216613737701819 0 0.44483042593949818 -0.041063070916932051 0 0.44260817666721519 -0.025216613737701819 0 0.43454865465473302 -0.032105158367880783 0 0.46122373864745198 -0.034064038759572521 0 0.44260817666721519 -0.025216613737701819 0 0.45192160644451512 -0.0091698592679851504 0 0.42788240966677021 0.003552130545216341 0 0.45192160644451512 -0.0091698592679851504 0 0.44260817666721519 -0.025216613737701819 0 0.45192160644451512 -0.0091698592679851504 0 0.43543049063324413 -0.012350052332502739 0 0.42788240966677021 0.003552130545216341 0 0.45192160644451512 -0.0091698592679851504 0 0.43543049063324413 -0.012350052332502739 0 0.4740075662235973 0.0028935560396234419 0 0.47596080322225992 -0.02189184908118659 0 0.45192160644451512 -0.0091698592679851504 0 0.47596080322225992 -0.02189184908118659 0 0.45192160644451512 -0.0091698592679851504 0 0.47596080322225992 -0.02189184908118659 0 0.46122373864745198 -0.034064038759572521 0 0.45192160644451512 -0.0091698592679851504 0 0.47621403880257929 -0.099362679963144546 0 0.45825176112352212 -0.1171944005084963 0 0.47461064769812122 -0.12772964805397971 0 0.50000000000000433 -0.1143432737178363 0 0.47621403880257929 -0.099362679963144546 0 0.47461064769812122 -0.12772964805397971 0 0.50000000000000433 -0.1143432737178363 0 0.47461064769812122 -0.12772964805397971 0 0.49999999999998102 -0.1000967699598443 0 0.47621403880257929 -0.099362679963144546 0 0.49999999999998102 -0.1000967699598443 0 0.47621403880257929 -0.099362679963144546 0 0.48785951469139027 -0.086657123706384981 0 0.50000000000000433 -0.1143432737178363 0 0.49999999999998102 -0.1000967699598443 0 0.47621403880257929 -0.099362679963144546 0 0.47621403880257929 -0.099362679963144546 0 0.48785951469139027 -0.086657123706384981 0 0.47522401996300467 -0.077198942777287505 0 0.47621403880257929 -0.099362679963144546 0 0.47522401996300467 -0.077198942777287505 0 0.46460819440086443 -0.0896918568577834 0 0.49999999999998102 -0.1000967699598443 0 0.48785951469139027 -0.086657123706384981 0 0.49999999999999678 -0.069970102125263903 0 0.49999999999999678 -0.069970102125263903 0 0.47522401996300467 -0.077198942777287505 0 0.48785951469139027 -0.086657123706384981 0 0.49999999999999678 -0.069970102125263903 0 0.47522401996300467 -0.077198942777287505 0 0.48378938215607542 -0.060491629721736481 0 0.49999999999999678 -0.069970102125263903 0 0.47522401996300467 -0.077198942777287505 0 0.48378938215607542 -0.060491629721736481 0 0.47522401996300467 -0.077198942777287505 0 0.46263532094350251 -0.0655193079319734 0 0.47522401996300467 -0.077198942777287505 0 0.46263532094350251 -0.0655193079319734 0 0.4504480399260129 -0.084427783429311939 0 0.44526353314296241 -0.062107813217869068 0 0.46263532094350251 -0.0655193079319734 0 0.4504480399260129 -0.084427783429311939 0 0.44526353314296241 -0.062107813217869068 0 0.4504480399260129 -0.084427783429311939 0 0.43069868055782679 -0.078899440675300136 0 0.4504480399260129 -0.084427783429311939 0 0.45242807760517778 -0.098628589966444233 0 0.42864211640777627 -0.097894499969741214 0 0.4504480399260129 -0.084427783429311939 0 0.42567205988902129 -0.091656624081337568 0 0.47522401996300467 -0.077198942777287505 0 0.4504480399260129 -0.084427783429311939 0 0.47522401996300467 -0.077198942777287505 0 0.4504480399260129 -0.084427783429311939 0 0.46460819440086443 -0.0896918568577834 0 0.4504480399260129 -0.084427783429311939 0 0.46460819440086443 -0.0896918568577834 0 0.45242807760517778 -0.098628589966444233 0 0.47621403880257929 -0.099362679963144546 0 0.45242807760517778 -0.098628589966444233 0 0.45825176112352212 -0.1171944005084963 0 0.47621403880257929 -0.099362679963144546 0 0.45242807760517778 -0.098628589966444233 0 0.47621403880257929 -0.099362679963144546 0 0.46460819440086443 -0.0896918568577834 0 0.45242807760517778 -0.098628589966444233 0 0.45242807760517778 -0.098628589966444233 0 0.42864211640777627 -0.097894499969741214 0 0.45242807760517778 -0.098628589966444233 0 0.43893170590200609 -0.1195052611799315 0 0.42864211640777627 -0.097894499969741214 0 0.45242807760517778 -0.098628589966444233 0 0.43893170590200609 -0.1195052611799315 0 0.45825176112352212 -0.1171944005084963 0 0.42080162445294911 -0.1170697999396166 0 0.40604313277712428 -0.1171380761358455 0 0.41368108829086198 -0.13554811058748131 0 0.42080162445294911 -0.1170697999396166 0 0.40662173914453831 -0.097214899993173481 0 0.40604313277712428 -0.1171380761358455 0 0.43893170590200609 -0.1195052611799315 0 0.42080162445294911 -0.1170697999396166 0 0.430889964195386 -0.135117951771525 0 0.43893170590200609 -0.1195052611799315 0 0.42080162445294911 -0.1170697999396166 0 0.42864211640777627 -0.097894499969741214 0 0.43893170590200609 -0.1195052611799315 0 0.42864211640777627 -0.097894499969741214 0 0.42864211640777627 -0.097894499969741214 0 0.42567205988902129 -0.091656624081337568 0 0.42864211640777627 -0.097894499969741214 0 0.40662173914453831 -0.097214899993173481 0 0.42567205988902129 -0.091656624081337568 0 0.42080162445294911 -0.1170697999396166 0 0.42864211640777627 -0.097894499969741214 0 0.40662173914453831 -0.097214899993173481 0 0.42864211640777627 -0.097894499969741214 0 0.40662173914453831 -0.097214899993173481 0 0.40662173914453831 -0.097214899993173481 0 0.42567205988902129 -0.091656624081337568 0 0.40662173914453831 -0.097214899993173481 0 0.41829766411352998 -0.087706900461061957 0 0.42567205988902129 -0.091656624081337568 0 0.40662173914453831 -0.097214899993173481 0 0.41020628866808312 -0.08357079425946129 0 0.41829766411352998 -0.087706900461061957 0 0.41020628866808312 -0.08357079425946129 0 0.42012861486432151 -0.07981881462850364 0 0.41094109939792961 -0.074512111623280808 0 0.41020628866808312 -0.08357079425946129 0 0.41094109939792961 -0.074512111623280808 0 0.40556094342569721 -0.078918860306745137 0 0.41020628866808312 -0.08357079425946129 0 0.42012861486432151 -0.07981881462850364 0 0.41829766411352998 -0.087706900461061957 0 0.42012861486432151 -0.07981881462850364 0 0.41829766411352998 -0.087706900461061957 0 0.42254342745458301 -0.084546146485576762 0 0.41829766411352998 -0.087706900461061957 0 0.42461385466063262 -0.08943412331831832 0 0.42254342745458301 -0.084546146485576762 0 0.42567205988902129 -0.091656624081337568 0 0.42461385466063262 -0.08943412331831832 0 0.43069868055782679 -0.078899440675300136 0 0.4504480399260129 -0.084427783429311939 0 0.42567205988902129 -0.091656624081337568 0 0.43069868055782679 -0.078899440675300136 0 0.4504480399260129 -0.084427783429311939 0 0.42864211640777627 -0.097894499969741214 0 0.42567205988902129 -0.091656624081337568 0 0.42567205988902129 -0.091656624081337568 0 0.42461385466063262 -0.08943412331831832 0 0.41829766411352998 -0.087706900461061957 0 0.42567205988902129 -0.091656624081337568 0 0.42461385466063262 -0.08943412331831832 0 0.42012861486432151 -0.07981881462850364 0 0.43069868055782679 -0.078899440675300136 0 0.42254342745458301 -0.084546146485576762 0 0.42461385466063262 -0.08943412331831832 0 0.43069868055782679 -0.078899440675300136 0 0.42254342745458301 -0.084546146485576762 0 0.43069868055782679 -0.078899440675300136 0 0.42085386234523608 -0.065266903626460593 0 0.41911482919747139 -0.073234494934215744 0 0.43069868055782679 -0.078899440675300136 0 0.42085386234523608 -0.065266903626460593 0 0.42768193525564641 -0.052738548234870043 0 0.44526353314296241 -0.062107813217869068 0 0.43069868055782679 -0.078899440675300136 0 0.42768193525564641 -0.052738548234870043 0 0.43069868055782679 -0.078899440675300136 0 0.42768193525564641 -0.052738548234870043 0 0.42012861486432151 -0.07981881462850364 0 0.43069868055782679 -0.078899440675300136 0 0.41911482919747139 -0.073234494934215744 0 0.42085386234523608 -0.065266903626460593 0 0.41911482919747139 -0.073234494934215744 0 0.41247118756252621 -0.068972059658544485 0 0.41911482919747139 -0.073234494934215744 0 0.41094109939792961 -0.074512111623280808 0 0.41247118756252621 -0.068972059658544485 0 0.42012861486432151 -0.07981881462850364 0 0.41911482919747139 -0.073234494934215744 0 0.41094109939792961 -0.074512111623280808 0 0.41094109939792961 -0.074512111623280808 0 0.41247118756252621 -0.068972059658544485 0 0.40519344017519737 -0.069697512887539489 0 0.42085386234523608 -0.065266903626460593 0 0.41247118756252621 -0.068972059658544485 0 0.40625270669679608 -0.06214927522122575 0 0.41247118756252621 -0.068972059658544485 0 0.40519344017519737 -0.069697512887539489 0 0.40625270669679608 -0.06214927522122575 0 0.40519344017519737 -0.069697512887539489 0 0.3909339432522656 -0.07145852807871525 0 0.40625270669679608 -0.06214927522122575 0 0.41094109939792961 -0.074512111623280808 0 0.40094221169150912 -0.074554002884685597 0 0.40556094342569721 -0.078918860306745137 0 0.40519344017519737 -0.069697512887539489 0 0.40094221169150912 -0.074554002884685597 0 0.3909339432522656 -0.07145852807871525 0 0.41094109939792961 -0.074512111623280808 0 0.40519344017519737 -0.069697512887539489 0 0.40094221169150912 -0.074554002884685597 0 0.40094221169150912 -0.074554002884685597 0 0.3909339432522656 -0.07145852807871525 0 0.39616481607021642 -0.077435810443283751 0 0.3909339432522656 -0.07145852807871525 0 0.39616481607021642 -0.077435810443283751 0 0.39262893539182381 -0.080692178350181262 0 0.39181446083091098 -0.066763706552935329 0 0.38421934743036401 -0.068446750892908373 0 0.38398729378694407 -0.058429379279077209 0 0.38421934743036401 -0.068446750892908373 0 0.37813424473731178 -0.068262582352726586 0 0.38398729378694407 -0.058429379279077209 0 0.37813424473731178 -0.068262582352726586 0 0.38294139036628899 -0.080331335386894381 0 0.37353404377441052 -0.075370636612477671 0 0.38421934743036401 -0.068446750892908373 0 0.37813424473731178 -0.068262582352726586 0 0.38294139036628899 -0.080331335386894381 0 0.39181446083091098 -0.066763706552935329 0 0.38294139036628899 -0.080331335386894381 0 0.39181446083091098 -0.066763706552935329 0 0.38421934743036401 -0.068446750892908373 0 0.38294139036628899 -0.080331335386894381 0 0.3909339432522656 -0.07145852807871525 0 0.39181446083091098 -0.066763706552935329 0 0.38294139036628899 -0.080331335386894381 0 0.38598565568847482 -0.085166122563822014 0 0.39289996883908601 -0.089154852807517448 0 0.39262893539182381 -0.080692178350181262 0 0.3909339432522656 -0.07145852807871525 0 0.38598565568847482 -0.085166122563822014 0 0.39262893539182381 -0.080692178350181262 0 0.3909339432522656 -0.07145852807871525 0 0.37406831990166722 -0.093898964220853504 0 0.3909339432522656 -0.07145852807871525 0 0.38598565568847482 -0.085166122563822014 0 0.37406831990166722 -0.093898964220853504 0 0.3909339432522656 -0.07145852807871525 0 0.38294139036628899 -0.080331335386894381 0 0.37406831990166722 -0.093898964220853504 0 0.38294139036628899 -0.080331335386894381 0 0.37406831990166722 -0.093898964220853504 0 0.38598565568847482 -0.085166122563822014 0 0.38240509603332101 -0.092127683864182172 0 0.37406831990166722 -0.093898964220853504 0 0.38240509603332101 -0.092127683864182172 0 0.39289996883908601 -0.089154852807517448 0 0.38960421283109031 -0.096689699614190994 0 0.38598565568847482 -0.085166122563822014 0 0.38240509603332101 -0.092127683864182172 0 0.39289996883908601 -0.089154852807517448 0 0.39289996883908601 -0.089154852807517448 0 0.39262893539182381 -0.080692178350181262 0 0.40015417394526698 -0.083038532459552866 0 0.39616481607021642 -0.077435810443283751 0 0.39262893539182381 -0.080692178350181262 0 0.40015417394526698 -0.083038532459552866 0 0.40094221169150912 -0.074554002884685597 0 0.40556094342569721 -0.078918860306745137 0 0.40015417394526698 -0.083038532459552866 0 0.40094221169150912 -0.074554002884685597 0 0.39616481607021642 -0.077435810443283751 0 0.40015417394526698 -0.083038532459552866 0 0.41020628866808312 -0.08357079425946129 0 0.40556094342569721 -0.078918860306745137 0 0.40015417394526698 -0.083038532459552866 0 0.40662173914453831 -0.097214899993173481 0 0.39289996883908601 -0.089154852807517448 0 0.40015417394526698 -0.083038532459552866 0 0.40662173914453831 -0.097214899993173481 0 0.41020628866808312 -0.08357079425946129 0 0.40015417394526698 -0.083038532459552866 0 0.40662173914453831 -0.097214899993173481 0 0.3851668720105898 -0.10347474583943909 0 0.38960421283109031 -0.096689699614190994 0 0.40662173914453831 -0.097214899993173481 0 0.3851668720105898 -0.10347474583943909 0 0.40662173914453831 -0.097214899993173481 0 0.39289996883908601 -0.089154852807517448 0 0.38960421283109031 -0.096689699614190994 0 0.40662173914453831 -0.097214899993173481 0 0.38960421283109031 -0.096689699614190994 0 0.40662173914453831 -0.097214899993173481 0 0.3851668720105898 -0.10347474583943909 0 0.39374350655696688 -0.1137959578468639 0 0.38960421283109031 -0.096689699614190994 0 0.37237061700676077 -0.09615783082836224 0 0.3851668720105898 -0.10347474583943909 0 0.38960421283109031 -0.096689699614190994 0 0.37237061700676077 -0.09615783082836224 0 0.38240509603332101 -0.092127683864182172 0 0.38960421283109031 -0.096689699614190994 0 0.37237061700676077 -0.09615783082836224 0 0.38240509603332101 -0.092127683864182172 0 0.37406831990166722 -0.093898964220853504 0 0.37237061700676077 -0.09615783082836224 0 0.3785150876385216 -0.1195111518185689 0 0.39374350655696688 -0.1137959578468639 0 0.39237070121405998 -0.13164091544729051 0 0.3851668720105898 -0.10347474583943909 0 0.3785150876385216 -0.1195111518185689 0 0.36371200487664068 -0.10973459168570281 0 0.3851668720105898 -0.10347474583943909 0 0.3785150876385216 -0.1195111518185689 0 0.39374350655696688 -0.1137959578468639 0 0.40662173914453831 -0.097214899993173481 0 0.39374350655696688 -0.1137959578468639 0 0.40604313277712428 -0.1171380761358455 0 0.39374350655696688 -0.1137959578468639 0 0.40604313277712428 -0.1171380761358455 0 0.39237070121405998 -0.13164091544729051 0 0.41728163952739061 -0.019334187549187701 0 0.42284227266732188 -0.010769512158268201 0 0.42466518995346408 -0.026577655794440151 0 0.41728163952739061 -0.019334187549187701 0 0.41227128108974659 -0.029924501558089681 0 0.42466518995346408 -0.026577655794440151 0 0.41227128108974659 -0.029924501558089681 0 0.40863720631140932 -0.019892986955346081 0 0.40014031603924488 -0.033106741091830219 0 0.41728163952739061 -0.019334187549187701 0 0.41227128108974659 -0.029924501558089681 0 0.40863720631140932 -0.019892986955346081 0 0.41728163952739061 -0.019334187549187701 0 0.40863720631140932 -0.019892986955346081 0 0.41436166681859882 -0.01226683791037885 0 0.40863720631140932 -0.019892986955346081 0 0.41436166681859882 -0.01226683791037885 0 0.40369857438468087 -0.0060371637805465179 0 0.42101935538117791 0.0050386314779034547 0 0.41402040698134779 -0.0025911497673051101 0 0.42284227266732188 -0.010769512158268201 0 0.41402040698134779 -0.0025911497673051101 0 0.41436166681859882 -0.01226683791037885 0 0.40369857438468087 -0.0060371637805465179 0 0.41402040698134779 -0.0025911497673051101 0 0.41436166681859882 -0.01226683791037885 0 0.42284227266732188 -0.010769512158268201 0 0.41728163952739061 -0.019334187549187701 0 0.41436166681859882 -0.01226683791037885 0 0.42284227266732188 -0.010769512158268201 0 0.42284227266732188 -0.010769512158268201 0 0.43543049063324413 -0.012350052332502739 0 0.42769414368384923 -0.02254750278133769 0 0.42101935538117791 0.0050386314779034547 0 0.42284227266732188 -0.010769512158268201 0 0.42101935538117791 0.0050386314779034547 0 0.42788240966677021 0.003552130545216341 0 0.42284227266732188 -0.010769512158268201 0 0.42788240966677021 0.003552130545216341 0 0.42284227266732188 -0.010769512158268201 0 0.43543049063324413 -0.012350052332502739 0 0.42284227266732188 -0.010769512158268201 0 0.42466518995346408 -0.026577655794440151 0 0.42284227266732188 -0.010769512158268201 0 0.42769414368384923 -0.02254750278133769 0 0.42466518995346408 -0.026577655794440151 0 0.44260817666721519 -0.025216613737701819 0 0.43543049063324413 -0.012350052332502739 0 0.42769414368384923 -0.02254750278133769 0 0.42769414368384923 -0.02254750278133769 0 0.42466518995346408 -0.026577655794440151 0 0.43454865465473302 -0.032105158367880783 0 0.42769414368384923 -0.02254750278133769 0 0.42466518995346408 -0.026577655794440151 0 0.44260817666721519 -0.025216613737701819 0 0.42769414368384923 -0.02254750278133769 0 0.43454865465473302 -0.032105158367880783 0 0.42466518995346408 -0.026577655794440151 0 0.43454865465473302 -0.032105158367880783 0 0.42768193525564641 -0.052738548234870043 0 0.42466518995346408 -0.026577655794440151 0 0.42768193525564641 -0.052738548234870043 0 0.44483042593949818 -0.041063070916932051 0 0.43454865465473302 -0.032105158367880783 0 0.42768193525564641 -0.052738548234870043 0 0.42085386234523608 -0.065266903626460593 0 0.42768193525564641 -0.052738548234870043 0 0.40779956660286398 -0.049018091936576927 0 0.42085386234523608 -0.065266903626460593 0 0.40779956660286398 -0.049018091936576927 0 0.40625270669679608 -0.06214927522122575 0 0.42466518995346408 -0.026577655794440151 0 0.42768193525564641 -0.052738548234870043 0 0.40779956660286398 -0.049018091936576927 0 0.42466518995346408 -0.026577655794440151 0 0.40779956660286398 -0.049018091936576927 0 0.41227128108974659 -0.029924501558089681 0 0.42466518995346408 -0.026577655794440151 0 0.40779956660286398 -0.049018091936576927 0 0.41227128108974659 -0.029924501558089681 0 0.40779956660286398 -0.049018091936576927 0 0.40014031603924488 -0.033106741091830219 0 0.40779956660286398 -0.049018091936576927 0 0.40014031603924488 -0.033106741091830219 0 0.3912967176308087 -0.04756724484766426 0 0.40014031603924488 -0.033106741091830219 0 0.3912967176308087 -0.04756724484766426 0 0.38547037370043469 -0.032308846426106139 0 0.3909339432522656 -0.07145852807871525 0 0.40779956660286398 -0.049018091936576927 0 0.40625270669679608 -0.06214927522122575 0 0.3909339432522656 -0.07145852807871525 0 0.39181446083091098 -0.066763706552935329 0 0.40779956660286398 -0.049018091936576927 0 0.39181446083091098 -0.066763706552935329 0 0.40779956660286398 -0.049018091936576927 0 0.3912967176308087 -0.04756724484766426 0 0.3909339432522656 -0.07145852807871525 0 0.40779956660286398 -0.049018091936576927 0 0.3912967176308087 -0.04756724484766426 0 0.38398729378694407 -0.058429379279077209 0 0.37514153202862571 -0.045861082966856079 0 0.39181446083091098 -0.066763706552935329 0 0.3912967176308087 -0.04756724484766426 0 0.38398729378694407 -0.058429379279077209 0 0.38398729378694407 -0.058429379279077209 0 0.37514153202862571 -0.045861082966856079 0 0.37192531576168952 -0.05914395824800911 0 0.37813424473731178 -0.068262582352726586 0 0.38398729378694407 -0.058429379279077209 0 0.37192531576168952 -0.05914395824800911 0 0.3912967176308087 -0.04756724484766426 0 0.38547037370043469 -0.032308846426106139 0 0.37514153202862571 -0.045861082966856079 0 0.38547037370043469 -0.032308846426106139 0 0.37514153202862571 -0.045861082966856079 0 0.36877413775607049 -0.02995327657106206 0 0.38547037370043469 -0.032308846426106139 0 0.37927030083329177 -0.015743113788958679 0 0.36877413775607049 -0.02995327657106206 0 0.38547037370043469 -0.032308846426106139 0 0.37927030083329177 -0.015743113788958679 0 0.39536675090020662 -0.019928774827198261 0 0.40014031603924488 -0.033106741091830219 0 0.38547037370043469 -0.032308846426106139 0 0.39536675090020662 -0.019928774827198261 0 0.40863720631140932 -0.019892986955346081 0 0.40014031603924488 -0.033106741091830219 0 0.39536675090020662 -0.019928774827198261 0 0.40863720631140932 -0.019892986955346081 0 0.39536675090020662 -0.019928774827198261 0 0.40369857438468087 -0.0060371637805465179 0 0.39536675090020662 -0.019928774827198261 0 0.40369857438468087 -0.0060371637805465179 0 0.39174671884158141 -0.0074493154892236006 0 0.39390920682105918 0.0040204267233196643 0 0.40369857438468087 -0.0060371637805465179 0 0.39174671884158141 -0.0074493154892236006 0 0.38212023564171321 0.001094655884648786 0 0.37927030083329177 -0.015743113788958679 0 0.39174671884158141 -0.0074493154892236006 0 0.38212023564171321 0.001094655884648786 0 0.37927030083329177 -0.015743113788958679 0 0.3700201466167648 -0.002195575246397889 0 0.37927030083329177 -0.015743113788958679 0 0.39536675090020662 -0.019928774827198261 0 0.39174671884158141 -0.0074493154892236006 0 0.39390920682105918 0.0040204267233196643 0 0.38212023564171321 0.001094655884648786 0 0.39174671884158141 -0.0074493154892236006 0 0.35686418876597309 0.010252504770385159 0 0.3700201466167648 -0.002195575246397889 0 0.35727920934793722 -0.0129667368589869 0 0.37927030083329177 -0.015743113788958679 0 0.3700201466167648 -0.002195575246397889 0 0.35727920934793722 -0.0129667368589869 0 0.36877413775607049 -0.02995327657106206 0 0.35727920934793722 -0.0129667368589869 0 0.35227314840285812 -0.03152257084722427 0 0.37927030083329177 -0.015743113788958679 0 0.36877413775607049 -0.02995327657106206 0 0.35727920934793722 -0.0129667368589869 0 0.35727920934793722 -0.0129667368589869 0 0.33875503928457851 -0.02222753562310531 0 0.35227314840285812 -0.03152257084722427 0 0.35727920934793722 -0.0129667368589869 0 0.33586681222118892 -0.0067462441580033658 0 0.33875503928457851 -0.02222753562310531 0 0.35686418876597309 0.010252504770385159 0 0.35727920934793722 -0.0129667368589869 0 0.33586681222118892 -0.0067462441580033658 0 0.33586681222118892 -0.0067462441580033658 0 0.33875503928457851 -0.02222753562310531 0 0.31486943567640469 -0.023744993086391868 0 0.33875503928457851 -0.02222753562310531 0 0.31486943567640469 -0.023744993086391868 0 0.33348659077450338 -0.036157133164920148 0 0.33875503928457851 -0.02222753562310531 0 0.33348659077450338 -0.036157133164920148 0 0.35227314840285812 -0.03152257084722427 0 0.31046320235639918 0.0067575729804437252 0 0.33586681222118892 -0.0067462441580033658 0 0.3153830815233527 -0.0087530987426132929 0 0.33586681222118892 -0.0067462441580033658 0 0.31486943567640469 -0.023744993086391868 0 0.3153830815233527 -0.0087530987426132929 0 0.33586681222118892 -0.0067462441580033658 0 0.31486943567640469 -0.023744993086391868 0 0.32115491610998381 -0.052976688016941227 0 0.32092150739102382 -0.073097043805500014 0 0.30601744289912669 -0.055409131432484229 0 0.32115491610998381 -0.052976688016941227 0 0.31197137499350902 -0.041008225260955711 0 0.30601744289912669 -0.055409131432484229 0 0.31486943567640469 -0.023744993086391868 0 0.33348659077450338 -0.036157133164920148 0 0.31197137499350902 -0.041008225260955711 0 0.32115491610998381 -0.052976688016941227 0 0.33348659077450338 -0.036157133164920148 0 0.31197137499350902 -0.041008225260955711 0 0.33348659077450338 -0.036157133164920148 0 0.3363568723602065 -0.050864743298462772 0 0.35116628403686417 -0.048621598638038131 0 0.32115491610998381 -0.052976688016941227 0 0.33348659077450338 -0.036157133164920148 0 0.3363568723602065 -0.050864743298462772 0 0.32115491610998381 -0.052976688016941227 0 0.3363568723602065 -0.050864743298462772 0 0.33388625794764348 -0.064812423232177271 0 0.3363568723602065 -0.050864743298462772 0 0.34794047334546518 -0.063974584280765273 0 0.33388625794764348 -0.064812423232177271 0 0.3363568723602065 -0.050864743298462772 0 0.35116628403686417 -0.048621598638038131 0 0.34794047334546518 -0.063974584280765273 0 0.35116628403686417 -0.048621598638038131 0 0.35914505774559541 -0.060409417065886872 0 0.36392372675137458 -0.051574144679805103 0 0.35116628403686417 -0.048621598638038131 0 0.36240463436463582 -0.041692596330413237 0 0.36392372675137458 -0.051574144679805103 0 0.35116628403686417 -0.048621598638038131 0 0.35914505774559541 -0.060409417065886872 0 0.34794047334546518 -0.063974584280765273 0 0.35116628403686417 -0.048621598638038131 0 0.35227314840285812 -0.03152257084722427 0 0.36240463436463582 -0.041692596330413237 0 0.33348659077450338 -0.036157133164920148 0 0.35116628403686417 -0.048621598638038131 0 0.35227314840285812 -0.03152257084722427 0 0.37514153202862571 -0.045861082966856079 0 0.36877413775607049 -0.02995327657106206 0 0.36240463436463582 -0.041692596330413237 0 0.36877413775607049 -0.02995327657106206 0 0.35227314840285812 -0.03152257084722427 0 0.36240463436463582 -0.041692596330413237 0 0.37514153202862571 -0.045861082966856079 0 0.36240463436463582 -0.041692596330413237 0 0.36392372675137458 -0.051574144679805103 0 0.35914505774559541 -0.060409417065886872 0 0.36392372675137458 -0.051574144679805103 0 0.37192531576168952 -0.05914395824800911 0 0.37514153202862571 -0.045861082966856079 0 0.36392372675137458 -0.051574144679805103 0 0.37192531576168952 -0.05914395824800911 0 0.37813424473731178 -0.068262582352726586 0 0.37192531576168952 -0.05914395824800911 0 0.3680772617285144 -0.06977757947088653 0 0.35914505774559541 -0.060409417065886872 0 0.37192531576168952 -0.05914395824800911 0 0.3680772617285144 -0.06977757947088653 0 0.35914505774559541 -0.060409417065886872 0 0.3680772617285144 -0.06977757947088653 0 0.35837286676988928 -0.071968688592424085 0 0.3680772617285144 -0.06977757947088653 0 0.36498327826552668 -0.083111049239403226 0 0.35837286676988928 -0.071968688592424085 0 0.3680772617285144 -0.06977757947088653 0 0.37353404377441052 -0.075370636612477671 0 0.36498327826552668 -0.083111049239403226 0 0.37813424473731178 -0.068262582352726586 0 0.3680772617285144 -0.06977757947088653 0 0.37353404377441052 -0.075370636612477671 0 0.38294139036628899 -0.080331335386894381 0 0.37353404377441052 -0.075370636612477671 0 0.36498327826552668 -0.083111049239403226 0 0.36498327826552668 -0.083111049239403226 0 0.37237061700676077 -0.09615783082836224 0 0.34241852099989789 -0.095233439592861846 0 0.38294139036628899 -0.080331335386894381 0 0.36498327826552668 -0.083111049239403226 0 0.37406831990166722 -0.093898964220853504 0 0.36498327826552668 -0.083111049239403226 0 0.37406831990166722 -0.093898964220853504 0 0.37237061700676077 -0.09615783082836224 0 0.36498327826552668 -0.083111049239403226 0 0.3449175019875389 -0.076917716904771144 0 0.34241852099989789 -0.095233439592861846 0 0.36498327826552668 -0.083111049239403226 0 0.3449175019875389 -0.076917716904771144 0 0.35837286676988928 -0.071968688592424085 0 0.3449175019875389 -0.076917716904771144 0 0.34794047334546518 -0.063974584280765273 0 0.35837286676988928 -0.071968688592424085 0 0.35914505774559541 -0.060409417065886872 0 0.34794047334546518 -0.063974584280765273 0 0.35837286676988928 -0.071968688592424085 0 0.36371200487664068 -0.10973459168570281 0 0.35664352332635268 -0.13060513793896061 0 0.36779594019891898 -0.12729788290040461 0 0.3785150876385216 -0.1195111518185689 0 0.36371200487664068 -0.10973459168570281 0 0.36779594019891898 -0.12729788290040461 0 0.36371200487664068 -0.10973459168570281 0 0.37237061700676077 -0.09615783082836224 0 0.34241852099989789 -0.095233439592861846 0 0.3851668720105898 -0.10347474583943909 0 0.36371200487664068 -0.10973459168570281 0 0.37237061700676077 -0.09615783082836224 0 0.3851668720105898 -0.10347474583943909 0 0.36371200487664068 -0.10973459168570281 0 0.36371200487664068 -0.10973459168570281 0 0.37237061700676077 -0.09615783082836224 0 0.37406831990166722 -0.093898964220853504 0 0.37237061700676077 -0.09615783082836224 0 0.36371200487664068 -0.10973459168570281 0 0.34332012240242971 -0.1020930362129598 0 0.34241852099989789 -0.095233439592861846 0 0.36371200487664068 -0.10973459168570281 0 0.35002252173753962 -0.112446561286345 0 0.34332012240242971 -0.1020930362129598 0 0.37237061700676077 -0.09615783082836224 0 0.34241852099989789 -0.095233439592861846 0 0.35002252173753962 -0.112446561286345 0 0.34025414842832208 -0.11782241666052221 0 0.34332012240242971 -0.1020930362129598 0 0.36371200487664068 -0.10973459168570281 0 0.35355367174401742 -0.1211945845718113 0 0.34779048707731292 -0.1340798558009649 0 0.36371200487664068 -0.10973459168570281 0 0.35664352332635268 -0.13060513793896061 0 0.34779048707731292 -0.1340798558009649 0 0.36371200487664068 -0.10973459168570281 0 0.34779048707731292 -0.1340798558009649 0 0.36371200487664068 -0.10973459168570281 0 0.35002252173753962 -0.112446561286345 0 0.35355367174401742 -0.1211945845718113 0 0.36371200487664068 -0.10973459168570281 0 0.35355367174401742 -0.1211945845718113 0 0.35002252173753962 -0.112446561286345 0 0.35355367174401742 -0.1211945845718113 0 0.34025414842832208 -0.11782241666052221 0 0.35355367174401742 -0.1211945845718113 0 0.34025414842832208 -0.11782241666052221 0 0.34381162934489939 -0.12854128697128539 0 0.33094534805706732 -0.1177437606496905 0 0.31854024801571379 -0.1183964408803808 0 0.33718817445421712 -0.13355179710808501 0 0.34025414842832208 -0.11782241666052221 0 0.33378984816934337 -0.1086297847084315 0 0.34332012240242971 -0.1020930362129598 0 0.33094534805706732 -0.1177437606496905 0 0.34025414842832208 -0.11782241666052221 0 0.33718817445421712 -0.13355179710808501 0 0.34025414842832208 -0.11782241666052221 0 0.34332012240242971 -0.1020930362129598 0 0.33094534805706732 -0.1177437606496905 0 0.33378984816934337 -0.1086297847084315 0 0.32495432121773932 -0.110318363891034 0 0.33094534805706732 -0.1177437606496905 0 0.34025414842832208 -0.11782241666052221 0 0.33378984816934337 -0.1086297847084315 0 0.33378984816934337 -0.1086297847084315 0 0.32725903490077729 -0.10071499943534749 0 0.32495432121773932 -0.110318363891034 0 0.33378984816934337 -0.1086297847084315 0 0.33669688161811212 -0.1016678149874002 0 0.32725903490077729 -0.10071499943534749 0 0.33378984816934337 -0.1086297847084315 0 0.34332012240242971 -0.1020930362129598 0 0.33669688161811212 -0.1016678149874002 0 0.34332012240242971 -0.1020930362129598 0 0.33669688161811212 -0.1016678149874002 0 0.34241852099989789 -0.095233439592861846 0 0.33669688161811212 -0.1016678149874002 0 0.34241852099989789 -0.095233439592861846 0 0.32725903490077729 -0.10071499943534749 0 0.34241852099989789 -0.095233439592861846 0 0.31246642499303512 -0.0943090483573608 0 0.34241852099989789 -0.095233439592861846 0 0.32725903490077729 -0.10071499943534749 0 0.31246642499303512 -0.0943090483573608 0 0.32725903490077729 -0.10071499943534749 0 0.31716114910448651 -0.10565591717263 0 0.31246642499303512 -0.0943090483573608 0 0.32725903490077729 -0.10071499943534749 0 0.31716114910448651 -0.10565591717263 0 0.32495432121773932 -0.110318363891034 0 0.33094534805706732 -0.1177437606496905 0 0.32495432121773932 -0.110318363891034 0 0.31854024801571379 -0.1183964408803808 0 0.31716114910448651 -0.10565591717263 0 0.32495432121773932 -0.110318363891034 0 0.31854024801571379 -0.1183964408803808 0 0.31716114910448651 -0.10565591717263 0 0.31854024801571379 -0.1183964408803808 0 0.30531265091832138 -0.10738965970164049 0 0.3449175019875389 -0.076917716904771144 0 0.33388625794764348 -0.064812423232177271 0 0.32092150739102382 -0.073097043805500014 0 0.3449175019875389 -0.076917716904771144 0 0.34794047334546518 -0.063974584280765273 0 0.33388625794764348 -0.064812423232177271 0 0.3449175019875389 -0.076917716904771144 0 0.34241852099989789 -0.095233439592861846 0 0.32092150739102382 -0.073097043805500014 0 0.34241852099989789 -0.095233439592861846 0 0.32092150739102382 -0.073097043805500014 0 0.31246642499303512 -0.0943090483573608 0 0.32115491610998381 -0.052976688016941227 0 0.33388625794764348 -0.064812423232177271 0 0.32092150739102382 -0.073097043805500014 0 0.32092150739102382 -0.073097043805500014 0 0.28819319405889499 -0.06706419956831737 0 0.31246642499303512 -0.0943090483573608 0 0.32092150739102382 -0.073097043805500014 0 0.28819319405889499 -0.06706419956831737 0 0.30601744289912669 -0.055409131432484229 0 0.28251432898617262 -0.093384657121855619 0 0.28819319405889499 -0.06706419956831737 0 0.31246642499303512 -0.0943090483573608 0 0.28251432898617262 -0.093384657121855619 0 0.28819319405889499 -0.06706419956831737 0 0.28251432898617262 -0.093384657121855619 0 0.28819319405889499 -0.06706419956831737 0 0.2788070763813692 -0.075616481315712358 0 0.30531265091832138 -0.10738965970164049 0 0.29209333803684512 -0.1204183792118467 0 0.30316218715013699 -0.13585617877411299 0 0.31854024801571379 -0.1183964408803808 0 0.30531265091832138 -0.10738965970164049 0 0.30316218715013699 -0.13585617877411299 0 0.30531265091832138 -0.10738965970164049 0 0.30316218715013699 -0.13585617877411299 0 0.30531265091832138 -0.10738965970164049 0 0.31246642499303512 -0.0943090483573608 0 0.2913954051317153 -0.1063448066268642 0 0.28251432898617262 -0.093384657121855619 0 0.31246642499303512 -0.0943090483573608 0 0.31716114910448651 -0.10565591717263 0 0.30531265091832138 -0.10738965970164049 0 0.31246642499303512 -0.0943090483573608 0 0.28251432898617262 -0.093384657121855619 0 0.31246642499303512 -0.0943090483573608 0 0.2913954051317153 -0.1063448066268642 0 0.28251432898617262 -0.093384657121855619 0 0.2913954051317153 -0.1063448066268642 0 0.27794998204403759 -0.11453953550188679 0 0.30531265091832138 -0.10738965970164049 0 0.2913954051317153 -0.1063448066268642 0 0.29209333803684512 -0.1204183792118467 0 0.2913954051317153 -0.1063448066268642 0 0.29209333803684512 -0.1204183792118467 0 0.27794998204403759 -0.11453953550188679 0 0.27794998204403759 -0.11453953550188679 0 0.25915390151091949 -0.11811210275817149 0 0.27338563510190422 -0.1356944138819183 0 0.29209333803684512 -0.1204183792118467 0 0.27794998204403759 -0.11453953550188679 0 0.27338563510190422 -0.1356944138819183 0 0.28251432898617262 -0.093384657121855619 0 0.27794998204403759 -0.11453953550188679 0 0.25666672159796139 -0.092586939936295867 0 0.28251432898617262 -0.093384657121855619 0 0.27794998204403759 -0.11453953550188679 0 0.25915390151091949 -0.11811210275817149 0 0.25666672159796139 -0.092586939936295867 0 0.23839025179526999 -0.1151992729885977 0 0.27794998204403759 -0.11453953550188679 0 0.25915390151091949 -0.11811210275817149 0 0.25666672159796139 -0.092586939936295867 0 0.28819319405889499 -0.06706419956831737 0 0.27512965144911827 -0.070681904186227995 0 0.27783686619476677 -0.05372527893061739 0 0.26897876163713708 -0.070467118147906876 0 0.27512965144911827 -0.070681904186227995 0 0.27783686619476677 -0.05372527893061739 0 0.26897876163713708 -0.070467118147906876 0 0.26180167325791431 -0.066706815846455908 0 0.27783686619476677 -0.05372527893061739 0 0.27067132333055188 -0.076788874412469815 0 0.26897876163713708 -0.070467118147906876 0 0.26145119023330071 -0.079000043976386408 0 0.27067132333055188 -0.076788874412469815 0 0.26897876163713708 -0.070467118147906876 0 0.2788070763813692 -0.075616481315712358 0 0.26897876163713708 -0.070467118147906876 0 0.27512965144911827 -0.070681904186227995 0 0.28819319405889499 -0.06706419956831737 0 0.2788070763813692 -0.075616481315712358 0 0.27512965144911827 -0.070681904186227995 0 0.26897876163713708 -0.070467118147906876 0 0.2788070763813692 -0.075616481315712358 0 0.26897876163713708 -0.070467118147906876 0 0.2788070763813692 -0.075616481315712358 0 0.27512965144911827 -0.070681904186227995 0 0.28251432898617262 -0.093384657121855619 0 0.25666672159796139 -0.092586939936295867 0 0.28251432898617262 -0.093384657121855619 0 0.27051227275229911 -0.08315566172012806 0 0.25666672159796139 -0.092586939936295867 0 0.28251432898617262 -0.093384657121855619 0 0.2788070763813692 -0.075616481315712358 0 0.27051227275229911 -0.08315566172012806 0 0.27067132333055188 -0.076788874412469815 0 0.27051227275229911 -0.08315566172012806 0 0.26145119023330071 -0.079000043976386408 0 0.27067132333055188 -0.076788874412469815 0 0.2788070763813692 -0.075616481315712358 0 0.27051227275229911 -0.08315566172012806 0 0.26145119023330071 -0.079000043976386408 0 0.25666672159796139 -0.092586939936295867 0 0.24423239209720191 -0.080930297464084477 0 0.27051227275229911 -0.08315566172012806 0 0.26145119023330071 -0.079000043976386408 0 0.25666672159796139 -0.092586939936295867 0 0.26180167325791431 -0.066706815846455908 0 0.25764566998465072 -0.070071372177431313 0 0.24120587699226881 -0.055916030502087773 0 0.26145119023330071 -0.079000043976386408 0 0.25764566998465072 -0.070071372177431313 0 0.24423239209720191 -0.080930297464084477 0 0.25764566998465072 -0.070071372177431313 0 0.24423239209720191 -0.080930297464084477 0 0.26897876163713708 -0.070467118147906876 0 0.26145119023330071 -0.079000043976386408 0 0.25764566998465072 -0.070071372177431313 0 0.26897876163713708 -0.070467118147906876 0 0.26180167325791431 -0.066706815846455908 0 0.25764566998465072 -0.070071372177431313 0 0.26897876163713708 -0.070467118147906876 0 0.25764566998465072 -0.070071372177431313 0 0.26897876163713708 -0.070467118147906876 0 0.26180167325791431 -0.066706815846455908 0 0.26180167325791431 -0.066706815846455908 0 0.25764566998465072 -0.070071372177431313 0 0.26180167325791431 -0.066706815846455908 0 0.26029261894245981 -0.048826031507571623 0 0.24120587699226881 -0.055916030502087773 0 0.26180167325791431 -0.066706815846455908 0 0.24120587699226881 -0.055916030502087773 0 0.26180167325791431 -0.066706815846455908 0 0.26029261894245981 -0.048826031507571623 0 0.27783686619476677 -0.05372527893061739 0 0.26180167325791431 -0.066706815846455908 0 0.27783686619476677 -0.05372527893061739 0 0.26029261894245981 -0.048826031507571623 0 0.27783686619476677 -0.05372527893061739 0 0.27031708646619812 -0.033638605470610219 0 0.27783686619476677 -0.05372527893061739 0 0.27031708646619812 -0.033638605470610219 0 0.28437966209514692 -0.033534114227583768 0 0.26029261894245981 -0.048826031507571623 0 0.27031708646619812 -0.033638605470610219 0 0.25030159180115191 -0.034143426788088307 0 0.26029261894245981 -0.048826031507571623 0 0.25030159180115191 -0.034143426788088307 0 0.24120587699226881 -0.055916030502087773 0 0.25030159180115191 -0.034143426788088307 0 0.26299580833271302 -0.019789195105520681 0 0.2464198669495459 -0.012097030270161889 0 0.27031708646619812 -0.033638605470610219 0 0.25030159180115191 -0.034143426788088307 0 0.26299580833271302 -0.019789195105520681 0 0.25322369798355371 0.0032948183560677501 0 0.26778398551549509 -0.0036893303100333872 0 0.2464198669495459 -0.012097030270161889 0 0.26299580833271302 -0.019789195105520681 0 0.26778398551549509 -0.0036893303100333872 0 0.2464198669495459 -0.012097030270161889 0 0.26299580833271302 -0.019789195105520681 0 0.26778398551549509 -0.0036893303100333872 0 0.28231604015163769 -0.018351258625531171 0 0.2895407867033607 0.0013395930438658619 0 0.26778398551549509 -0.0036893303100333872 0 0.28231604015163769 -0.018351258625531171 0 0.27031708646619812 -0.033638605470610219 0 0.26299580833271302 -0.019789195105520681 0 0.28231604015163769 -0.018351258625531171 0 0.27031708646619812 -0.033638605470610219 0 0.28231604015163769 -0.018351258625531171 0 0.28437966209514692 -0.033534114227583768 0 0.28231604015163769 -0.018351258625531171 0 0.29600028882747859 -0.03087980289019443 0 0.28437966209514692 -0.033534114227583768 0 0.28231604015163769 -0.018351258625531171 0 0.29600028882747859 -0.03087980289019443 0 0.30132541624728598 -0.01217829343577128 0 0.2895407867033607 0.0013395930438658619 0 0.28231604015163769 -0.018351258625531171 0 0.30132541624728598 -0.01217829343577128 0 0.31046320235639918 0.0067575729804437252 0 0.2895407867033607 0.0013395930438658619 0 0.30132541624728598 -0.01217829343577128 0 0.31046320235639918 0.0067575729804437252 0 0.3153830815233527 -0.0087530987426132929 0 0.30132541624728598 -0.01217829343577128 0 0.31486943567640469 -0.023744993086391868 0 0.3153830815233527 -0.0087530987426132929 0 0.30132541624728598 -0.01217829343577128 0 0.31486943567640469 -0.023744993086391868 0 0.29600028882747859 -0.03087980289019443 0 0.30132541624728598 -0.01217829343577128 0 0.31486943567640469 -0.023744993086391868 0 0.31197137499350902 -0.041008225260955711 0 0.29387205913161968 -0.04074374201477949 0 0.31486943567640469 -0.023744993086391868 0 0.29600028882747859 -0.03087980289019443 0 0.29387205913161968 -0.04074374201477949 0 0.31486943567640469 -0.023744993086391868 0 0.29387205913161968 -0.04074374201477949 0 0.31197137499350902 -0.041008225260955711 0 0.30601744289912669 -0.055409131432484229 0 0.29387205913161968 -0.04074374201477949 0 0.28819319405889499 -0.06706419956831737 0 0.27783686619476677 -0.05372527893061739 0 0.29387205913161968 -0.04074374201477949 0 0.28819319405889499 -0.06706419956831737 0 0.29387205913161968 -0.04074374201477949 0 0.27783686619476677 -0.05372527893061739 0 0.29387205913161968 -0.04074374201477949 0 0.28819319405889499 -0.06706419956831737 0 0.30601744289912669 -0.055409131432484229 0 0.29387205913161968 -0.04074374201477949 0 0.27783686619476677 -0.05372527893061739 0 0.28437966209514692 -0.033534114227583768 0 0.29387205913161968 -0.04074374201477949 0 0.29600028882747859 -0.03087980289019443 0 0.28437966209514692 -0.033534114227583768 0 0.29387205913161968 -0.04074374201477949 0 0.29600028882747859 -0.03087980289019443 0 0.29387205913161968 -0.04074374201477949 0 0.28925369461552242 -0.21547475378801551 0 0.29798535605087828 -0.20438389051808681 0 0.27851755886665591 -0.20371457102860641 0 0.28925369461552242 -0.21547475378801551 0 0.28465086540799672 -0.2254021489655588 0 0.27851755886665591 -0.20371457102860641 0 0.28925369461552242 -0.21547475378801551 0 0.29798535605087828 -0.20438389051808681 0 0.29625974568445868 -0.22722646109941139 0 0.28994099481116897 -0.19128490440727269 0 0.29798535605087828 -0.20438389051808681 0 0.29971096641729777 -0.18154131993676231 0 0.28994099481116897 -0.19128490440727269 0 0.27851755886665591 -0.20371457102860641 0 0.28355009790984409 -0.17549983614563519 0 0.28994099481116897 -0.19128490440727269 0 0.29798535605087828 -0.20438389051808681 0 0.27851755886665591 -0.20371457102860641 0 0.30866677822314281 -0.19370433905286669 0 0.29798535605087828 -0.20438389051808681 0 0.29971096641729777 -0.18154131993676231 0 0.29798535605087828 -0.20438389051808681 0 0.29971096641729777 -0.18154131993676231 0 0.30866677822314281 -0.19370433905286669 0 0.30817512199612251 -0.208018461664154 0 0.29798535605087828 -0.20438389051808681 0 0.29798535605087828 -0.20438389051808681 0 0.29625974568445868 -0.22722646109941139 0 0.30367267472900389 -0.2178556058656746 0 0.31200739898088131 -0.22851072207886541 0 0.31883562653249692 -0.20986103607638071 0 0.29798535605087828 -0.20438389051808681 0 0.30367267472900389 -0.2178556058656746 0 0.29625974568445868 -0.22722646109941139 0 0.30817512199612251 -0.208018461664154 0 0.29798535605087828 -0.20438389051808681 0 0.30367267472900389 -0.2178556058656746 0 0.30817512199612251 -0.208018461664154 0 0.30367267472900389 -0.2178556058656746 0 0.31883562653249692 -0.20986103607638071 0 0.30367267472900389 -0.2178556058656746 0 0.31883562653249692 -0.20986103607638071 0 0.31200739898088131 -0.22851072207886541 0 0.30517917142926537 -0.24716040808135001 0 0.29625974568445868 -0.22722646109941139 0 0.30367267472900389 -0.2178556058656746 0 0.31200739898088131 -0.22851072207886541 0 0.29625974568445868 -0.22722646109941139 0 0.31200739898088131 -0.22851072207886541 0 0.30517917142926537 -0.24716040808135001 0 0.30517917142926537 -0.24716040808135001 0 0.28765229627979871 -0.24304032400626949 0 0.29625974568445868 -0.22722646109941139 0 0.28765229627979871 -0.24304032400626949 0 0.29625974568445868 -0.22722646109941139 0 0.28465086540799672 -0.2254021489655588 0 0.28765229627979871 -0.24304032400626949 0 0.28465086540799672 -0.2254021489655588 0 0.27348501982346762 -0.23192930591157759 0 0.28925369461552242 -0.21547475378801551 0 0.29625974568445868 -0.22722646109941139 0 0.28465086540799672 -0.2254021489655588 0 0.28465086540799672 -0.2254021489655588 0 0.27348501982346762 -0.23192930591157759 0 0.27851755886665591 -0.20371457102860641 0 0.27348501982346762 -0.23192930591157759 0 0.25787859859726192 -0.24372773219337371 0 0.26845248078028039 -0.26014404079454911 0 0.28765229627979871 -0.24304032400626949 0 0.27348501982346762 -0.23192930591157759 0 0.26845248078028039 -0.26014404079454911 0 0.27348501982346762 -0.23192930591157759 0 0.26845248078028039 -0.26014404079454911 0 0.27348501982346762 -0.23192930591157759 0 0.25787859859726192 -0.24372773219337371 0 0.2485278721491469 -0.22983386195931649 0 0.27348501982346762 -0.23192930591157759 0 0.25806059678156651 -0.21160485628964759 0 0.2485278721491469 -0.22983386195931649 0 0.27348501982346762 -0.23192930591157759 0 0.27851755886665591 -0.20371457102860641 0 0.27348501982346762 -0.23192930591157759 0 0.25806059678156651 -0.21160485628964759 0 0.27851755886665591 -0.20371457102860641 0 0.27851755886665591 -0.20371457102860641 0 0.26140201073716351 -0.19316186481753209 0 0.27335445324682811 -0.1824409541049711 0 0.25806059678156651 -0.21160485628964759 0 0.27851755886665591 -0.20371457102860641 0 0.26140201073716351 -0.19316186481753209 0 0.27851755886665591 -0.20371457102860641 0 0.28355009790984409 -0.17549983614563519 0 0.25806059678156651 -0.21160485628964759 0 0.26140201073716351 -0.19316186481753209 0 0.24624710011957149 -0.19756578472926509 0 0.26140201073716351 -0.19316186481753209 0 0.25030889548151403 -0.1837077448593728 0 0.24624710011957149 -0.19756578472926509 0 0.25969225384889538 -0.18295045636353721 0 0.2550208565069661 -0.17514012483034949 0 0.27335445324682811 -0.1824409541049711 0 0.26140201073716351 -0.19316186481753209 0 0.25030889548151403 -0.1837077448593728 0 0.25969225384889538 -0.18295045636353721 0 0.25030889548151403 -0.1837077448593728 0 0.25969225384889538 -0.18295045636353721 0 0.2550208565069661 -0.17514012483034949 0 0.2550208565069661 -0.17514012483034949 0 0.2530488896403309 -0.16079061319898569 0 0.27335445324682811 -0.1824409541049711 0 0.26140201073716351 -0.19316186481753209 0 0.25969225384889538 -0.18295045636353721 0 0.27335445324682811 -0.1824409541049711 0 0.2530488896403309 -0.16079061319898569 0 0.272260185211738 -0.168331689764908 0 0.26878477807763418 -0.16016356734556891 0 0.2530488896403309 -0.16079061319898569 0 0.26878477807763418 -0.16016356734556891 0 0.26293682869207591 -0.15391070786642169 0 0.2530488896403309 -0.16079061319898569 0 0.27335445324682811 -0.1824409541049711 0 0.272260185211738 -0.168331689764908 0 0.27899515764395177 -0.15443660918041571 0 0.28355009790984409 -0.17549983614563519 0 0.2530488896403309 -0.16079061319898569 0 0.272260185211738 -0.168331689764908 0 0.27335445324682811 -0.1824409541049711 0 0.272260185211738 -0.168331689764908 0 0.26878477807763418 -0.16016356734556891 0 0.27899515764395177 -0.15443660918041571 0 0.272260185211738 -0.168331689764908 0 0.27335445324682811 -0.1824409541049711 0 0.28355009790984409 -0.17549983614563519 0 0.27851755886665591 -0.20371457102860641 0 0.27335445324682811 -0.1824409541049711 0 0.28355009790984409 -0.17549983614563519 0 0.25915390151091949 -0.11811210275817149 0 0.25133622254172122 -0.13557462765415079 0 0.27338563510190422 -0.1356944138819183 0 0.25133622254172122 -0.13557462765415079 0 0.27338563510190422 -0.1356944138819183 0 0.25133622254172122 -0.13557462765415079 0 0.25208407187516418 -0.1419613505697605 0 0.27338563510190422 -0.1356944138819183 0 0.26557247671991108 -0.14774187414890411 0 0.25208407187516418 -0.1419613505697605 0 0.27142481771649529 -0.14478242884651979 0 0.25208407187516418 -0.1419613505697605 0 0.27142481771649529 -0.14478242884651979 0 0.2530488896403309 -0.16079061319898569 0 0.25208407187516418 -0.1419613505697605 0 0.26293682869207591 -0.15391070786642169 0 0.26557247671991108 -0.14774187414890411 0 0.25208407187516418 -0.1419613505697605 0 0.26293682869207591 -0.15391070786642169 0 0.27899515764395177 -0.15443660918041571 0 0.27142481771649529 -0.14478242884651979 0 0.28858263695303038 -0.1472851012626637 0 0.25208407187516418 -0.1419613505697605 0 0.27142481771649529 -0.14478242884651979 0 0.27338563510190422 -0.1356944138819183 0 0.27142481771649529 -0.14478242884651979 0 0.28858263695303038 -0.1472851012626637 0 0.27142481771649529 -0.14478242884651979 0 0.27338563510190422 -0.1356944138819183 0 0.28952553314766588 -0.14199879033185039 0 0.26878477807763418 -0.16016356734556891 0 0.27009527632936597 -0.15279308215900331 0 0.27899515764395177 -0.15443660918041571 0 0.26557247671991108 -0.14774187414890411 0 0.27009527632936597 -0.15279308215900331 0 0.27142481771649529 -0.14478242884651979 0 0.26878477807763418 -0.16016356734556891 0 0.26293682869207591 -0.15391070786642169 0 0.27009527632936597 -0.15279308215900331 0 0.26557247671991108 -0.14774187414890411 0 0.26293682869207591 -0.15391070786642169 0 0.27009527632936597 -0.15279308215900331 0 0.27009527632936597 -0.15279308215900331 0 0.27899515764395177 -0.15443660918041571 0 0.27142481771649529 -0.14478242884651979 0 0.27794998204403759 -0.11453953550188679 0 0.27338563510190422 -0.1356944138819183 0 0.27142481771649529 -0.14478242884651979 0 0.27338563510190422 -0.1356944138819183 0 0.27338563510190422 -0.1356944138819183 0 0.30316218715013699 -0.13585617877411299 0 0.29209333803684512 -0.1204183792118467 0 0.27338563510190422 -0.1356944138819183 0 0.30316218715013699 -0.13585617877411299 0 0.27338563510190422 -0.1356944138819183 0 0.28952553314766588 -0.14199879033185039 0 0.30316218715013699 -0.13585617877411299 0 0.27142481771649529 -0.14478242884651979 0 0.28952553314766588 -0.14199879033185039 0 0.28858263695303038 -0.1472851012626637 0 0.28858263695303038 -0.1472851012626637 0 0.30013596324633868 -0.14897029159077979 0 0.28952553314766588 -0.14199879033185039 0 0.28858263695303038 -0.1472851012626637 0 0.30013596324633868 -0.14897029159077979 0 0.28952553314766588 -0.14199879033185039 0 0.28858263695303038 -0.1472851012626637 0 0.28858263695303038 -0.1472851012626637 0 0.30013596324633868 -0.14897029159077979 0 0.29372711844303928 -0.1600295372122347 0 0.30316218715013699 -0.13585617877411299 0 0.30143657678371732 -0.15869874935543771 0 0.30013596324633868 -0.14897029159077979 0 0.30316218715013699 -0.13585617877411299 0 0.30143657678371732 -0.15869874935543771 0 0.30316218715013699 -0.13585617877411299 0 0.30143657678371732 -0.15869874935543771 0 0.31253980123811259 -0.14771969478669131 0 0.30013596324633868 -0.14897029159077979 0 0.29372711844303928 -0.1600295372122347 0 0.30143657678371732 -0.15869874935543771 0 0.30143657678371732 -0.15869874935543771 0 0.31557079919726838 -0.1590044961535387 0 0.31253980123811259 -0.14771969478669131 0 0.28952553314766588 -0.14199879033185039 0 0.30013596324633868 -0.14897029159077979 0 0.30316218715013699 -0.13585617877411299 0 0.30316218715013699 -0.13585617877411299 0 0.31993283661344418 -0.13594728745244961 0 0.31253980123811259 -0.14771969478669131 0 0.30316218715013699 -0.13585617877411299 0 0.31993283661344418 -0.13594728745244961 0 0.28994099481116897 -0.19128490440727269 0 0.28355009790984409 -0.17549983614563519 0 0.29971096641729777 -0.18154131993676231 0 0.28355009790984409 -0.17549983614563519 0 0.29493031732226571 -0.16969370770665679 0 0.29971096641729777 -0.18154131993676231 0 0.27899515764395177 -0.15443660918041571 0 0.28858263695303038 -0.1472851012626637 0 0.28355009790984409 -0.17549983614563519 0 0.28858263695303038 -0.1472851012626637 0 0.28355009790984409 -0.17549983614563519 0 0.28858263695303038 -0.1472851012626637 0 0.28355009790984409 -0.17549983614563519 0 0.29372711844303928 -0.1600295372122347 0 0.29372711844303928 -0.1600295372122347 0 0.29493031732226571 -0.16969370770665679 0 0.30143657678371732 -0.15869874935543771 0 0.28355009790984409 -0.17549983614563519 0 0.29372711844303928 -0.1600295372122347 0 0.29493031732226571 -0.16969370770665679 0 0.30143657678371732 -0.15869874935543771 0 0.29971096641729777 -0.18154131993676231 0 0.30143657678371732 -0.15869874935543771 0 0.30809610970482848 -0.16795036279156811 0 0.29971096641729777 -0.18154131993676231 0 0.29493031732226571 -0.16969370770665679 0 0.30143657678371732 -0.15869874935543771 0 0.29971096641729777 -0.18154131993676231 0 0.30143657678371732 -0.15869874935543771 0 0.30809610970482848 -0.16795036279156811 0 0.31557079919726838 -0.1590044961535387 0 0.29971096641729777 -0.18154131993676231 0 0.31498869866721663 -0.1848028620899877 0 0.3156660964210305 -0.17255688572053399 0 0.30809610970482848 -0.16795036279156811 0 0.29971096641729777 -0.18154131993676231 0 0.3156660964210305 -0.17255688572053399 0 0.30866677822314281 -0.19370433905286669 0 0.29971096641729777 -0.18154131993676231 0 0.31498869866721663 -0.1848028620899877 0 0.32729102930978993 -0.18432716657830939 0 0.3156660964210305 -0.17255688572053399 0 0.33199725769327038 -0.160182781354547 0 0.31498869866721663 -0.1848028620899877 0 0.32729102930978993 -0.18432716657830939 0 0.3156660964210305 -0.17255688572053399 0 0.3156660964210305 -0.17255688572053399 0 0.31557079919726838 -0.1590044961535387 0 0.33199725769327038 -0.160182781354547 0 0.30809610970482848 -0.16795036279156811 0 0.3156660964210305 -0.17255688572053399 0 0.31557079919726838 -0.1590044961535387 0 0.32729102930978993 -0.18432716657830939 0 0.34572674800851178 -0.17666980330527179 0 0.34152908302092871 -0.19789605564194099 0 0.32729102930978993 -0.18432716657830939 0 0.33199725769327038 -0.160182781354547 0 0.34572674800851178 -0.17666980330527179 0 0.32729102930978993 -0.18432716657830939 0 0.33199725769327038 -0.160182781354547 0 0.31854024801571379 -0.1183964408803808 0 0.30316218715013699 -0.13585617877411299 0 0.31993283661344418 -0.13594728745244961 0 0.31993283661344418 -0.13594728745244961 0 0.32334883616376942 -0.1477785311756023 0 0.33670348607675138 -0.13603839613078461 0 0.31854024801571379 -0.1183964408803808 0 0.31993283661344418 -0.13594728745244961 0 0.33718817445421712 -0.13355179710808501 0 0.31854024801571379 -0.1183964408803808 0 0.33718817445421712 -0.13355179710808501 0 0.31557079919726838 -0.1590044961535387 0 0.33199725769327038 -0.160182781354547 0 0.32334883616376942 -0.1477785311756023 0 0.31993283661344418 -0.13594728745244961 0 0.32334883616376942 -0.1477785311756023 0 0.31253980123811259 -0.14771969478669131 0 0.31557079919726838 -0.1590044961535387 0 0.32334883616376942 -0.1477785311756023 0 0.31253980123811259 -0.14771969478669131 0 0.33199725769327038 -0.160182781354547 0 0.34027166502062639 -0.13605778071504529 0 0.33670348607675138 -0.13603839613078461 0 0.33199725769327038 -0.160182781354547 0 0.32334883616376942 -0.1477785311756023 0 0.33670348607675138 -0.13603839613078461 0 0.33199725769327038 -0.160182781354547 0 0.33670348607675138 -0.13603839613078461 0 0.31993283661344418 -0.13594728745244961 0 0.33670348607675138 -0.13603839613078461 0 0.31993283661344418 -0.13594728745244961 0 0.33670348607675138 -0.13603839613078461 0 0.33718817445421712 -0.13355179710808501 0 0.34025414842832208 -0.11782241666052221 0 0.33718817445421712 -0.13355179710808501 0 0.34381162934489939 -0.12854128697128539 0 0.34025414842832208 -0.11782241666052221 0 0.33718817445421712 -0.13355179710808501 0 0.34027166502062639 -0.13605778071504529 0 0.33670348607675138 -0.13603839613078461 0 0.33718817445421712 -0.13355179710808501 0 0.34027166502062639 -0.13605778071504529 0 0.33718817445421712 -0.13355179710808501 0 0.34027166502062639 -0.13605778071504529 0 0.33670348607675138 -0.13603839613078461 0 0.33670348607675138 -0.13603839613078461 0 0.33718817445421712 -0.13355179710808501 0 0.34027166502062639 -0.13605778071504529 0 0.33718817445421712 -0.13355179710808501 0 0.34381162934489939 -0.12854128697128539 0 0.33199725769327038 -0.160182781354547 0 0.34027166502062639 -0.13605778071504529 0 0.36359383050920879 -0.15501193774405861 0 0.35355367174401742 -0.1211945845718113 0 0.34381162934489939 -0.12854128697128539 0 0.34779048707731292 -0.1340798558009649 0 0.34027166502062639 -0.13605778071504529 0 0.34884821061351562 -0.13610437388577321 0 0.35664352332635268 -0.13060513793896061 0 0.34779048707731292 -0.1340798558009649 0 0.34884821061351562 -0.13610437388577321 0 0.34027166502062639 -0.13605778071504529 0 0.34779048707731292 -0.1340798558009649 0 0.34884821061351562 -0.13610437388577321 0 0.34027166502062639 -0.13605778071504529 0 0.34381162934489939 -0.12854128697128539 0 0.34779048707731292 -0.1340798558009649 0 0.35664352332635268 -0.13060513793896061 0 0.34884821061351562 -0.13610437388577321 0 0.36374720336072303 -0.13810563056468389 0 0.34884821061351562 -0.13610437388577321 0 0.36359383050920879 -0.15501193774405861 0 0.36374720336072303 -0.13810563056468389 0 0.34027166502062639 -0.13605778071504529 0 0.36359383050920879 -0.15501193774405861 0 0.34027166502062639 -0.13605778071504529 0 0.34884821061351562 -0.13610437388577321 0 0.36359383050920879 -0.15501193774405861 0 0.36359383050920879 -0.15501193774405861 0 0.36374720336072303 -0.13810563056468389 0 0.37656812491251679 -0.13846106794218549 0 0.3785150876385216 -0.1195111518185689 0 0.36779594019891898 -0.12729788290040461 0 0.37656812491251679 -0.13846106794218549 0 0.36374720336072303 -0.13810563056468389 0 0.36779594019891898 -0.12729788290040461 0 0.37656812491251679 -0.13846106794218549 0 0.35664352332635268 -0.13060513793896061 0 0.36374720336072303 -0.13810563056468389 0 0.36779594019891898 -0.12729788290040461 0 0.33199725769327038 -0.160182781354547 0 0.36359383050920879 -0.15501193774405861 0 0.34572674800851178 -0.17666980330527179 0 0.34572674800851178 -0.17666980330527179 0 0.36422253950936112 -0.1859310752075029 0 0.34152908302092871 -0.19789605564194099 0 0.36359383050920879 -0.15501193774405861 0 0.34572674800851178 -0.17666980330527179 0 0.36422253950936112 -0.1859310752075029 0 0.36359383050920879 -0.15501193774405861 0 0.36422253950936112 -0.1859310752075029 0 0.38691599599779503 -0.1739660947730671 0 0.36422253950936112 -0.1859310752075029 0 0.37220629557919183 -0.19612338441269381 0 0.37910290544765168 -0.18685571494790659 0 0.36422253950936112 -0.1859310752075029 0 0.37220629557919183 -0.19612338441269381 0 0.35685044422528578 -0.20027094664828951 0 0.37220629557919183 -0.19612338441269381 0 0.3556522221671049 -0.2162457527497984 0 0.35685044422528578 -0.20027094664828951 0 0.37220629557919183 -0.19612338441269381 0 0.3556522221671049 -0.2162457527497984 0 0.37273333868611941 -0.2093978965492076 0 0.3556522221671049 -0.2162457527497984 0 0.3731990688381891 -0.2228302363117915 0 0.37220629557919183 -0.19612338441269381 0 0.37273333868611941 -0.2093978965492076 0 0.3556522221671049 -0.2162457527497984 0 0.34913249600123192 -0.20719712371303781 0 0.34152908302092871 -0.19789605564194099 0 0.34144894007629428 -0.2139395960038605 0 0.3556522221671049 -0.2162457527497984 0 0.34913249600123192 -0.20719712371303781 0 0.35685044422528578 -0.20027094664828951 0 0.3556522221671049 -0.2162457527497984 0 0.34913249600123192 -0.20719712371303781 0 0.34144894007629428 -0.2139395960038605 0 0.36422253950936112 -0.1859310752075029 0 0.35685044422528578 -0.20027094664828951 0 0.34152908302092871 -0.19789605564194099 0 0.36422253950936112 -0.1859310752075029 0 0.34152908302092871 -0.19789605564194099 0 0.34913249600123192 -0.20719712371303781 0 0.35685044422528578 -0.20027094664828951 0 0.34152908302092871 -0.19789605564194099 0 0.32729102930978993 -0.18432716657830939 0 0.34152908302092871 -0.19789605564194099 0 0.32289957828838461 -0.19876131457419149 0 0.34152908302092871 -0.19789605564194099 0 0.31883562653249692 -0.20986103607638071 0 0.34152908302092871 -0.19789605564194099 0 0.34144894007629428 -0.2139395960038605 0 0.31883562653249692 -0.20986103607638071 0 0.34144894007629428 -0.2139395960038605 0 0.31883562653249692 -0.20986103607638071 0 0.32331405575278033 -0.23055000204260581 0 0.31883562653249692 -0.20986103607638071 0 0.32289957828838461 -0.19876131457419149 0 0.30817512199612251 -0.208018461664154 0 0.31883562653249692 -0.20986103607638071 0 0.32289957828838461 -0.19876131457419149 0 0.30866677822314281 -0.19370433905286669 0 0.30817512199612251 -0.208018461664154 0 0.32289957828838461 -0.19876131457419149 0 0.34152908302092871 -0.19789605564194099 0 0.31883562653249692 -0.20986103607638071 0 0.32289957828838461 -0.19876131457419149 0 0.30866677822314281 -0.19370433905286669 0 0.31498869866721663 -0.1848028620899877 0 0.32289957828838461 -0.19876131457419149 0 0.31498869866721663 -0.1848028620899877 0 0.32729102930978993 -0.18432716657830939 0 0.32289957828838461 -0.19876131457419149 0 0.30517917142926537 -0.24716040808135001 0 0.32331405575278033 -0.23055000204260581 0 0.30517917142926537 -0.24716040808135001 0 0.32331405575278033 -0.23055000204260581 0 0.322544075342931 -0.25649048942400782 0 0.31200739898088131 -0.22851072207886541 0 0.30517917142926537 -0.24716040808135001 0 0.32331405575278033 -0.23055000204260581 0 0.31200739898088131 -0.22851072207886541 0 0.31883562653249692 -0.20986103607638071 0 0.31200739898088131 -0.22851072207886541 0 0.31883562653249692 -0.20986103607638071 0 0.32331405575278033 -0.23055000204260581 0 0.34144894007629428 -0.2139395960038605 0 0.32331405575278033 -0.23055000204260581 0 0.34144894007629428 -0.2139395960038605 0 0.32331405575278033 -0.23055000204260581 0 0.33909814875501798 -0.23636812108690311 0 0.33909814875501798 -0.23636812108690311 0 0.322544075342931 -0.25649048942400782 0 0.32331405575278033 -0.23055000204260581 0 0.33909814875501798 -0.23636812108690311 0 0.322544075342931 -0.25649048942400782 0 0.33909814875501798 -0.23636812108690311 0 0.35007299243335749 -0.24785688602667111 0 0.33700232267718733 -0.25494009872172468 0 0.33909814875501798 -0.23636812108690311 0 0.322544075342931 -0.25649048942400782 0 0.33700232267718733 -0.25494009872172468 0 0.33909814875501798 -0.23636812108690311 0 0.35007299243335749 -0.24785688602667111 0 0.35471840821638012 -0.232162972911199 0 0.35007299243335749 -0.24785688602667111 0 0.35471840821638012 -0.232162972911199 0 0.36225179838031341 -0.2439392928582107 0 0.35007299243335749 -0.24785688602667111 0 0.36225179838031341 -0.2439392928582107 0 0.36124693131331159 -0.25807728632712912 0 0.3556522221671049 -0.2162457527497984 0 0.33909814875501798 -0.23636812108690311 0 0.3556522221671049 -0.2162457527497984 0 0.33909814875501798 -0.23636812108690311 0 0.35471840821638012 -0.232162972911199 0 0.3556522221671049 -0.2162457527497984 0 0.34144894007629428 -0.2139395960038605 0 0.33909814875501798 -0.23636812108690311 0 0.35471840821638012 -0.232162972911199 0 0.3731990688381891 -0.2228302363117915 0 0.36225179838031341 -0.2439392928582107 0 0.3556522221671049 -0.2162457527497984 0 0.35471840821638012 -0.232162972911199 0 0.3731990688381891 -0.2228302363117915 0 0.3731990688381891 -0.2228302363117915 0 0.36225179838031341 -0.2439392928582107 0 0.3731990688381891 -0.2228302363117915 0 0.36225179838031341 -0.2439392928582107 0 0.38186963046980549 -0.2367879359972051 0 0.36225179838031341 -0.2439392928582107 0 0.38186963046980549 -0.2367879359972051 0 0.37510228513818711 -0.25237727586059511 0 0.38186963046980549 -0.2367879359972051 0 0.39206528024080278 -0.24921397013056479 0 0.37510228513818711 -0.25237727586059511 0 0.39206528024080278 -0.24921397013056479 0 0.40137725565661481 -0.22692044649349019 0 0.4148006158986044 -0.24103970595398019 0 0.39206528024080278 -0.24921397013056479 0 0.4148006158986044 -0.24103970595398019 0 0.40884184876520419 -0.25890250189124958 0 0.38186963046980549 -0.2367879359972051 0 0.39206528024080278 -0.24921397013056479 0 0.40137725565661481 -0.22692044649349019 0 0.40137725565661481 -0.22692044649349019 0 0.39915185452682361 -0.21610044156742811 0 0.41396763236883027 -0.21470461273584779 0 0.40137725565661481 -0.22692044649349019 0 0.38700545273377529 -0.2233412248148075 0 0.39915185452682361 -0.21610044156742811 0 0.38186963046980549 -0.2367879359972051 0 0.40137725565661481 -0.22692044649349019 0 0.38700545273377529 -0.2233412248148075 0 0.3731990688381891 -0.2228302363117915 0 0.38186963046980549 -0.2367879359972051 0 0.38700545273377529 -0.2233412248148075 0 0.3731990688381891 -0.2228302363117915 0 0.38414633929606479 -0.2017211797653724 0 0.37273333868611941 -0.2093978965492076 0 0.3731990688381891 -0.2228302363117915 0 0.38414633929606479 -0.2017211797653724 0 0.3731990688381891 -0.2228302363117915 0 0.38675328488958288 -0.2095276895359276 0 0.38414633929606479 -0.2017211797653724 0 0.3731990688381891 -0.2228302363117915 0 0.38700545273377529 -0.2233412248148075 0 0.38675328488958288 -0.2095276895359276 0 0.38675328488958288 -0.2095276895359276 0 0.38414633929606479 -0.2017211797653724 0 0.39287005569986072 -0.20314648074516001 0 0.38414633929606479 -0.2017211797653724 0 0.38373621375160438 -0.1885238144486111 0 0.39509360975394031 -0.18061212321895309 0 0.38414633929606479 -0.2017211797653724 0 0.39509360975394031 -0.18061212321895309 0 0.37999921147615667 -0.19503406661491049 0 0.38373621375160438 -0.1885238144486111 0 0.37910290544765168 -0.18685571494790659 0 0.37999921147615667 -0.19503406661491049 0 0.38414633929606479 -0.2017211797653724 0 0.38373621375160438 -0.1885238144486111 0 0.37220629557919183 -0.19612338441269381 0 0.37999921147615667 -0.19503406661491049 0 0.37910290544765168 -0.18685571494790659 0 0.37220629557919183 -0.19612338441269381 0 0.37273333868611941 -0.2093978965492076 0 0.38414633929606479 -0.2017211797653724 0 0.37220629557919183 -0.19612338441269381 0 0.37999921147615667 -0.19503406661491049 0 0.38414633929606479 -0.2017211797653724 0 0.38414633929606479 -0.2017211797653724 0 0.39694758591794982 -0.18886739411602391 0 0.39509360975394031 -0.18061212321895309 0 0.39694758591794982 -0.18886739411602391 0 0.3969424320709618 -0.1972324897541754 0 0.40101572763622523 -0.19231380306325679 0 0.38414633929606479 -0.2017211797653724 0 0.39694758591794982 -0.18886739411602391 0 0.3969424320709618 -0.1972324897541754 0 0.38414633929606479 -0.2017211797653724 0 0.3969424320709618 -0.1972324897541754 0 0.39287005569986072 -0.20314648074516001 0 0.3969424320709618 -0.1972324897541754 0 0.400612395600416 -0.20053006859666331 0 0.39287005569986072 -0.20314648074516001 0 0.3969424320709618 -0.1972324897541754 0 0.4059814476455269 -0.19573306963025069 0 0.400612395600416 -0.20053006859666331 0 0.4059814476455269 -0.19573306963025069 0 0.400612395600416 -0.20053006859666331 0 0.40665564698531481 -0.2060082342570673 0 0.3969424320709618 -0.1972324897541754 0 0.4059814476455269 -0.19573306963025069 0 0.40101572763622523 -0.19231380306325679 0 0.4059814476455269 -0.19573306963025069 0 0.40101572763622523 -0.19231380306325679 0 0.40419144491046238 -0.1874222587525772 0 0.39694758591794982 -0.18886739411602391 0 0.40101572763622523 -0.19231380306325679 0 0.40419144491046238 -0.1874222587525772 0 0.38675328488958288 -0.2095276895359276 0 0.40665564698531481 -0.2060082342570673 0 0.38675328488958288 -0.2095276895359276 0 0.39915185452682361 -0.21610044156742811 0 0.40665564698531481 -0.2060082342570673 0 0.38675328488958288 -0.2095276895359276 0 0.39287005569986072 -0.20314648074516001 0 0.40665564698531481 -0.2060082342570673 0 0.38700545273377529 -0.2233412248148075 0 0.38675328488958288 -0.2095276895359276 0 0.39915185452682361 -0.21610044156742811 0 0.400612395600416 -0.20053006859666331 0 0.39287005569986072 -0.20314648074516001 0 0.40665564698531481 -0.2060082342570673 0 0.41396763236883027 -0.21470461273584779 0 0.40665564698531481 -0.2060082342570673 0 0.42655800908104652 -0.20248877897820619 0 0.40665564698531481 -0.2060082342570673 0 0.42655800908104652 -0.20248877897820619 0 0.39915185452682361 -0.21610044156742811 0 0.41396763236883027 -0.21470461273584779 0 0.40665564698531481 -0.2060082342570673 0 0.41396763236883027 -0.21470461273584779 0 0.42655800908104652 -0.20248877897820619 0 0.40665564698531481 -0.2060082342570673 0 0.41640017291144837 -0.19588579121564459 0 0.42655800908104652 -0.20248877897820619 0 0.4059814476455269 -0.19573306963025069 0 0.41640017291144837 -0.19588579121564459 0 0.41453364601533049 -0.1862870086825022 0 0.4059814476455269 -0.19573306963025069 0 0.40419144491046238 -0.1874222587525772 0 0.41453364601533049 -0.1862870086825022 0 0.4059814476455269 -0.19573306963025069 0 0.40665564698531481 -0.2060082342570673 0 0.41640017291144837 -0.19588579121564459 0 0.41640017291144837 -0.19588579121564459 0 0.42581299264578848 -0.18832250896932939 0 0.41453364601533049 -0.1862870086825022 0 0.42655800908104652 -0.20248877897820619 0 0.444302871767289 -0.18527179670816579 0 0.42581299264578848 -0.18832250896932939 0 0.42655800908104652 -0.20248877897820619 0 0.444302871767289 -0.18527179670816579 0 0.41640017291144837 -0.19588579121564459 0 0.42581299264578848 -0.18832250896932939 0 0.42655800908104652 -0.20248877897820619 0 0.42655800908104652 -0.20248877897820619 0 0.43237997939727391 -0.21969514264188619 0 0.44995934289594253 -0.19835057932979169 0 0.41396763236883027 -0.21470461273584779 0 0.42655800908104652 -0.20248877897820619 0 0.43237997939727391 -0.21969514264188619 0 0.43237997939727391 -0.21969514264188619 0 0.43199948472716282 -0.23703470349933331 0 0.4148006158986044 -0.24103970595398019 0 0.43237997939727391 -0.21969514264188619 0 0.4148006158986044 -0.24103970595398019 0 0.43199948472716282 -0.23703470349933331 0 0.4148006158986044 -0.24103970595398019 0 0.42892204251950339 -0.2594807324876427 0 0.43199948472716282 -0.23703470349933331 0 0.44338493428344739 -0.24574379201886831 0 0.42892204251950339 -0.2594807324876427 0 0.43237997939727391 -0.21969514264188619 0 0.4148006158986044 -0.24103970595398019 0 0.41563137083033092 -0.22558997695630109 0 0.41396763236883027 -0.21470461273584779 0 0.43237997939727391 -0.21969514264188619 0 0.41563137083033092 -0.22558997695630109 0 0.40137725565661481 -0.22692044649349019 0 0.4148006158986044 -0.24103970595398019 0 0.41563137083033092 -0.22558997695630109 0 0.40137725565661481 -0.22692044649349019 0 0.41396763236883027 -0.21470461273584779 0 0.40137725565661481 -0.22692044649349019 0 0.41396763236883027 -0.21470461273584779 0 0.41563137083033092 -0.22558997695630109 0 0.39237070121405998 -0.13164091544729051 0 0.39988799210863701 -0.14408364481314989 0 0.41368108829086198 -0.13554811058748131 0 0.40604313277712428 -0.1171380761358455 0 0.39237070121405998 -0.13164091544729051 0 0.41368108829086198 -0.13554811058748131 0 0.39237070121405998 -0.13164091544729051 0 0.37656812491251679 -0.13846106794218549 0 0.38605620033535121 -0.1499684147877679 0 0.3785150876385216 -0.1195111518185689 0 0.39237070121405998 -0.13164091544729051 0 0.37656812491251679 -0.13846106794218549 0 0.36359383050920879 -0.15501193774405861 0 0.37656812491251679 -0.13846106794218549 0 0.38605620033535121 -0.1499684147877679 0 0.39237070121405998 -0.13164091544729051 0 0.38605620033535121 -0.1499684147877679 0 0.39988799210863701 -0.14408364481314989 0 0.38605620033535121 -0.1499684147877679 0 0.39988799210863701 -0.14408364481314989 0 0.39700055726989097 -0.15664682800685811 0 0.39988799210863701 -0.14408364481314989 0 0.39700055726989097 -0.15664682800685811 0 0.40766935758353628 -0.1563629578155839 0 0.40291487034120532 -0.16553079014728059 0 0.39700055726989097 -0.15664682800685811 0 0.38691599599779503 -0.1739660947730671 0 0.40291487034120532 -0.16553079014728059 0 0.38691599599779503 -0.1739660947730671 0 0.40291487034120532 -0.16553079014728059 0 0.39700055726989097 -0.15664682800685811 0 0.40766935758353628 -0.1563629578155839 0 0.40291487034120532 -0.16553079014728059 0 0.40766935758353628 -0.1563629578155839 0 0.38605620033535121 -0.1499684147877679 0 0.39700055726989097 -0.15664682800685811 0 0.38691599599779503 -0.1739660947730671 0 0.36359383050920879 -0.15501193774405861 0 0.38691599599779503 -0.1739660947730671 0 0.36359383050920879 -0.15501193774405861 0 0.38605620033535121 -0.1499684147877679 0 0.38691599599779503 -0.1739660947730671 0 0.36422253950936112 -0.1859310752075029 0 0.38691599599779503 -0.1739660947730671 0 0.37910290544765168 -0.18685571494790659 0 0.36422253950936112 -0.1859310752075029 0 0.38691599599779503 -0.1739660947730671 0 0.38691599599779503 -0.1739660947730671 0 0.38753717637180268 -0.18155585423065651 0 0.39509360975394031 -0.18061212321895309 0 0.38373621375160438 -0.1885238144486111 0 0.38753717637180268 -0.18155585423065651 0 0.39509360975394031 -0.18061212321895309 0 0.38691599599779503 -0.1739660947730671 0 0.37910290544765168 -0.18685571494790659 0 0.38753717637180268 -0.18155585423065651 0 0.38373621375160438 -0.1885238144486111 0 0.37910290544765168 -0.18685571494790659 0 0.38753717637180268 -0.18155585423065651 0 0.40291487034120532 -0.16553079014728059 0 0.38691599599779503 -0.1739660947730671 0 0.39509360975394031 -0.18061212321895309 0 0.39694758591794982 -0.18886739411602391 0 0.39665445354372708 -0.18451779314135289 0 0.39509360975394031 -0.18061212321895309 0 0.39694758591794982 -0.18886739411602391 0 0.39665445354372708 -0.18451779314135289 0 0.40021252966215071 -0.18382207331845951 0 0.39665445354372708 -0.18451779314135289 0 0.39509360975394031 -0.18061212321895309 0 0.40021252966215071 -0.18382207331845951 0 0.38691599599779503 -0.1739660947730671 0 0.39509360975394031 -0.18061212321895309 0 0.40291487034120532 -0.16553079014728059 0 0.39509360975394031 -0.18061212321895309 0 0.40549068313545528 -0.17742909809594989 0 0.40291487034120532 -0.16553079014728059 0 0.39509360975394031 -0.18061212321895309 0 0.40549068313545528 -0.17742909809594989 0 0.40419144491046238 -0.1874222587525772 0 0.40021252966215071 -0.18382207331845951 0 0.39509360975394031 -0.18061212321895309 0 0.40549068313545528 -0.17742909809594989 0 0.40021252966215071 -0.18382207331845951 0 0.39694758591794982 -0.18886739411602391 0 0.40419144491046238 -0.1874222587525772 0 0.40021252966215071 -0.18382207331845951 0 0.42581299264578848 -0.18832250896932939 0 0.41453364601533049 -0.1862870086825022 0 0.42235201908535791 -0.17050045814039369 0 0.40549068313545528 -0.17742909809594989 0 0.41453364601533049 -0.1862870086825022 0 0.42235201908535791 -0.17050045814039369 0 0.40549068313545528 -0.17742909809594989 0 0.40419144491046238 -0.1874222587525772 0 0.41453364601533049 -0.1862870086825022 0 0.42235201908535791 -0.17050045814039369 0 0.44127751826325029 -0.16493106072254701 0 0.444302871767289 -0.18527179670816579 0 0.42581299264578848 -0.18832250896932939 0 0.42235201908535791 -0.17050045814039369 0 0.444302871767289 -0.18527179670816579 0 0.42235201908535791 -0.17050045814039369 0 0.42606808286872072 -0.1533234062687002 0 0.44127751826325029 -0.16493106072254701 0 0.40291487034120532 -0.16553079014728059 0 0.40766935758353628 -0.1563629578155839 0 0.42606808286872072 -0.1533234062687002 0 0.40291487034120532 -0.16553079014728059 0 0.42606808286872072 -0.1533234062687002 0 0.40291487034120532 -0.16553079014728059 0 0.42235201908535791 -0.17050045814039369 0 0.42606808286872072 -0.1533234062687002 0 0.40291487034120532 -0.16553079014728059 0 0.40549068313545528 -0.17742909809594989 0 0.42235201908535791 -0.17050045814039369 0 0.41182663021293903 -0.1473295298712288 0 0.42606808286872072 -0.1533234062687002 0 0.41368108829086198 -0.13554811058748131 0 0.40766935758353628 -0.1563629578155839 0 0.41182663021293903 -0.1473295298712288 0 0.42606808286872072 -0.1533234062687002 0 0.39988799210863701 -0.14408364481314989 0 0.40766935758353628 -0.1563629578155839 0 0.41182663021293903 -0.1473295298712288 0 0.39988799210863701 -0.14408364481314989 0 0.41182663021293903 -0.1473295298712288 0 0.41368108829086198 -0.13554811058748131 0 0.42606808286872072 -0.1533234062687002 0 0.430889964195386 -0.135117951771525 0 0.44922129539623712 -0.14111602239012119 0 0.42606808286872072 -0.1533234062687002 0 0.430889964195386 -0.135117951771525 0 0.41368108829086198 -0.13554811058748131 0 0.42080162445294911 -0.1170697999396166 0 0.430889964195386 -0.135117951771525 0 0.41368108829086198 -0.13554811058748131 0 0.45825176112352212 -0.1171944005084963 0 0.44922129539623712 -0.14111602239012119 0 0.47461064769812122 -0.12772964805397971 0 0.44922129539623712 -0.14111602239012119 0 0.47461064769812122 -0.12772964805397971 0 0.44922129539623712 -0.14111602239012119 0 0.47041229806123103 -0.14236165737458781 0 0.47461064769812122 -0.12772964805397971 0 0.43893170590200609 -0.1195052611799315 0 0.430889964195386 -0.135117951771525 0 0.44922129539623712 -0.14111602239012119 0 0.43893170590200609 -0.1195052611799315 0 0.45825176112352212 -0.1171944005084963 0 0.44922129539623712 -0.14111602239012119 0 0.43893170590200609 -0.1195052611799315 0 0.44922129539623712 -0.14111602239012119 0 0.42606808286872072 -0.1533234062687002 0 0.44922129539623712 -0.14111602239012119 0 0.44127751826325029 -0.16493106072254701 0 0.42606808286872072 -0.1533234062687002 0 0.44922129539623712 -0.14111602239012119 0 0.44922129539623712 -0.14111602239012119 0 0.46204773445353348 -0.16805481443812731 0 0.44922129539623712 -0.14111602239012119 0 0.46204773445353348 -0.16805481443812731 0 0.47041229806123103 -0.14236165737458781 0 0.44922129539623712 -0.14111602239012119 0 0.46204773445353348 -0.16805481443812731 0 0.44127751826325029 -0.16493106072254701 0 0.46204773445353348 -0.16805481443812731 0 0.44127751826325029 -0.16493106072254701 0 0.444302871767289 -0.18527179670816579 0 0.46204773445353348 -0.16805481443812731 0 0.444302871767289 -0.18527179670816579 0 0.46675991992270621 -0.1779516052682695 0 0.47013600328087812 -0.185042241033678 0 0.44995934289594253 -0.19835057932979169 0 0.444302871767289 -0.18527179670816579 0 0.46675991992270621 -0.1779516052682695 0 0.44995934289594253 -0.19835057932979169 0 0.46204773445353348 -0.16805481443812731 0 0.444302871767289 -0.18527179670816579 0 0.46675991992270621 -0.1779516052682695 0 0.46204773445353348 -0.16805481443812731 0 0.46675991992270621 -0.1779516052682695 0 0.46675991992270621 -0.1779516052682695 0 0.47013600328087812 -0.185042241033678 0 0.46675991992270621 -0.1779516052682695 0 0.48388214138120561 -0.17390417728894431 0 0.47927416581767118 -0.18397687174081401 0 0.46675991992270621 -0.1779516052682695 0 0.47013600328087812 -0.185042241033678 0 0.47927416581767118 -0.18397687174081401 0 0.48388214138120561 -0.17390417728894431 0 0.47927416581767118 -0.18397687174081401 0 0.48987334582395858 -0.18140433091368091 0 0.48987334582395858 -0.18140433091368091 0 0.5 -0.16492372169971509 0 0.5 -0.19225537639104809 0 0.48388214138120561 -0.17390417728894431 0 0.48987334582395858 -0.18140433091368091 0 0.5 -0.16492372169971509 0 0.47927416581767118 -0.18397687174081401 0 0.48987334582395858 -0.18140433091368091 0 0.48552241192915191 -0.19206174635411891 0 0.48388214138120561 -0.17390417728894431 0 0.5 -0.16492372169971509 0 0.48337995996135552 -0.1577718361383266 0 0.46675991992270621 -0.1779516052682695 0 0.48388214138120561 -0.17390417728894431 0 0.48337995996135552 -0.1577718361383266 0 0.46204773445353348 -0.16805481443812731 0 0.46675991992270621 -0.1779516052682695 0 0.48337995996135552 -0.1577718361383266 0 0.46204773445353348 -0.16805481443812731 0 0.48337995996135552 -0.1577718361383266 0 0.47713463147989749 -0.15341672773068571 0 0.46675991992270621 -0.1779516052682695 0 0.48337995996135552 -0.1577718361383266 0 0.46204773445353348 -0.16805481443812731 0 0.47713463147989749 -0.15341672773068571 0 0.46204773445353348 -0.16805481443812731 0 0.47041229806123103 -0.14236165737458781 0 0.47713463147989749 -0.15341672773068571 0 0.48337995996135552 -0.1577718361383266 0 0.47713463147989749 -0.15341672773068571 0 0.48456351921585428 -0.1397192317593817 0 0.47041229806123103 -0.14236165737458781 0 0.47713463147989749 -0.15341672773068571 0 0.48456351921585428 -0.1397192317593817 0 0.48337995996135552 -0.1577718361383266 0 0.50000000000000311 -0.1375920670083822 0 0.48456351921585428 -0.1397192317593817 0 0.5 -0.16492372169971509 0 0.48337995996135552 -0.1577718361383266 0 0.50000000000000311 -0.1375920670083822 0 0.48337995996135552 -0.1577718361383266 0 0.50000000000000311 -0.1375920670083822 0 0.50000000000000433 -0.1143432737178363 0 0.50000000000000311 -0.1375920670083822 0 0.48456351921585428 -0.1397192317593817 0 0.50000000000000433 -0.1143432737178363 0 0.48456351921585428 -0.1397192317593817 0 0.47461064769812122 -0.12772964805397971 0 0.47041229806123103 -0.14236165737458781 0 0.48456351921585428 -0.1397192317593817 0 0.47461064769812122 -0.12772964805397971 0 0.46695018322910392 -0.22473955239466681 0 0.44975785303280541 -0.2255898949688982 0 0.46528918090086291 -0.2095084705765255 0 0.46695018322910392 -0.22473955239466681 0 0.46086119099944728 -0.24298014516654151 0 0.44975785303280541 -0.2255898949688982 0 0.46086119099944728 -0.24298014516654151 0 0.44338493428344739 -0.24574379201886831 0 0.44975785303280541 -0.2255898949688982 0 0.43199948472716282 -0.23703470349933331 0 0.44338493428344739 -0.24574379201886831 0 0.44975785303280541 -0.2255898949688982 0 0.46086119099944728 -0.24298014516654151 0 0.44338493428344739 -0.24574379201886831 0 0.45165913482636821 -0.26068325523694041 0 0.43237997939727391 -0.21969514264188619 0 0.43199948472716282 -0.23703470349933331 0 0.44975785303280541 -0.2255898949688982 0 0.43237997939727391 -0.21969514264188619 0 0.44975785303280541 -0.2255898949688982 0 0.44995934289594253 -0.19835057932979169 0 0.43237997939727391 -0.21969514264188619 0 0.44995934289594253 -0.19835057932979169 0 0.42655800908104652 -0.20248877897820619 0 0.444302871767289 -0.18527179670816579 0 0.44995934289594253 -0.19835057932979169 0 0.42655800908104652 -0.20248877897820619 0 0.44995934289594253 -0.19835057932979169 0 0.46675991992270621 -0.1779516052682695 0 0.44995934289594253 -0.19835057932979169 0 0.44995934289594253 -0.19835057932979169 0 0.46774087741254722 -0.19520616284195491 0 0.47013600328087812 -0.185042241033678 0 0.44995934289594253 -0.19835057932979169 0 0.46774087741254722 -0.19520616284195491 0 0.44995934289594253 -0.19835057932979169 0 0.46774087741254722 -0.19520616284195491 0 0.46528918090086291 -0.2095084705765255 0 0.44975785303280541 -0.2255898949688982 0 0.44995934289594253 -0.19835057932979169 0 0.46528918090086291 -0.2095084705765255 0 0.46695018322910392 -0.22473955239466681 0 0.46528918090086291 -0.2095084705765255 0 0.48029579162163721 -0.21558854579597769 0 0.46528918090086291 -0.2095084705765255 0 0.47801733861628259 -0.20339364304417529 0 0.48029579162163721 -0.21558854579597769 0 0.47801733861628259 -0.20339364304417529 0 0.48029579162163721 -0.21558854579597769 0 0.48876710843341442 -0.20457726853354019 0 0.46774087741254722 -0.19520616284195491 0 0.47801733861628259 -0.20339364304417529 0 0.48552241192915191 -0.19206174635411891 0 0.47927416581767118 -0.18397687174081401 0 0.46774087741254722 -0.19520616284195491 0 0.48552241192915191 -0.19206174635411891 0 0.46774087741254722 -0.19520616284195491 0 0.48552241192915191 -0.19206174635411891 0 0.47013600328087812 -0.185042241033678 0 0.47927416581767118 -0.18397687174081401 0 0.46774087741254722 -0.19520616284195491 0 0.46774087741254722 -0.19520616284195491 0 0.46528918090086291 -0.2095084705765255 0 0.47801733861628259 -0.20339364304417529 0 0.47801733861628259 -0.20339364304417529 0 0.48552241192915191 -0.19206174635411891 0 0.48876710843341442 -0.20457726853354019 0 0.48987334582395858 -0.18140433091368091 0 0.48552241192915191 -0.19206174635411891 0 0.5 -0.19225537639104809 0 0.48552241192915191 -0.19206174635411891 0 0.5 -0.19225537639104809 0 0.48876710843341442 -0.20457726853354019 0 0.5 -0.19225537639104809 0 0.48876710843341442 -0.20457726853354019 0 0.5 -0.21958703108238101 0 0.48029579162163721 -0.21558854579597769 0 0.48876710843341442 -0.20457726853354019 0 0.5 -0.21958703108238101 0 0.5 -0.21958703108238101 0 0.48033598971293961 -0.23536730169414519 0 0.5 -0.24691868577371379 0 0.48029579162163721 -0.21558854579597769 0 0.5 -0.21958703108238101 0 0.48033598971293961 -0.23536730169414519 0 0.46695018322910392 -0.22473955239466681 0 0.46086119099944728 -0.24298014516654151 0 0.48033598971293961 -0.23536730169414519 0 0.46695018322910392 -0.22473955239466681 0 0.48029579162163721 -0.21558854579597769 0 0.48033598971293961 -0.23536730169414519 0 0.46086119099944728 -0.24298014516654151 0 0.48033598971293961 -0.23536730169414519 0 0.47450143065275591 -0.2599846894272051 0 0.48033598971293961 -0.23536730169414519 0 0.5 -0.24691868577371379 0 0.47450143065275591 -0.2599846894272051 0 0.5 -0.24691868577371379 0 0.50000000000000222 -0.27425034046504659 0 0.47450143065275591 -0.2599846894272051 0 0.50000000000000222 -0.27425034046504659 0 0.47605513413645029 -0.28008102786359129 0 0.47450143065275591 -0.2599846894272051 0 0.47605513413645029 -0.28008102786359129 0 0.47450143065275591 -0.2599846894272051 0 0.45931845050930209 -0.27772900618102819 0 0.46086119099944728 -0.24298014516654151 0 0.47450143065275591 -0.2599846894272051 0 0.45165913482636821 -0.26068325523694041 0 0.47450143065275591 -0.2599846894272051 0 0.45931845050930209 -0.27772900618102819 0 0.45165913482636821 -0.26068325523694041 0 0.45931845050930209 -0.27772900618102819 0 0.44355941821905998 -0.27577600561597132 0 0.45165913482636821 -0.26068325523694041 0 0.44338493428344739 -0.24574379201886831 0 0.45165913482636821 -0.26068325523694041 0 0.42892204251950339 -0.2594807324876427 0 0.44355941821905998 -0.27577600561597132 0 0.45165913482636821 -0.26068325523694041 0 0.42892204251950339 -0.2594807324876427 0 0.44743457629936911 -0.29125199491084608 0 0.45088585771739531 -0.31517042999936162 0 0.43686388954492023 -0.30206384222820981 0 0.45088585771739531 -0.31517042999936162 0 0.43602078127065758 -0.31524868357114688 0 0.43686388954492023 -0.30206384222820981 0 0.45931845050930209 -0.27772900618102819 0 0.44355941821905998 -0.27577600561597132 0 0.44743457629936911 -0.29125199491084608 0 0.44355941821905998 -0.27577600561597132 0 0.44743457629936911 -0.29125199491084608 0 0.42611848489587972 -0.28658767974219163 0 0.47605513413645029 -0.28008102786359129 0 0.45931845050930209 -0.27772900618102819 0 0.46516191830632447 -0.295844547827811 0 0.45931845050930209 -0.27772900618102819 0 0.44743457629936911 -0.29125199491084608 0 0.46516191830632447 -0.295844547827811 0 0.44743457629936911 -0.29125199491084608 0 0.46516191830632447 -0.295844547827811 0 0.45088585771739531 -0.31517042999936162 0 0.46516191830632447 -0.295844547827811 0 0.47218478901913252 -0.31616939882945228 0 0.45088585771739531 -0.31517042999936162 0 0.4860923945095682 -0.29520986964724988 0 0.47218478901913252 -0.31616939882945228 0 0.50000000000000222 -0.27425034046504659 0 0.4860923945095682 -0.29520986964724988 0 0.5 -0.307151228172029 0 0.46516191830632447 -0.295844547827811 0 0.4860923945095682 -0.29520986964724988 0 0.47218478901913252 -0.31616939882945228 0 0.47605513413645029 -0.28008102786359129 0 0.46516191830632447 -0.295844547827811 0 0.4860923945095682 -0.29520986964724988 0 0.50000000000000222 -0.27425034046504659 0 0.47605513413645029 -0.28008102786359129 0 0.4860923945095682 -0.29520986964724988 0 0.50000000000000222 -0.27425034046504659 0 0.4860923945095682 -0.29520986964724988 0 0.4860923945095682 -0.29520986964724988 0 0.5 -0.307151228172029 0 0.47218478901913252 -0.31616939882945228 0 0.5 -0.307151228172029 0 0.47500442815187882 -0.33618410333150461 0 0.5 -0.35237408365171952 0 0.5 -0.307151228172029 0 0.47500442815187882 -0.33618410333150461 0 0.47218478901913252 -0.31616939882945228 0 0.47500442815187882 -0.33618410333150461 0 0.5 -0.35237408365171952 0 0.46252966193221051 -0.36479181955861489 0 0.5 -0.35237408365171952 0 0.46252966193221051 -0.36479181955861489 0 0.4680243894331878 -0.39009447735167219 0 0.46252966193221051 -0.36479181955861489 0 0.44439653888602387 -0.37108278870097211 0 0.45518384933885458 -0.37953704158418422 0 0.46252966193221051 -0.36479181955861489 0 0.4490308344886651 -0.35295870566956811 0 0.45703493443123322 -0.33948916176555749 0 0.47500442815187882 -0.33618410333150461 0 0.46252966193221051 -0.36479181955861489 0 0.45703493443123322 -0.33948916176555749 0 0.46252966193221051 -0.36479181955861489 0 0.45703493443123322 -0.33948916176555749 0 0.4490308344886651 -0.35295870566956811 0 0.44439653888602387 -0.37108278870097211 0 0.43547581015886039 -0.35374612963373181 0 0.44432011104097457 -0.34600420025309703 0 0.4490308344886651 -0.35295870566956811 0 0.45042795048268808 -0.34263813410543531 0 0.4490308344886651 -0.35295870566956811 0 0.45703493443123322 -0.33948916176555749 0 0.45042795048268808 -0.34263813410543531 0 0.44432011104097457 -0.34600420025309703 0 0.4490308344886651 -0.35295870566956811 0 0.43547581015886039 -0.35374612963373181 0 0.44432011104097457 -0.34600420025309703 0 0.43877314986606192 -0.33818418946214152 0 0.43547581015886039 -0.35374612963373181 0 0.46252966193221051 -0.36479181955861489 0 0.4490308344886651 -0.35295870566956811 0 0.44439653888602387 -0.37108278870097211 0 0.47218478901913252 -0.31616939882945228 0 0.45845081404400378 -0.32484725803309861 0 0.45088585771739531 -0.31517042999936162 0 0.47218478901913252 -0.31616939882945228 0 0.45845081404400378 -0.32484725803309861 0 0.45827718352869679 -0.33712892801165451 0 0.47218478901913252 -0.31616939882945228 0 0.45827718352869679 -0.33712892801165451 0 0.45845081404400378 -0.32484725803309861 0 0.45465012105844921 -0.33200612518688721 0 0.44755831468875862 -0.32470483606049327 0 0.47500442815187882 -0.33618410333150461 0 0.45703493443123322 -0.33948916176555749 0 0.45827718352869679 -0.33712892801165451 0 0.47500442815187882 -0.33618410333150461 0 0.47218478901913252 -0.31616939882945228 0 0.45827718352869679 -0.33712892801165451 0 0.45703493443123322 -0.33948916176555749 0 0.4547926195999189 -0.33699511694280199 0 0.45042795048268808 -0.34263813410543531 0 0.45703493443123322 -0.33948916176555749 0 0.45827718352869679 -0.33712892801165451 0 0.4547926195999189 -0.33699511694280199 0 0.45845081404400378 -0.32484725803309861 0 0.45827718352869679 -0.33712892801165451 0 0.45465012105844921 -0.33200612518688721 0 0.4547926195999189 -0.33699511694280199 0 0.45465012105844921 -0.33200612518688721 0 0.45190540097192972 -0.33615439765103378 0 0.45827718352869679 -0.33712892801165451 0 0.4547926195999189 -0.33699511694280199 0 0.45465012105844921 -0.33200612518688721 0 0.45465012105844921 -0.33200612518688721 0 0.44749393872662357 -0.33307274595813069 0 0.44755831468875862 -0.32470483606049327 0 0.45465012105844921 -0.33200612518688721 0 0.44749393872662357 -0.33307274595813069 0 0.45190540097192972 -0.33615439765103378 0 0.4547926195999189 -0.33699511694280199 0 0.45042795048268808 -0.34263813410543531 0 0.45190540097192972 -0.33615439765103378 0 0.45042795048268808 -0.34263813410543531 0 0.45190540097192972 -0.33615439765103378 0 0.44691761172297523 -0.33872250108465612 0 0.44749393872662357 -0.33307274595813069 0 0.45190540097192972 -0.33615439765103378 0 0.44691761172297523 -0.33872250108465612 0 0.44432011104097457 -0.34600420025309703 0 0.45042795048268808 -0.34263813410543531 0 0.44691761172297523 -0.33872250108465612 0 0.44432011104097457 -0.34600420025309703 0 0.44691761172297523 -0.33872250108465612 0 0.43877314986606192 -0.33818418946214152 0 0.44749393872662357 -0.33307274595813069 0 0.44691761172297523 -0.33872250108465612 0 0.43877314986606192 -0.33818418946214152 0 0.44749393872662357 -0.33307274595813069 0 0.43877314986606192 -0.33818418946214152 0 0.43784837531542259 -0.32788377361433518 0 0.44749393872662357 -0.33307274595813069 0 0.43784837531542259 -0.32788377361433518 0 0.44755831468875862 -0.32470483606049327 0 0.43784837531542259 -0.32788377361433518 0 0.44755831468875862 -0.32470483606049327 0 0.43602078127065758 -0.31524868357114688 0 0.45845081404400378 -0.32484725803309861 0 0.44755831468875862 -0.32470483606049327 0 0.45088585771739531 -0.31517042999936162 0 0.44755831468875862 -0.32470483606049327 0 0.45088585771739531 -0.31517042999936162 0 0.43602078127065758 -0.31524868357114688 0 0.43784837531542259 -0.32788377361433518 0 0.42583518759170652 -0.33528639298719382 0 0.41775460495295358 -0.31793141321765611 0 0.43784837531542259 -0.32788377361433518 0 0.43602078127065758 -0.31524868357114688 0 0.41775460495295358 -0.31793141321765611 0 0.43877314986606192 -0.33818418946214152 0 0.43784837531542259 -0.32788377361433518 0 0.42583518759170652 -0.33528639298719382 0 0.43877314986606192 -0.33818418946214152 0 0.42583518759170652 -0.33528639298719382 0 0.43547581015886039 -0.35374612963373181 0 0.41250416259223432 -0.33960725990233392 0 0.41775460495295358 -0.31793141321765611 0 0.39805431729583179 -0.33510365622952631 0 0.41250416259223432 -0.33960725990233392 0 0.41775460495295358 -0.31793141321765611 0 0.42583518759170652 -0.33528639298719382 0 0.41250416259223432 -0.33960725990233392 0 0.41775460495295358 -0.31793141321765611 0 0.42583518759170652 -0.33528639298719382 0 0.41250416259223432 -0.33960725990233392 0 0.42034794007649889 -0.35298104146800569 0 0.43547581015886039 -0.35374612963373181 0 0.42034794007649889 -0.35298104146800569 0 0.42578668388574042 -0.37577956855813549 0 0.44439653888602387 -0.37108278870097211 0 0.43547581015886039 -0.35374612963373181 0 0.42578668388574042 -0.37577956855813549 0 0.42583518759170652 -0.33528639298719382 0 0.43547581015886039 -0.35374612963373181 0 0.42034794007649889 -0.35298104146800569 0 0.41250416259223432 -0.33960725990233392 0 0.42034794007649889 -0.35298104146800569 0 0.40725372023151529 -0.36128310658701179 0 0.41250416259223432 -0.33960725990233392 0 0.40725372023151529 -0.36128310658701179 0 0.40725372023151529 -0.36128310658701179 0 0.42578668388574042 -0.37577956855813549 0 0.40193856510946419 -0.3832261124550107 0 0.40725372023151529 -0.36128310658701179 0 0.42578668388574042 -0.37577956855813549 0 0.42034794007649889 -0.35298104146800569 0 0.40725372023151529 -0.36128310658701179 0 0.42578668388574042 -0.37577956855813549 0 0.40725372023151529 -0.36128310658701179 0 0.39425043507280438 -0.36432915978129837 0 0.40193856510946419 -0.3832261124550107 0 0.40725372023151529 -0.36128310658701179 0 0.40193856510946419 -0.3832261124550107 0 0.39425043507280438 -0.36432915978129837 0 0.38081427771294768 -0.36737052156009248 0 0.40193856510946419 -0.3832261124550107 0 0.40725372023151529 -0.36128310658701179 0 0.38699517723729038 -0.34543689852307891 0 0.39805431729583179 -0.33510365622952631 0 0.40725372023151529 -0.36128310658701179 0 0.39425043507280438 -0.36432915978129837 0 0.38699517723729038 -0.34543689852307891 0 0.40725372023151529 -0.36128310658701179 0 0.38699517723729038 -0.34543689852307891 0 0.41250416259223432 -0.33960725990233392 0 0.40725372023151529 -0.36128310658701179 0 0.39805431729583179 -0.33510365622952631 0 0.38699517723729038 -0.34543689852307891 0 0.38081427771294768 -0.36737052156009248 0 0.37640125955739012 -0.35149107478397351 0 0.38465179156333151 -0.34360390505586791 0 0.36805061276354478 -0.3427907498460791 0 0.39425043507280438 -0.36432915978129837 0 0.38699517723729038 -0.34543689852307891 0 0.38081427771294768 -0.36737052156009248 0 0.38699517723729038 -0.34543689852307891 0 0.37640125955739012 -0.35149107478397351 0 0.38081427771294768 -0.36737052156009248 0 0.38699517723729038 -0.34543689852307891 0 0.38465179156333151 -0.34360390505586791 0 0.38699517723729038 -0.34543689852307891 0 0.37640125955739012 -0.35149107478397351 0 0.38465179156333151 -0.34360390505586791 0 0.41775460495295358 -0.31793141321765611 0 0.39401776620237461 -0.32051644503610022 0 0.39805431729583179 -0.33510365622952631 0 0.38699517723729038 -0.34543689852307891 0 0.39401776620237461 -0.32051644503610022 0 0.39805431729583179 -0.33510365622952631 0 0.38699517723729038 -0.34543689852307891 0 0.39401776620237461 -0.32051644503610022 0 0.38465179156333151 -0.34360390505586791 0 0.37858644206980091 -0.32769985780377792 0 0.36805061276354478 -0.3427907498460791 0 0.38699517723729038 -0.34543689852307891 0 0.39401776620237461 -0.32051644503610022 0 0.38465179156333151 -0.34360390505586791 0 0.39401776620237461 -0.32051644503610022 0 0.38465179156333151 -0.34360390505586791 0 0.37858644206980091 -0.32769985780377792 0 0.39401776620237461 -0.32051644503610022 0 0.37858644206980091 -0.32769985780377792 0 0.37861767820969228 -0.30691821554646831 0 0.41775460495295358 -0.31793141321765611 0 0.39401776620237461 -0.32051644503610022 0 0.40104035516745928 -0.29559599154912142 0 0.39401776620237461 -0.32051644503610022 0 0.37861767820969228 -0.30691821554646831 0 0.40104035516745928 -0.29559599154912142 0 0.39401776620237461 -0.32051644503610022 0 0.40104035516745928 -0.29559599154912142 0 0.40104035516745928 -0.29559599154912142 0 0.38498320530945151 -0.287592927137584 0 0.39655653748852282 -0.27284147297554762 0 0.38498320530945151 -0.287592927137584 0 0.37764450162479901 -0.26965755496232408 0 0.36873774536035581 -0.28861226174546889 0 0.37861767820969228 -0.30691821554646831 0 0.40104035516745928 -0.29559599154912142 0 0.38498320530945151 -0.287592927137584 0 0.37861767820969228 -0.30691821554646831 0 0.38498320530945151 -0.287592927137584 0 0.36873774536035581 -0.28861226174546889 0 0.38498320530945151 -0.287592927137584 0 0.37764450162479901 -0.26965755496232408 0 0.39655653748852282 -0.27284147297554762 0 0.39206528024080278 -0.24921397013056479 0 0.37764450162479901 -0.26965755496232408 0 0.39655653748852282 -0.27284147297554762 0 0.39206528024080278 -0.24921397013056479 0 0.37764450162479901 -0.26965755496232408 0 0.37510228513818711 -0.25237727586059511 0 0.39206528024080278 -0.24921397013056479 0 0.39655653748852282 -0.27284147297554762 0 0.40884184876520419 -0.25890250189124958 0 0.40104035516745928 -0.29559599154912142 0 0.39655653748852282 -0.27284147297554762 0 0.4136044294752057 -0.2739163227279473 0 0.39655653748852282 -0.27284147297554762 0 0.4136044294752057 -0.2739163227279473 0 0.40884184876520419 -0.25890250189124958 0 0.4148006158986044 -0.24103970595398019 0 0.40884184876520419 -0.25890250189124958 0 0.42892204251950339 -0.2594807324876427 0 0.4136044294752057 -0.2739163227279473 0 0.40884184876520419 -0.25890250189124958 0 0.42892204251950339 -0.2594807324876427 0 0.4136044294752057 -0.2739163227279473 0 0.42892204251950339 -0.2594807324876427 0 0.42611848489587972 -0.28658767974219163 0 0.44355941821905998 -0.27577600561597132 0 0.42892204251950339 -0.2594807324876427 0 0.42611848489587972 -0.28658767974219163 0 0.44743457629936911 -0.29125199491084608 0 0.42611848489587972 -0.28658767974219163 0 0.43686388954492023 -0.30206384222820981 0 0.43602078127065758 -0.31524868357114688 0 0.41775460495295358 -0.31793141321765611 0 0.42179240152309172 -0.30222108271158582 0 0.42611848489587972 -0.28658767974219163 0 0.43686388954492023 -0.30206384222820981 0 0.42179240152309172 -0.30222108271158582 0 0.43602078127065758 -0.31524868357114688 0 0.43686388954492023 -0.30206384222820981 0 0.42179240152309172 -0.30222108271158582 0 0.41775460495295358 -0.31793141321765611 0 0.40104035516745928 -0.29559599154912142 0 0.42179240152309172 -0.30222108271158582 0 0.40104035516745928 -0.29559599154912142 0 0.4136044294752057 -0.2739163227279473 0 0.42611848489587972 -0.28658767974219163 0 0.40104035516745928 -0.29559599154912142 0 0.42611848489587972 -0.28658767974219163 0 0.42179240152309172 -0.30222108271158582 0 0.5 -0.5 0 0.478892924595126 -0.45923392689990328 0 0.5 -0.41454166856117469 0 0.5 -0.5 0 0.47943423265092072 -0.49342116463239621 0 0.40014079662082208 -0.5 0 0.43983937115661631 -0.46972557693384148 0 0.47943423265092072 -0.49342116463239621 0 0.40014079662082208 -0.5 0 0.43983937115661631 -0.46972557693384148 0 0.46715606132834708 -0.47012790102379598 0 0.47943423265092072 -0.49342116463239621 0 0.5 -0.5 0 0.47943423265092072 -0.49342116463239621 0 0.478892924595126 -0.45923392689990328 0 0.46715606132834708 -0.47012790102379598 0 0.47943423265092072 -0.49342116463239621 0 0.478892924595126 -0.45923392689990328 0 0.46715606132834708 -0.47012790102379598 0 0.47943423265092072 -0.49342116463239621 0 0.478892924595126 -0.45923392689990328 0 0.45487789000577361 -0.44683463741519602 0 0.47188936358571532 -0.4304781897668572 0 0.46715606132834708 -0.47012790102379598 0 0.45487789000577361 -0.44683463741519602 0 0.46715606132834708 -0.47012790102379598 0 0.478892924595126 -0.45923392689990328 0 0.45487789000577361 -0.44683463741519602 0 0.43983937115661631 -0.46972557693384148 0 0.46715606132834708 -0.47012790102379598 0 0.45487789000577361 -0.44683463741519602 0 0.43983937115661631 -0.46972557693384148 0 0.45487789000577361 -0.44683463741519602 0 0.43095981599733307 -0.44753658110846528 0 0.45487789000577361 -0.44683463741519602 0 0.43408281430989271 -0.43319973453275151 0 0.43095981599733307 -0.44753658110846528 0 0.45487789000577361 -0.44683463741519602 0 0.44259971868320003 -0.42354137380659601 0 0.45487789000577361 -0.44683463741519602 0 0.44259971868320003 -0.42354137380659601 0 0.43408281430989271 -0.43319973453275151 0 0.45487789000577361 -0.44683463741519602 0 0.44259971868320003 -0.42354137380659601 0 0.45959372781066021 -0.42263882295877442 0 0.44259971868320003 -0.42354137380659601 0 0.45186952978880229 -0.40983589673226128 0 0.45959372781066021 -0.42263882295877442 0 0.44259971868320003 -0.42354137380659601 0 0.45186952978880229 -0.40983589673226128 0 0.44161148704613862 -0.40579593671517361 0 0.44259971868320003 -0.42354137380659601 0 0.44161148704613862 -0.40579593671517361 0 0.43098246877755192 -0.41858878846052949 0 0.45186952978880229 -0.40983589673226128 0 0.45959372781066021 -0.42263882295877442 0 0.46285261119418991 -0.40477249250038388 0 0.45959372781066021 -0.42263882295877442 0 0.4735191169341651 -0.41539713514472942 0 0.46285261119418991 -0.40477249250038388 0 0.45959372781066021 -0.42263882295877442 0 0.47188936358571532 -0.4304781897668572 0 0.4735191169341651 -0.41539713514472942 0 0.45487789000577361 -0.44683463741519602 0 0.45959372781066021 -0.42263882295877442 0 0.47188936358571532 -0.4304781897668572 0 0.5 -0.41454166856117469 0 0.4735191169341651 -0.41539713514472942 0 0.4680243894331878 -0.39009447735167219 0 0.478892924595126 -0.45923392689990328 0 0.47188936358571532 -0.4304781897668572 0 0.5 -0.41454166856117469 0 0.47188936358571532 -0.4304781897668572 0 0.5 -0.41454166856117469 0 0.4735191169341651 -0.41539713514472942 0 0.5 -0.35237408365171952 0 0.5 -0.41454166856117469 0 0.4680243894331878 -0.39009447735167219 0 0.4735191169341651 -0.41539713514472942 0 0.4680243894331878 -0.39009447735167219 0 0.46252966193221051 -0.36479181955861489 0 0.45518384933885458 -0.37953704158418422 0 0.4680243894331878 -0.39009447735167219 0 0.45518384933885458 -0.37953704158418422 0 0.4680243894331878 -0.39009447735167219 0 0.44431964753996511 -0.39027603052925969 0 0.46252966193221051 -0.36479181955861489 0 0.4680243894331878 -0.39009447735167219 0 0.4735191169341651 -0.41539713514472942 0 0.4680243894331878 -0.39009447735167219 0 0.46285261119418991 -0.40477249250038388 0 0.4680243894331878 -0.39009447735167219 0 0.46285261119418991 -0.40477249250038388 0 0.44431964753996511 -0.39027603052925969 0 0.46285261119418991 -0.40477249250038388 0 0.44431964753996511 -0.39027603052925969 0 0.45186952978880229 -0.40983589673226128 0 0.44161148704613862 -0.40579593671517361 0 0.44431964753996511 -0.39027603052925969 0 0.45186952978880229 -0.40983589673226128 0 0.46285261119418991 -0.40477249250038388 0 0.44431964753996511 -0.39027603052925969 0 0.44439653888602387 -0.37108278870097211 0 0.44431964753996511 -0.39027603052925969 0 0.42578668388574042 -0.37577956855813549 0 0.44439653888602387 -0.37108278870097211 0 0.45518384933885458 -0.37953704158418422 0 0.44431964753996511 -0.39027603052925969 0 0.44431964753996511 -0.39027603052925969 0 0.42578668388574042 -0.37577956855813549 0 0.42627525148907153 -0.39512359141131242 0 0.44431964753996511 -0.39027603052925969 0 0.42578668388574042 -0.37577956855813549 0 0.44161148704613862 -0.40579593671517361 0 0.44431964753996511 -0.39027603052925969 0 0.42627525148907153 -0.39512359141131242 0 0.44161148704613862 -0.40579593671517361 0 0.42627525148907153 -0.39512359141131242 0 0.41380476734409732 -0.40903711363024231 0 0.41288573556315727 -0.39366710087554208 0 0.39662340998741341 -0.40516911832300972 0 0.41380476734409732 -0.40903711363024231 0 0.42627525148907153 -0.39512359141131242 0 0.41288573556315727 -0.39366710087554208 0 0.41380476734409732 -0.40903711363024231 0 0.42578668388574042 -0.37577956855813549 0 0.41288573556315727 -0.39366710087554208 0 0.40193856510946419 -0.3832261124550107 0 0.42578668388574042 -0.37577956855813549 0 0.42627525148907153 -0.39512359141131242 0 0.41288573556315727 -0.39366710087554208 0 0.38081427771294768 -0.36737052156009248 0 0.37463337818860382 -0.38930414459710588 0 0.3737028077843495 -0.38742295831448542 0 0.38081427771294768 -0.36737052156009248 0 0.38897026210220897 -0.39170162293651239 0 0.37463337818860382 -0.38930414459710588 0 0.38081427771294768 -0.36737052156009248 0 0.37463337818860382 -0.38930414459710588 0 0.38081427771294768 -0.36737052156009248 0 0.40193856510946419 -0.3832261124550107 0 0.38897026210220897 -0.39170162293651239 0 0.38599804764205609 -0.41227829054531151 0 0.37463337818860382 -0.38930414459710588 0 0.38897026210220897 -0.39170162293651239 0 0.39662340998741341 -0.40516911832300972 0 0.38599804764205609 -0.41227829054531151 0 0.38599804764205609 -0.41227829054531151 0 0.36755341006792419 -0.41442821452601158 0 0.37463337818860382 -0.38930414459710588 0 0.38897026210220897 -0.39170162293651239 0 0.38599804764205609 -0.41227829054531151 0 0.37463337818860382 -0.38930414459710588 0 0.40193856510946419 -0.3832261124550107 0 0.38897026210220897 -0.39170162293651239 0 0.39662340998741341 -0.40516911832300972 0 0.41288573556315727 -0.39366710087554208 0 0.40193856510946419 -0.3832261124550107 0 0.39662340998741341 -0.40516911832300972 0 0.40193856510946419 -0.3832261124550107 0 0.39662340998741341 -0.40516911832300972 0 0.38599804764205609 -0.41227829054531151 0 0.41380476734409732 -0.40903711363024231 0 0.39662340998741341 -0.40516911832300972 0 0.38599804764205609 -0.41227829054531151 0 0.41380476734409732 -0.40903711363024231 0 0.40147331832312588 -0.42054231308375889 0 0.38599804764205609 -0.41227829054531151 0 0.41380476734409732 -0.40903711363024231 0 0.38599804764205609 -0.41227829054531151 0 0.36755341006792419 -0.41442821452601158 0 0.38599804764205609 -0.41227829054531151 0 0.37837193070639508 -0.43074191130029282 0 0.36755341006792419 -0.41442821452601158 0 0.38599804764205609 -0.41227829054531151 0 0.37837193070639508 -0.43074191130029282 0 0.39716653888589531 -0.43485585418744782 0 0.37837193070639508 -0.43074191130029282 0 0.39716653888589531 -0.43485585418744782 0 0.38455236834147782 -0.44235831893697952 0 0.38599804764205609 -0.41227829054531151 0 0.39716653888589531 -0.43485585418744782 0 0.40147331832312588 -0.42054231308375889 0 0.38599804764205609 -0.41227829054531151 0 0.39716653888589531 -0.43485585418744782 0 0.40147331832312588 -0.42054231308375889 0 0.39716653888589531 -0.43485585418744782 0 0.40988830344794153 -0.42850982814637428 0 0.39716653888589531 -0.43485585418744782 0 0.40988830344794153 -0.42850982814637428 0 0.41424956646142452 -0.44145335337101582 0 0.40988830344794153 -0.42850982814637428 0 0.42255857874347952 -0.42798536962106742 0 0.41424956646142452 -0.44145335337101582 0 0.40147331832312588 -0.42054231308375889 0 0.40988830344794153 -0.42850982814637428 0 0.41380476734409732 -0.40903711363024231 0 0.40988830344794153 -0.42850982814637428 0 0.41380476734409732 -0.40903711363024231 0 0.42255857874347952 -0.42798536962106742 0 0.44161148704613862 -0.40579593671517361 0 0.41380476734409732 -0.40903711363024231 0 0.43098246877755192 -0.41858878846052949 0 0.44161148704613862 -0.40579593671517361 0 0.41380476734409732 -0.40903711363024231 0 0.41380476734409732 -0.40903711363024231 0 0.43098246877755192 -0.41858878846052949 0 0.42255857874347952 -0.42798536962106742 0 0.43408281430989271 -0.43319973453275151 0 0.42255857874347952 -0.42798536962106742 0 0.43095981599733307 -0.44753658110846528 0 0.44259971868320003 -0.42354137380659601 0 0.43098246877755192 -0.41858878846052949 0 0.43408281430989271 -0.43319973453275151 0 0.43098246877755192 -0.41858878846052949 0 0.43408281430989271 -0.43319973453275151 0 0.42255857874347952 -0.42798536962106742 0 0.42255857874347952 -0.42798536962106742 0 0.43095981599733307 -0.44753658110846528 0 0.41424956646142452 -0.44145335337101582 0 0.43983937115661631 -0.46972557693384148 0 0.42706067288056998 -0.45966910190407051 0 0.41707216494033877 -0.46659444091922031 0 0.43983937115661631 -0.46972557693384148 0 0.43095981599733307 -0.44753658110846528 0 0.42706067288056998 -0.45966910190407051 0 0.43095981599733307 -0.44753658110846528 0 0.42706067288056998 -0.45966910190407051 0 0.42037133942799187 -0.45481980865475502 0 0.42037133942799187 -0.45481980865475502 0 0.41707216494033877 -0.46659444091922031 0 0.40833503012973449 -0.45743341782958391 0 0.42706067288056998 -0.45966910190407051 0 0.42037133942799187 -0.45481980865475502 0 0.41707216494033877 -0.46659444091922031 0 0.41707216494033877 -0.46659444091922031 0 0.40833503012973449 -0.45743341782958391 0 0.39424227281986102 -0.46676003377889269 0 0.43095981599733307 -0.44753658110846528 0 0.42037133942799187 -0.45481980865475502 0 0.41424956646142452 -0.44145335337101582 0 0.42037133942799187 -0.45481980865475502 0 0.40833503012973449 -0.45743341782958391 0 0.41424956646142452 -0.44145335337101582 0 0.39716653888589531 -0.43485585418744782 0 0.40833503012973449 -0.45743341782958391 0 0.41424956646142452 -0.44145335337101582 0 0.39716653888589531 -0.43485585418744782 0 0.39345157537004599 -0.45057062730194619 0 0.38455236834147782 -0.44235831893697952 0 0.39716653888589531 -0.43485585418744782 0 0.40833503012973449 -0.45743341782958391 0 0.39345157537004599 -0.45057062730194619 0 0.39716653888589531 -0.43485585418744782 0 0.40833503012973449 -0.45743341782958391 0 0.39345157537004599 -0.45057062730194619 0 0.38455236834147782 -0.44235831893697952 0 0.38182359321740972 -0.45292134106576409 0 0.38455236834147782 -0.44235831893697952 0 0.38182359321740972 -0.45292134106576409 0 0.37194820352764257 -0.4427018608294464 0 0.37837193070639508 -0.43074191130029282 0 0.38455236834147782 -0.44235831893697952 0 0.37194820352764257 -0.4427018608294464 0 0.38182359321740972 -0.45292134106576409 0 0.39424227281986102 -0.46676003377889269 0 0.37141238069938332 -0.46692562663856529 0 0.39345157537004599 -0.45057062730194619 0 0.38182359321740972 -0.45292134106576409 0 0.39424227281986102 -0.46676003377889269 0 0.39424227281986102 -0.46676003377889269 0 0.37141238069938332 -0.46692562663856529 0 0.40833503012973449 -0.45743341782958391 0 0.39345157537004599 -0.45057062730194619 0 0.39424227281986102 -0.46676003377889269 0 0.41707216494033877 -0.46659444091922031 0 0.39424227281986102 -0.46676003377889269 0 0.41707216494033877 -0.46659444091922031 0 0.39424227281986102 -0.46676003377889269 0 0.40014079662082208 -0.5 0 0.39424227281986102 -0.46676003377889269 0 0.40014079662082208 -0.5 0 0.37141238069938332 -0.46692562663856529 0 0.43983937115661631 -0.46972557693384148 0 0.41707216494033877 -0.46659444091922031 0 0.40014079662082208 -0.5 0 0.40014079662082208 -0.5 0 0.32546065004022617 -0.5 0 0.3462765218470546 -0.48033279556006703 0 0.32546065004022617 -0.5 0 0.3462765218470546 -0.48033279556006703 0 0.30631021868456298 -0.48072311486568892 0 0.3462765218470546 -0.48033279556006703 0 0.32575259645842791 -0.46725681235791028 0 0.30631021868456298 -0.48072311486568892 0 0.3462765218470546 -0.48033279556006703 0 0.3485824885789055 -0.46709121949823779 0 0.32575259645842791 -0.46725681235791028 0 0.40014079662082208 -0.5 0 0.3462765218470546 -0.48033279556006703 0 0.37141238069938332 -0.46692562663856529 0 0.3462765218470546 -0.48033279556006703 0 0.3485824885789055 -0.46709121949823779 0 0.37141238069938332 -0.46692562663856529 0 0.3485824885789055 -0.46709121949823779 0 0.37141238069938332 -0.46692562663856529 0 0.35324569388809701 -0.44989359131069062 0 0.3485824885789055 -0.46709121949823779 0 0.35324569388809701 -0.44989359131069062 0 0.33806214337105372 -0.45777686618061397 0 0.38182359321740972 -0.45292134106576409 0 0.37141238069938332 -0.46692562663856529 0 0.35324569388809701 -0.44989359131069062 0 0.3485824885789055 -0.46709121949823779 0 0.37141238069938332 -0.46692562663856529 0 0.36060935802898147 -0.43906997082244181 0 0.37194820352764257 -0.4427018608294464 0 0.35324569388809701 -0.44989359131069062 0 0.38182359321740972 -0.45292134106576409 0 0.35324569388809701 -0.44989359131069062 0 0.37837193070639508 -0.43074191130029282 0 0.36060935802898147 -0.43906997082244181 0 0.37194820352764257 -0.4427018608294464 0 0.38182359321740972 -0.45292134106576409 0 0.37194820352764257 -0.4427018608294464 0 0.35324569388809701 -0.44989359131069062 0 0.36060935802898147 -0.43906997082244181 0 0.35324569388809701 -0.44989359131069062 0 0.34315104194743368 -0.43483422324315929 0 0.32466779455878442 -0.44686584155561709 0 0.32761501992215097 -0.43116249501185328 0 0.34315104194743368 -0.43483422324315929 0 0.35324569388809701 -0.44989359131069062 0 0.33806214337105372 -0.45777686618061397 0 0.32466779455878442 -0.44686584155561709 0 0.35324569388809701 -0.44989359131069062 0 0.32466779455878442 -0.44686584155561709 0 0.34315104194743368 -0.43483422324315929 0 0.35324569388809701 -0.44989359131069062 0 0.32466779455878442 -0.44686584155561709 0 0.3485824885789055 -0.46709121949823779 0 0.32575259645842791 -0.46725681235791028 0 0.3485824885789055 -0.46709121949823779 0 0.33806214337105372 -0.45777686618061397 0 0.32575259645842791 -0.46725681235791028 0 0.33806214337105372 -0.45777686618061397 0 0.32575259645842791 -0.46725681235791028 0 0.32466779455878442 -0.44686584155561709 0 0.32575259645842791 -0.46725681235791028 0 0.30904716904302271 -0.45792120175055678 0 0.30631021868456298 -0.48072311486568892 0 0.32575259645842791 -0.46725681235791028 0 0.32466779455878442 -0.44686584155561709 0 0.30904716904302271 -0.45792120175055678 0 0.32466779455878442 -0.44686584155561709 0 0.31800868577585262 -0.43516031519895321 0 0.30735360635596409 -0.43632211706289747 0 0.32466779455878442 -0.44686584155561709 0 0.32761501992215097 -0.43116249501185328 0 0.31800868577585262 -0.43516031519895321 0 0.32761501992215097 -0.43116249501185328 0 0.32339131420283213 -0.41656724990055422 0 0.31239832226651099 -0.42629080716544471 0 0.32761501992215097 -0.43116249501185328 0 0.31800868577585262 -0.43516031519895321 0 0.31239832226651099 -0.42629080716544471 0 0.31800868577585262 -0.43516031519895321 0 0.31239832226651099 -0.42629080716544471 0 0.30735360635596409 -0.43632211706289747 0 0.32339131420283213 -0.41656724990055422 0 0.31120060169272079 -0.4133373498197 0 0.31239832226651099 -0.42629080716544471 0 0.32339131420283213 -0.41656724990055422 0 0.319673984964159 -0.40346676889879052 0 0.31120060169272079 -0.4133373498197 0 0.319673984964159 -0.40346676889879052 0 0.30884060304287331 -0.40229515593698711 0 0.31120060169272079 -0.4133373498197 0 0.32339131420283213 -0.41656724990055422 0 0.33281994217864741 -0.40778505865636938 0 0.319673984964159 -0.40346676889879052 0 0.32761501992215097 -0.43116249501185328 0 0.32339131420283213 -0.41656724990055422 0 0.33796042338316851 -0.41787760036937549 0 0.32339131420283213 -0.41656724990055422 0 0.33281994217864741 -0.40778505865636938 0 0.33796042338316851 -0.41787760036937549 0 0.33281994217864741 -0.40778505865636938 0 0.33796042338316851 -0.41787760036937549 0 0.34601675315157321 -0.40486547886918423 0 0.32761501992215097 -0.43116249501185328 0 0.33796042338316851 -0.41787760036937549 0 0.34315104194743368 -0.43483422324315929 0 0.33796042338316851 -0.41787760036937549 0 0.34315104194743368 -0.43483422324315929 0 0.35231855835687692 -0.42655250224024699 0 0.36060935802898147 -0.43906997082244181 0 0.34315104194743368 -0.43483422324315929 0 0.35231855835687692 -0.42655250224024699 0 0.37837193070639508 -0.43074191130029282 0 0.36060935802898147 -0.43906997082244181 0 0.36755341006792419 -0.41442821452601158 0 0.36060935802898147 -0.43906997082244181 0 0.35231855835687692 -0.42655250224024699 0 0.36755341006792419 -0.41442821452601158 0 0.36060935802898147 -0.43906997082244181 0 0.36755341006792419 -0.41442821452601158 0 0.33796042338316851 -0.41787760036937549 0 0.35231855835687692 -0.42655250224024699 0 0.36755341006792419 -0.41442821452601158 0 0.33796042338316851 -0.41787760036937549 0 0.36755341006792419 -0.41442821452601158 0 0.34601675315157321 -0.40486547886918423 0 0.33796042338316851 -0.41787760036937549 0 0.36755341006792419 -0.41442821452601158 0 0.36755341006792419 -0.41442821452601158 0 0.34601675315157321 -0.40486547886918423 0 0.35566250251704978 -0.3975177511027051 0 0.34601675315157321 -0.40486547886918423 0 0.34667365318154342 -0.39629832909528578 0 0.35566250251704978 -0.3975177511027051 0 0.34667365318154342 -0.39629832909528578 0 0.34795812186604658 -0.38666189116531141 0 0.33705723519150399 -0.3961481952439429 0 0.34667365318154342 -0.39629832909528578 0 0.35566250251704978 -0.3975177511027051 0 0.34795812186604658 -0.38666189116531141 0 0.36755341006792419 -0.41442821452601158 0 0.35566250251704978 -0.3975177511027051 0 0.36706103815962848 -0.39187921332532882 0 0.36755341006792419 -0.41442821452601158 0 0.37463337818860382 -0.38930414459710588 0 0.36755341006792419 -0.41442821452601158 0 0.36706103815962848 -0.39187921332532882 0 0.37463337818860382 -0.38930414459710588 0 0.35566250251704978 -0.3975177511027051 0 0.36706103815962848 -0.39187921332532882 0 0.35924801608749379 -0.38543857686598643 0 0.38081427771294768 -0.36737052156009248 0 0.36848073339739068 -0.37517807712711049 0 0.3737028077843495 -0.38742295831448542 0 0.36848073339739068 -0.37517807712711049 0 0.3737028077843495 -0.38742295831448542 0 0.36599997940964812 -0.38379980358563692 0 0.36706103815962848 -0.39187921332532882 0 0.3737028077843495 -0.38742295831448542 0 0.36599997940964812 -0.38379980358563692 0 0.36706103815962848 -0.39187921332532882 0 0.37463337818860382 -0.38930414459710588 0 0.3737028077843495 -0.38742295831448542 0 0.37463337818860382 -0.38930414459710588 0 0.3737028077843495 -0.38742295831448542 0 0.36706103815962848 -0.39187921332532882 0 0.36599997940964812 -0.38379980358563692 0 0.35924801608749379 -0.38543857686598643 0 0.36599997940964812 -0.38379980358563692 0 0.36207090148421361 -0.37959838259465167 0 0.35924801608749379 -0.38543857686598643 0 0.36848073339739068 -0.37517807712711049 0 0.36599997940964812 -0.38379980358563692 0 0.36207090148421361 -0.37959838259465167 0 0.36848073339739068 -0.37517807712711049 0 0.36207090148421361 -0.37959838259465167 0 0.3554566368260581 -0.37480617727887811 0 0.36207090148421361 -0.37959838259465167 0 0.35924801608749379 -0.38543857686598643 0 0.3554566368260581 -0.37480617727887811 0 0.35924801608749379 -0.38543857686598643 0 0.34795812186604658 -0.38666189116531141 0 0.3554566368260581 -0.37480617727887811 0 0.35566250251704978 -0.3975177511027051 0 0.35924801608749379 -0.38543857686598643 0 0.34795812186604658 -0.38666189116531141 0 0.34795812186604658 -0.38666189116531141 0 0.34537995690420659 -0.3737828605913362 0 0.3554566368260581 -0.37480617727887811 0 0.34795812186604658 -0.38666189116531141 0 0.33323562740676532 -0.37769939737979058 0 0.34537995690420659 -0.3737828605913362 0 0.34795812186604658 -0.38666189116531141 0 0.33323562740676532 -0.37769939737979058 0 0.33705723519150399 -0.3961481952439429 0 0.33323562740676532 -0.37769939737979058 0 0.33705723519150399 -0.3961481952439429 0 0.319673984964159 -0.40346676889879052 0 0.33281994217864741 -0.40778505865636938 0 0.33705723519150399 -0.3961481952439429 0 0.319673984964159 -0.40346676889879052 0 0.33281994217864741 -0.40778505865636938 0 0.34601675315157321 -0.40486547886918423 0 0.33705723519150399 -0.3961481952439429 0 0.34601675315157321 -0.40486547886918423 0 0.34667365318154342 -0.39629832909528578 0 0.33705723519150399 -0.3961481952439429 0 0.33323562740676532 -0.37769939737979058 0 0.319673984964159 -0.40346676889879052 0 0.31422368515007948 -0.393427126581603 0 0.319673984964159 -0.40346676889879052 0 0.31422368515007948 -0.393427126581603 0 0.30884060304287331 -0.40229515593698711 0 0.33323562740676532 -0.37769939737979058 0 0.319673984964159 -0.40346676889879052 0 0.31422368515007948 -0.393427126581603 0 0.30591552541026101 -0.37751124227982003 0 0.32002671755222051 -0.36641101040373808 0 0.33323562740676532 -0.37769939737979058 0 0.31422368515007948 -0.393427126581603 0 0.32002671755222051 -0.36641101040373808 0 0.31422368515007948 -0.393427126581603 0 0.32002671755222051 -0.36641101040373808 0 0.30591552541026101 -0.37751124227982003 0 0.29934269892459558 -0.39453707190143028 0 0.28871394442674109 -0.38265385864092483 0 0.31422368515007948 -0.393427126581603 0 0.30591552541026101 -0.37751124227982003 0 0.29934269892459558 -0.39453707190143028 0 0.31422368515007948 -0.393427126581603 0 0.30884060304287331 -0.40229515593698711 0 0.29934269892459558 -0.39453707190143028 0 0.30884060304287331 -0.40229515593698711 0 0.29934269892459558 -0.39453707190143028 0 0.29896657827583012 -0.40866065312134409 0 0.28871394442674109 -0.38265385864092483 0 0.27786210523133942 -0.40981541802129928 0 0.29934269892459558 -0.39453707190143028 0 0.27786210523133942 -0.40981541802129928 0 0.29896657827583012 -0.40866065312134409 0 0.29934269892459558 -0.39453707190143028 0 0.28871394442674109 -0.38265385864092483 0 0.27786210523133942 -0.40981541802129928 0 0.28871394442674109 -0.38265385864092483 0 0.26416245427686541 -0.38049931320234009 0 0.26125098829365018 -0.39969694482297641 0 0.28871394442674109 -0.38265385864092483 0 0.26416245427686541 -0.38049931320234009 0 0.27571190406721402 -0.36345127203525351 0 0.26416245427686541 -0.38049931320234009 0 0.24971336314328341 -0.36520417674804972 0 0.24502858373403441 -0.39146921073642488 0 0.26416245427686541 -0.38049931320234009 0 0.26125098829365018 -0.39969694482297641 0 0.24502858373403441 -0.39146921073642488 0 0.28871394442674109 -0.38265385864092483 0 0.26125098829365018 -0.39969694482297641 0 0.27786210523133942 -0.40981541802129928 0 0.26125098829365018 -0.39969694482297641 0 0.25610826383841628 -0.42120346698794331 0 0.2333640889907381 -0.41241884790723538 0 0.26125098829365018 -0.39969694482297641 0 0.27786210523133942 -0.40981541802129928 0 0.25610826383841628 -0.42120346698794331 0 0.25610826383841628 -0.42120346698794331 0 0.26701026603593758 -0.43697697740167368 0 0.2518592606704963 -0.43815060111373921 0 0.27786210523133942 -0.40981541802129928 0 0.26701026603593758 -0.43697697740167368 0 0.28078102790119369 -0.4274552938509788 0 0.27786210523133942 -0.40981541802129928 0 0.26701026603593758 -0.43697697740167368 0 0.27786210523133942 -0.40981541802129928 0 0.25610826383841628 -0.42120346698794331 0 0.26701026603593758 -0.43697697740167368 0 0.26701026603593758 -0.43697697740167368 0 0.28078102790119369 -0.4274552938509788 0 0.27712236562531017 -0.4375193999175232 0 0.28078102790119369 -0.4274552938509788 0 0.28865243891263809 -0.43215364344327012 0 0.27712236562531017 -0.4375193999175232 0 0.28865243891263809 -0.43215364344327012 0 0.28959476197880307 -0.44168956347039928 0 0.27712236562531017 -0.4375193999175232 0 0.28865243891263809 -0.43215364344327012 0 0.29503220707493127 -0.43614369036708622 0 0.29829711678041942 -0.42866378264525379 0 0.28865243891263809 -0.43215364344327012 0 0.29503220707493127 -0.43614369036708622 0 0.28959476197880307 -0.44168956347039928 0 0.28865243891263809 -0.43215364344327012 0 0.29108715411517122 -0.42145013040837909 0 0.29829711678041942 -0.42866378264525379 0 0.28078102790119369 -0.4274552938509788 0 0.28865243891263809 -0.43215364344327012 0 0.29108715411517122 -0.42145013040837909 0 0.27786210523133942 -0.40981541802129928 0 0.28078102790119369 -0.4274552938509788 0 0.29108715411517122 -0.42145013040837909 0 0.27786210523133942 -0.40981541802129928 0 0.29108715411517122 -0.42145013040837909 0 0.29896657827583012 -0.40866065312134409 0 0.29108715411517122 -0.42145013040837909 0 0.30377653118007591 -0.4205559058691733 0 0.29896657827583012 -0.40866065312134409 0 0.30377653118007591 -0.4205559058691733 0 0.29896657827583012 -0.40866065312134409 0 0.31120060169272079 -0.4133373498197 0 0.30884060304287331 -0.40229515593698711 0 0.29896657827583012 -0.40866065312134409 0 0.31120060169272079 -0.4133373498197 0 0.30377653118007591 -0.4205559058691733 0 0.31120060169272079 -0.4133373498197 0 0.31239832226651099 -0.42629080716544471 0 0.30377653118007591 -0.4205559058691733 0 0.31239832226651099 -0.42629080716544471 0 0.29829711678041942 -0.42866378264525379 0 0.31239832226651099 -0.42629080716544471 0 0.30735360635596409 -0.43632211706289747 0 0.29829711678041942 -0.42866378264525379 0 0.29503220707493127 -0.43614369036708622 0 0.30735360635596409 -0.43632211706289747 0 0.29829711678041942 -0.42866378264525379 0 0.29108715411517122 -0.42145013040837909 0 0.30377653118007591 -0.4205559058691733 0 0.29829711678041942 -0.42866378264525379 0 0.32466779455878442 -0.44686584155561709 0 0.30904716904302271 -0.45792120175055678 0 0.29608989522947149 -0.44383809180054362 0 0.32466779455878442 -0.44686584155561709 0 0.29608989522947149 -0.44383809180054362 0 0.32466779455878442 -0.44686584155561709 0 0.30735360635596409 -0.43632211706289747 0 0.29608989522947149 -0.44383809180054362 0 0.30904716904302271 -0.45792120175055678 0 0.29860320416278402 -0.45529674645956592 0 0.29608989522947149 -0.44383809180054362 0 0.29503220707493127 -0.43614369036708622 0 0.30735360635596409 -0.43632211706289747 0 0.29608989522947149 -0.44383809180054362 0 0.30904716904302271 -0.45792120175055678 0 0.29721119201091789 -0.46522563712477349 0 0.30631021868456298 -0.48072311486568892 0 0.30904716904302271 -0.45792120175055678 0 0.29721119201091789 -0.46522563712477349 0 0.29860320416278402 -0.45529674645956592 0 0.28932919617959602 -0.45338424297023883 0 0.27756010650442758 -0.45518222858252849 0 0.28072062580449653 -0.47155582870540619 0 0.29721119201091789 -0.46522563712477349 0 0.28932919617959602 -0.45338424297023883 0 0.28072062580449653 -0.47155582870540619 0 0.29721119201091789 -0.46522563712477349 0 0.29860320416278402 -0.45529674645956592 0 0.28932919617959602 -0.45338424297023883 0 0.28932919617959602 -0.45338424297023883 0 0.28959476197880307 -0.44168956347039928 0 0.27756010650442758 -0.45518222858252849 0 0.29860320416278402 -0.45529674645956592 0 0.28932919617959602 -0.45338424297023883 0 0.29608989522947149 -0.44383809180054362 0 0.28932919617959602 -0.45338424297023883 0 0.29608989522947149 -0.44383809180054362 0 0.28959476197880307 -0.44168956347039928 0 0.29503220707493127 -0.43614369036708622 0 0.29608989522947149 -0.44383809180054362 0 0.28959476197880307 -0.44168956347039928 0 0.28959476197880307 -0.44168956347039928 0 0.26138620688844749 -0.44792543592233808 0 0.26701026603593758 -0.43697697740167368 0 0.27712236562531017 -0.4375193999175232 0 0.26138620688844749 -0.44792543592233808 0 0.28959476197880307 -0.44168956347039928 0 0.26138620688844749 -0.44792543592233808 0 0.27756010650442758 -0.45518222858252849 0 0.28959476197880307 -0.44168956347039928 0 0.27712236562531017 -0.4375193999175232 0 0.26138620688844749 -0.44792543592233808 0 0.26701026603593758 -0.43697697740167368 0 0.26138620688844749 -0.44792543592233808 0 0.2518592606704963 -0.43815060111373921 0 0.26138620688844749 -0.44792543592233808 0 0.26339579246569877 -0.46312143350125029 0 0.23317765179809191 -0.45416130837427687 0 0.26138620688844749 -0.44792543592233808 0 0.26339579246569877 -0.46312143350125029 0 0.27756010650442758 -0.45518222858252849 0 0.26339579246569877 -0.46312143350125029 0 0.27756010650442758 -0.45518222858252849 0 0.28072062580449653 -0.47155582870540619 0 0.28072062580449653 -0.47155582870540619 0 0.2532296876789632 -0.47497352743918242 0 0.27004646425256568 -0.5 0 0.26339579246569877 -0.46312143350125029 0 0.28072062580449653 -0.47155582870540619 0 0.2532296876789632 -0.47497352743918242 0 0.32546065004022617 -0.5 0 0.27004646425256568 -0.5 0 0.30631021868456298 -0.48072311486568892 0 0.28072062580449653 -0.47155582870540619 0 0.27004646425256568 -0.5 0 0.30631021868456298 -0.48072311486568892 0 0.29721119201091789 -0.46522563712477349 0 0.28072062580449653 -0.47155582870540619 0 0.30631021868456298 -0.48072311486568892 0 0.33743581475864359 -0.28536266187014298 0 0.3388307833371127 -0.27886836189579028 0 0.34706744656536048 -0.28007479224216619 0 0.33743581475864359 -0.28536266187014298 0 0.3388307833371127 -0.27886836189579028 0 0.33743581475864359 -0.28536266187014298 0 0.33163278235650262 -0.31237877804800812 0 0.33743581475864359 -0.28536266187014298 0 0.33163278235650262 -0.31237877804800812 0 0.34308905326158867 -0.30070827197480321 0 0.33743581475864359 -0.28536266187014298 0 0.33163278235650262 -0.31237877804800812 0 0.32364365619397351 -0.29600562892690968 0 0.33163278235650262 -0.31237877804800812 0 0.32364365619397351 -0.29600562892690968 0 0.30954970221622308 -0.30462347215273478 0 0.31296692944630888 -0.29314018565426941 0 0.32364365619397351 -0.29600562892690968 0 0.30954970221622308 -0.30462347215273478 0 0.31296692944630888 -0.29314018565426941 0 0.32364365619397351 -0.29600562892690968 0 0.31569414790308259 -0.28159305760617132 0 0.33743581475864359 -0.28536266187014298 0 0.32364365619397351 -0.29600562892690968 0 0.31569414790308259 -0.28159305760617132 0 0.33743581475864359 -0.28536266187014298 0 0.31569414790308259 -0.28159305760617132 0 0.33743581475864359 -0.28536266187014298 0 0.31569414790308259 -0.28159305760617132 0 0.32852563272885182 -0.27784073863383552 0 0.31569414790308259 -0.28159305760617132 0 0.31275786215232049 -0.27168837282467972 0 0.32066228436037369 -0.27402337931129878 0 0.31275786215232049 -0.27168837282467972 0 0.32001527731196461 -0.26686042829596718 0 0.31054181011664339 -0.26140137874582919 0 0.31275786215232049 -0.27168837282467972 0 0.32001527731196461 -0.26686042829596718 0 0.32066228436037369 -0.27402337931129878 0 0.32001527731196461 -0.26686042829596718 0 0.32631850170564902 -0.27213429919584042 0 0.32066228436037369 -0.27402337931129878 0 0.32001527731196461 -0.26686042829596718 0 0.32631850170564902 -0.27213429919584042 0 0.32861545200372733 -0.26431566092564712 0 0.32631850170564902 -0.27213429919584042 0 0.32066228436037369 -0.27402337931129878 0 0.32852563272885182 -0.27784073863383552 0 0.31569414790308259 -0.28159305760617132 0 0.32066228436037369 -0.27402337931129878 0 0.32852563272885182 -0.27784073863383552 0 0.30517917142926537 -0.24716040808135001 0 0.322544075342931 -0.25649048942400782 0 0.31054181011664339 -0.26140137874582919 0 0.32001527731196461 -0.26686042829596718 0 0.322544075342931 -0.25649048942400782 0 0.31054181011664339 -0.26140137874582919 0 0.32001527731196461 -0.26686042829596718 0 0.322544075342931 -0.25649048942400782 0 0.32861545200372733 -0.26431566092564712 0 0.322544075342931 -0.25649048942400782 0 0.32861545200372733 -0.26431566092564712 0 0.33700232267718733 -0.25494009872172468 0 0.32861545200372733 -0.26431566092564712 0 0.33700232267718733 -0.25494009872172468 0 0.3370936559567923 -0.26597622971595652 0 0.33700232267718733 -0.25494009872172468 0 0.3370936559567923 -0.26597622971595652 0 0.34612034525793539 -0.26165354425485998 0 0.32852563272885182 -0.27784073863383552 0 0.33374486488877292 -0.2728357791174113 0 0.3388307833371127 -0.27886836189579028 0 0.33743581475864359 -0.28536266187014298 0 0.32852563272885182 -0.27784073863383552 0 0.3388307833371127 -0.27886836189579028 0 0.32631850170564902 -0.27213429919584042 0 0.32852563272885182 -0.27784073863383552 0 0.33374486488877292 -0.2728357791174113 0 0.32631850170564902 -0.27213429919584042 0 0.32861545200372733 -0.26431566092564712 0 0.33374486488877292 -0.2728357791174113 0 0.32861545200372733 -0.26431566092564712 0 0.33374486488877292 -0.2728357791174113 0 0.3370936559567923 -0.26597622971595652 0 0.34349817463331772 -0.27223575233246988 0 0.3370936559567923 -0.26597622971595652 0 0.34612034525793539 -0.26165354425485998 0 0.33374486488877292 -0.2728357791174113 0 0.34349817463331772 -0.27223575233246988 0 0.3370936559567923 -0.26597622971595652 0 0.33374486488877292 -0.2728357791174113 0 0.34349817463331772 -0.27223575233246988 0 0.3388307833371127 -0.27886836189579028 0 0.34349817463331772 -0.27223575233246988 0 0.3388307833371127 -0.27886836189579028 0 0.34706744656536048 -0.28007479224216619 0 0.34349817463331772 -0.27223575233246988 0 0.34706744656536048 -0.28007479224216619 0 0.35711558672006172 -0.27354793744083078 0 0.34349817463331772 -0.27223575233246988 0 0.35711558672006172 -0.27354793744083078 0 0.34612034525793539 -0.26165354425485998 0 0.34706744656536048 -0.28007479224216619 0 0.35711558672006172 -0.27354793744083078 0 0.35357832102308678 -0.28816147489813743 0 0.35007299243335749 -0.24785688602667111 0 0.33700232267718733 -0.25494009872172468 0 0.34612034525793539 -0.26165354425485998 0 0.35711558672006172 -0.27354793744083078 0 0.34612034525793539 -0.26165354425485998 0 0.36124693131331159 -0.25807728632712912 0 0.35007299243335749 -0.24785688602667111 0 0.34612034525793539 -0.26165354425485998 0 0.36124693131331159 -0.25807728632712912 0 0.37764450162479901 -0.26965755496232408 0 0.37510228513818711 -0.25237727586059511 0 0.36124693131331159 -0.25807728632712912 0 0.36225179838031341 -0.2439392928582107 0 0.37510228513818711 -0.25237727586059511 0 0.36124693131331159 -0.25807728632712912 0 0.37764450162479901 -0.26965755496232408 0 0.35711558672006172 -0.27354793744083078 0 0.36124693131331159 -0.25807728632712912 0 0.37764450162479901 -0.26965755496232408 0 0.35711558672006172 -0.27354793744083078 0 0.36873774536035581 -0.28861226174546889 0 0.36873774536035581 -0.28861226174546889 0 0.35357832102308678 -0.28816147489813743 0 0.36087634202934032 -0.30211297570133377 0 0.35711558672006172 -0.27354793744083078 0 0.36873774536035581 -0.28861226174546889 0 0.35357832102308678 -0.28816147489813743 0 0.33743581475864359 -0.28536266187014298 0 0.35357832102308678 -0.28816147489813743 0 0.33743581475864359 -0.28536266187014298 0 0.34706744656536048 -0.28007479224216619 0 0.35357832102308678 -0.28816147489813743 0 0.33743581475864359 -0.28536266187014298 0 0.34308905326158867 -0.30070827197480321 0 0.35357832102308678 -0.28816147489813743 0 0.34308905326158867 -0.30070827197480321 0 0.36087634202934032 -0.30211297570133377 0 0.3603589122919777 -0.32616465434179109 0 0.34308905326158867 -0.30070827197480321 0 0.35357832102308678 -0.28816147489813743 0 0.36087634202934032 -0.30211297570133377 0 0.37861767820969228 -0.30691821554646831 0 0.36873774536035581 -0.28861226174546889 0 0.36087634202934032 -0.30211297570133377 0 0.37861767820969228 -0.30691821554646831 0 0.36087634202934032 -0.30211297570133377 0 0.3603589122919777 -0.32616465434179109 0 0.37858644206980091 -0.32769985780377792 0 0.37861767820969228 -0.30691821554646831 0 0.3603589122919777 -0.32616465434179109 0 0.37858644206980091 -0.32769985780377792 0 0.3603589122919777 -0.32616465434179109 0 0.36805061276354478 -0.3427907498460791 0 0.3603589122919777 -0.32616465434179109 0 0.34679726984937148 -0.35193202586079081 0 0.3603589122919777 -0.32616465434179109 0 0.34679726984937148 -0.35193202586079081 0 0.3423644242317993 -0.33453707324987059 0 0.3603589122919777 -0.32616465434179109 0 0.36805061276354478 -0.3427907498460791 0 0.34679726984937148 -0.35193202586079081 0 0.33163278235650262 -0.31237877804800812 0 0.34308905326158867 -0.30070827197480321 0 0.3603589122919777 -0.32616465434179109 0 0.33163278235650262 -0.31237877804800812 0 0.3603589122919777 -0.32616465434179109 0 0.3423644242317993 -0.33453707324987059 0 0.37640125955739012 -0.35149107478397351 0 0.38081427771294768 -0.36737052156009248 0 0.36600013168445039 -0.36059477107615401 0 0.36848073339739068 -0.37517807712711049 0 0.36600013168445039 -0.36059477107615401 0 0.3554566368260581 -0.37480617727887811 0 0.38081427771294768 -0.36737052156009248 0 0.36848073339739068 -0.37517807712711049 0 0.36600013168445039 -0.36059477107615401 0 0.36805061276354478 -0.3427907498460791 0 0.36600013168445039 -0.36059477107615401 0 0.34679726984937148 -0.35193202586079081 0 0.37640125955739012 -0.35149107478397351 0 0.36805061276354478 -0.3427907498460791 0 0.36600013168445039 -0.36059477107615401 0 0.36600013168445039 -0.36059477107615401 0 0.34679726984937148 -0.35193202586079081 0 0.3554566368260581 -0.37480617727887811 0 0.34679726984937148 -0.35193202586079081 0 0.34537995690420659 -0.3737828605913362 0 0.3554566368260581 -0.37480617727887811 0 0.33323562740676532 -0.37769939737979058 0 0.33171275220581908 -0.35441984147836231 0 0.32002671755222051 -0.36641101040373808 0 0.33323562740676532 -0.37769939737979058 0 0.34679726984937148 -0.35193202586079081 0 0.33323562740676532 -0.37769939737979058 0 0.34679726984937148 -0.35193202586079081 0 0.34537995690420659 -0.3737828605913362 0 0.33323562740676532 -0.37769939737979058 0 0.34679726984937148 -0.35193202586079081 0 0.33171275220581908 -0.35441984147836231 0 0.34679726984937148 -0.35193202586079081 0 0.33171275220581908 -0.35441984147836231 0 0.3423644242317993 -0.33453707324987059 0 0.33171275220581908 -0.35441984147836231 0 0.32002671755222051 -0.36641101040373808 0 0.32582974995436148 -0.33939489422587321 0 0.32002671755222051 -0.36641101040373808 0 0.32582974995436148 -0.33939489422587321 0 0.31500009593534162 -0.35119999692538878 0 0.32002671755222051 -0.36641101040373808 0 0.32582974995436148 -0.33939489422587321 0 0.33163278235650262 -0.31237877804800812 0 0.32582974995436148 -0.33939489422587321 0 0.33163278235650262 -0.31237877804800812 0 0.3423644242317993 -0.33453707324987059 0 0.32582974995436148 -0.33939489422587321 0 0.33171275220581908 -0.35441984147836231 0 0.3423644242317993 -0.33453707324987059 0 0.32582974995436148 -0.33939489422587321 0 0.31500009593534162 -0.35119999692538878 0 0.32582974995436148 -0.33939489422587321 0 0.31041762281754448 -0.32833073988017608 0 0.33163278235650262 -0.31237877804800812 0 0.32582974995436148 -0.33939489422587321 0 0.31041762281754448 -0.32833073988017608 0 0.33163278235650262 -0.31237877804800812 0 0.31041762281754448 -0.32833073988017608 0 0.30954970221622308 -0.30462347215273478 0 0.31041762281754448 -0.32833073988017608 0 0.29592063247569211 -0.31558436997640987 0 0.30954970221622308 -0.30462347215273478 0 0.31041762281754448 -0.32833073988017608 0 0.29132656616613523 -0.33188180257029998 0 0.29592063247569211 -0.31558436997640987 0 0.31041762281754448 -0.32833073988017608 0 0.29132656616613523 -0.33188180257029998 0 0.29956578362214281 -0.35549229926055048 0 0.31041762281754448 -0.32833073988017608 0 0.29956578362214281 -0.35549229926055048 0 0.29132656616613523 -0.33188180257029998 0 0.28219501787468609 -0.34702129220438421 0 0.27282035448602859 -0.33554085100614839 0 0.29132656616613523 -0.33188180257029998 0 0.29592063247569211 -0.31558436997640987 0 0.27986439667319313 -0.31630171845149863 0 0.29132656616613523 -0.33188180257029998 0 0.27986439667319313 -0.31630171845149863 0 0.27282035448602859 -0.33554085100614839 0 0.30591552541026101 -0.37751124227982003 0 0.28871394442674109 -0.38265385864092483 0 0.29956578362214281 -0.35549229926055048 0 0.30591552541026101 -0.37751124227982003 0 0.32002671755222051 -0.36641101040373808 0 0.29956578362214281 -0.35549229926055048 0 0.31500009593534162 -0.35119999692538878 0 0.32002671755222051 -0.36641101040373808 0 0.29956578362214281 -0.35549229926055048 0 0.31500009593534162 -0.35119999692538878 0 0.31041762281754448 -0.32833073988017608 0 0.29956578362214281 -0.35549229926055048 0 0.29956578362214281 -0.35549229926055048 0 0.28219501787468609 -0.34702129220438421 0 0.27571190406721402 -0.36345127203525351 0 0.29132656616613523 -0.33188180257029998 0 0.29956578362214281 -0.35549229926055048 0 0.28219501787468609 -0.34702129220438421 0 0.28871394442674109 -0.38265385864092483 0 0.29956578362214281 -0.35549229926055048 0 0.27571190406721402 -0.36345127203525351 0 0.28871394442674109 -0.38265385864092483 0 0.29956578362214281 -0.35549229926055048 0 0.28219501787468609 -0.34702129220438421 0 0.27571190406721402 -0.36345127203525351 0 0.2669677564247489 -0.35003134695070198 0 0.28219501787468609 -0.34702129220438421 0 0.2669677564247489 -0.35003134695070198 0 0.27282035448602859 -0.33554085100614839 0 0.2669677564247489 -0.35003134695070198 0 0.2543981425525324 -0.33893914275967452 0 0.24971336314328341 -0.36520417674804972 0 0.2543981425525324 -0.33893914275967452 0 0.24971336314328341 -0.36520417674804972 0 0.26416245427686541 -0.38049931320234009 0 0.27571190406721402 -0.36345127203525351 0 0.24971336314328341 -0.36520417674804972 0 0.27571190406721402 -0.36345127203525351 0 0.2669677564247489 -0.35003134695070198 0 0.24971336314328341 -0.36520417674804972 0 0.27986439667319313 -0.31630171845149863 0 0.27282035448602859 -0.33554085100614839 0 0.27986439667319313 -0.31630171845149863 0 0.27282035448602859 -0.33554085100614839 0 0.2590829219617814 -0.31267410877129931 0 0.2669677564247489 -0.35003134695070198 0 0.27282035448602859 -0.33554085100614839 0 0.2543981425525324 -0.33893914275967452 0 0.27282035448602859 -0.33554085100614839 0 0.2543981425525324 -0.33893914275967452 0 0.2590829219617814 -0.31267410877129931 0 0.2543981425525324 -0.33893914275967452 0 0.2590829219617814 -0.31267410877129931 0 0.24087195768162309 -0.32614810142562012 0 0.2543981425525324 -0.33893914275967452 0 0.2590829219617814 -0.31267410877129931 0 0.2590829219617814 -0.31267410877129931 0 0.26376770137103039 -0.2864090747829241 0 0.27385105082646688 -0.29718155094811333 0 0.2590829219617814 -0.31267410877129931 0 0.26376770137103039 -0.2864090747829241 0 0.24821325608307901 -0.29522124281265988 0 0.2590829219617814 -0.31267410877129931 0 0.26376770137103039 -0.2864090747829241 0 0.26376770137103039 -0.2864090747829241 0 0.24785603391849151 -0.27709942466880599 0 0.24821325608307901 -0.29522124281265988 0 0.26376770137103039 -0.2864090747829241 0 0.27275834958840189 -0.28372268528309152 0 0.2724225943816766 -0.27409056785933389 0 0.26376770137103039 -0.2864090747829241 0 0.27275834958840189 -0.28372268528309152 0 0.27385105082646688 -0.29718155094811333 0 0.28072449650403741 -0.28691913250301798 0 0.27385105082646688 -0.29718155094811333 0 0.2869084388603575 -0.29706258589684881 0 0.27275834958840189 -0.28372268528309152 0 0.28072449650403741 -0.28691913250301798 0 0.27385105082646688 -0.29718155094811333 0 0.27275834958840189 -0.28372268528309152 0 0.28072449650403741 -0.28691913250301798 0 0.27996448038040939 -0.28063895974691061 0 0.27986439667319313 -0.31630171845149863 0 0.2590829219617814 -0.31267410877129931 0 0.27385105082646688 -0.29718155094811333 0 0.27986439667319313 -0.31630171845149863 0 0.27385105082646688 -0.29718155094811333 0 0.2869084388603575 -0.29706258589684881 0 0.27986439667319313 -0.31630171845149863 0 0.2869084388603575 -0.29706258589684881 0 0.29592063247569211 -0.31558436997640987 0 0.27986439667319313 -0.31630171845149863 0 0.2869084388603575 -0.29706258589684881 0 0.2869084388603575 -0.29706258589684881 0 0.30298021147195658 -0.29033858393126172 0 0.29395248104752192 -0.27782345334219888 0 0.28072449650403741 -0.28691913250301798 0 0.2869084388603575 -0.29706258589684881 0 0.29395248104752192 -0.27782345334219888 0 0.2869084388603575 -0.29706258589684881 0 0.29395248104752192 -0.27782345334219888 0 0.28072449650403741 -0.28691913250301798 0 0.29395248104752192 -0.27782345334219888 0 0.27996448038040939 -0.28063895974691061 0 0.31569414790308259 -0.28159305760617132 0 0.30298021147195658 -0.29033858393126172 0 0.29395248104752192 -0.27782345334219888 0 0.31296692944630888 -0.29314018565426941 0 0.31569414790308259 -0.28159305760617132 0 0.30298021147195658 -0.29033858393126172 0 0.31296692944630888 -0.29314018565426941 0 0.30298021147195658 -0.29033858393126172 0 0.30954970221622308 -0.30462347215273478 0 0.2869084388603575 -0.29706258589684881 0 0.30298021147195658 -0.29033858393126172 0 0.30954970221622308 -0.30462347215273478 0 0.29592063247569211 -0.31558436997640987 0 0.2869084388603575 -0.29706258589684881 0 0.30954970221622308 -0.30462347215273478 0 0.30517917142926537 -0.24716040808135001 0 0.31054181011664339 -0.26140137874582919 0 0.2976408850071105 -0.26774945168120262 0 0.30517917142926537 -0.24716040808135001 0 0.2976408850071105 -0.26774945168120262 0 0.31275786215232049 -0.27168837282467972 0 0.2976408850071105 -0.26774945168120262 0 0.29395248104752192 -0.27782345334219888 0 0.31275786215232049 -0.27168837282467972 0 0.2976408850071105 -0.26774945168120262 0 0.31275786215232049 -0.27168837282467972 0 0.31054181011664339 -0.26140137874582919 0 0.2976408850071105 -0.26774945168120262 0 0.31569414790308259 -0.28159305760617132 0 0.29395248104752192 -0.27782345334219888 0 0.31569414790308259 -0.28159305760617132 0 0.31275786215232049 -0.27168837282467972 0 0.29395248104752192 -0.27782345334219888 0 0.2976408850071105 -0.26774945168120262 0 0.28600938745522969 -0.26471871668720698 0 0.2976408850071105 -0.26774945168120262 0 0.29395248104752192 -0.27782345334219888 0 0.29395248104752192 -0.27782345334219888 0 0.27996448038040939 -0.28063895974691061 0 0.2724225943816766 -0.27409056785933389 0 0.29395248104752192 -0.27782345334219888 0 0.28600938745522969 -0.26471871668720698 0 0.27658132089261911 -0.27335422882897692 0 0.2976408850071105 -0.26774945168120262 0 0.29395248104752192 -0.27782345334219888 0 0.28600938745522969 -0.26471871668720698 0 0.29395248104752192 -0.27782345334219888 0 0.2724225943816766 -0.27409056785933389 0 0.28600938745522969 -0.26471871668720698 0 0.27658132089261911 -0.27335422882897692 0 0.30517917142926537 -0.24716040808135001 0 0.28600938745522969 -0.26471871668720698 0 0.30517917142926537 -0.24716040808135001 0 0.2976408850071105 -0.26774945168120262 0 0.28600938745522969 -0.26471871668720698 0 0.30517917142926537 -0.24716040808135001 0 0.28765229627979871 -0.24304032400626949 0 0.28600938745522969 -0.26471871668720698 0 0.28600938745522969 -0.26471871668720698 0 0.26845248078028039 -0.26014404079454911 0 0.28765229627979871 -0.24304032400626949 0 0.28600938745522969 -0.26471871668720698 0 0.26845248078028039 -0.26014404079454911 0 0.26376770137103039 -0.2864090747829241 0 0.26845248078028039 -0.26014404079454911 0 0.2724225943816766 -0.27409056785933389 0 0.28600938745522969 -0.26471871668720698 0 0.26845248078028039 -0.26014404079454911 0 0.27658132089261911 -0.27335422882897692 0 0.26376770137103039 -0.2864090747829241 0 0.26845248078028039 -0.26014404079454911 0 0.29395248104752192 -0.27782345334219888 0 0.27658132089261911 -0.27335422882897692 0 0.2724225943816766 -0.27409056785933389 0 0.27275834958840189 -0.28372268528309152 0 0.27996448038040939 -0.28063895974691061 0 0.2724225943816766 -0.27409056785933389 0 0.26845248078028039 -0.26014404079454911 0 0.27658132089261911 -0.27335422882897692 0 0.2724225943816766 -0.27409056785933389 0 0.26376770137103039 -0.2864090747829241 0 0.26845248078028039 -0.26014404079454911 0 0.24785603391849151 -0.27709942466880599 0 0.26845248078028039 -0.26014404079454911 0 0.2410490216361528 -0.25300372010805161 0 0.26845248078028039 -0.26014404079454911 0 0.2410490216361528 -0.25300372010805161 0 0.24785603391849151 -0.27709942466880599 0 0.25787859859726192 -0.24372773219337371 0 0.26845248078028039 -0.26014404079454911 0 0.2410490216361528 -0.25300372010805161 0 0.2410490216361528 -0.25300372010805161 0 0.24785603391849151 -0.27709942466880599 0 0.23139485578507429 -0.27647983237136509 0 0.23139485578507429 -0.27647983237136509 0 0.2171028506536257 -0.26700629366950379 0 0.21674952071488601 -0.28686299221921707 0 0.2410490216361528 -0.25300372010805161 0 0.23139485578507429 -0.27647983237136509 0 0.2171028506536257 -0.26700629366950379 0 0.2410490216361528 -0.25300372010805161 0 0.2171028506536257 -0.26700629366950379 0 0.2136455624920251 -0.24586339942155419 0 0.2171028506536257 -0.26700629366950379 0 0.1960217485778272 -0.26205501631648559 0 0.2136455624920251 -0.24586339942155419 0 0.2171028506536257 -0.26700629366950379 0 0.2037572178097509 -0.27803645254629672 0 0.1960217485778272 -0.26205501631648559 0 0.2171028506536257 -0.26700629366950379 0 0.2037572178097509 -0.27803645254629672 0 0.21674952071488601 -0.28686299221921707 0 0.2037572178097509 -0.27803645254629672 0 0.1960217485778272 -0.26205501631648559 0 0.18672217274589489 -0.28463667424064248 0 0.1960217485778272 -0.26205501631648559 0 0.2136455624920251 -0.24586339942155419 0 0.1970165427207646 -0.2431475676051908 0 0.1960217485778272 -0.26205501631648559 0 0.1970165427207646 -0.2431475676051908 0 0.18013525364959199 -0.24590787480667409 0 0.19163287831415901 -0.30538761534618902 0 0.20219697373587131 -0.29192032270869461 0 0.2153952098199983 -0.30425933719731207 0 0.2037572178097509 -0.27803645254629672 0 0.20219697373587131 -0.29192032270869461 0 0.18672217274589489 -0.28463667424064248 0 0.19163287831415901 -0.30538761534618902 0 0.20219697373587131 -0.29192032270869461 0 0.18672217274589489 -0.28463667424064248 0 0.20219697373587131 -0.29192032270869461 0 0.21674952071488601 -0.28686299221921707 0 0.2153952098199983 -0.30425933719731207 0 0.2037572178097509 -0.27803645254629672 0 0.20219697373587131 -0.29192032270869461 0 0.21674952071488601 -0.28686299221921707 0 0.19163287831415901 -0.30538761534618902 0 0.2153952098199983 -0.30425933719731207 0 0.20381788977078771 -0.32236963909420019 0 0.2153952098199983 -0.30425933719731207 0 0.2333373149176502 -0.29099433783704243 0 0.2370223082464416 -0.30892926800322767 0 0.2153952098199983 -0.30425933719731207 0 0.2370223082464416 -0.30892926800322767 0 0.22300958304019269 -0.32335118517261402 0 0.21674952071488601 -0.28686299221921707 0 0.2153952098199983 -0.30425933719731207 0 0.2333373149176502 -0.29099433783704243 0 0.23139485578507429 -0.27647983237136509 0 0.21674952071488601 -0.28686299221921707 0 0.2333373149176502 -0.29099433783704243 0 0.24785603391849151 -0.27709942466880599 0 0.2333373149176502 -0.29099433783704243 0 0.24821325608307901 -0.29522124281265988 0 0.24785603391849151 -0.27709942466880599 0 0.23139485578507429 -0.27647983237136509 0 0.2333373149176502 -0.29099433783704243 0 0.2333373149176502 -0.29099433783704243 0 0.24821325608307901 -0.29522124281265988 0 0.2370223082464416 -0.30892926800322767 0 0.2590829219617814 -0.31267410877129931 0 0.24821325608307901 -0.29522124281265988 0 0.2370223082464416 -0.30892926800322767 0 0.2590829219617814 -0.31267410877129931 0 0.2370223082464416 -0.30892926800322767 0 0.24087195768162309 -0.32614810142562012 0 0.2543981425525324 -0.33893914275967452 0 0.24087195768162309 -0.32614810142562012 0 0.2308468326071676 -0.34684680242128502 0 0.24087195768162309 -0.32614810142562012 0 0.22300958304019269 -0.32335118517261402 0 0.2308468326071676 -0.34684680242128502 0 0.22300958304019269 -0.32335118517261402 0 0.2308468326071676 -0.34684680242128502 0 0.21275128108028149 -0.33749920242868869 0 0.2370223082464416 -0.30892926800322767 0 0.24087195768162309 -0.32614810142562012 0 0.22300958304019269 -0.32335118517261402 0 0.24971336314328341 -0.36520417674804972 0 0.2308468326071676 -0.34684680242128502 0 0.229200177642885 -0.36995291413531828 0 0.2543981425525324 -0.33893914275967452 0 0.24971336314328341 -0.36520417674804972 0 0.2308468326071676 -0.34684680242128502 0 0.229200177642885 -0.36995291413531828 0 0.20725651587090471 -0.36571099534901208 0 0.22031030243082139 -0.38906492162812378 0 0.2308468326071676 -0.34684680242128502 0 0.229200177642885 -0.36995291413531828 0 0.20725651587090471 -0.36571099534901208 0 0.2308468326071676 -0.34684680242128502 0 0.20725651587090471 -0.36571099534901208 0 0.21275128108028149 -0.33749920242868869 0 0.20725651587090471 -0.36571099534901208 0 0.21275128108028149 -0.33749920242868869 0 0.194202729310988 -0.34235706906990038 0 0.20725651587090471 -0.36571099534901208 0 0.194202729310988 -0.34235706906990038 0 0.180238718969634 -0.3612454971324468 0 0.20725651587090471 -0.36571099534901208 0 0.194202729310988 -0.34235706906990038 0 0.20725651587090471 -0.36571099534901208 0 0.19261827162763251 -0.374541644607297 0 0.180238718969634 -0.3612454971324468 0 0.22300958304019269 -0.32335118517261402 0 0.20381788977078771 -0.32236963909420019 0 0.21275128108028149 -0.33749920242868869 0 0.2153952098199983 -0.30425933719731207 0 0.22300958304019269 -0.32335118517261402 0 0.20381788977078771 -0.32236963909420019 0 0.20381788977078771 -0.32236963909420019 0 0.21275128108028149 -0.33749920242868869 0 0.194202729310988 -0.34235706906990038 0 0.20381788977078771 -0.32236963909420019 0 0.194202729310988 -0.34235706906990038 0 0.18384400034678741 -0.32250280289756078 0 0.19163287831415901 -0.30538761534618902 0 0.20381788977078771 -0.32236963909420019 0 0.18384400034678741 -0.32250280289756078 0 0.18384400034678741 -0.32250280289756078 0 0.17702055828029431 -0.33666004199980942 0 0.15719449589681389 -0.32866913917705798 0 0.194202729310988 -0.34235706906990038 0 0.18384400034678741 -0.32250280289756078 0 0.17702055828029431 -0.33666004199980942 0 0.15719449589681389 -0.32866913917705798 0 0.16581699513551909 -0.35306125248096398 0 0.17702055828029431 -0.33666004199980942 0 0.15719449589681389 -0.32866913917705798 0 0.16581699513551909 -0.35306125248096398 0 0.18384400034678741 -0.32250280289756078 0 0.15719449589681389 -0.32866913917705798 0 0.17186855286937899 -0.30453082832045192 0 0.180238718969634 -0.3612454971324468 0 0.1834568796589737 -0.38583095226508418 0 0.17443949437422429 -0.37745336578486988 0 0.180238718969634 -0.3612454971324468 0 0.16581699513551909 -0.35306125248096398 0 0.17443949437422429 -0.37745336578486988 0 0.180238718969634 -0.3612454971324468 0 0.1834568796589737 -0.38583095226508418 0 0.19261827162763251 -0.374541644607297 0 0.180238718969634 -0.3612454971324468 0 0.1834568796589737 -0.38583095226508418 0 0.17702055828029431 -0.33666004199980942 0 0.180238718969634 -0.3612454971324468 0 0.16581699513551909 -0.35306125248096398 0 0.17702055828029431 -0.33666004199980942 0 0.180238718969634 -0.3612454971324468 0 0.194202729310988 -0.34235706906990038 0 0.17702055828029431 -0.33666004199980942 0 0.180238718969634 -0.3612454971324468 0 0.16581699513551909 -0.35306125248096398 0 0.1602354860011011 -0.36875954027416918 0 0.14952990885070691 -0.36034775620209553 0 0.16581699513551909 -0.35306125248096398 0 0.17443949437422429 -0.37745336578486988 0 0.16581699513551909 -0.35306125248096398 0 0.1602354860011011 -0.36875954027416918 0 0.17443949437422429 -0.37745336578486988 0 0.1602354860011011 -0.36875954027416918 0 0.14673951295096799 -0.37363029079717242 0 0.14952990885070691 -0.36034775620209553 0 0.16581699513551909 -0.35306125248096398 0 0.14952990885070691 -0.36034775620209553 0 0.144826286403443 -0.34676284914488159 0 0.14952990885070691 -0.36034775620209553 0 0.144826286403443 -0.34676284914488159 0 0.12334710111447229 -0.36406834251145731 0 0.144826286403443 -0.34676284914488159 0 0.12334710111447229 -0.36406834251145731 0 0.144826286403443 -0.34676284914488159 0 0.12334710111447229 -0.36406834251145731 0 0.11573058637367541 -0.34380091622275832 0 0.13273239812562251 -0.3803535413873157 0 0.1208593498238435 -0.38006314209191833 0 0.12334710111447229 -0.36406834251145731 0 0.14673951295096799 -0.37363029079717242 0 0.14952990885070691 -0.36034775620209553 0 0.12334710111447229 -0.36406834251145731 0 0.14673951295096799 -0.37363029079717242 0 0.13273239812562251 -0.3803535413873157 0 0.12334710111447229 -0.36406834251145731 0 0.15719449589681389 -0.32866913917705798 0 0.13978194378111039 -0.33004063130878142 0 0.14857199665810869 -0.30427702587315197 0 0.15719449589681389 -0.32866913917705798 0 0.14857199665810869 -0.30427702587315197 0 0.15719449589681389 -0.32866913917705798 0 0.144826286403443 -0.34676284914488159 0 0.13978194378111039 -0.33004063130878142 0 0.15719449589681389 -0.32866913917705798 0 0.16581699513551909 -0.35306125248096398 0 0.144826286403443 -0.34676284914488159 0 0.13978194378111039 -0.33004063130878142 0 0.1249111379911398 -0.32186001205002218 0 0.11573058637367541 -0.34380091622275832 0 0.144826286403443 -0.34676284914488159 0 0.13978194378111039 -0.33004063130878142 0 0.11573058637367541 -0.34380091622275832 0 0.13978194378111039 -0.33004063130878142 0 0.14857199665810869 -0.30427702587315197 0 0.1249111379911398 -0.32186001205002218 0 0.14857199665810869 -0.30427702587315197 0 0.13584279120622419 -0.29064916595208462 0 0.1212075847983899 -0.30357596212866123 0 0.14857199665810869 -0.30427702587315197 0 0.1212075847983899 -0.30357596212866123 0 0.1249111379911398 -0.32186001205002218 0 0.14857199665810869 -0.30427702587315197 0 0.14941647374314521 -0.28066083506566319 0 0.1659314811884508 -0.28303851802095531 0 0.14857199665810869 -0.30427702587315197 0 0.13584279120622419 -0.29064916595208462 0 0.14941647374314521 -0.28066083506566319 0 0.13554841089854469 -0.28148943716570812 0 0.13584279120622419 -0.29064916595208462 0 0.14941647374314521 -0.28066083506566319 0 0.13554841089854469 -0.28148943716570812 0 0.13584279120622419 -0.29064916595208462 0 0.1176113560141319 -0.2851589593963586 0 0.1376178273856396 -0.2676878026278281 0 0.13932302263067731 -0.26948878824872591 0 0.1176113560141319 -0.2851589593963586 0 0.13554841089854469 -0.28148943716570812 0 0.13932302263067731 -0.26948878824872591 0 0.1176113560141319 -0.2851589593963586 0 0.13932302263067731 -0.26948878824872591 0 0.1176113560141319 -0.2851589593963586 0 0.1376178273856396 -0.2676878026278281 0 0.1200034520355143 -0.24749468667538321 0 0.1376178273856396 -0.2676878026278281 0 0.1200034520355143 -0.24749468667538321 0 0.1412434604122122 -0.24631040783256791 0 0.1376178273856396 -0.2676878026278281 0 0.16103468924722281 -0.25381861710109321 0 0.1412434604122122 -0.24631040783256791 0 0.1376178273856396 -0.2676878026278281 0 0.13932302263067731 -0.26948878824872591 0 0.16103468924722281 -0.25381861710109321 0 0.13932302263067731 -0.26948878824872591 0 0.16103468924722281 -0.25381861710109321 0 0.13932302263067731 -0.26948878824872591 0 0.14941647374314521 -0.28066083506566319 0 0.16103468924722281 -0.25381861710109321 0 0.13554841089854469 -0.28148943716570812 0 0.13932302263067731 -0.26948878824872591 0 0.14941647374314521 -0.28066083506566319 0 0.14941647374314521 -0.28066083506566319 0 0.16103468924722281 -0.25381861710109321 0 0.1659314811884508 -0.28303851802095531 0 0.16103468924722281 -0.25381861710109321 0 0.1779690690817976 -0.26589134009717008 0 0.1659314811884508 -0.28303851802095531 0 0.16103468924722281 -0.25381861710109321 0 0.1779690690817976 -0.26589134009717008 0 0.18013525364959199 -0.24590787480667409 0 0.1960217485778272 -0.26205501631648559 0 0.1779690690817976 -0.26589134009717008 0 0.18013525364959199 -0.24590787480667409 0 0.1960217485778272 -0.26205501631648559 0 0.1779690690817976 -0.26589134009717008 0 0.18672217274589489 -0.28463667424064248 0 0.1779690690817976 -0.26589134009717008 0 0.18672217274589489 -0.28463667424064248 0 0.1659314811884508 -0.28303851802095531 0 0.18672217274589489 -0.28463667424064248 0 0.17186855286937899 -0.30453082832045192 0 0.1659314811884508 -0.28303851802095531 0 0.19163287831415901 -0.30538761534618902 0 0.18384400034678741 -0.32250280289756078 0 0.17186855286937899 -0.30453082832045192 0 0.19163287831415901 -0.30538761534618902 0 0.18672217274589489 -0.28463667424064248 0 0.17186855286937899 -0.30453082832045192 0 0.14857199665810869 -0.30427702587315197 0 0.17186855286937899 -0.30453082832045192 0 0.1659314811884508 -0.28303851802095531 0 0.15719449589681389 -0.32866913917705798 0 0.14857199665810869 -0.30427702587315197 0 0.17186855286937899 -0.30453082832045192 0 0.27004646425256568 -0.5 0 0.19840125792562099 -0.499999999999995 0 0.2258071254777905 -0.47806137695806639 0 0.19840125792562099 -0.499999999999995 0 0.1955652389629654 -0.47833395417678298 0 0.19840125792562099 -0.499999999999995 0 0.1955652389629654 -0.47833395417678298 0 0.1857239970351309 -0.48926605560099218 0 0.1955652389629654 -0.47833395417678298 0 0.2258071254777905 -0.47806137695806639 0 0.20496909670773639 -0.46039718082621561 0 0.19840125792562099 -0.499999999999995 0 0.1955652389629654 -0.47833395417678298 0 0.2258071254777905 -0.47806137695806639 0 0.2532296876789632 -0.47497352743918242 0 0.27004646425256568 -0.5 0 0.2258071254777905 -0.47806137695806639 0 0.2532296876789632 -0.47497352743918242 0 0.2258071254777905 -0.47806137695806639 0 0.23317765179809191 -0.45416130837427687 0 0.2258071254777905 -0.47806137695806639 0 0.23317765179809191 -0.45416130837427687 0 0.20496909670773639 -0.46039718082621561 0 0.23317765179809191 -0.45416130837427687 0 0.20496909670773639 -0.46039718082621561 0 0.26339579246569877 -0.46312143350125029 0 0.2532296876789632 -0.47497352743918242 0 0.23317765179809191 -0.45416130837427687 0 0.26138620688844749 -0.44792543592233808 0 0.2518592606704963 -0.43815060111373921 0 0.23317765179809191 -0.45416130837427687 0 0.26138620688844749 -0.44792543592233808 0 0.23317765179809191 -0.45416130837427687 0 0.2518592606704963 -0.43815060111373921 0 0.23317765179809191 -0.45416130837427687 0 0.24161391479158839 -0.43048581688246368 0 0.23317765179809191 -0.45416130837427687 0 0.21274467024756119 -0.44537306322652892 0 0.22596778666418391 -0.43195218695593612 0 0.23317765179809191 -0.45416130837427687 0 0.22596778666418391 -0.43195218695593612 0 0.24161391479158839 -0.43048581688246368 0 0.20738663592967541 -0.43977689630152639 0 0.21274467024756119 -0.44537306322652892 0 0.21231789143938981 -0.43260924517595267 0 0.20738663592967541 -0.43977689630152639 0 0.20306963394956029 -0.44528763306514119 0 0.2014143480821905 -0.43583764373848299 0 0.20738663592967541 -0.43977689630152639 0 0.21274467024756119 -0.44537306322652892 0 0.20306963394956029 -0.44528763306514119 0 0.21274467024756119 -0.44537306322652892 0 0.20306963394956029 -0.44528763306514119 0 0.20202636709778779 -0.45196992376671852 0 0.21274467024756119 -0.44537306322652892 0 0.20496909670773639 -0.46039718082621561 0 0.20202636709778779 -0.45196992376671852 0 0.23317765179809191 -0.45416130837427687 0 0.21274467024756119 -0.44537306322652892 0 0.20496909670773639 -0.46039718082621561 0 0.1955652389629654 -0.47833395417678298 0 0.20496909670773639 -0.46039718082621561 0 0.1927292200003092 -0.45666790835357102 0 0.1955652389629654 -0.47833395417678298 0 0.1927292200003092 -0.45666790835357102 0 0.1955652389629654 -0.47833395417678298 0 0.19047701204926121 -0.46094242075341862 0 0.1927292200003092 -0.45666790835357102 0 0.20496909670773639 -0.46039718082621561 0 0.1927292200003092 -0.45666790835357102 0 0.20202636709778779 -0.45196992376671852 0 0.19047701204926121 -0.46094242075341862 0 0.1927292200003092 -0.45666790835357102 0 0.1876592352144193 -0.45673372923780892 0 0.1927292200003092 -0.45666790835357102 0 0.1876592352144193 -0.45673372923780892 0 0.18777566972406101 -0.44981142861604279 0 0.1927292200003092 -0.45666790835357102 0 0.19595067699787469 -0.4453334870477933 0 0.18989320103765239 -0.43500186253035911 0 0.1927292200003092 -0.45666790835357102 0 0.18989320103765239 -0.43500186253035911 0 0.1927292200003092 -0.45666790835357102 0 0.18777566972406101 -0.44981142861604279 0 0.18989320103765239 -0.43500186253035911 0 0.19521760998379711 -0.43854214036159178 0 0.19595067699787469 -0.4453334870477933 0 0.1916906899727929 -0.43609695451772118 0 0.19595067699787469 -0.4453334870477933 0 0.1916906899727929 -0.43609695451772118 0 0.18989320103765239 -0.43500186253035911 0 0.19521760998379711 -0.43854214036159178 0 0.19821003569121751 -0.44088076654097252 0 0.19595067699787469 -0.4453334870477933 0 0.19821003569121751 -0.44088076654097252 0 0.20306963394956029 -0.44528763306514119 0 0.19595067699787469 -0.4453334870477933 0 0.19821003569121751 -0.44088076654097252 0 0.20306963394956029 -0.44528763306514119 0 0.2014143480821905 -0.43583764373848299 0 0.19521760998379711 -0.43854214036159178 0 0.19821003569121751 -0.44088076654097252 0 0.19632921389935129 -0.43529695882979857 0 0.20306963394956029 -0.44528763306514119 0 0.20202636709778779 -0.45196992376671852 0 0.19595067699787469 -0.4453334870477933 0 0.1927292200003092 -0.45666790835357102 0 0.20202636709778779 -0.45196992376671852 0 0.19595067699787469 -0.4453334870477933 0 0.18989320103765239 -0.43500186253035911 0 0.193210065479164 -0.42351508711829272 0 0.18667504034831339 -0.41041640739772162 0 0.18989320103765239 -0.43500186253035911 0 0.18667504034831339 -0.41041640739772162 0 0.1973860855611401 -0.42692030526330021 0 0.193210065479164 -0.42351508711829272 0 0.19846083006015189 -0.42045811652912207 0 0.1973860855611401 -0.42692030526330021 0 0.19846083006015189 -0.42045811652912207 0 0.20326441538295181 -0.42746054266679712 0 0.1973860855611401 -0.42692030526330021 0 0.19826447490927249 -0.43151164360587502 0 0.20326441538295181 -0.42746054266679712 0 0.2014143480821905 -0.43583764373848299 0 0.19826447490927249 -0.43151164360587502 0 0.20326441538295181 -0.42746054266679712 0 0.19821003569121751 -0.44088076654097252 0 0.2014143480821905 -0.43583764373848299 0 0.19632921389935129 -0.43529695882979857 0 0.2014143480821905 -0.43583764373848299 0 0.19632921389935129 -0.43529695882979857 0 0.19826447490927249 -0.43151164360587502 0 0.19632921389935129 -0.43529695882979857 0 0.19826447490927249 -0.43151164360587502 0 0.1929283116207289 -0.43204276753099607 0 0.1973860855611401 -0.42692030526330021 0 0.19826447490927249 -0.43151164360587502 0 0.1929283116207289 -0.43204276753099607 0 0.1929283116207289 -0.43204276753099607 0 0.18989320103765239 -0.43500186253035911 0 0.193210065479164 -0.42351508711829272 0 0.19521760998379711 -0.43854214036159178 0 0.19632921389935129 -0.43529695882979857 0 0.19377820557052011 -0.43520734882518619 0 0.19521760998379711 -0.43854214036159178 0 0.19377820557052011 -0.43520734882518619 0 0.1916906899727929 -0.43609695451772118 0 0.19632921389935129 -0.43529695882979857 0 0.1929283116207289 -0.43204276753099607 0 0.19377820557052011 -0.43520734882518619 0 0.1929283116207289 -0.43204276753099607 0 0.19210490899723079 -0.4345610298626873 0 0.18989320103765239 -0.43500186253035911 0 0.19377820557052011 -0.43520734882518619 0 0.19210490899723079 -0.4345610298626873 0 0.1916906899727929 -0.43609695451772118 0 0.1929283116207289 -0.43204276753099607 0 0.19377820557052011 -0.43520734882518619 0 0.19210490899723079 -0.4345610298626873 0 0.1916906899727929 -0.43609695451772118 0 0.18989320103765239 -0.43500186253035911 0 0.19210490899723079 -0.4345610298626873 0 0.1916906899727929 -0.43609695451772118 0 0.18989320103765239 -0.43500186253035911 0 0.1973860855611401 -0.42692030526330021 0 0.1929283116207289 -0.43204276753099607 0 0.193210065479164 -0.42351508711829272 0 0.193210065479164 -0.42351508711829272 0 0.1939169242469973 -0.41625106345825691 0 0.18667504034831339 -0.41041640739772162 0 0.193210065479164 -0.42351508711829272 0 0.1939169242469973 -0.41625106345825691 0 0.19846083006015189 -0.42045811652912207 0 0.1968341740193896 -0.41150644481021997 0 0.19418069224578771 -0.40518464808912641 0 0.18667504034831339 -0.41041640739772162 0 0.1939169242469973 -0.41625106345825691 0 0.1968341740193896 -0.41150644481021997 0 0.18667504034831339 -0.41041640739772162 0 0.1968341740193896 -0.41150644481021997 0 0.20469814770209749 -0.41520386531910081 0 0.20485234226760879 -0.40188257102108682 0 0.19846083006015189 -0.42045811652912207 0 0.20469814770209749 -0.41520386531910081 0 0.20326441538295181 -0.42746054266679712 0 0.1939169242469973 -0.41625106345825691 0 0.1968341740193896 -0.41150644481021997 0 0.19846083006015189 -0.42045811652912207 0 0.1968341740193896 -0.41150644481021997 0 0.19846083006015189 -0.42045811652912207 0 0.20469814770209749 -0.41520386531910081 0 0.20469814770209749 -0.41520386531910081 0 0.21626227209603979 -0.41615869782113413 0 0.20326441538295181 -0.42746054266679712 0 0.20469814770209749 -0.41520386531910081 0 0.21626227209603979 -0.41615869782113413 0 0.20485234226760879 -0.40188257102108682 0 0.21626227209603979 -0.41615869782113413 0 0.20326441538295181 -0.42746054266679712 0 0.21231789143938981 -0.43260924517595267 0 0.21626227209603979 -0.41615869782113413 0 0.21231789143938981 -0.43260924517595267 0 0.22596778666418391 -0.43195218695593612 0 0.20738663592967541 -0.43977689630152639 0 0.2014143480821905 -0.43583764373848299 0 0.21231789143938981 -0.43260924517595267 0 0.2014143480821905 -0.43583764373848299 0 0.20326441538295181 -0.42746054266679712 0 0.21231789143938981 -0.43260924517595267 0 0.21274467024756119 -0.44537306322652892 0 0.21231789143938981 -0.43260924517595267 0 0.22596778666418391 -0.43195218695593612 0 0.22596778666418391 -0.43195218695593612 0 0.24161391479158839 -0.43048581688246368 0 0.2333640889907381 -0.41241884790723538 0 0.25610826383841628 -0.42120346698794331 0 0.2518592606704963 -0.43815060111373921 0 0.24161391479158839 -0.43048581688246368 0 0.25610826383841628 -0.42120346698794331 0 0.24161391479158839 -0.43048581688246368 0 0.2333640889907381 -0.41241884790723538 0 0.21626227209603979 -0.41615869782113413 0 0.22596778666418391 -0.43195218695593612 0 0.2333640889907381 -0.41241884790723538 0 0.2333640889907381 -0.41241884790723538 0 0.24502858373403441 -0.39146921073642488 0 0.22031030243082139 -0.38906492162812378 0 0.21626227209603979 -0.41615869782113413 0 0.2333640889907381 -0.41241884790723538 0 0.22031030243082139 -0.38906492162812378 0 0.2333640889907381 -0.41241884790723538 0 0.22031030243082139 -0.38906492162812378 0 0.26125098829365018 -0.39969694482297641 0 0.2333640889907381 -0.41241884790723538 0 0.24502858373403441 -0.39146921073642488 0 0.24971336314328341 -0.36520417674804972 0 0.24502858373403441 -0.39146921073642488 0 0.24971336314328341 -0.36520417674804972 0 0.229200177642885 -0.36995291413531828 0 0.24502858373403441 -0.39146921073642488 0 0.229200177642885 -0.36995291413531828 0 0.24502858373403441 -0.39146921073642488 0 0.22031030243082139 -0.38906492162812378 0 0.20725651587090471 -0.36571099534901208 0 0.22031030243082139 -0.38906492162812378 0 0.19952097201101759 -0.38537913368264481 0 0.20725651587090471 -0.36571099534901208 0 0.22031030243082139 -0.38906492162812378 0 0.21626227209603979 -0.41615869782113413 0 0.22031030243082139 -0.38906492162812378 0 0.20485234226760879 -0.40188257102108682 0 0.22031030243082139 -0.38906492162812378 0 0.20485234226760879 -0.40188257102108682 0 0.19952097201101759 -0.38537913368264481 0 0.20485234226760879 -0.40188257102108682 0 0.19159455078491761 -0.39726910731705511 0 0.19952097201101759 -0.38537913368264481 0 0.1968341740193896 -0.41150644481021997 0 0.20485234226760879 -0.40188257102108682 0 0.19418069224578771 -0.40518464808912641 0 0.20485234226760879 -0.40188257102108682 0 0.19418069224578771 -0.40518464808912641 0 0.19159455078491761 -0.39726910731705511 0 0.19418069224578771 -0.40518464808912641 0 0.19159455078491761 -0.39726910731705511 0 0.18667504034831339 -0.41041640739772162 0 0.20725651587090471 -0.36571099534901208 0 0.19261827162763251 -0.374541644607297 0 0.19952097201101759 -0.38537913368264481 0 0.19261827162763251 -0.374541644607297 0 0.19952097201101759 -0.38537913368264481 0 0.1834568796589737 -0.38583095226508418 0 0.19159455078491761 -0.39726910731705511 0 0.19952097201101759 -0.38537913368264481 0 0.1834568796589737 -0.38583095226508418 0 0.17443949437422429 -0.37745336578486988 0 0.18306199361292941 -0.40184547908877583 0 0.1834568796589737 -0.38583095226508418 0 0.17443949437422429 -0.37745336578486988 0 0.18306199361292941 -0.40184547908877583 0 0.17443949437422429 -0.37745336578486988 0 0.18306199361292941 -0.40184547908877583 0 0.1699565165384864 -0.39219147373696051 0 0.19159455078491761 -0.39726910731705511 0 0.1834568796589737 -0.38583095226508418 0 0.18667504034831339 -0.41041640739772162 0 0.1834568796589737 -0.38583095226508418 0 0.18667504034831339 -0.41041640739772162 0 0.1834568796589737 -0.38583095226508418 0 0.18306199361292941 -0.40184547908877583 0 0.18667504034831339 -0.41041640739772162 0 0.18306199361292941 -0.40184547908877583 0 0.1699565165384864 -0.39219147373696051 0 0.17103987791038719 -0.40450309618882169 0 0.18306199361292941 -0.40184547908877583 0 0.17103987791038719 -0.40450309618882169 0 0.1814131781600461 -0.40758752999736902 0 0.1699565165384864 -0.39219147373696051 0 0.17103987791038719 -0.40450309618882169 0 0.15993177942481909 -0.39557864441750712 0 0.17103987791038719 -0.40450309618882169 0 0.15993177942481909 -0.39557864441750712 0 0.14638679418839309 -0.40849626541203388 0 0.1699565165384864 -0.39219147373696051 0 0.15993177942481909 -0.39557864441750712 0 0.1595700277473481 -0.38298567724053401 0 0.17443949437422429 -0.37745336578486988 0 0.1699565165384864 -0.39219147373696051 0 0.1595700277473481 -0.38298567724053401 0 0.1602354860011011 -0.36875954027416918 0 0.17443949437422429 -0.37745336578486988 0 0.1595700277473481 -0.38298567724053401 0 0.1602354860011011 -0.36875954027416918 0 0.14673951295096799 -0.37363029079717242 0 0.1595700277473481 -0.38298567724053401 0 0.14673951295096799 -0.37363029079717242 0 0.1595700277473481 -0.38298567724053401 0 0.14586341328622179 -0.39002728499933198 0 0.14673951295096799 -0.37363029079717242 0 0.14586341328622179 -0.39002728499933198 0 0.13273239812562251 -0.3803535413873157 0 0.15993177942481909 -0.39557864441750712 0 0.1595700277473481 -0.38298567724053401 0 0.14586341328622179 -0.39002728499933198 0 0.14586341328622179 -0.39002728499933198 0 0.13273239812562251 -0.3803535413873157 0 0.12412735500694751 -0.39493505064503392 0 0.13273239812562251 -0.3803535413873157 0 0.12412735500694751 -0.39493505064503392 0 0.1208593498238435 -0.38006314209191833 0 0.14586341328622179 -0.39002728499933198 0 0.14638679418839309 -0.40849626541203388 0 0.12412735500694751 -0.39493505064503392 0 0.14638679418839309 -0.40849626541203388 0 0.1185943653130178 -0.41089393958744808 0 0.12412735500694751 -0.39493505064503392 0 0.14638679418839309 -0.40849626541203388 0 0.12412735500694751 -0.39493505064503392 0 0.15993177942481909 -0.39557864441750712 0 0.14586341328622179 -0.39002728499933198 0 0.14638679418839309 -0.40849626541203388 0 0.14638679418839309 -0.40849626541203388 0 0.12945713117598301 -0.42527718494859718 0 0.1185943653130178 -0.41089393958744808 0 0.12945713117598301 -0.42527718494859718 0 0.1521605439778134 -0.43517333823265708 0 0.13567485458578729 -0.448289196286278 0 0.14638679418839309 -0.40849626541203388 0 0.12945713117598301 -0.42527718494859718 0 0.1521605439778134 -0.43517333823265708 0 0.14638679418839309 -0.40849626541203388 0 0.1521605439778134 -0.43517333823265708 0 0.16864623336983819 -0.42205748017903449 0 0.1521605439778134 -0.43517333823265708 0 0.16864623336983819 -0.42205748017903449 0 0.1521605439778134 -0.43517333823265708 0 0.16864623336983819 -0.42205748017903449 0 0.16573483381671769 -0.43911683261624462 0 0.16864623336983819 -0.42205748017903449 0 0.17670256027174869 -0.43608133600128551 0 0.16573483381671769 -0.43911683261624462 0 0.17103987791038719 -0.40450309618882169 0 0.14638679418839309 -0.40849626541203388 0 0.16962733287145829 -0.41306172809692981 0 0.14638679418839309 -0.40849626541203388 0 0.16864623336983819 -0.42205748017903449 0 0.14638679418839309 -0.40849626541203388 0 0.16864623336983819 -0.42205748017903449 0 0.16962733287145829 -0.41306172809692981 0 0.16864623336983819 -0.42205748017903449 0 0.17965678171287719 -0.41329759239238029 0 0.18989320103765239 -0.43500186253035911 0 0.17965678171287719 -0.41329759239238029 0 0.18667504034831339 -0.41041640739772162 0 0.16864623336983819 -0.42205748017903449 0 0.16962733287145829 -0.41306172809692981 0 0.17965678171287719 -0.41329759239238029 0 0.17103987791038719 -0.40450309618882169 0 0.16962733287145829 -0.41306172809692981 0 0.17965678171287719 -0.41329759239238029 0 0.17103987791038719 -0.40450309618882169 0 0.17965678171287719 -0.41329759239238029 0 0.1814131781600461 -0.40758752999736902 0 0.18306199361292941 -0.40184547908877583 0 0.1814131781600461 -0.40758752999736902 0 0.18667504034831339 -0.41041640739772162 0 0.17965678171287719 -0.41329759239238029 0 0.1814131781600461 -0.40758752999736902 0 0.18667504034831339 -0.41041640739772162 0 0.18989320103765239 -0.43500186253035911 0 0.16864623336983819 -0.42205748017903449 0 0.18989320103765239 -0.43500186253035911 0 0.16864623336983819 -0.42205748017903449 0 0.17965678171287719 -0.41329759239238029 0 0.18989320103765239 -0.43500186253035911 0 0.16864623336983819 -0.42205748017903449 0 0.17670256027174869 -0.43608133600128551 0 0.18989320103765239 -0.43500186253035911 0 0.17670256027174869 -0.43608133600128551 0 0.18208037526260021 -0.440172852945236 0 0.17851738694434799 -0.45081987712854771 0 0.17618275988476059 -0.44374183802639611 0 0.18401323307134959 -0.44581129240036288 0 0.17851738694434799 -0.45081987712854771 0 0.1776998484129505 -0.456552179461992 0 0.17120073938054131 -0.45123220200337888 0 0.17851738694434799 -0.45081987712854771 0 0.17618275988476059 -0.44374183802639611 0 0.17120073938054131 -0.45123220200337888 0 0.17670256027174869 -0.43608133600128551 0 0.17618275988476059 -0.44374183802639611 0 0.16573483381671769 -0.43911683261624462 0 0.17670256027174869 -0.43608133600128551 0 0.17618275988476059 -0.44374183802639611 0 0.18208037526260021 -0.440172852945236 0 0.18989320103765239 -0.43500186253035911 0 0.18208037526260021 -0.440172852945236 0 0.18401323307134959 -0.44581129240036288 0 0.18777566972406101 -0.44981142861604279 0 0.18989320103765239 -0.43500186253035911 0 0.18401323307134959 -0.44581129240036288 0 0.17618275988476059 -0.44374183802639611 0 0.18208037526260021 -0.440172852945236 0 0.18401323307134959 -0.44581129240036288 0 0.18777566972406101 -0.44981142861604279 0 0.18401323307134959 -0.44581129240036288 0 0.18385690407389799 -0.45446609953290928 0 0.17851738694434799 -0.45081987712854771 0 0.18401323307134959 -0.44581129240036288 0 0.18385690407389799 -0.45446609953290928 0 0.19047701204926121 -0.46094242075341862 0 0.1876592352144193 -0.45673372923780892 0 0.1806900259799068 -0.46227126151247672 0 0.1876592352144193 -0.45673372923780892 0 0.18777566972406101 -0.44981142861604279 0 0.18385690407389799 -0.45446609953290928 0 0.19047701204926121 -0.46094242075341862 0 0.1806900259799068 -0.46227126151247672 0 0.17298031468751371 -0.48047121037671059 0 0.1876592352144193 -0.45673372923780892 0 0.18385690407389799 -0.45446609953290928 0 0.1806900259799068 -0.46227126151247672 0 0.18385690407389799 -0.45446609953290928 0 0.1806900259799068 -0.46227126151247672 0 0.1776998484129505 -0.456552179461992 0 0.17851738694434799 -0.45081987712854771 0 0.18385690407389799 -0.45446609953290928 0 0.1776998484129505 -0.456552179461992 0 0.1806900259799068 -0.46227126151247672 0 0.1776998484129505 -0.456552179461992 0 0.17146684144139809 -0.46446192971202138 0 0.1776998484129505 -0.456552179461992 0 0.17146684144139809 -0.46446192971202138 0 0.17120073938054131 -0.45123220200337888 0 0.17146684144139809 -0.46446192971202138 0 0.15759213853868431 -0.45113306297151079 0 0.14900727366634989 -0.46501884712825781 0 0.17146684144139809 -0.46446192971202138 0 0.15759213853868431 -0.45113306297151079 0 0.17120073938054131 -0.45123220200337888 0 0.1521605439778134 -0.43517333823265708 0 0.15759213853868431 -0.45113306297151079 0 0.16573483381671769 -0.43911683261624462 0 0.15759213853868431 -0.45113306297151079 0 0.17120073938054131 -0.45123220200337888 0 0.16573483381671769 -0.43911683261624462 0 0.17618275988476059 -0.44374183802639611 0 0.17120073938054131 -0.45123220200337888 0 0.16573483381671769 -0.43911683261624462 0 0.1521605439778134 -0.43517333823265708 0 0.15759213853868431 -0.45113306297151079 0 0.13567485458578729 -0.448289196286278 0 0.1521605439778134 -0.43517333823265708 0 0.13567485458578729 -0.448289196286278 0 0.13567485458578729 -0.448289196286278 0 0.1191891651937612 -0.46140505433989892 0 0.12203304576274319 -0.43975504748265359 0 0.12945713117598301 -0.42527718494859718 0 0.13567485458578729 -0.448289196286278 0 0.12203304576274319 -0.43975504748265359 0 0.13567485458578729 -0.448289196286278 0 0.1191891651937612 -0.46140505433989892 0 0.13567485458578729 -0.448289196286278 0 0.13480127744719991 -0.46410976413563299 0 0.1191891651937612 -0.46140505433989892 0 0.13567485458578729 -0.448289196286278 0 0.13480127744719991 -0.46410976413563299 0 0.14900727366634989 -0.46501884712825781 0 0.15759213853868431 -0.45113306297151079 0 0.13567485458578729 -0.448289196286278 0 0.14900727366634989 -0.46501884712825781 0 0.14900727366634989 -0.46501884712825781 0 0.15577652408963519 -0.48266000469618581 0 0.13873200589539489 -0.47945912496791759 0 0.13480127744719991 -0.46410976413563299 0 0.14900727366634989 -0.46501884712825781 0 0.13873200589539489 -0.47945912496791759 0 0.13480127744719991 -0.46410976413563299 0 0.13873200589539489 -0.47945912496791759 0 0.11801755443736479 -0.48060781756800708 0 0.13873200589539489 -0.47945912496791759 0 0.13581988522262109 -0.50000000000000244 0 0.11801755443736479 -0.48060781756800708 0 0.13581988522262109 -0.50000000000000244 0 0.11801755443736479 -0.48060781756800708 0 0.15577652408963519 -0.48266000469618581 0 0.13873200589539489 -0.47945912496791759 0 0.13581988522262109 -0.50000000000000244 0 0.15577652408963519 -0.48266000469618581 0 0.13581988522262109 -0.50000000000000244 0 0.15548361732576529 -0.50000000000000178 0 0.15577652408963519 -0.48266000469618581 0 0.15548361732576529 -0.50000000000000178 0 0.17298031468751371 -0.48047121037671059 0 0.15548361732576529 -0.50000000000000178 0 0.17298031468751371 -0.48047121037671059 0 0.1769424376256932 -0.5 0 0.15548361732576529 -0.50000000000000178 0 0.17298031468751371 -0.48047121037671059 0 0.17146684144139809 -0.46446192971202138 0 0.15577652408963519 -0.48266000469618581 0 0.17298031468751371 -0.48047121037671059 0 0.17146684144139809 -0.46446192971202138 0 0.14900727366634989 -0.46501884712825781 0 0.15577652408963519 -0.48266000469618581 0 0.19047701204926121 -0.46094242075341862 0 0.17298031468751371 -0.48047121037671059 0 0.1806900259799068 -0.46227126151247672 0 0.17146684144139809 -0.46446192971202138 0 0.17298031468751371 -0.48047121037671059 0 0.1955652389629654 -0.47833395417678298 0 0.19047701204926121 -0.46094242075341862 0 0.17298031468751371 -0.48047121037671059 0 0.1955652389629654 -0.47833395417678298 0 0.17298031468751371 -0.48047121037671059 0 0.1857239970351309 -0.48926605560099218 0 0.19840125792562099 -0.499999999999995 0 0.1857239970351309 -0.48926605560099218 0 0.1769424376256932 -0.5 0 0.17298031468751371 -0.48047121037671059 0 0.1857239970351309 -0.48926605560099218 0 0.1769424376256932 -0.5 0 0.074737975103940479 -0.48487994098964171 0 0.071046826552429457 -0.50000000000000733 0 0.059434139084113012 -0.47963991399004141 0 0.071046826552429457 -0.50000000000000733 0 0.059434139084113012 -0.47963991399004141 0 0.074737975103940479 -0.48487994098964171 0 0.05802097188470097 -0.46975988197928431 0 0.059434139084113012 -0.47963991399004141 0 0.074737975103940479 -0.48487994098964171 0 0.071955909258469009 -0.46877079283141743 0 0.05802097188470097 -0.46975988197928431 0 0.074737975103940479 -0.48487994098964171 0 0.071955909258469009 -0.46877079283141743 0 0.082737354296077953 -0.47427357099325013 0 0.074737975103940479 -0.48487994098964171 0 0.05802097188470097 -0.46975988197928431 0 0.074737975103940479 -0.48487994098964171 0 0.082737354296077953 -0.47427357099325013 0 0.094811061721812542 -0.48112121468145302 0 0.082737354296077953 -0.47427357099325013 0 0.094811061721812542 -0.48112121468145302 0 0.1002152236521098 -0.46121563513601083 0 0.074737975103940479 -0.48487994098964171 0 0.091454978323179614 -0.49999999999999939 0 0.094811061721812542 -0.48112121468145302 0 0.074737975103940479 -0.48487994098964171 0 0.091454978323179614 -0.49999999999999939 0 0.074737975103940479 -0.48487994098964171 0 0.071046826552429457 -0.50000000000000733 0 0.091454978323179614 -0.49999999999999939 0 0.1136374317729003 -0.5 0 0.11801755443736479 -0.48060781756800708 0 0.094811061721812542 -0.48112121468145302 0 0.091454978323179614 -0.49999999999999939 0 0.1136374317729003 -0.5 0 0.094811061721812542 -0.48112121468145302 0 0.13581988522262109 -0.50000000000000244 0 0.1136374317729003 -0.5 0 0.11801755443736479 -0.48060781756800708 0 0.11801755443736479 -0.48060781756800708 0 0.094811061721812542 -0.48112121468145302 0 0.1002152236521098 -0.46121563513601083 0 0.11801755443736479 -0.48060781756800708 0 0.1002152236521098 -0.46121563513601083 0 0.1002152236521098 -0.46121563513601083 0 0.1191891651937612 -0.46140505433989892 0 0.1082504500781146 -0.44478934181291102 0 0.11801755443736479 -0.48060781756800708 0 0.1002152236521098 -0.46121563513601083 0 0.1191891651937612 -0.46140505433989892 0 0.13480127744719991 -0.46410976413563299 0 0.11801755443736479 -0.48060781756800708 0 0.1191891651937612 -0.46140505433989892 0 0.1191891651937612 -0.46140505433989892 0 0.12203304576274319 -0.43975504748265359 0 0.1082504500781146 -0.44478934181291102 0 0.1002152236521098 -0.46121563513601083 0 0.1082504500781146 -0.44478934181291102 0 0.082412892866854714 -0.44182345270401441 0 0.1002152236521098 -0.46121563513601083 0 0.082412892866854714 -0.44182345270401441 0 0.082737354296077953 -0.47427357099325013 0 0.1002152236521098 -0.46121563513601083 0 0.07989865607697158 -0.46093656822545309 0 0.1002152236521098 -0.46121563513601083 0 0.082412892866854714 -0.44182345270401441 0 0.07989865607697158 -0.46093656822545309 0 0.071955909258469009 -0.46877079283141743 0 0.082737354296077953 -0.47427357099325013 0 0.07989865607697158 -0.46093656822545309 0 0.071955909258469009 -0.46877079283141743 0 0.07989865607697158 -0.46093656822545309 0 0.064942869781788204 -0.45298741250561531 0 0.071955909258469009 -0.46877079283141743 0 0.064942869781788204 -0.45298741250561531 0 0.05802097188470097 -0.46975988197928431 0 0.082412892866854714 -0.44182345270401441 0 0.07989865607697158 -0.46093656822545309 0 0.064942869781788204 -0.45298741250561531 0 0.082412892866854714 -0.44182345270401441 0 0.064942869781788204 -0.45298741250561531 0 0.064610562081599654 -0.42243127027201799 0 0.082412892866854714 -0.44182345270401441 0 0.064610562081599654 -0.42243127027201799 0 0.085410796704641828 -0.41553833344022301 0 0.082412892866854714 -0.44182345270401441 0 0.064610562081599654 -0.42243127027201799 0 0.064610562081599654 -0.42243127027201799 0 0.085410796704641828 -0.41553833344022301 0 0.071260751408415451 -0.40583032332525898 0 0.082412892866854714 -0.44182345270401441 0 0.085410796704641828 -0.41553833344022301 0 0.10565257718969159 -0.42402980380391259 0 0.1082504500781146 -0.44478934181291102 0 0.10565257718969159 -0.42402980380391259 0 0.1082504500781146 -0.44478934181291102 0 0.082412892866854714 -0.44182345270401441 0 0.10565257718969159 -0.42402980380391259 0 0.12203304576274319 -0.43975504748265359 0 0.1082504500781146 -0.44478934181291102 0 0.10565257718969159 -0.42402980380391259 0 0.12945713117598301 -0.42527718494859718 0 0.12203304576274319 -0.43975504748265359 0 0.10565257718969159 -0.42402980380391259 0 0.12945713117598301 -0.42527718494859718 0 0.10565257718969159 -0.42402980380391259 0 0.1185943653130178 -0.41089393958744808 0 0.10565257718969159 -0.42402980380391259 0 0.10305470430126849 -0.40327026579491432 0 0.10565257718969159 -0.42402980380391259 0 0.1185943653130178 -0.41089393958744808 0 0.10305470430126849 -0.40327026579491432 0 0.085410796704641828 -0.41553833344022301 0 0.10565257718969159 -0.42402980380391259 0 0.10305470430126849 -0.40327026579491432 0 0.10305470430126849 -0.40327026579491432 0 0.1092296532162271 -0.39195520602732847 0 0.1018679158255022 -0.38137383587803358 0 0.10305470430126849 -0.40327026579491432 0 0.1018679158255022 -0.38137383587803358 0 0.084827885114816814 -0.39510276155480978 0 0.10305470430126849 -0.40327026579491432 0 0.1018679158255022 -0.38137383587803358 0 0.1185943653130178 -0.41089393958744808 0 0.10305470430126849 -0.40327026579491432 0 0.1092296532162271 -0.39195520602732847 0 0.1185943653130178 -0.41089393958744808 0 0.1092296532162271 -0.39195520602732847 0 0.12412735500694751 -0.39493505064503392 0 0.12412735500694751 -0.39493505064503392 0 0.1208593498238435 -0.38006314209191833 0 0.1018679158255022 -0.38137383587803358 0 0.1092296532162271 -0.39195520602732847 0 0.12412735500694751 -0.39493505064503392 0 0.1018679158255022 -0.38137383587803358 0 0.12412735500694751 -0.39493505064503392 0 0.1018679158255022 -0.38137383587803358 0 0.1208593498238435 -0.38006314209191833 0 0.1018679158255022 -0.38137383587803358 0 0.12334710111447229 -0.36406834251145731 0 0.1018679158255022 -0.38137383587803358 0 0.1001863568717406 -0.38034937241650962 0 0.10879209213087419 -0.36797725762153549 0 0.1018679158255022 -0.38137383587803358 0 0.1001863568717406 -0.38034937241650962 0 0.092680417082859706 -0.38189565836938699 0 0.1018679158255022 -0.38137383587803358 0 0.1001863568717406 -0.38034937241650962 0 0.1001863568717406 -0.38034937241650962 0 0.092680417082859706 -0.38189565836938699 0 0.078941289569781151 -0.36740614783332631 0 0.1018679158255022 -0.38137383587803358 0 0.084827885114816814 -0.39510276155480978 0 0.1018679158255022 -0.38137383587803358 0 0.092680417082859706 -0.38189565836938699 0 0.084827885114816814 -0.39510276155480978 0 0.083667078469080447 -0.3817485906143725 0 0.076461538166658155 -0.38231907318138902 0 0.078941289569781151 -0.36740614783332631 0 0.092680417082859706 -0.38189565836938699 0 0.083667078469080447 -0.3817485906143725 0 0.078941289569781151 -0.36740614783332631 0 0.084827885114816814 -0.39510276155480978 0 0.073546264855348126 -0.39398280964304111 0 0.076461538166658155 -0.38231907318138902 0 0.083667078469080447 -0.3817485906143725 0 0.084827885114816814 -0.39510276155480978 0 0.076461538166658155 -0.38231907318138902 0 0.092680417082859706 -0.38189565836938699 0 0.083667078469080447 -0.3817485906143725 0 0.084827885114816814 -0.39510276155480978 0 0.085410796704641828 -0.41553833344022301 0 0.10305470430126849 -0.40327026579491432 0 0.084827885114816814 -0.39510276155480978 0 0.085410796704641828 -0.41553833344022301 0 0.084827885114816814 -0.39510276155480978 0 0.071260751408415451 -0.40583032332525898 0 0.084827885114816814 -0.39510276155480978 0 0.073546264855348126 -0.39398280964304111 0 0.071260751408415451 -0.40583032332525898 0 0.073546264855348126 -0.39398280964304111 0 0.071260751408415451 -0.40583032332525898 0 0.061634884731502082 -0.39267908051070671 0 0.076461538166658155 -0.38231907318138902 0 0.061634884731502082 -0.39267908051070671 0 0.076461538166658155 -0.38231907318138902 0 0.061634884731502082 -0.39267908051070671 0 0.061904282875925747 -0.37237526148823941 0 0.073546264855348126 -0.39398280964304111 0 0.076461538166658155 -0.38231907318138902 0 0.061634884731502082 -0.39267908051070671 0 0.051370350477500881 -0.3764161884637201 0 0.045801185216693012 -0.38580832539780119 0 0.043663507306638913 -0.36868104746756258 0 0.051370350477500881 -0.3764161884637201 0 0.061634884731502082 -0.39267908051070671 0 0.045801185216693012 -0.38580832539780119 0 0.051370350477500881 -0.3764161884637201 0 0.061634884731502082 -0.39267908051070671 0 0.061904282875925747 -0.37237526148823941 0 0.071260751408415451 -0.40583032332525898 0 0.061634884731502082 -0.39267908051070671 0 0.04680823129634433 -0.40303908784002201 0 0.061634884731502082 -0.39267908051070671 0 0.04680823129634433 -0.40303908784002201 0 0.045801185216693012 -0.38580832539780119 0 0.061634884731502082 -0.39267908051070671 0 0.04680823129634433 -0.40303908784002201 0 0.04680823129634433 -0.40303908784002201 0 0.02837172461734 -0.38295609391969199 0 0.04680823129634433 -0.40303908784002201 0 0.02837172461734 -0.38295609391969199 0 0.028215565298714249 -0.40094151263492078 0 0.045801185216693012 -0.38580832539780119 0 0.02837172461734 -0.38295609391969199 0 0.043663507306638913 -0.36868104746756258 0 0.04680823129634433 -0.40303908784002201 0 0.045801185216693012 -0.38580832539780119 0 0.02837172461734 -0.38295609391969199 0 0.02837172461734 -0.38295609391969199 0 0.0122991559467155 -0.37891225603134221 0 0.011208636448502229 -0.39508796301279092 0 -0.002178803782163227 -0.37161627006544062 0 0.0122991559467155 -0.37891225603134221 0 0.011208636448502229 -0.39508796301279092 0 -0.002178803782163227 -0.37161627006544062 0 0.011208636448502229 -0.39508796301279092 0 -0.002178803782163227 -0.37161627006544062 0 -0.0066930742226519926 -0.39143820132839208 0 0.011208636448502229 -0.39508796301279092 0 -0.001728596279610697 -0.40597762003102339 0 0.011208636448502229 -0.39508796301279092 0 0.0082246319185010179 -0.41465428951275207 0 -0.0066930742226519926 -0.39143820132839208 0 -0.001728596279610697 -0.40597762003102339 0 0.011208636448502229 -0.39508796301279092 0 0.011208636448502229 -0.39508796301279092 0 0.028215565298714249 -0.40094151263492078 0 0.024596076679173799 -0.41855965596013778 0 0.02837172461734 -0.38295609391969199 0 0.011208636448502229 -0.39508796301279092 0 0.028215565298714249 -0.40094151263492078 0 0.011208636448502229 -0.39508796301279092 0 0.024596076679173799 -0.41855965596013778 0 0.011208636448502229 -0.39508796301279092 0 0.024596076679173799 -0.41855965596013778 0 0.0082246319185010179 -0.41465428951275207 0 0.024596076679173799 -0.41855965596013778 0 0.0082246319185010179 -0.41465428951275207 0 0.01039378864355619 -0.42848339288335913 0 -0.009537301248459449 -0.42510302968362512 0 0.0082246319185010179 -0.41465428951275207 0 0.01039378864355619 -0.42848339288335913 0 0.024596076679173799 -0.41855965596013778 0 0.036208764147486278 -0.43891974197010591 0 0.024596076679173799 -0.41855965596013778 0 0.036208764147486278 -0.43891974197010591 0 0.020713539006084219 -0.44010250100644183 0 0.024596076679173799 -0.41855965596013778 0 0.01039378864355619 -0.42848339288335913 0 0.020713539006084219 -0.44010250100644183 0 0.024596076679173799 -0.41855965596013778 0 0.01039378864355619 -0.42848339288335913 0 0.024596076679173799 -0.41855965596013778 0 0.043950702345966319 -0.42295947833088071 0 0.036208764147486278 -0.43891974197010591 0 0.043950702345966319 -0.42295947833088071 0 0.051347790295756007 -0.43901682978775403 0 0.036208764147486278 -0.43891974197010591 0 0.04680823129634433 -0.40303908784002201 0 0.024596076679173799 -0.41855965596013778 0 0.04680823129634433 -0.40303908784002201 0 0.028215565298714249 -0.40094151263492078 0 0.024596076679173799 -0.41855965596013778 0 0.04680823129634433 -0.40303908784002201 0 0.024596076679173799 -0.41855965596013778 0 0.043950702345966319 -0.42295947833088071 0 0.064610562081599654 -0.42243127027201799 0 0.071260751408415451 -0.40583032332525898 0 0.04680823129634433 -0.40303908784002201 0 0.064610562081599654 -0.42243127027201799 0 0.04680823129634433 -0.40303908784002201 0 0.064610562081599654 -0.42243127027201799 0 0.04680823129634433 -0.40303908784002201 0 0.043950702345966319 -0.42295947833088071 0 0.064610562081599654 -0.42243127027201799 0 0.043950702345966319 -0.42295947833088071 0 0.051347790295756007 -0.43901682978775403 0 0.064942869781788204 -0.45298741250561531 0 0.064610562081599654 -0.42243127027201799 0 0.051347790295756007 -0.43901682978775403 0 0.064942869781788204 -0.45298741250561531 0 0.051347790295756007 -0.43901682978775403 0 0.047821451615799627 -0.45927982798007361 0 0.064942869781788204 -0.45298741250561531 0 0.047821451615799627 -0.45927982798007361 0 0.05802097188470097 -0.46975988197928431 0 0.047821451615799627 -0.45927982798007361 0 0.023714967739582489 -0.4565662814222432 0 0.032020960621095843 -0.47777188036233098 0 0.047821451615799627 -0.45927982798007361 0 0.036208764147486278 -0.43891974197010591 0 0.051347790295756007 -0.43901682978775403 0 0.047821451615799627 -0.45927982798007361 0 0.036208764147486278 -0.43891974197010591 0 0.047821451615799627 -0.45927982798007361 0 0.036208764147486278 -0.43891974197010591 0 0.023714967739582489 -0.4565662814222432 0 0.036208764147486278 -0.43891974197010591 0 0.020713539006084219 -0.44010250100644183 0 0.023714967739582489 -0.4565662814222432 0 -0.0013374034004768371 -0.44947558896604423 0 0.01039378864355619 -0.42848339288335913 0 0.020713539006084219 -0.44010250100644183 0 -0.0013374034004768371 -0.44947558896604423 0 0.020713539006084219 -0.44010250100644183 0 0.023714967739582489 -0.4565662814222432 0 -0.0013374034004768371 -0.44947558896604423 0 0.0068624944475057766 -0.47384814824846327 0 -0.0013374034004768371 -0.44947558896604423 0 0.023714967739582489 -0.4565662814222432 0 0.0068624944475057766 -0.47384814824846327 0 0.023714967739582489 -0.4565662814222432 0 0.0068624944475057766 -0.47384814824846327 0 0.032020960621095843 -0.47777188036233098 0 0.0068624944475057766 -0.47384814824846327 0 0.0150623922954884 -0.49822070753088238 0 0.032020960621095843 -0.47777188036233098 0 -0.015217900669161011 -0.5 0 0.0024053695883212941 -0.48891336768777249 0 0.013537008404702511 -0.5 0 0.0068624944475057766 -0.47384814824846327 0 0.0024053695883212941 -0.48891336768777249 0 0.0150623922954884 -0.49822070753088238 0 0.0068624944475057766 -0.47384814824846327 0 0.0150623922954884 -0.49822070753088238 0 0.0024053695883212941 -0.48891336768777249 0 0.0150623922954884 -0.49822070753088238 0 0.013537008404702511 -0.5 0 0.0150623922954884 -0.49822070753088238 0 0.013537008404702511 -0.5 0 0.042291917478565873 -0.5 0 0.0150623922954884 -0.49822070753088238 0 0.042291917478565873 -0.5 0 0.032020960621095843 -0.47777188036233098 0 0.042291917478565873 -0.5 0 0.032020960621095843 -0.47777188036233098 0 0.059434139084113012 -0.47963991399004141 0 0.047821451615799627 -0.45927982798007361 0 0.032020960621095843 -0.47777188036233098 0 0.059434139084113012 -0.47963991399004141 0 0.047821451615799627 -0.45927982798007361 0 0.05802097188470097 -0.46975988197928431 0 0.059434139084113012 -0.47963991399004141 0 0.047821451615799627 -0.45927982798007361 0 0.059434139084113012 -0.47963991399004141 0 0.071046826552429457 -0.50000000000000733 0 0.042291917478565873 -0.5 0 0.059434139084113012 -0.47963991399004141 0 0.078456545354339768 -0.28525100698693651 0 0.075192778843485145 -0.3004755496101415 0 0.095899689397586599 -0.3008291305439913 0 0.078456545354339768 -0.28525100698693651 0 0.095711127176573443 -0.2751242682777974 0 0.095899689397586599 -0.3008291305439913 0 0.075192778843485145 -0.3004755496101415 0 0.095899689397586599 -0.3008291305439913 0 0.074188022781041252 -0.31649930169162399 0 0.095899689397586599 -0.3008291305439913 0 0.074188022781041252 -0.31649930169162399 0 0.075192778843485145 -0.3004755496101415 0 0.074188022781041252 -0.31649930169162399 0 0.058270312985904418 -0.30816514798469019 0 0.075192778843485145 -0.3004755496101415 0 0.068995976747761104 -0.2945131319279734 0 0.058270312985904418 -0.30816514798469019 0 0.068995976747761104 -0.2945131319279734 0 0.064064269807315097 -0.28416082313012542 0 0.058270312985904418 -0.30816514798469019 0 0.078456545354339768 -0.28525100698693651 0 0.075192778843485145 -0.3004755496101415 0 0.068995976747761104 -0.2945131319279734 0 0.078456545354339768 -0.28525100698693651 0 0.068995976747761104 -0.2945131319279734 0 0.064064269807315097 -0.28416082313012542 0 0.064064269807315097 -0.28416082313012542 0 0.069858226628725775 -0.26015649827556059 0 0.078456545354339768 -0.28525100698693651 0 0.064064269807315097 -0.28416082313012542 0 0.069858226628725775 -0.26015649827556059 0 0.069858226628725775 -0.26015649827556059 0 0.095711127176573443 -0.2751242682777974 0 0.096521476943682558 -0.25181800011133371 0 0.078456545354339768 -0.28525100698693651 0 0.069858226628725775 -0.26015649827556059 0 0.095711127176573443 -0.2751242682777974 0 0.095711127176573443 -0.2751242682777974 0 0.114720785939063 -0.26575264298982931 0 0.1176113560141319 -0.2851589593963586 0 0.095711127176573443 -0.2751242682777974 0 0.096521476943682558 -0.25181800011133371 0 0.114720785939063 -0.26575264298982931 0 0.1376178273856396 -0.2676878026278281 0 0.114720785939063 -0.26575264298982931 0 0.1200034520355143 -0.24749468667538321 0 0.096521476943682558 -0.25181800011133371 0 0.114720785939063 -0.26575264298982931 0 0.1200034520355143 -0.24749468667538321 0 0.1376178273856396 -0.2676878026278281 0 0.114720785939063 -0.26575264298982931 0 0.1176113560141319 -0.2851589593963586 0 0.13584279120622419 -0.29064916595208462 0 0.1176113560141319 -0.2851589593963586 0 0.1212075847983899 -0.30357596212866123 0 0.1176113560141319 -0.2851589593963586 0 0.095899689397586599 -0.3008291305439913 0 0.1212075847983899 -0.30357596212866123 0 0.1176113560141319 -0.2851589593963586 0 0.095899689397586599 -0.3008291305439913 0 0.095711127176573443 -0.2751242682777974 0 0.1176113560141319 -0.2851589593963586 0 0.095899689397586599 -0.3008291305439913 0 0.095899689397586599 -0.3008291305439913 0 0.1212075847983899 -0.30357596212866123 0 0.1047724191350739 -0.31963875894108951 0 0.1212075847983899 -0.30357596212866123 0 0.1249111379911398 -0.32186001205002218 0 0.1047724191350739 -0.31963875894108951 0 0.1249111379911398 -0.32186001205002218 0 0.1047724191350739 -0.31963875894108951 0 0.11573058637367541 -0.34380091622275832 0 0.094619564876377599 -0.33586527524184762 0 0.1047724191350739 -0.31963875894108951 0 0.11573058637367541 -0.34380091622275832 0 0.094619564876377599 -0.33586527524184762 0 0.1047724191350739 -0.31963875894108951 0 0.086339338786571823 -0.32698567366184278 0 0.095899689397586599 -0.3008291305439913 0 0.1047724191350739 -0.31963875894108951 0 0.086339338786571823 -0.32698567366184278 0 0.1018679158255022 -0.38137383587803358 0 0.12334710111447229 -0.36406834251145731 0 0.1018679158255022 -0.38137383587803358 0 0.12334710111447229 -0.36406834251145731 0 0.10879209213087419 -0.36797725762153549 0 0.12334710111447229 -0.36406834251145731 0 0.11573058637367541 -0.34380091622275832 0 0.10879209213087419 -0.36797725762153549 0 0.11573058637367541 -0.34380091622275832 0 0.097402960874061584 -0.35810732382917831 0 0.10879209213087419 -0.36797725762153549 0 0.094619564876377599 -0.33586527524184762 0 0.11573058637367541 -0.34380091622275832 0 0.097402960874061584 -0.35810732382917831 0 0.094619564876377599 -0.33586527524184762 0 0.097402960874061584 -0.35810732382917831 0 0.1001863568717406 -0.38034937241650962 0 0.097402960874061584 -0.35810732382917831 0 0.1001863568717406 -0.38034937241650962 0 0.097402960874061584 -0.35810732382917831 0 0.10879209213087419 -0.36797725762153549 0 0.1001863568717406 -0.38034937241650962 0 0.097402960874061584 -0.35810732382917831 0 0.078941289569781151 -0.36740614783332631 0 0.1001863568717406 -0.38034937241650962 0 0.078941289569781151 -0.36740614783332631 0 0.094619564876377599 -0.33586527524184762 0 0.097402960874061584 -0.35810732382917831 0 0.084740357312199394 -0.34701535865000288 0 0.078941289569781151 -0.36740614783332631 0 0.084740357312199394 -0.34701535865000288 0 0.072564810466095128 -0.35396504242622201 0 0.097402960874061584 -0.35810732382917831 0 0.078941289569781151 -0.36740614783332631 0 0.084740357312199394 -0.34701535865000288 0 0.078941289569781151 -0.36740614783332631 0 0.072564810466095128 -0.35396504242622201 0 0.057696222267823373 -0.35446292325014028 0 0.084740357312199394 -0.34701535865000288 0 0.072564810466095128 -0.35396504242622201 0 0.073102422775426085 -0.33909783780230318 0 0.064643683218506637 -0.34920539315333932 0 0.072564810466095128 -0.35396504242622201 0 0.073102422775426085 -0.33909783780230318 0 0.064643683218506637 -0.34920539315333932 0 0.072564810466095128 -0.35396504242622201 0 0.057696222267823373 -0.35446292325014028 0 0.078941289569781151 -0.36740614783332631 0 0.057696222267823373 -0.35446292325014028 0 0.076461538166658155 -0.38231907318138902 0 0.078941289569781151 -0.36740614783332631 0 0.061904282875925747 -0.37237526148823941 0 0.078941289569781151 -0.36740614783332631 0 0.061904282875925747 -0.37237526148823941 0 0.057696222267823373 -0.35446292325014028 0 0.095899689397586599 -0.3008291305439913 0 0.086339338786571823 -0.32698567366184278 0 0.074188022781041252 -0.31649930169162399 0 0.094619564876377599 -0.33586527524184762 0 0.084740357312199394 -0.34701535865000288 0 0.086339338786571823 -0.32698567366184278 0 0.084740357312199394 -0.34701535865000288 0 0.086339338786571823 -0.32698567366184278 0 0.073102422775426085 -0.33909783780230318 0 0.073102422775426085 -0.33909783780230318 0 0.074188022781041252 -0.31649930169162399 0 0.052476356164494947 -0.33216947283925541 0 0.064643683218506637 -0.34920539315333932 0 0.073102422775426085 -0.33909783780230318 0 0.060945063747813971 -0.34285112352430303 0 0.074188022781041252 -0.31649930169162399 0 0.052476356164494947 -0.33216947283925541 0 0.086339338786571823 -0.32698567366184278 0 0.073102422775426085 -0.33909783780230318 0 0.074188022781041252 -0.31649930169162399 0 0.052476356164494947 -0.33216947283925541 0 0.058270312985904418 -0.30816514798469019 0 0.052476356164494947 -0.33216947283925541 0 0.044648526871603783 -0.31770081170742831 0 0.058270312985904418 -0.30816514798469019 0 0.074188022781041252 -0.31649930169162399 0 0.052476356164494947 -0.33216947283925541 0 0.058270312985904418 -0.30816514798469019 0 0.052476356164494947 -0.33216947283925541 0 0.047583047975914103 -0.35244241635483559 0 0.073102422775426085 -0.33909783780230318 0 0.060945063747813971 -0.34285112352430303 0 0.052476356164494947 -0.33216947283925541 0 0.060945063747813971 -0.34285112352430303 0 0.052476356164494947 -0.33216947283925541 0 0.054181307711507642 -0.34983992205818981 0 0.052476356164494947 -0.33216947283925541 0 0.04071506683574927 -0.34065806194451792 0 0.047583047975914103 -0.35244241635483559 0 0.052476356164494947 -0.33216947283925541 0 0.04071506683574927 -0.34065806194451792 0 0.044648526871603783 -0.31770081170742831 0 0.04071506683574927 -0.34065806194451792 0 0.03015636661650286 -0.3225410253719756 0 0.04071506683574927 -0.34065806194451792 0 0.03015636661650286 -0.3225410253719756 0 0.02636863849756152 -0.33688388254537838 0 0.052476356164494947 -0.33216947283925541 0 0.04071506683574927 -0.34065806194451792 0 0.04071506683574927 -0.34065806194451792 0 0.044648526871603783 -0.31770081170742831 0 0.03015636661650286 -0.3225410253719756 0 0.044648526871603783 -0.31770081170742831 0 0.03015636661650286 -0.3225410253719756 0 0.034491627806478041 -0.30853974567073322 0 0.061904282875925747 -0.37237526148823941 0 0.053259535722039633 -0.3641180164926533 0 0.057696222267823373 -0.35446292325014028 0 0.051370350477500881 -0.3764161884637201 0 0.053259535722039633 -0.3641180164926533 0 0.043663507306638913 -0.36868104746756258 0 0.051370350477500881 -0.3764161884637201 0 0.061904282875925747 -0.37237526148823941 0 0.053259535722039633 -0.3641180164926533 0 0.053259535722039633 -0.3641180164926533 0 0.048773826387857627 -0.3544856011778737 0 0.043663507306638913 -0.36868104746756258 0 0.052476356164494947 -0.33216947283925541 0 0.047583047975914103 -0.35244241635483559 0 0.054181307711507642 -0.34983992205818981 0 0.053259535722039633 -0.3641180164926533 0 0.053244657324237762 -0.3582642649149802 0 0.048773826387857627 -0.3544856011778737 0 0.053244657324237762 -0.3582642649149802 0 0.048773826387857627 -0.3544856011778737 0 0.054181307711507642 -0.34983992205818981 0 0.048773826387857627 -0.3544856011778737 0 0.047583047975914103 -0.35244241635483559 0 0.054181307711507642 -0.34983992205818981 0 0.048773826387857627 -0.3544856011778737 0 0.047583047975914103 -0.35244241635483559 0 0.053259535722039633 -0.3641180164926533 0 0.053244657324237762 -0.3582642649149802 0 0.057696222267823373 -0.35446292325014028 0 0.053244657324237762 -0.3582642649149802 0 0.057696222267823373 -0.35446292325014028 0 0.054181307711507642 -0.34983992205818981 0 0.064643683218506637 -0.34920539315333932 0 0.057696222267823373 -0.35446292325014028 0 0.054181307711507642 -0.34983992205818981 0 0.064643683218506637 -0.34920539315333932 0 0.060945063747813971 -0.34285112352430303 0 0.054181307711507642 -0.34983992205818981 0 0.048773826387857627 -0.3544856011778737 0 0.047583047975914103 -0.35244241635483559 0 0.043663507306638913 -0.36868104746756258 0 0.04071506683574927 -0.34065806194451792 0 0.047583047975914103 -0.35244241635483559 0 0.04071506683574927 -0.34065806194451792 0 0.047583047975914103 -0.35244241635483559 0 0.03985573710467899 -0.35136837444597901 0 0.04071506683574927 -0.34065806194451792 0 0.03985573710467899 -0.35136837444597901 0 0.03205896378917665 -0.35434441690964041 0 0.04071506683574927 -0.34065806194451792 0 0.03205896378917665 -0.35434441690964041 0 0.025431496553892478 -0.35168882095041942 0 0.04071506683574927 -0.34065806194451792 0 0.025431496553892478 -0.35168882095041942 0 0.03985573710467899 -0.35136837444597901 0 0.03205896378917665 -0.35434441690964041 0 0.039065869817875902 -0.35802860257492208 0 0.047583047975914103 -0.35244241635483559 0 0.03985573710467899 -0.35136837444597901 0 0.039065869817875902 -0.35802860257492208 0 0.02837172461734 -0.38295609391969199 0 0.033371525452051833 -0.36592480980272157 0 0.043663507306638913 -0.36868104746756258 0 0.047583047975914103 -0.35244241635483559 0 0.039065869817875902 -0.35802860257492208 0 0.043663507306638913 -0.36868104746756258 0 0.047583047975914103 -0.35244241635483559 0 0.043663507306638913 -0.36868104746756258 0 0.039065869817875902 -0.35802860257492208 0 0.033371525452051833 -0.36592480980272157 0 0.043663507306638913 -0.36868104746756258 0 0.03205896378917665 -0.35434441690964041 0 0.039065869817875902 -0.35802860257492208 0 0.033371525452051833 -0.36592480980272157 0 0.02837172461734 -0.38295609391969199 0 0.0099352179383349771 -0.36287309999936251 0 0.02837172461734 -0.38295609391969199 0 0.023697561729227701 -0.3656138881417908 0 0.0099352179383349771 -0.36287309999936251 0 0.02837172461734 -0.38295609391969199 0 0.033371525452051833 -0.36592480980272157 0 0.023697561729227701 -0.3656138881417908 0 0.02837172461734 -0.38295609391969199 0 0.0122991559467155 -0.37891225603134221 0 0.0099352179383349771 -0.36287309999936251 0 0.03205896378917665 -0.35434441690964041 0 0.033371525452051833 -0.36592480980272157 0 0.023697561729227701 -0.3656138881417908 0 0.023697561729227701 -0.3656138881417908 0 0.025431496553892478 -0.35168882095041942 0 0.0099352179383349771 -0.36287309999936251 0 0.025431496553892478 -0.35168882095041942 0 0.0075807645751098419 -0.34453611388615663 0 0.025431496553892478 -0.35168882095041942 0 0.0075807645751098419 -0.34453611388615663 0 0.02636863849756152 -0.33688388254537838 0 0.025431496553892478 -0.35168882095041942 0 0.0099352179383349771 -0.36287309999936251 0 0.03205896378917665 -0.35434441690964041 0 0.023697561729227701 -0.3656138881417908 0 0.025431496553892478 -0.35168882095041942 0 0.03205896378917665 -0.35434441690964041 0 0.025431496553892478 -0.35168882095041942 0 -0.0096343958099064687 -0.34155580596031437 0 0.0099352179383349771 -0.36287309999936251 0 -0.0096343958099064687 -0.34155580596031437 0 0.0075807645751098419 -0.34453611388615663 0 0.0099352179383349771 -0.36287309999936251 0 0.025431496553892478 -0.35168882095041942 0 0.0075807645751098419 -0.34453611388615663 0 0.0099352179383349771 -0.36287309999936251 0 -0.002178803782163227 -0.37161627006544062 0 0.0122991559467155 -0.37891225603134221 0 0.0099352179383349771 -0.36287309999936251 0 -0.0070150904897389628 -0.35875101633193152 0 -0.002178803782163227 -0.37161627006544062 0 0.0099352179383349771 -0.36287309999936251 0 -0.002178803782163227 -0.37161627006544062 0 0.0099352179383349771 -0.36287309999936251 0 0.03015636661650286 -0.3225410253719756 0 0.019597666397256509 -0.30442398879943339 0 0.03015636661650286 -0.3225410253719756 0 0.014793392922354411 -0.31628120652474823 0 0.019597666397256509 -0.30442398879943339 0 0.03015636661650286 -0.3225410253719756 0 0.01453256369494863 -0.32953892791496292 0 0.014793392922354411 -0.31628120652474823 0 0.03015636661650286 -0.3225410253719756 0 0.02636863849756152 -0.33688388254537838 0 0.01453256369494863 -0.32953892791496292 0 0.0075807645751098419 -0.34453611388615663 0 0.02636863849756152 -0.33688388254537838 0 0.01453256369494863 -0.32953892791496292 0 0.04071506683574927 -0.34065806194451792 0 0.025431496553892478 -0.35168882095041942 0 0.02636863849756152 -0.33688388254537838 0 0.0075807645751098419 -0.34453611388615663 0 0.01453256369494863 -0.32953892791496292 0 0.0034794820758208261 -0.33361449123698089 0 -0.010269967403673339 -0.33738340682189533 0 0.0075807645751098419 -0.34453611388615663 0 0.0034794820758208261 -0.33361449123698089 0 0.01453256369494863 -0.32953892791496292 0 0.0034794820758208261 -0.33361449123698089 0 0.001904989571353899 -0.32214434476741449 0 0.001904989571353899 -0.32214434476741449 0 0.014793392922354411 -0.31628120652474823 0 0.0019518825097332619 -0.30029273945570772 0 0.01453256369494863 -0.32953892791496292 0 0.001904989571353899 -0.32214434476741449 0 0.014793392922354411 -0.31628120652474823 0 0.0019518825097332619 -0.30029273945570772 0 0.0090389661780101715 -0.28630695222689118 0 0.019597666397256509 -0.30442398879943339 0 0.014793392922354411 -0.31628120652474823 0 0.0019518825097332619 -0.30029273945570772 0 0.019597666397256509 -0.30442398879943339 0 -0.0020851015340006161 -0.28052611142458661 0 0.0019518825097332619 -0.30029273945570772 0 0.0090389661780101715 -0.28630695222689118 0 0.0090389661780101715 -0.28630695222689118 0 0.019597666397256509 -0.30442398879943339 0 0.0090389661780101715 -0.28630695222689118 0 0.019597666397256509 -0.30442398879943339 0 0.033821918158706138 -0.27707393290215671 0 0.03015636661650286 -0.3225410253719756 0 0.019597666397256509 -0.30442398879943339 0 0.034491627806478041 -0.30853974567073322 0 0.019597666397256509 -0.30442398879943339 0 0.034491627806478041 -0.30853974567073322 0 0.043330632548044458 -0.29475484461045087 0 0.044648526871603783 -0.31770081170742831 0 0.034491627806478041 -0.30853974567073322 0 0.043330632548044458 -0.29475484461045087 0 0.019597666397256509 -0.30442398879943339 0 0.043330632548044458 -0.29475484461045087 0 0.033821918158706138 -0.27707393290215671 0 0.043330632548044458 -0.29475484461045087 0 0.062049371387241412 -0.28749956346879602 0 0.033821918158706138 -0.27707393290215671 0 0.064064269807315097 -0.28416082313012542 0 0.058270312985904418 -0.30816514798469019 0 0.062049371387241412 -0.28749956346879602 0 0.033821918158706138 -0.27707393290215671 0 0.064064269807315097 -0.28416082313012542 0 0.062049371387241412 -0.28749956346879602 0 0.058270312985904418 -0.30816514798469019 0 0.043330632548044458 -0.29475484461045087 0 0.062049371387241412 -0.28749956346879602 0 0.058270312985904418 -0.30816514798469019 0 0.044648526871603783 -0.31770081170742831 0 0.043330632548044458 -0.29475484461045087 0 0.058270312985904418 -0.30816514798469019 0 0.069858226628725775 -0.26015649827556059 0 0.051624075113339378 -0.26919050519125598 0 0.046498349670861652 -0.24826912251879649 0 0.064064269807315097 -0.28416082313012542 0 0.069858226628725775 -0.26015649827556059 0 0.051624075113339378 -0.26919050519125598 0 0.062049371387241412 -0.28749956346879602 0 0.051624075113339378 -0.26919050519125598 0 0.033821918158706138 -0.27707393290215671 0 0.064064269807315097 -0.28416082313012542 0 0.062049371387241412 -0.28749956346879602 0 0.051624075113339378 -0.26919050519125598 0 0.051624075113339378 -0.26919050519125598 0 0.033821918158706138 -0.27707393290215671 0 0.034240698289148337 -0.25967273023798509 0 0.051624075113339378 -0.26919050519125598 0 0.034240698289148337 -0.25967273023798509 0 0.046498349670861652 -0.24826912251879649 0 0.034240698289148337 -0.25967273023798509 0 0.02296875629887114 -0.2464092256209898 0 0.046498349670861652 -0.24826912251879649 0 0.034240698289148337 -0.25967273023798509 0 0.0055944649301708496 -0.26664830233551728 0 0.02296875629887114 -0.2464092256209898 0 0.0090389661780101715 -0.28630695222689118 0 0.033821918158706138 -0.27707393290215671 0 0.0055944649301708496 -0.26664830233551728 0 0.033821918158706138 -0.27707393290215671 0 0.034240698289148337 -0.25967273023798509 0 0.0055944649301708496 -0.26664830233551728 0 0.033821918158706138 -0.27707393290215671 0 0.0055944649301708496 -0.26664830233551728 0 -0.0020851015340006161 -0.28052611142458661 0 0.0090389661780101715 -0.28630695222689118 0 0.0055944649301708496 -0.26664830233551728 0 0.0055944649301708496 -0.26664830233551728 0 0.0055632338660241776 -0.24332209518663511 0 0.02296875629887114 -0.2464092256209898 0 -0.0080727856436109482 -0.2481099565327444 0 0.0055944649301708496 -0.26664830233551728 0 0.0055632338660241776 -0.24332209518663511 0 0.0055632338660241776 -0.24332209518663511 0 0.0032521440618358652 -0.23009641691855939 0 0.019268989126464159 -0.2308348024940351 0 -0.0084819670471955304 -0.2367225590632196 0 0.0055632338660241776 -0.24332209518663511 0 0.0032521440618358652 -0.23009641691855939 0 -0.0075276580997289226 -0.21896018305478171 0 0.0032521440618358652 -0.23009641691855939 0 0.012041166441398349 -0.21677938876306921 0 0.0032521440618358652 -0.23009641691855939 0 0.019268989126464159 -0.2308348024940351 0 0.012041166441398349 -0.21677938876306921 0 0.019268989126464159 -0.2308348024940351 0 0.028464877365028059 -0.21915571909051779 0 0.012041166441398349 -0.21677938876306921 0 0.019268989126464159 -0.2308348024940351 0 0.028464877365028059 -0.21915571909051779 0 0.041174919052571327 -0.22964645066930789 0 0.0055632338660241776 -0.24332209518663511 0 0.019268989126464159 -0.2308348024940351 0 0.02296875629887114 -0.2464092256209898 0 0.019268989126464159 -0.2308348024940351 0 0.02296875629887114 -0.2464092256209898 0 0.041174919052571327 -0.22964645066930789 0 -0.0075276580997289226 -0.21896018305478171 0 0.003555539334036632 -0.19934620758084881 0 0.012041166441398349 -0.21677938876306921 0 0.003555539334036632 -0.19934620758084881 0 0.012041166441398349 -0.21677938876306921 0 0.02523310686075431 -0.20228300343967229 0 0.028464877365028059 -0.21915571909051779 0 0.012041166441398349 -0.21677938876306921 0 0.02523310686075431 -0.20228300343967229 0 0.02523310686075431 -0.20228300343967229 0 0.033125333554059701 -0.1865598477748947 0 0.018588522793563201 -0.18166153924030251 0 0.003555539334036632 -0.19934620758084881 0 0.02523310686075431 -0.20228300343967229 0 0.018588522793563201 -0.18166153924030251 0 0.048648578511840943 -0.20623258170594561 0 0.049880579816306267 -0.17970719815632741 0 0.033125333554059701 -0.1865598477748947 0 0.02523310686075431 -0.20228300343967229 0 0.048648578511840943 -0.20623258170594561 0 0.033125333554059701 -0.1865598477748947 0 0.028464877365028059 -0.21915571909051779 0 0.02523310686075431 -0.20228300343967229 0 0.048648578511840943 -0.20623258170594561 0 0.028464877365028059 -0.21915571909051779 0 0.048648578511840943 -0.20623258170594561 0 0.041174919052571327 -0.22964645066930789 0 0.048648578511840943 -0.20623258170594561 0 0.059757914812518881 -0.22869522271940709 0 0.066598585428591164 -0.21133354617687591 0 0.048648578511840943 -0.20623258170594561 0 0.067160325985138131 -0.18691533881804831 0 0.049880579816306267 -0.17970719815632741 0 0.048648578511840943 -0.20623258170594561 0 0.066598585428591164 -0.21133354617687591 0 0.067160325985138131 -0.18691533881804831 0 0.069858226628725775 -0.26015649827556059 0 0.046498349670861652 -0.24826912251879649 0 0.059757914812518881 -0.22869522271940709 0 0.02296875629887114 -0.2464092256209898 0 0.046498349670861652 -0.24826912251879649 0 0.041174919052571327 -0.22964645066930789 0 0.048648578511840943 -0.20623258170594561 0 0.041174919052571327 -0.22964645066930789 0 0.059757914812518881 -0.22869522271940709 0 0.046498349670861652 -0.24826912251879649 0 0.041174919052571327 -0.22964645066930789 0 0.059757914812518881 -0.22869522271940709 0 0.069858226628725775 -0.26015649827556059 0 0.059757914812518881 -0.22869522271940709 0 0.080941623453078815 -0.2334444244951252 0 0.069858226628725775 -0.26015649827556059 0 0.096521476943682558 -0.25181800011133371 0 0.080941623453078815 -0.2334444244951252 0 0.096521476943682558 -0.25181800011133371 0 0.080941623453078815 -0.2334444244951252 0 0.102389076685389 -0.22730157072293841 0 0.080941623453078815 -0.2334444244951252 0 0.084774701335263575 -0.20710845477049339 0 0.102389076685389 -0.22730157072293841 0 0.059757914812518881 -0.22869522271940709 0 0.080941623453078815 -0.2334444244951252 0 0.066598585428591164 -0.21133354617687591 0 0.080941623453078815 -0.2334444244951252 0 0.066598585428591164 -0.21133354617687591 0 0.084774701335263575 -0.20710845477049339 0 0.084774701335263575 -0.20710845477049339 0 0.067160325985138131 -0.18691533881804831 0 0.066598585428591164 -0.21133354617687591 0 0.084774701335263575 -0.20710845477049339 0 0.067160325985138131 -0.18691533881804831 0 0.092537347032927528 -0.18889969997864839 0 0.084774701335263575 -0.20710845477049339 0 0.067160325985138131 -0.18691533881804831 0 0.084774701335263575 -0.20710845477049339 0 0.102389076685389 -0.22730157072293841 0 0.084774701335263575 -0.20710845477049339 0 0.10575093398731179 -0.20517541990618701 0 0.102389076685389 -0.22730157072293841 0 0.092537347032927528 -0.18889969997864839 0 0.10575093398731179 -0.20517541990618701 0 0.11404320040195411 -0.17785048998131209 0 0.092537347032927528 -0.18889969997864839 0 0.084774701335263575 -0.20710845477049339 0 0.10575093398731179 -0.20517541990618701 0 0.10575093398731179 -0.20517541990618701 0 0.11404320040195411 -0.17785048998131209 0 0.12592289232087811 -0.19910656028939411 0 0.10575093398731179 -0.20517541990618701 0 0.1284413173888232 -0.22347585252773641 0 0.12592289232087811 -0.19910656028939411 0 0.10575093398731179 -0.20517541990618701 0 0.102389076685389 -0.22730157072293841 0 0.1284413173888232 -0.22347585252773641 0 0.1200034520355143 -0.24749468667538321 0 0.102389076685389 -0.22730157072293841 0 0.1284413173888232 -0.22347585252773641 0 0.1200034520355143 -0.24749468667538321 0 0.102389076685389 -0.22730157072293841 0 0.096521476943682558 -0.25181800011133371 0 0.1200034520355143 -0.24749468667538321 0 0.102389076685389 -0.22730157072293841 0 0.099885875260422058 -0.15149088269105351 0 0.1161887790728692 -0.1476769396888597 0 0.1105045846919957 -0.16013033574144619 0 0.099885875260422058 -0.15149088269105351 0 0.099597293261818404 -0.1347502866929414 0 0.1161887790728692 -0.1476769396888597 0 0.099597293261818404 -0.1347502866929414 0 0.1161887790728692 -0.1476769396888597 0 0.099597293261818404 -0.1347502866929414 0 0.1047785765018954 -0.13712350701568179 0 0.1161887790728692 -0.1476769396888597 0 0.099597293261818404 -0.1347502866929414 0 0.093527805260815264 -0.13002146576964491 0 0.104312872852085 -0.12243825994362539 0 0.099597293261818404 -0.1347502866929414 0 0.093527805260815264 -0.13002146576964491 0 0.099597293261818404 -0.1347502866929414 0 0.093527805260815264 -0.13002146576964491 0 0.092996203934319052 -0.1329056080468716 0 0.099597293261818404 -0.1347502866929414 0 0.1088944047617572 -0.13480079442927331 0 0.104312872852085 -0.12243825994362539 0 0.099597293261818404 -0.1347502866929414 0 0.1047785765018954 -0.13712350701568179 0 0.1088944047617572 -0.13480079442927331 0 0.099597293261818404 -0.1347502866929414 0 0.1088944047617572 -0.13480079442927331 0 0.1047785765018954 -0.13712350701568179 0 0.1088944047617572 -0.13480079442927331 0 0.1088944047617572 -0.13480079442927331 0 0.1161887790728692 -0.1476769396888597 0 0.13638976604354719 -0.13495016646355951 0 0.1088944047617572 -0.13480079442927331 0 0.12800820934211829 -0.12401417466047961 0 0.13638976604354719 -0.13495016646355951 0 0.1047785765018954 -0.13712350701568179 0 0.1088944047617572 -0.13480079442927331 0 0.1161887790728692 -0.1476769396888597 0 0.1088944047617572 -0.13480079442927331 0 0.104312872852085 -0.12243825994362539 0 0.12800820934211829 -0.12401417466047961 0 0.1088944047617572 -0.13480079442927331 0 0.12800820934211829 -0.12401417466047961 0 0.1088944047617572 -0.13480079442927331 0 0.13638976604354719 -0.13495016646355951 0 0.1161887790728692 -0.1476769396888597 0 0.1105045846919957 -0.16013033574144619 0 0.1305387904294309 -0.15561497697083931 0 0.1105045846919957 -0.16013033574144619 0 0.11404320040195411 -0.17785048998131209 0 0.1305387904294309 -0.15561497697083931 0 0.092537347032927528 -0.18889969997864839 0 0.11404320040195411 -0.17785048998131209 0 0.090957573454969964 -0.1674487964172009 0 0.1105045846919957 -0.16013033574144619 0 0.11404320040195411 -0.17785048998131209 0 0.090957573454969964 -0.1674487964172009 0 0.099885875260422058 -0.15149088269105351 0 0.1105045846919957 -0.16013033574144619 0 0.090957573454969964 -0.1674487964172009 0 0.099885875260422058 -0.15149088269105351 0 0.090957573454969964 -0.1674487964172009 0 0.080257725164813276 -0.1505404030764457 0 0.090957573454969964 -0.1674487964172009 0 0.065342325237630991 -0.1650228072456788 0 0.080257725164813276 -0.1505404030764457 0 0.092537347032927528 -0.18889969997864839 0 0.090957573454969964 -0.1674487964172009 0 0.067160325985138131 -0.18691533881804831 0 0.090957573454969964 -0.1674487964172009 0 0.067160325985138131 -0.18691533881804831 0 0.065342325237630991 -0.1650228072456788 0 0.065342325237630991 -0.1650228072456788 0 0.080257725164813276 -0.1505404030764457 0 0.056224073158944461 -0.14994265306170279 0 0.080257725164813276 -0.1505404030764457 0 0.069539210615093855 -0.1345869923500955 0 0.056224073158944461 -0.14994265306170279 0 0.099885875260422058 -0.15149088269105351 0 0.099597293261818404 -0.1347502866929414 0 0.080257725164813276 -0.1505404030764457 0 0.099597293261818404 -0.1347502866929414 0 0.080257725164813276 -0.1505404030764457 0 0.069539210615093855 -0.1345869923500955 0 0.099597293261818404 -0.1347502866929414 0 0.092996203934319052 -0.1329056080468716 0 0.069539210615093855 -0.1345869923500955 0 0.099597293261818404 -0.1347502866929414 0 0.069539210615093855 -0.1345869923500955 0 0.092996203934319052 -0.1329056080468716 0 0.069539210615093855 -0.1345869923500955 0 0.079322302472514483 -0.11895376470488229 0 0.093527805260815264 -0.13002146576964491 0 0.092996203934319052 -0.1329056080468716 0 0.079322302472514483 -0.11895376470488229 0 0.093527805260815264 -0.13002146576964491 0 0.092996203934319052 -0.1329056080468716 0 0.069539210615093855 -0.1345869923500955 0 0.052298963826290519 -0.1211548808236817 0 0.066569319149528045 -0.1206454253796948 0 0.069539210615093855 -0.1345869923500955 0 0.039481127968369292 -0.1344236980072451 0 0.052298963826290519 -0.1211548808236817 0 0.069539210615093855 -0.1345869923500955 0 0.056224073158944461 -0.14994265306170279 0 0.039481127968369292 -0.1344236980072451 0 0.069539210615093855 -0.1345869923500955 0 0.039481127968369292 -0.1344236980072451 0 0.056224073158944461 -0.14994265306170279 0 0.038811693183881758 -0.15444647348478721 0 0.047368807546727579 -0.16279517251764489 0 0.056224073158944461 -0.14994265306170279 0 0.038811693183881758 -0.15444647348478721 0 0.039481127968369292 -0.1344236980072451 0 0.038811693183881758 -0.15444647348478721 0 0.039481127968369292 -0.1344236980072451 0 0.019056913867763529 -0.155566515408149 0 0.034777770017858589 -0.1343981464191871 0 0.039481127968369292 -0.1344236980072451 0 0.022320289212787989 -0.1422177528203018 0 0.034777770017858589 -0.1343981464191871 0 0.039481127968369292 -0.1344236980072451 0 0.034777770017858589 -0.1343981464191871 0 0.029299678594365521 -0.12697140115214181 0 0.037800108132664212 -0.12348471533883321 0 0.034777770017858589 -0.1343981464191871 0 0.039481127968369292 -0.1344236980072451 0 0.037800108132664212 -0.12348471533883321 0 0.039481127968369292 -0.1344236980072451 0 0.052298963826290519 -0.1211548808236817 0 0.039481127968369292 -0.1344236980072451 0 0.052298963826290519 -0.1211548808236817 0 0.037800108132664212 -0.12348471533883321 0 0.067160325985138131 -0.18691533881804831 0 0.065342325237630991 -0.1650228072456788 0 0.049880579816306267 -0.17970719815632741 0 0.065342325237630991 -0.1650228072456788 0 0.049880579816306267 -0.17970719815632741 0 0.047368807546727579 -0.16279517251764489 0 0.065342325237630991 -0.1650228072456788 0 0.056224073158944461 -0.14994265306170279 0 0.047368807546727579 -0.16279517251764489 0 0.049880579816306267 -0.17970719815632741 0 0.047368807546727579 -0.16279517251764489 0 0.031927543377605602 -0.16950432842919569 0 0.038811693183881758 -0.15444647348478721 0 0.047368807546727579 -0.16279517251764489 0 0.031927543377605602 -0.16950432842919569 0 0.049880579816306267 -0.17970719815632741 0 0.031927543377605602 -0.16950432842919569 0 0.033125333554059701 -0.1865598477748947 0 0.031927543377605602 -0.16950432842919569 0 0.033125333554059701 -0.1865598477748947 0 0.018588522793563201 -0.18166153924030251 0 0.031927543377605602 -0.16950432842919569 0 0.018588522793563201 -0.18166153924030251 0 0.019056913867763529 -0.155566515408149 0 0.038811693183881758 -0.15444647348478721 0 0.031927543377605602 -0.16950432842919569 0 0.019056913867763529 -0.155566515408149 0 -0.0013673002328405961 -0.1767093328090546 0 0.018588522793563201 -0.18166153924030251 0 0.019056913867763529 -0.155566515408149 0 -0.0013673002328405961 -0.1767093328090546 0 0.019056913867763529 -0.155566515408149 0 -0.0013673002328405961 -0.1767093328090546 0 0.019056913867763529 -0.155566515408149 0 0.0027310736070901482 -0.15493719994590471 0 -0.0013673002328405961 -0.1767093328090546 0 0.003555539334036632 -0.19934620758084881 0 0.018588522793563201 -0.18166153924030251 0 0.020222670022858619 -0.12863691797839069 0 0.022320289212787989 -0.1422177528203018 0 0.0088678229424013627 -0.13941235935176011 0 0.020222670022858619 -0.12863691797839069 0 0.02665510196196769 -0.1330560545925053 0 0.022320289212787989 -0.1422177528203018 0 0.034777770017858589 -0.1343981464191871 0 0.029299678594365521 -0.12697140115214181 0 0.02665510196196769 -0.1330560545925053 0 0.020222670022858619 -0.12863691797839069 0 0.029299678594365521 -0.12697140115214181 0 0.02665510196196769 -0.1330560545925053 0 0.034777770017858589 -0.1343981464191871 0 0.02665510196196769 -0.1330560545925053 0 0.022320289212787989 -0.1422177528203018 0 0.039481127968369292 -0.1344236980072451 0 0.019056913867763529 -0.155566515408149 0 0.019056913867763529 -0.155566515408149 0 0.022320289212787989 -0.1422177528203018 0 0.0088678229424013627 -0.13941235935176011 0 0.039481127968369292 -0.1344236980072451 0 0.019056913867763529 -0.155566515408149 0 0.022320289212787989 -0.1422177528203018 0 0.019056913867763529 -0.155566515408149 0 0.0027310736070901482 -0.15493719994590471 0 0.0088678229424013627 -0.13941235935176011 0 0.020222670022858619 -0.12863691797839069 0 0.0088678229424013627 -0.13941235935176011 0 0.0015243557028834459 -0.11711868301268021 0 0.020222670022858619 -0.12863691797839069 0 0.0015243557028834459 -0.11711868301268021 0 0.0144479962461943 -0.1082343501681014 0 0.020222670022858619 -0.12863691797839069 0 0.02728947708542654 -0.1146689930447462 0 0.0144479962461943 -0.1082343501681014 0 0.020222670022858619 -0.12863691797839069 0 0.029299678594365521 -0.12697140115214181 0 0.02728947708542654 -0.1146689930447462 0 0.0144479962461943 -0.1082343501681014 0 0.01674231050701382 -0.093658367309864349 0 0.03170108987002046 -0.10050694789866579 0 0.02728947708542654 -0.1146689930447462 0 0.0144479962461943 -0.1082343501681014 0 0.03170108987002046 -0.10050694789866579 0 0.01674231050701382 -0.093658367309864349 0 0.02745527456064175 -0.089089442263575569 0 0.03170108987002046 -0.10050694789866579 0 0.0144479962461943 -0.1082343501681014 0 0.001856719827670471 -0.098182337095309047 0 0.01674231050701382 -0.093658367309864349 0 0.0015243557028834459 -0.11711868301268021 0 0.0144479962461943 -0.1082343501681014 0 0.001856719827670471 -0.098182337095309047 0 0.001856719827670471 -0.098182337095309047 0 0.0065051428120863272 -0.082127796022149757 0 0.01674231050701382 -0.093658367309864349 0 0.0065051428120863272 -0.082127796022149757 0 0.018539693253586439 -0.071597204448153262 0 0.01731060528333208 -0.084118202510935727 0 0.0065051428120863272 -0.082127796022149757 0 0.01674231050701382 -0.093658367309864349 0 0.01731060528333208 -0.084118202510935727 0 0.0065051428120863272 -0.082127796022149757 0 0.018539693253586439 -0.071597204448153262 0 0.00035237720396625368 -0.061086817302918282 0 0.018539693253586439 -0.071597204448153262 0 0.00035237720396625368 -0.061086817302918282 0 0.029337839486141829 -0.062098975348790997 0 0.018539693253586439 -0.071597204448153262 0 0.036998616429076953 -0.080413518666692163 0 0.029337839486141829 -0.062098975348790997 0 0.018539693253586439 -0.071597204448153262 0 0.039278739387756327 -0.087755278287702396 0 0.018539693253586439 -0.071597204448153262 0 0.02745527456064175 -0.089089442263575569 0 0.039278739387756327 -0.087755278287702396 0 0.018539693253586439 -0.071597204448153262 0 0.01731060528333208 -0.084118202510935727 0 0.02745527456064175 -0.089089442263575569 0 0.01674231050701382 -0.093658367309864349 0 0.01731060528333208 -0.084118202510935727 0 0.02745527456064175 -0.089089442263575569 0 0.018539693253586439 -0.071597204448153262 0 0.036998616429076953 -0.080413518666692163 0 0.039278739387756327 -0.087755278287702396 0 0.02745527456064175 -0.089089442263575569 0 0.039278739387756327 -0.087755278287702396 0 0.036114206476440321 -0.094502097047588079 0 0.036998616429076953 -0.080413518666692163 0 0.039278739387756327 -0.087755278287702396 0 0.050747139898636717 -0.081209848062237813 0 0.058323301768317432 -0.063111133394663815 0 0.029337839486141829 -0.062098975348790997 0 0.036998616429076953 -0.080413518666692163 0 0.058323301768317432 -0.063111133394663815 0 0.029337839486141829 -0.062098975348790997 0 0.036998616429076953 -0.080413518666692163 0 0.058323301768317432 -0.063111133394663815 0 0.058323301768317432 -0.063111133394663815 0 0.050747139898636717 -0.081209848062237813 0 0.060228637404373828 -0.081759239016750626 0 0.036998616429076953 -0.080413518666692163 0 0.058323301768317432 -0.063111133394663815 0 0.050747139898636717 -0.081209848062237813 0 0.039278739387756327 -0.087755278287702396 0 0.050747139898636717 -0.081209848062237813 0 0.060818353003097771 -0.090653503469919336 0 0.050747139898636717 -0.081209848062237813 0 0.060228637404373828 -0.081759239016750626 0 0.060818353003097771 -0.090653503469919336 0 0.060017785521926562 -0.10391335212725129 0 0.042153090511964017 -0.099193769589441219 0 0.043653631303676513 -0.1092911725859987 0 0.060017785521926562 -0.10391335212725129 0 0.043653631303676513 -0.1092911725859987 0 0.039278739387756327 -0.087755278287702396 0 0.060818353003097771 -0.090653503469919336 0 0.060017785521926562 -0.10391335212725129 0 0.060017785521926562 -0.10391335212725129 0 0.053375718786791107 -0.1112883554404277 0 0.043653631303676513 -0.1092911725859987 0 0.039278739387756327 -0.087755278287702396 0 0.060017785521926562 -0.10391335212725129 0 0.039278739387756327 -0.087755278287702396 0 0.060017785521926562 -0.10391335212725129 0 0.042153090511964017 -0.099193769589441219 0 0.060017785521926562 -0.10391335212725129 0 0.053375718786791107 -0.1112883554404277 0 0.065116799684213397 -0.10788606364011991 0 0.052298963826290519 -0.1211548808236817 0 0.066569319149528045 -0.1206454253796948 0 0.065116799684213397 -0.10788606364011991 0 0.052298963826290519 -0.1211548808236817 0 0.065116799684213397 -0.10788606364011991 0 0.052298963826290519 -0.1211548808236817 0 0.053375718786791107 -0.1112883554404277 0 0.065116799684213397 -0.10788606364011991 0 0.052298963826290519 -0.1211548808236817 0 0.053375718786791107 -0.1112883554404277 0 0.043653631303676513 -0.1092911725859987 0 0.02728947708542654 -0.1146689930447462 0 0.037800108132664212 -0.12348471533883321 0 0.043653631303676513 -0.1092911725859987 0 0.02728947708542654 -0.1146689930447462 0 0.043653631303676513 -0.1092911725859987 0 0.052298963826290519 -0.1211548808236817 0 0.037800108132664212 -0.12348471533883321 0 0.043653631303676513 -0.1092911725859987 0 0.029299678594365521 -0.12697140115214181 0 0.02728947708542654 -0.1146689930447462 0 0.037800108132664212 -0.12348471533883321 0 0.02728947708542654 -0.1146689930447462 0 0.03170108987002046 -0.10050694789866579 0 0.043653631303676513 -0.1092911725859987 0 0.036114206476440321 -0.094502097047588079 0 0.03170108987002046 -0.10050694789866579 0 0.042153090511964017 -0.099193769589441219 0 0.02745527456064175 -0.089089442263575569 0 0.036114206476440321 -0.094502097047588079 0 0.03170108987002046 -0.10050694789866579 0 0.039278739387756327 -0.087755278287702396 0 0.036114206476440321 -0.094502097047588079 0 0.042153090511964017 -0.099193769589441219 0 0.03170108987002046 -0.10050694789866579 0 0.042153090511964017 -0.099193769589441219 0 0.043653631303676513 -0.1092911725859987 0 0.025695344612614111 0.0095801541182225364 0 0.02812452509478746 -0.0099579005571815878 0 0.006935528729737548 -0.0054826371559186567 0 0.02812452509478746 -0.0099579005571815878 0 0.006935528729737548 -0.0054826371559186567 0 0.01889941714368459 -0.025130787452367569 0 0.006935528729737548 -0.0054826371559186567 0 0.0027408304473846411 -0.028176541972939319 0 0.01889941714368459 -0.025130787452367569 0 0.02812452509478746 -0.0099579005571815878 0 0.01889941714368459 -0.025130787452367569 0 0.035567370731091272 -0.02454493013615917 0 0.01889941714368459 -0.025130787452367569 0 0.02846567832778216 -0.042756626880165419 0 0.035567370731091272 -0.02454493013615917 0 0.01889941714368459 -0.025130787452367569 0 0.02846567832778216 -0.042756626880165419 0 0.0096258971738255473 -0.043108802377643002 0 0.02846567832778216 -0.042756626880165419 0 0.0096258971738255473 -0.043108802377643002 0 0.016945448047928951 -0.052262805477379423 0 0.01889941714368459 -0.025130787452367569 0 0.0096258971738255473 -0.043108802377643002 0 -0.01026660782967455 -0.041229232136501717 0 0.0027408304473846411 -0.028176541972939319 0 0.0096258971738255473 -0.043108802377643002 0 0.0027408304473846411 -0.028176541972939319 0 0.01889941714368459 -0.025130787452367569 0 0.0096258971738255473 -0.043108802377643002 0 0.0096258971738255473 -0.043108802377643002 0 0.00035237720396625368 -0.061086817302918282 0 0.016945448047928951 -0.052262805477379423 0 0.00035237720396625368 -0.061086817302918282 0 0.016945448047928951 -0.052262805477379423 0 0.029337839486141829 -0.062098975348790997 0 0.0096258971738255473 -0.043108802377643002 0 0.00035237720396625368 -0.061086817302918282 0 0.00035237720396625368 -0.061086817302918282 0 0.029337839486141829 -0.062098975348790997 0 0.02846567832778216 -0.042756626880165419 0 0.016945448047928951 -0.052262805477379423 0 0.029337839486141829 -0.062098975348790997 0 0.02846567832778216 -0.042756626880165419 0 0.029337839486141829 -0.062098975348790997 0 0.044041605111135473 -0.049431168693685697 0 0.058323301768317432 -0.063111133394663815 0 0.029337839486141829 -0.062098975348790997 0 0.044041605111135473 -0.049431168693685697 0 0.058323301768317432 -0.063111133394663815 0 0.044041605111135473 -0.049431168693685697 0 0.059903341899081253 -0.040049795258846832 0 0.059903341899081253 -0.040049795258846832 0 0.045154502468205723 -0.035444412579530127 0 0.052999286202529479 -0.022291816621987929 0 0.044041605111135473 -0.049431168693685697 0 0.059903341899081253 -0.040049795258846832 0 0.045154502468205723 -0.035444412579530127 0 0.02846567832778216 -0.042756626880165419 0 0.044041605111135473 -0.049431168693685697 0 0.045154502468205723 -0.035444412579530127 0 0.02846567832778216 -0.042756626880165419 0 0.045154502468205723 -0.035444412579530127 0 0.035567370731091272 -0.02454493013615917 0 0.045154502468205723 -0.035444412579530127 0 0.035567370731091272 -0.02454493013615917 0 0.052999286202529479 -0.022291816621987929 0 0.035567370731091272 -0.02454493013615917 0 0.052999286202529479 -0.022291816621987929 0 0.04138045704507981 -0.013293391242584921 0 0.02812452509478746 -0.0099579005571815878 0 0.035567370731091272 -0.02454493013615917 0 0.04138045704507981 -0.013293391242584921 0 0.059903341899081253 -0.040049795258846832 0 0.052999286202529479 -0.022291816621987929 0 0.073093181043766914 -0.026775388104941698 0 0.052999286202529479 -0.022291816621987929 0 0.049896637954744763 -0.0073960790217490677 0 0.04138045704507981 -0.013293391242584921 0 0.052999286202529479 -0.022291816621987929 0 0.049896637954744763 -0.0073960790217490677 0 0.066530330394949447 -0.012320269852860621 0 0.049896637954744763 -0.0073960790217490677 0 0.040314465242246092 -0.002276229875846851 0 0.04138045704507981 -0.013293391242584921 0 0.025695344612614111 0.0095801541182225364 0 0.02812452509478746 -0.0099579005571815878 0 0.040314465242246092 -0.002276229875846851 0 0.046640351189982193 0.001482106492276504 0 0.049896637954744763 -0.0073960790217490677 0 0.040314465242246092 -0.002276229875846851 0 0.02812452509478746 -0.0099579005571815878 0 0.040314465242246092 -0.002276229875846851 0 0.04138045704507981 -0.013293391242584921 0 0.075461568133428525 0.0044331687040122013 0 0.081703970602104437 -0.011974759962048749 0 0.098011391193308373 -0.0056982583262641584 0 0.075461568133428525 0.0044331687040122013 0 0.049896637954744763 -0.0073960790217490677 0 0.075461568133428525 0.0044331687040122013 0 0.049896637954744763 -0.0073960790217490677 0 0.066530330394949447 -0.012320269852860621 0 0.075461568133428525 0.0044331687040122013 0 0.081703970602104437 -0.011974759962048749 0 0.066530330394949447 -0.012320269852860621 0 0.081703970602104437 -0.011974759962048749 0 0.066530330394949447 -0.012320269852860621 0 0.073093181043766914 -0.026775388104941698 0 0.052999286202529479 -0.022291816621987929 0 0.066530330394949447 -0.012320269852860621 0 0.073093181043766914 -0.026775388104941698 0 0.081703970602104437 -0.011974759962048749 0 0.097837743661838034 -0.031049975793767819 0 0.098011391193308373 -0.0056982583262641584 0 0.081703970602104437 -0.011974759962048749 0 0.073093181043766914 -0.026775388104941698 0 0.097837743661838034 -0.031049975793767819 0 0.078080522715077566 -0.047080554594215653 0 0.097861902682226248 -0.045151270938537998 0 0.097837743661838034 -0.031049975793767819 0 0.073093181043766914 -0.026775388104941698 0 0.078080522715077566 -0.047080554594215653 0 0.097837743661838034 -0.031049975793767819 0 0.078080522715077566 -0.047080554594215653 0 0.097837743661838034 -0.031049975793767819 0 0.059903341899081253 -0.040049795258846832 0 0.073093181043766914 -0.026775388104941698 0 0.078080522715077566 -0.047080554594215653 0 0.058323301768317432 -0.063111133394663815 0 0.078080522715077566 -0.047080554594215653 0 0.058323301768317432 -0.063111133394663815 0 0.059903341899081253 -0.040049795258846832 0 0.078080522715077566 -0.047080554594215653 0 0.058323301768317432 -0.063111133394663815 0 0.078080522715077566 -0.047080554594215653 0 0.081939961595450139 -0.063935815506958552 0 0.078080522715077566 -0.047080554594215653 0 0.094142039140793971 -0.055881476276546937 0 0.081939961595450139 -0.063935815506958552 0 0.078080522715077566 -0.047080554594215653 0 0.094142039140793971 -0.055881476276546937 0 0.097861902682226248 -0.045151270938537998 0 0.094142039140793971 -0.055881476276546937 0 0.081939961595450139 -0.063935815506958552 0 0.1067368008806147 -0.064801708903802782 0 0.094142039140793971 -0.055881476276546937 0 0.1075629424949773 -0.053875431803618333 0 0.097861902682226248 -0.045151270938537998 0 0.094142039140793971 -0.055881476276546937 0 0.1075629424949773 -0.053875431803618333 0 0.1067368008806147 -0.064801708903802782 0 0.1075629424949773 -0.053875431803618333 0 0.1067368008806147 -0.064801708903802782 0 0.1075629424949773 -0.053875431803618333 0 0.1232921759667842 -0.047663851323270827 0 0.1067368008806147 -0.064801708903802782 0 0.1232921759667842 -0.047663851323270827 0 0.1067368008806147 -0.064801708903802782 0 0.1075629424949773 -0.053875431803618333 0 0.1232921759667842 -0.047663851323270827 0 0.1109518143893137 -0.039435966374661548 0 0.1232921759667842 -0.047663851323270827 0 0.1067368008806147 -0.064801708903802782 0 0.13548767730717889 -0.06580567532731052 0 0.1232921759667842 -0.047663851323270827 0 0.1109518143893137 -0.039435966374661548 0 0.124582941869709 -0.030507807285028901 0 0.1109518143893137 -0.039435966374661548 0 0.097861902682226248 -0.045151270938537998 0 0.097837743661838034 -0.031049975793767819 0 0.1075629424949773 -0.053875431803618333 0 0.1109518143893137 -0.039435966374661548 0 0.097861902682226248 -0.045151270938537998 0 0.097837743661838034 -0.031049975793767819 0 0.1175949646085984 -0.015019396993320021 0 0.097837743661838034 -0.031049975793767819 0 0.1175949646085984 -0.015019396993320021 0 0.098011391193308373 -0.0056982583262641584 0 0.1109518143893137 -0.039435966374661548 0 0.097837743661838034 -0.031049975793767819 0 0.1175949646085984 -0.015019396993320021 0 0.1109518143893137 -0.039435966374661548 0 0.124582941869709 -0.030507807285028901 0 0.1175949646085984 -0.015019396993320021 0 0.124582941869709 -0.030507807285028901 0 0.1175949646085984 -0.015019396993320021 0 0.13165260102391191 -0.019660205177744808 0 0.11882011836095251 0.0065886106746579649 0 0.1175949646085984 -0.015019396993320021 0 0.098011391193308373 -0.0056982583262641584 0 0.11882011836095251 0.0065886106746579649 0 0.13735218555535891 0.001011181807127467 0 0.1175949646085984 -0.015019396993320021 0 0.073111172643960082 -0.099610417542301155 0 0.10058413041743761 -0.090581864498492995 0 0.088608598291174498 -0.101420796185217 0 0.073111172643960082 -0.099610417542301155 0 0.10058413041743761 -0.090581864498492995 0 0.083297568291202648 -0.10670285905343881 0 0.088608598291174498 -0.101420796185217 0 0.073111172643960082 -0.099610417542301155 0 0.083297568291202648 -0.10670285905343881 0 0.088608598291174498 -0.101420796185217 0 0.097441521812097198 -0.10878804364663471 0 0.093527805260815264 -0.13002146576964491 0 0.079322302472514483 -0.11895376470488229 0 0.097441521812097198 -0.10878804364663471 0 0.083297568291202648 -0.10670285905343881 0 0.079322302472514483 -0.11895376470488229 0 0.097441521812097198 -0.10878804364663471 0 0.093527805260815264 -0.13002146576964491 0 0.079322302472514483 -0.11895376470488229 0 0.079322302472514483 -0.11895376470488229 0 0.065116799684213397 -0.10788606364011991 0 0.083297568291202648 -0.10670285905343881 0 0.079322302472514483 -0.11895376470488229 0 0.065116799684213397 -0.10788606364011991 0 0.079322302472514483 -0.11895376470488229 0 0.066569319149528045 -0.1206454253796948 0 0.065116799684213397 -0.10788606364011991 0 0.069539210615093855 -0.1345869923500955 0 0.079322302472514483 -0.11895376470488229 0 0.066569319149528045 -0.1206454253796948 0 0.060017785521926562 -0.10391335212725129 0 0.065116799684213397 -0.10788606364011991 0 0.060017785521926562 -0.10391335212725129 0 0.073111172643960082 -0.099610417542301155 0 0.065116799684213397 -0.10788606364011991 0 0.073111172643960082 -0.099610417542301155 0 0.083297568291202648 -0.10670285905343881 0 0.065116799684213397 -0.10788606364011991 0 0.073111172643960082 -0.099610417542301155 0 0.060017785521926562 -0.10391335212725129 0 0.065116799684213397 -0.10788606364011991 0 0.073111172643960082 -0.099610417542301155 0 0.060818353003097771 -0.090653503469919336 0 0.060017785521926562 -0.10391335212725129 0 0.073111172643960082 -0.099610417542301155 0 0.060818353003097771 -0.090653503469919336 0 0.073111172643960082 -0.099610417542301155 0 0.074211161232423301 -0.082716200610011378 0 0.060228637404373828 -0.081759239016750626 0 0.060818353003097771 -0.090653503469919336 0 0.074211161232423301 -0.082716200610011378 0 0.058323301768317432 -0.063111133394663815 0 0.081939961595450139 -0.063935815506958552 0 0.058323301768317432 -0.063111133394663815 0 0.074211161232423301 -0.082716200610011378 0 0.081939961595450139 -0.063935815506958552 0 0.058323301768317432 -0.063111133394663815 0 0.060228637404373828 -0.081759239016750626 0 0.074211161232423301 -0.082716200610011378 0 0.074211161232423301 -0.082716200610011378 0 0.081939961595450139 -0.063935815506958552 0 0.089190063779311518 -0.082965808471458069 0 0.081939961595450139 -0.063935815506958552 0 0.089190063779311518 -0.082965808471458069 0 0.1052689549146623 -0.0663211994006144 0 0.073111172643960082 -0.099610417542301155 0 0.074211161232423301 -0.082716200610011378 0 0.089190063779311518 -0.082965808471458069 0 0.073111172643960082 -0.099610417542301155 0 0.089190063779311518 -0.082965808471458069 0 0.073111172643960082 -0.099610417542301155 0 0.089190063779311518 -0.082965808471458069 0 0.10058413041743761 -0.090581864498492995 0 0.089190063779311518 -0.082965808471458069 0 0.1017080788123951 -0.087804556385465471 0 0.1052689549146623 -0.0663211994006144 0 0.089190063779311518 -0.082965808471458069 0 0.10058413041743761 -0.090581864498492995 0 0.1017080788123951 -0.087804556385465471 0 0.1017080788123951 -0.087804556385465471 0 0.1084674426683357 -0.077888137089068013 0 0.1052689549146623 -0.0663211994006144 0 0.089190063779311518 -0.082965808471458069 0 0.1052689549146623 -0.0663211994006144 0 0.081939961595450139 -0.063935815506958552 0 0.1067368008806147 -0.064801708903802782 0 0.1052689549146623 -0.0663211994006144 0 0.081939961595450139 -0.063935815506958552 0 0.1067368008806147 -0.064801708903802782 0 0.1017080788123951 -0.087804556385465471 0 0.1052689549146623 -0.0663211994006144 0 0.1084674426683357 -0.077888137089068013 0 0.1067368008806147 -0.064801708903802782 0 0.1052689549146623 -0.0663211994006144 0 0.1067368008806147 -0.064801708903802782 0 0.1052689549146623 -0.0663211994006144 0 0.1067368008806147 -0.064801708903802782 0 0.13548767730717889 -0.06580567532731052 0 0.1084674426683357 -0.077888137089068013 0 0.1067368008806147 -0.064801708903802782 0 0.1232061248222129 -0.075206297362028066 0 0.1067368008806147 -0.064801708903802782 0 0.1232061248222129 -0.075206297362028066 0 0.13548767730717889 -0.06580567532731052 0 0.1017080788123951 -0.087804556385465471 0 0.1084674426683357 -0.077888137089068013 0 0.1272797878356694 -0.088593758706814907 0 0.1017080788123951 -0.087804556385465471 0 0.1272797878356694 -0.088593758706814907 0 0.1084674426683357 -0.077888137089068013 0 0.1232061248222129 -0.075206297362028066 0 0.1272797878356694 -0.088593758706814907 0 0.1017080788123951 -0.087804556385465471 0 0.11567178204704499 -0.10568275569041199 0 0.1272797878356694 -0.088593758706814907 0 0.1017080788123951 -0.087804556385465471 0 0.11567178204704499 -0.10568275569041199 0 0.097441521812097198 -0.10878804364663471 0 0.1017080788123951 -0.087804556385465471 0 0.097441521812097198 -0.10878804364663471 0 0.088608598291174498 -0.101420796185217 0 0.10058413041743761 -0.090581864498492995 0 0.097441521812097198 -0.10878804364663471 0 0.10058413041743761 -0.090581864498492995 0 0.1017080788123951 -0.087804556385465471 0 0.097441521812097198 -0.10878804364663471 0 0.093527805260815264 -0.13002146576964491 0 0.097441521812097198 -0.10878804364663471 0 0.104312872852085 -0.12243825994362539 0 0.093527805260815264 -0.13002146576964491 0 0.097441521812097198 -0.10878804364663471 0 0.11567178204704499 -0.10568275569041199 0 0.097441521812097198 -0.10878804364663471 0 0.104312872852085 -0.12243825994362539 0 0.11567178204704499 -0.10568275569041199 0 0.104312872852085 -0.12243825994362539 0 0.12800820934211829 -0.12401417466047961 0 0.12800820934211829 -0.12401417466047961 0 0.14712201392247631 -0.1132275548916801 0 0.13655559816636781 -0.1031347463460832 0 0.12800820934211829 -0.12401417466047961 0 0.14712201392247631 -0.1132275548916801 0 0.11567178204704499 -0.10568275569041199 0 0.12800820934211829 -0.12401417466047961 0 0.13655559816636781 -0.1031347463460832 0 0.12800820934211829 -0.12401417466047961 0 0.14712201392247631 -0.1132275548916801 0 0.1486045981545247 -0.12747252536747111 0 0.14712201392247631 -0.1132275548916801 0 0.16095359288685571 -0.1184472051676727 0 0.1486045981545247 -0.12747252536747111 0 0.15146120268426411 -0.099532086410862586 0 0.13655559816636781 -0.1031347463460832 0 0.1528514968589437 -0.089382961028164357 0 0.14712201392247631 -0.1132275548916801 0 0.15146120268426411 -0.099532086410862586 0 0.16623581850283431 -0.10244093512288061 0 0.14712201392247631 -0.1132275548916801 0 0.15146120268426411 -0.099532086410862586 0 0.13655559816636781 -0.1031347463460832 0 0.11567178204704499 -0.10568275569041199 0 0.13655559816636781 -0.1031347463460832 0 0.1272797878356694 -0.088593758706814907 0 0.1272797878356694 -0.088593758706814907 0 0.13805891541926751 -0.078942206783145619 0 0.1528514968589437 -0.089382961028164357 0 0.1272797878356694 -0.088593758706814907 0 0.1528514968589437 -0.089382961028164357 0 0.13655559816636781 -0.1031347463460832 0 0.1272797878356694 -0.088593758706814907 0 0.1528514968589437 -0.089382961028164357 0 0.1232061248222129 -0.075206297362028066 0 0.1272797878356694 -0.088593758706814907 0 0.13805891541926751 -0.078942206783145619 0 0.1232061248222129 -0.075206297362028066 0 0.13805891541926751 -0.078942206783145619 0 0.13548767730717889 -0.06580567532731052 0 0.13548767730717889 -0.06580567532731052 0 0.16423855373374319 -0.066809641750814969 0 0.13548767730717889 -0.06580567532731052 0 0.1516507619880918 -0.076739651506421189 0 0.16423855373374319 -0.066809641750814969 0 0.13548767730717889 -0.06580567532731052 0 0.16423855373374319 -0.066809641750814969 0 0.16004124225532049 -0.061841453839887157 0 0.13805891541926751 -0.078942206783145619 0 0.13548767730717889 -0.06580567532731052 0 0.1516507619880918 -0.076739651506421189 0 0.13805891541926751 -0.078942206783145619 0 0.1516507619880918 -0.076739651506421189 0 0.1528514968589437 -0.089382961028164357 0 0.15146120268426411 -0.099532086410862586 0 0.1528514968589437 -0.089382961028164357 0 0.15581646250916109 -0.090151240212135456 0 0.1528514968589437 -0.089382961028164357 0 0.15581646250916109 -0.090151240212135456 0 0.17842320588221819 -0.090172163349513806 0 0.1528514968589437 -0.089382961028164357 0 0.17842320588221819 -0.090172163349513806 0 0.15581646250916109 -0.090151240212135456 0 0.16859491992305889 -0.093070393687126218 0 0.17842320588221819 -0.090172163349513806 0 0.1528514968589437 -0.089382961028164357 0 0.1653897445003264 -0.079862578323319361 0 0.17842320588221819 -0.090172163349513806 0 0.1516507619880918 -0.076739651506421189 0 0.1528514968589437 -0.089382961028164357 0 0.1653897445003264 -0.079862578323319361 0 0.1516507619880918 -0.076739651506421189 0 0.1653897445003264 -0.079862578323319361 0 0.16423855373374319 -0.066809641750814969 0 0.1653897445003264 -0.079862578323319361 0 0.16423855373374319 -0.066809641750814969 0 0.17833356117891219 -0.077628002067558224 0 0.16423855373374319 -0.066809641750814969 0 0.1727598808088672 -0.056322389892066158 0 0.1929894301603077 -0.067813608174319001 0 0.16423855373374319 -0.066809641750814969 0 0.1929894301603077 -0.067813608174319001 0 0.16423855373374319 -0.066809641750814969 0 0.17833356117891219 -0.077628002067558224 0 0.1929894301603077 -0.067813608174319001 0 0.17833356117891219 -0.077628002067558224 0 0.19040307974074269 -0.080139672987034255 0 0.1929894301603077 -0.067813608174319001 0 0.16859491992305889 -0.093070393687126218 0 0.17842320588221819 -0.090172163349513806 0 0.17335524666804841 -0.094081054567607611 0 0.17842320588221819 -0.090172163349513806 0 0.17824607109877541 -0.095663109832525739 0 0.17335524666804841 -0.094081054567607611 0 0.1653897445003264 -0.079862578323319361 0 0.17833356117891219 -0.077628002067558224 0 0.17842320588221819 -0.090172163349513806 0 0.17833356117891219 -0.077628002067558224 0 0.1854866420256687 -0.084161575248007242 0 0.19040307974074269 -0.080139672987034255 0 0.17833356117891219 -0.077628002067558224 0 0.17842320588221819 -0.090172163349513806 0 0.1854866420256687 -0.084161575248007242 0 0.18404025852736719 -0.096743595743047278 0 0.18504385230606449 -0.10434071571553651 0 0.19243594079672521 -0.096163448387799222 0 0.17824607109877541 -0.095663109832525739 0 0.18504385230606449 -0.10434071571553651 0 0.16623581850283431 -0.10244093512288061 0 0.18504385230606449 -0.10434071571553651 0 0.18014950107347269 -0.1188522098678762 0 0.16623581850283431 -0.10244093512288061 0 0.18404025852736719 -0.096743595743047278 0 0.17824607109877541 -0.095663109832525739 0 0.18504385230606449 -0.10434071571553651 0 0.17842320588221819 -0.090172163349513806 0 0.18404025852736719 -0.096743595743047278 0 0.19243594079672521 -0.096163448387799222 0 0.17842320588221819 -0.090172163349513806 0 0.18404025852736719 -0.096743595743047278 0 0.17824607109877541 -0.095663109832525739 0 0.17824607109877541 -0.095663109832525739 0 0.17335524666804841 -0.094081054567607611 0 0.16623581850283431 -0.10244093512288061 0 0.17824607109877541 -0.095663109832525739 0 0.16623581850283431 -0.10244093512288061 0 0.18504385230606449 -0.10434071571553651 0 0.18014950107347269 -0.1188522098678762 0 0.1922879604253335 -0.1099500278873989 0 0.18014950107347269 -0.1188522098678762 0 0.16623581850283431 -0.10244093512288061 0 0.18014950107347269 -0.1188522098678762 0 0.16095359288685571 -0.1184472051676727 0 0.16623581850283431 -0.10244093512288061 0 0.14712201392247631 -0.1132275548916801 0 0.16095359288685571 -0.1184472051676727 0 0.16623581850283431 -0.10244093512288061 0 0.18014950107347269 -0.1188522098678762 0 0.16095359288685571 -0.1184472051676727 0 0.16265603278097029 -0.1302428005884553 0 0.14712201392247631 -0.1132275548916801 0 0.16623581850283431 -0.10244093512288061 0 0.15581646250916109 -0.090151240212135456 0 0.16859491992305889 -0.093070393687126218 0 0.16623581850283431 -0.10244093512288061 0 0.15146120268426411 -0.099532086410862586 0 0.15581646250916109 -0.090151240212135456 0 0.16623581850283431 -0.10244093512288061 0 0.15581646250916109 -0.090151240212135456 0 0.16623581850283431 -0.10244093512288061 0 0.16859491992305889 -0.093070393687126218 0 0.17335524666804841 -0.094081054567607611 0 0.16623581850283431 -0.10244093512288061 0 0.13735218555535891 0.001011181807127467 0 0.1449152044553462 -0.019939696741877431 0 0.14216046477152491 0.0049125148476896544 0 0.15727218843160701 -0.01758578836774349 0 0.15849764294065671 -0.0060544572746906826 0 0.14216046477152491 0.0049125148476896544 0 0.15727218843160701 -0.01758578836774349 0 0.14216046477152491 0.0049125148476896544 0 0.1449152044553462 -0.019939696741877431 0 0.15727218843160701 -0.01758578836774349 0 0.14216046477152491 0.0049125148476896544 0 0.13735218555535891 0.001011181807127467 0 0.1449152044553462 -0.019939696741877431 0 0.13735218555535891 0.001011181807127467 0 0.1175949646085984 -0.015019396993320021 0 0.13735218555535891 0.001011181807127467 0 0.1175949646085984 -0.015019396993320021 0 0.13165260102391191 -0.019660205177744808 0 0.13735218555535891 0.001011181807127467 0 0.13165260102391191 -0.019660205177744808 0 0.1449152044553462 -0.019939696741877431 0 0.13165260102391191 -0.019660205177744808 0 0.13984755105295521 -0.030525993742740402 0 0.1449152044553462 -0.019939696741877431 0 0.124582941869709 -0.030507807285028901 0 0.13165260102391191 -0.019660205177744808 0 0.13984755105295521 -0.030525993742740402 0 0.1449152044553462 -0.019939696741877431 0 0.15247822335533329 -0.040890575290882317 0 0.15727218843160701 -0.01758578836774349 0 0.13984755105295521 -0.030525993742740402 0 0.1449152044553462 -0.019939696741877431 0 0.15247822335533329 -0.040890575290882317 0 0.1449152044553462 -0.019939696741877431 0 0.15247822335533329 -0.040890575290882317 0 0.15247822335533329 -0.040890575290882317 0 0.1379109625223634 -0.045605004272587249 0 0.14629243763992239 -0.054068479542427092 0 0.13984755105295521 -0.030525993742740402 0 0.15247822335533329 -0.040890575290882317 0 0.1379109625223634 -0.045605004272587249 0 0.1232921759667842 -0.047663851323270827 0 0.13984755105295521 -0.030525993742740402 0 0.1379109625223634 -0.045605004272587249 0 0.1232921759667842 -0.047663851323270827 0 0.124582941869709 -0.030507807285028901 0 0.13984755105295521 -0.030525993742740402 0 0.1232921759667842 -0.047663851323270827 0 0.13984755105295521 -0.030525993742740402 0 0.1232921759667842 -0.047663851323270827 0 0.13548767730717889 -0.06580567532731052 0 0.1379109625223634 -0.045605004272587249 0 0.13548767730717889 -0.06580567532731052 0 0.1379109625223634 -0.045605004272587249 0 0.14629243763992239 -0.054068479542427092 0 0.13548767730717889 -0.06580567532731052 0 0.14629243763992239 -0.054068479542427092 0 0.16004124225532049 -0.061841453839887157 0 0.15247822335533329 -0.040890575290882317 0 0.14629243763992239 -0.054068479542427092 0 0.16004124225532049 -0.061841453839887157 0 0.15247822335533329 -0.040890575290882317 0 0.16004124225532049 -0.061841453839887157 0 0.1644158146278025 -0.049784627651503079 0 0.1644158146278025 -0.049784627651503079 0 0.1727598808088672 -0.056322389892066158 0 0.1723839120916891 -0.040084091583176683 0 0.15247822335533329 -0.040890575290882317 0 0.16004124225532049 -0.061841453839887157 0 0.16423855373374319 -0.066809641750814969 0 0.16004124225532049 -0.061841453839887157 0 0.1727598808088672 -0.056322389892066158 0 0.16004124225532049 -0.061841453839887157 0 0.1644158146278025 -0.049784627651503079 0 0.1727598808088672 -0.056322389892066158 0 0.1727598808088672 -0.056322389892066158 0 0.18434240851125541 -0.050289724698312777 0 0.1723839120916891 -0.040084091583176683 0 0.1727598808088672 -0.056322389892066158 0 0.18434240851125541 -0.050289724698312777 0 0.1929894301603077 -0.067813608174319001 0 0.1723839120916891 -0.040084091583176683 0 0.18077822909658589 -0.032018797610549231 0 0.17598651952492231 -0.0227560541305885 0 0.18434240851125541 -0.050289724698312777 0 0.1723839120916891 -0.040084091583176683 0 0.18674227588606429 -0.037749552466939278 0 0.1723839120916891 -0.040084091583176683 0 0.18674227588606429 -0.037749552466939278 0 0.18077822909658589 -0.032018797610549231 0 0.18674227588606429 -0.037749552466939278 0 0.18077822909658589 -0.032018797610549231 0 0.18610830639217099 -0.030062433202775862 0 0.15247822335533329 -0.040890575290882317 0 0.1723839120916891 -0.040084091583176683 0 0.15727218843160701 -0.01758578836774349 0 0.15247822335533329 -0.040890575290882317 0 0.1644158146278025 -0.049784627651503079 0 0.1723839120916891 -0.040084091583176683 0 0.1723839120916891 -0.040084091583176683 0 0.15727218843160701 -0.01758578836774349 0 0.1723839120916891 -0.040084091583176683 0 0.1668946229318731 -0.019675061199070819 0 0.17598651952492231 -0.0227560541305885 0 0.1723839120916891 -0.040084091583176683 0 0.15727218843160701 -0.01758578836774349 0 0.1668946229318731 -0.019675061199070819 0 0.1668946229318731 -0.019675061199070819 0 0.17598651952492231 -0.0227560541305885 0 0.16985348277487761 -0.0099868764823510571 0 0.18077822909658589 -0.032018797610549231 0 0.18438258456793261 -0.021379302004443181 0 0.17598651952492231 -0.0227560541305885 0 0.18077822909658589 -0.032018797610549231 0 0.18610830639217099 -0.030062433202775862 0 0.18438258456793261 -0.021379302004443181 0 0.18438258456793261 -0.021379302004443181 0 0.17598651952492231 -0.0227560541305885 0 0.17878486519392331 -0.011645355321630489 0 0.17598651952492231 -0.0227560541305885 0 0.17878486519392331 -0.011645355321630489 0 0.16985348277487761 -0.0099868764823510571 0 0.17878486519392331 -0.011645355321630489 0 0.17506184651935949 -0.0021247232161890161 0 0.16985348277487761 -0.0099868764823510571 0 0.18438258456793261 -0.021379302004443181 0 0.17878486519392331 -0.011645355321630489 0 0.18863989258252481 -0.001979820774580698 0 0.17878486519392331 -0.011645355321630489 0 0.17506184651935949 -0.0021247232161890161 0 0.18863989258252481 -0.001979820774580698 0 0.1628037813635097 0.0015330777282007481 0 0.17506184651935949 -0.0021247232161890161 0 0.16985348277487761 -0.0099868764823510571 0 0.1668946229318731 -0.019675061199070819 0 0.16985348277487761 -0.0099868764823510571 0 0.15849764294065671 -0.0060544572746906826 0 0.15727218843160701 -0.01758578836774349 0 0.1668946229318731 -0.019675061199070819 0 0.15849764294065671 -0.0060544572746906826 0 0.1628037813635097 0.0015330777282007481 0 0.16985348277487761 -0.0099868764823510571 0 0.15849764294065671 -0.0060544572746906826 0 0.1628037813635097 0.0015330777282007481 0 0.15453230216132671 0.0032055715019124438 0 0.15849764294065671 -0.0060544572746906826 0 0.21174544862736719 0.0096628206364345465 0 0.20589386385567829 -0.0063134785331596111 0 0.2185782736923042 -0.0038367730406402641 0 0.20589386385567829 -0.0063134785331596111 0 0.2185782736923042 -0.0038367730406402641 0 0.2199828155312514 -0.0225516893132638 0 0.20589386385567829 -0.0063134785331596111 0 0.18863989258252481 -0.001979820774580698 0 0.1936475112771239 -0.030998707124919651 0 0.20589386385567829 -0.0063134785331596111 0 0.1936475112771239 -0.030998707124919651 0 0.20001428446098229 -0.034334459813343092 0 0.18863989258252481 -0.001979820774580698 0 0.1936475112771239 -0.030998707124919651 0 0.20589386385567829 -0.0063134785331596111 0 0.20001428446098229 -0.034334459813343092 0 0.18438258456793261 -0.021379302004443181 0 0.18863989258252481 -0.001979820774580698 0 0.1936475112771239 -0.030998707124919651 0 0.18610830639217099 -0.030062433202775862 0 0.18438258456793261 -0.021379302004443181 0 0.1936475112771239 -0.030998707124919651 0 0.20589386385567829 -0.0063134785331596111 0 0.20001428446098229 -0.034334459813343092 0 0.2199828155312514 -0.0225516893132638 0 0.20001428446098229 -0.034334459813343092 0 0.22061008072662569 -0.045125245157715169 0 0.20001428446098229 -0.034334459813343092 0 0.22061008072662569 -0.045125245157715169 0 0.2199828155312514 -0.0225516893132638 0 0.20001428446098229 -0.034334459813343092 0 0.19683654360934791 -0.049478981375062181 0 0.22061008072662569 -0.045125245157715169 0 0.1936475112771239 -0.030998707124919651 0 0.19683654360934791 -0.049478981375062181 0 0.18674227588606429 -0.037749552466939278 0 0.1936475112771239 -0.030998707124919651 0 0.19683654360934791 -0.049478981375062181 0 0.1936475112771239 -0.030998707124919651 0 0.20001428446098229 -0.034334459813343092 0 0.19683654360934791 -0.049478981375062181 0 0.1936475112771239 -0.030998707124919651 0 0.20001428446098229 -0.034334459813343092 0 0.18674227588606429 -0.037749552466939278 0 0.18610830639217099 -0.030062433202775862 0 0.1936475112771239 -0.030998707124919651 0 0.18434240851125541 -0.050289724698312777 0 0.18674227588606429 -0.037749552466939278 0 0.19683654360934791 -0.049478981375062181 0 0.20001428446098229 -0.034334459813343092 0 0.19683654360934791 -0.049478981375062181 0 0.19683654360934791 -0.049478981375062181 0 0.1929894301603077 -0.067813608174319001 0 0.2000429458732931 -0.068059913463883598 0 0.19683654360934791 -0.049478981375062181 0 0.21158346953455981 -0.057932445704329483 0 0.2000429458732931 -0.068059913463883598 0 0.19683654360934791 -0.049478981375062181 0 0.2000429458732931 -0.068059913463883598 0 0.19683654360934791 -0.049478981375062181 0 0.1929894301603077 -0.067813608174319001 0 0.18434240851125541 -0.050289724698312777 0 0.19683654360934791 -0.049478981375062181 0 0.1929894301603077 -0.067813608174319001 0 0.19683654360934791 -0.049478981375062181 0 0.21158346953455981 -0.057932445704329483 0 0.22061008072662569 -0.045125245157715169 0 0.24120587699226881 -0.055916030502087773 0 0.22061008072662569 -0.045125245157715169 0 0.2288443079289719 -0.069065642820655804 0 0.21158346953455981 -0.057932445704329483 0 0.22061008072662569 -0.045125245157715169 0 0.2288443079289719 -0.069065642820655804 0 0.24120587699226881 -0.055916030502087773 0 0.22061008072662569 -0.045125245157715169 0 0.25030159180115191 -0.034143426788088307 0 0.24120587699226881 -0.055916030502087773 0 0.23430517811137791 -0.037629801295311363 0 0.25030159180115191 -0.034143426788088307 0 0.23430517811137791 -0.037629801295311363 0 0.23651070060392609 -0.023431292744830981 0 0.22061008072662569 -0.045125245157715169 0 0.23430517811137791 -0.037629801295311363 0 0.2199828155312514 -0.0225516893132638 0 0.24120587699226881 -0.055916030502087773 0 0.22061008072662569 -0.045125245157715169 0 0.23430517811137791 -0.037629801295311363 0 0.2199828155312514 -0.0225516893132638 0 0.23651070060392609 -0.023431292744830981 0 0.2300866381754704 -0.0072438550720441714 0 0.23430517811137791 -0.037629801295311363 0 0.2199828155312514 -0.0225516893132638 0 0.23651070060392609 -0.023431292744830981 0 0.25030159180115191 -0.034143426788088307 0 0.23651070060392609 -0.023431292744830981 0 0.2464198669495459 -0.012097030270161889 0 0.23790413247208811 0.0091049515404343275 0 0.2464198669495459 -0.012097030270161889 0 0.2300866381754704 -0.0072438550720441714 0 0.23651070060392609 -0.023431292744830981 0 0.2464198669495459 -0.012097030270161889 0 0.2300866381754704 -0.0072438550720441714 0 0.2185782736923042 -0.0038367730406402641 0 0.2199828155312514 -0.0225516893132638 0 0.2300866381754704 -0.0072438550720441714 0 0.22518260227175371 0.0072623370788317187 0 0.2185782736923042 -0.0038367730406402641 0 0.2300866381754704 -0.0072438550720441714 0 0.20666963866093291 -0.1113398018781358 0 0.20399491490549271 -0.090961365670864353 0 0.20666963866093291 -0.1113398018781358 0 0.23081911420975029 -0.091789222750733895 0 0.20666963866093291 -0.1113398018781358 0 0.20399491490549271 -0.090961365670864353 0 0.23081911420975029 -0.091789222750733895 0 0.2184940671700534 -0.12394732724419751 0 0.20666963866093291 -0.1113398018781358 0 0.22056261316880149 -0.1108234873110058 0 0.2184940671700534 -0.12394732724419751 0 0.20975191972323501 -0.12432290509972491 0 0.20666963866093291 -0.1113398018781358 0 0.2184940671700534 -0.12394732724419751 0 0.20666963866093291 -0.1113398018781358 0 0.20975191972323501 -0.12432290509972491 0 0.20666963866093291 -0.1113398018781358 0 0.1971408692894723 -0.1190539635876471 0 0.20975191972323501 -0.12432290509972491 0 0.20666963866093291 -0.1113398018781358 0 0.18014950107347269 -0.1188522098678762 0 0.1971408692894723 -0.1190539635876471 0 0.19406318364410949 -0.13526348461287321 0 0.20666963866093291 -0.1113398018781358 0 0.1971408692894723 -0.1190539635876471 0 0.18014950107347269 -0.1188522098678762 0 0.1971408692894723 -0.1190539635876471 0 0.1922879604253335 -0.1099500278873989 0 0.20666963866093291 -0.1113398018781358 0 0.1971408692894723 -0.1190539635876471 0 0.1922879604253335 -0.1099500278873989 0 0.20666963866093291 -0.1113398018781358 0 0.19243594079672521 -0.096163448387799222 0 0.20399491490549271 -0.090961365670864353 0 0.18504385230606449 -0.10434071571553651 0 0.1922879604253335 -0.1099500278873989 0 0.19243594079672521 -0.096163448387799222 0 0.20666963866093291 -0.1113398018781358 0 0.1922879604253335 -0.1099500278873989 0 0.19243594079672521 -0.096163448387799222 0 0.20666963866093291 -0.1113398018781358 0 0.19243594079672521 -0.096163448387799222 0 0.1854866420256687 -0.084161575248007242 0 0.19040307974074269 -0.080139672987034255 0 0.20399491490549271 -0.090961365670864353 0 0.17842320588221819 -0.090172163349513806 0 0.19243594079672521 -0.096163448387799222 0 0.20399491490549271 -0.090961365670864353 0 0.17842320588221819 -0.090172163349513806 0 0.20399491490549271 -0.090961365670864353 0 0.17842320588221819 -0.090172163349513806 0 0.1854866420256687 -0.084161575248007242 0 0.20399491490549271 -0.090961365670864353 0 0.2000429458732931 -0.068059913463883598 0 0.20399491490549271 -0.090961365670864353 0 0.19040307974074269 -0.080139672987034255 0 0.2000429458732931 -0.068059913463883598 0 0.20399491490549271 -0.090961365670864353 0 0.19040307974074269 -0.080139672987034255 0 0.1929894301603077 -0.067813608174319001 0 0.2000429458732931 -0.068059913463883598 0 0.19040307974074269 -0.080139672987034255 0 0.1929894301603077 -0.067813608174319001 0 0.1929894301603077 -0.067813608174319001 0 0.2000429458732931 -0.068059913463883598 0 0.2000429458732931 -0.068059913463883598 0 0.2288443079289719 -0.069065642820655804 0 0.2000429458732931 -0.068059913463883598 0 0.21771238563745279 -0.081480669998114597 0 0.2288443079289719 -0.069065642820655804 0 0.21158346953455981 -0.057932445704329483 0 0.2000429458732931 -0.068059913463883598 0 0.2288443079289719 -0.069065642820655804 0 0.2000429458732931 -0.068059913463883598 0 0.20399491490549271 -0.090961365670864353 0 0.21771238563745279 -0.081480669998114597 0 0.20399491490549271 -0.090961365670864353 0 0.21771238563745279 -0.081480669998114597 0 0.23081911420975029 -0.091789222750733895 0 0.20399491490549271 -0.090961365670864353 0 0.23081911420975029 -0.091789222750733895 0 0.21771238563745279 -0.081480669998114597 0 0.23081911420975029 -0.091789222750733895 0 0.2288443079289719 -0.069065642820655804 0 0.25764566998465072 -0.070071372177431313 0 0.24120587699226881 -0.055916030502087773 0 0.2288443079289719 -0.069065642820655804 0 0.25764566998465072 -0.070071372177431313 0 0.2288443079289719 -0.069065642820655804 0 0.25764566998465072 -0.070071372177431313 0 0.2288443079289719 -0.069065642820655804 0 0.24423239209720191 -0.080930297464084477 0 0.25666672159796139 -0.092586939936295867 0 0.23081911420975029 -0.091789222750733895 0 0.23081911420975029 -0.091789222750733895 0 0.2288443079289719 -0.069065642820655804 0 0.24423239209720191 -0.080930297464084477 0 0.25666672159796139 -0.092586939936295867 0 0.23081911420975029 -0.091789222750733895 0 0.24423239209720191 -0.080930297464084477 0 0.23081911420975029 -0.091789222750733895 0 0.24423239209720191 -0.080930297464084477 0 0.25666672159796139 -0.092586939936295867 0 0.23081911420975029 -0.091789222750733895 0 0.23839025179526999 -0.1151992729885977 0 0.20666963866093291 -0.1113398018781358 0 0.23081911420975029 -0.091789222750733895 0 0.22056261316880149 -0.1108234873110058 0 0.23081911420975029 -0.091789222750733895 0 0.22056261316880149 -0.1108234873110058 0 0.23839025179526999 -0.1151992729885977 0 0.2184940671700534 -0.12394732724419751 0 0.22056261316880149 -0.1108234873110058 0 0.23839025179526999 -0.1151992729885977 0 0.2184940671700534 -0.12394732724419751 0 0.23839025179526999 -0.1151992729885977 0 0.22928680998153819 -0.13545484142638689 0 0.25915390151091949 -0.11811210275817149 0 0.25133622254172122 -0.13557462765415079 0 0.23839025179526999 -0.1151992729885977 0 0.25133622254172122 -0.13557462765415079 0 0.25208407187516418 -0.1419613505697605 0 0.23274332603383319 -0.13914027229300069 0 0.25133622254172122 -0.13557462765415079 0 0.23839025179526999 -0.1151992729885977 0 0.22928680998153819 -0.13545484142638689 0 0.25133622254172122 -0.13557462765415079 0 0.22928680998153819 -0.13545484142638689 0 0.25133622254172122 -0.13557462765415079 0 0.23274332603383319 -0.13914027229300069 0 0.22928680998153819 -0.13545484142638689 0 0.25208407187516418 -0.1419613505697605 0 0.23274332603383319 -0.13914027229300069 0 0.2530488896403309 -0.16079061319898569 0 0.23274332603383319 -0.13914027229300069 0 0.2530488896403309 -0.16079061319898569 0 0.23274332603383319 -0.13914027229300069 0 0.2334622085995452 -0.15779257262933219 0 0.2530488896403309 -0.16079061319898569 0 0.25208407187516418 -0.1419613505697605 0 0.23274332603383319 -0.13914027229300069 0 0.22694604844669111 -0.15137512496012309 0 0.2202725953444182 -0.1456731206256075 0 0.22100128495381829 -0.16152072110389429 0 0.22694604844669111 -0.15137512496012309 0 0.23274332603383319 -0.13914027229300069 0 0.2334622085995452 -0.15779257262933219 0 0.22694604844669111 -0.15137512496012309 0 0.2202725953444182 -0.1456731206256075 0 0.23274332603383319 -0.13914027229300069 0 0.23274332603383319 -0.13914027229300069 0 0.20959101376118139 -0.13576323162740581 0 0.22928680998153819 -0.13545484142638689 0 0.2116749968128239 -0.1353591630196288 0 0.23274332603383319 -0.13914027229300069 0 0.22928680998153819 -0.13545484142638689 0 0.2116749968128239 -0.1353591630196288 0 0.2184940671700534 -0.12394732724419751 0 0.22928680998153819 -0.13545484142638689 0 0.2116749968128239 -0.1353591630196288 0 0.2202725953444182 -0.1456731206256075 0 0.23274332603383319 -0.13914027229300069 0 0.20959101376118139 -0.13576323162740581 0 0.23274332603383319 -0.13914027229300069 0 0.22928680998153819 -0.13545484142638689 0 0.2184940671700534 -0.12394732724419751 0 0.22928680998153819 -0.13545484142638689 0 0.23274332603383319 -0.13914027229300069 0 0.20959101376118139 -0.13576323162740581 0 0.2116749968128239 -0.1353591630196288 0 0.20975191972323501 -0.12432290509972491 0 0.2116749968128239 -0.1353591630196288 0 0.19406318364410949 -0.13526348461287321 0 0.2184940671700534 -0.12394732724419751 0 0.20975191972323501 -0.12432290509972491 0 0.2116749968128239 -0.1353591630196288 0 0.20959101376118139 -0.13576323162740581 0 0.2116749968128239 -0.1353591630196288 0 0.19406318364410949 -0.13526348461287321 0 0.2202725953444182 -0.1456731206256075 0 0.21077041390333781 -0.15496976615408631 0 0.22100128495381829 -0.16152072110389429 0 0.2202725953444182 -0.1456731206256075 0 0.20959101376118139 -0.13576323162740581 0 0.21077041390333781 -0.15496976615408631 0 0.20959101376118139 -0.13576323162740581 0 0.21077041390333781 -0.15496976615408631 0 0.19406318364410949 -0.13526348461287321 0 0.21077041390333781 -0.15496976615408631 0 0.19019323353294471 -0.15547991582157239 0 0.19406318364410949 -0.13526348461287321 0 0.21077041390333781 -0.15496976615408631 0 0.19406318364410949 -0.13526348461287321 0 0.20975191972323501 -0.12432290509972491 0 0.1971408692894723 -0.1190539635876471 0 0.19406318364410949 -0.13526348461287321 0 0.2116749968128239 -0.1353591630196288 0 0.19406318364410949 -0.13526348461287321 0 0.2064216300685435 -0.1763378775815001 0 0.19333004299069351 -0.19482382871724169 0 0.185888281266576 -0.1738959907954824 0 0.21077041390333781 -0.15496976615408631 0 0.19019323353294471 -0.15547991582157239 0 0.2064216300685435 -0.1763378775815001 0 0.19019323353294471 -0.15547991582157239 0 0.2064216300685435 -0.1763378775815001 0 0.185888281266576 -0.1738959907954824 0 0.21077041390333781 -0.15496976615408631 0 0.2064216300685435 -0.1763378775815001 0 0.22100128495381829 -0.16152072110389429 0 0.2064216300685435 -0.1763378775815001 0 0.22637928715471201 -0.1750627007060517 0 0.22100128495381829 -0.16152072110389429 0 0.2064216300685435 -0.1763378775815001 0 0.22637928715471201 -0.1750627007060517 0 0.2213864998634191 -0.19074186604973761 0 0.22637928715471201 -0.1750627007060517 0 0.2363010186387848 -0.18586727398715949 0 0.2213864998634191 -0.19074186604973761 0 0.22637928715471201 -0.1750627007060517 0 0.22100128495381829 -0.16152072110389429 0 0.2334622085995452 -0.15779257262933219 0 0.22637928715471201 -0.1750627007060517 0 0.2334622085995452 -0.15779257262933219 0 0.24133419147104179 -0.17110858194103351 0 0.22694604844669111 -0.15137512496012309 0 0.22100128495381829 -0.16152072110389429 0 0.2334622085995452 -0.15779257262933219 0 0.2530488896403309 -0.16079061319898569 0 0.2334622085995452 -0.15779257262933219 0 0.24133419147104179 -0.17110858194103351 0 0.2550208565069661 -0.17514012483034949 0 0.2530488896403309 -0.16079061319898569 0 0.24133419147104179 -0.17110858194103351 0 0.22637928715471201 -0.1750627007060517 0 0.24133419147104179 -0.17110858194103351 0 0.2363010186387848 -0.18586727398715949 0 0.25030889548151403 -0.1837077448593728 0 0.2550208565069661 -0.17514012483034949 0 0.24133419147104179 -0.17110858194103351 0 0.25030889548151403 -0.1837077448593728 0 0.24133419147104179 -0.17110858194103351 0 0.2363010186387848 -0.18586727398715949 0 0.25030889548151403 -0.1837077448593728 0 0.2363010186387848 -0.18586727398715949 0 0.24624710011957149 -0.19756578472926509 0 0.2363010186387848 -0.18586727398715949 0 0.24624710011957149 -0.19756578472926509 0 0.23232272155890341 -0.19906227567560569 0 0.24624710011957149 -0.19756578472926509 0 0.2390873575194972 -0.2119906927462733 0 0.23232272155890341 -0.19906227567560569 0 0.25806059678156651 -0.21160485628964759 0 0.24624710011957149 -0.19756578472926509 0 0.2390873575194972 -0.2119906927462733 0 0.25806059678156651 -0.21160485628964759 0 0.2390873575194972 -0.2119906927462733 0 0.2485278721491469 -0.22983386195931649 0 0.22156570902884701 -0.2081716276760221 0 0.2275965143199381 -0.22680811778712909 0 0.21130945108473639 -0.22000441216527869 0 0.2390873575194972 -0.2119906927462733 0 0.22156570902884701 -0.2081716276760221 0 0.23232272155890341 -0.19906227567560569 0 0.2390873575194972 -0.2119906927462733 0 0.22156570902884701 -0.2081716276760221 0 0.2275965143199381 -0.22680811778712909 0 0.22156570902884701 -0.2081716276760221 0 0.2213864998634191 -0.19074186604973761 0 0.23232272155890341 -0.19906227567560569 0 0.2363010186387848 -0.18586727398715949 0 0.2213864998634191 -0.19074186604973761 0 0.23232272155890341 -0.19906227567560569 0 0.2410490216361528 -0.25300372010805161 0 0.2485278721491469 -0.22983386195931649 0 0.2275965143199381 -0.22680811778712909 0 0.25787859859726192 -0.24372773219337371 0 0.2410490216361528 -0.25300372010805161 0 0.2485278721491469 -0.22983386195931649 0 0.2390873575194972 -0.2119906927462733 0 0.2485278721491469 -0.22983386195931649 0 0.2275965143199381 -0.22680811778712909 0 0.2410490216361528 -0.25300372010805161 0 0.2275965143199381 -0.22680811778712909 0 0.2136455624920251 -0.24586339942155419 0 0.2410490216361528 -0.25300372010805161 0 0.2136455624920251 -0.24586339942155419 0 0.2136455624920251 -0.24586339942155419 0 0.1995187067769538 -0.22648505830905971 0 0.1970165427207646 -0.2431475676051908 0 0.2275965143199381 -0.22680811778712909 0 0.2136455624920251 -0.24586339942155419 0 0.21130945108473639 -0.22000441216527869 0 0.2136455624920251 -0.24586339942155419 0 0.21130945108473639 -0.22000441216527869 0 0.1995187067769538 -0.22648505830905971 0 0.1995187067769538 -0.22648505830905971 0 0.1970165427207646 -0.2431475676051908 0 0.1843931124890181 -0.23269732176232691 0 0.21130945108473639 -0.22000441216527869 0 0.1995187067769538 -0.22648505830905971 0 0.19847161958806309 -0.21206345826637629 0 0.2064216300685435 -0.1763378775815001 0 0.2213864998634191 -0.19074186604973761 0 0.20705859430259141 -0.20063481153153051 0 0.22156570902884701 -0.2081716276760221 0 0.2213864998634191 -0.19074186604973761 0 0.20705859430259141 -0.20063481153153051 0 0.22156570902884701 -0.2081716276760221 0 0.21130945108473639 -0.22000441216527869 0 0.20705859430259141 -0.20063481153153051 0 0.21130945108473639 -0.22000441216527869 0 0.20705859430259141 -0.20063481153153051 0 0.19847161958806309 -0.21206345826637629 0 0.19847161958806309 -0.21206345826637629 0 0.19333004299069351 -0.19482382871724169 0 0.184507054165965 -0.21658659277756609 0 0.1995187067769538 -0.22648505830905971 0 0.19847161958806309 -0.21206345826637629 0 0.184507054165965 -0.21658659277756609 0 0.20705859430259141 -0.20063481153153051 0 0.19847161958806309 -0.21206345826637629 0 0.19333004299069351 -0.19482382871724169 0 0.2064216300685435 -0.1763378775815001 0 0.20705859430259141 -0.20063481153153051 0 0.19333004299069351 -0.19482382871724169 0 0.1776330785524223 -0.18942424135099509 0 0.184507054165965 -0.21658659277756609 0 0.16837846483810831 -0.20319749351435479 0 0.19333004299069351 -0.19482382871724169 0 0.1776330785524223 -0.18942424135099509 0 0.184507054165965 -0.21658659277756609 0 0.1776330785524223 -0.18942424135099509 0 0.184507054165965 -0.21658659277756609 0 0.184507054165965 -0.21658659277756609 0 0.1749867686249286 -0.21735889230250449 0 0.16837846483810831 -0.20319749351435479 0 0.1749867686249286 -0.21735889230250449 0 0.16837846483810831 -0.20319749351435479 0 0.15045483047290331 -0.2082327262959493 0 0.1749867686249286 -0.21735889230250449 0 0.15045483047290331 -0.2082327262959493 0 0.1749867686249286 -0.21735889230250449 0 0.16226861639455931 -0.22172210758959859 0 0.15045483047290331 -0.2082327262959493 0 0.16837846483810831 -0.20319749351435479 0 0.15045483047290331 -0.2082327262959493 0 0.15431059237432221 -0.18438501484475869 0 0.1776330785524223 -0.18942424135099509 0 0.16837846483810831 -0.20319749351435479 0 0.15431059237432221 -0.18438501484475869 0 0.1970165427207646 -0.2431475676051908 0 0.18013525364959199 -0.24590787480667409 0 0.1843931124890181 -0.23269732176232691 0 0.18013525364959199 -0.24590787480667409 0 0.1843931124890181 -0.23269732176232691 0 0.17030829067285161 -0.2305872157882054 0 0.1995187067769538 -0.22648505830905971 0 0.1749867686249286 -0.21735889230250449 0 0.1995187067769538 -0.22648505830905971 0 0.1749867686249286 -0.21735889230250449 0 0.1843931124890181 -0.23269732176232691 0 0.1995187067769538 -0.22648505830905971 0 0.184507054165965 -0.21658659277756609 0 0.1749867686249286 -0.21735889230250449 0 0.1749867686249286 -0.21735889230250449 0 0.1843931124890181 -0.23269732176232691 0 0.17030829067285161 -0.2305872157882054 0 0.16226861639455931 -0.22172210758959859 0 0.17030829067285161 -0.2305872157882054 0 0.15332457580755371 -0.23070959597173549 0 0.1749867686249286 -0.21735889230250449 0 0.16226861639455931 -0.22172210758959859 0 0.17030829067285161 -0.2305872157882054 0 0.16103468924722281 -0.25381861710109321 0 0.18013525364959199 -0.24590787480667409 0 0.17030829067285161 -0.2305872157882054 0 0.16103468924722281 -0.25381861710109321 0 0.17030829067285161 -0.2305872157882054 0 0.15332457580755371 -0.23070959597173549 0 0.16103468924722281 -0.25381861710109321 0 0.1412434604122122 -0.24631040783256791 0 0.15332457580755371 -0.23070959597173549 0 0.1412434604122122 -0.24631040783256791 0 0.15332457580755371 -0.23070959597173549 0 0.1284413173888232 -0.22347585252773641 0 0.15332457580755371 -0.23070959597173549 0 0.1284413173888232 -0.22347585252773641 0 0.15045483047290331 -0.2082327262959493 0 0.16226861639455931 -0.22172210758959859 0 0.15332457580755371 -0.23070959597173549 0 0.15045483047290331 -0.2082327262959493 0 0.1200034520355143 -0.24749468667538321 0 0.1412434604122122 -0.24631040783256791 0 0.1284413173888232 -0.22347585252773641 0 0.15045483047290331 -0.2082327262959493 0 0.12592289232087811 -0.19910656028939411 0 0.15431059237432221 -0.18438501484475869 0 0.15045483047290331 -0.2082327262959493 0 0.12592289232087811 -0.19910656028939411 0 0.1284413173888232 -0.22347585252773641 0 0.15045483047290331 -0.2082327262959493 0 0.12592289232087811 -0.19910656028939411 0 0.11404320040195411 -0.17785048998131209 0 0.12592289232087811 -0.19910656028939411 0 0.1362427207560932 -0.1734399905344442 0 0.12592289232087811 -0.19910656028939411 0 0.1362427207560932 -0.1734399905344442 0 0.15431059237432221 -0.18438501484475869 0 0.1362427207560932 -0.1734399905344442 0 0.15431059237432221 -0.18438501484475869 0 0.1498051255961938 -0.157092757972084 0 0.11404320040195411 -0.17785048998131209 0 0.1362427207560932 -0.1734399905344442 0 0.1305387904294309 -0.15561497697083931 0 0.1362427207560932 -0.1734399905344442 0 0.1498051255961938 -0.157092757972084 0 0.1305387904294309 -0.15561497697083931 0 0.1498051255961938 -0.157092757972084 0 0.1305387904294309 -0.15561497697083931 0 0.13638976604354719 -0.13495016646355951 0 0.1161887790728692 -0.1476769396888597 0 0.1305387904294309 -0.15561497697083931 0 0.13638976604354719 -0.13495016646355951 0 0.12800820934211829 -0.12401417466047961 0 0.13638976604354719 -0.13495016646355951 0 0.1486045981545247 -0.12747252536747111 0 0.13638976604354719 -0.13495016646355951 0 0.16388512732533739 -0.13509953849785281 0 0.13638976604354719 -0.13495016646355951 0 0.1486045981545247 -0.12747252536747111 0 0.16388512732533739 -0.13509953849785281 0 0.1498051255961938 -0.157092757972084 0 0.13638976604354719 -0.13495016646355951 0 0.16388512732533739 -0.13509953849785281 0 0.16388512732533739 -0.13509953849785281 0 0.17075910293887969 -0.16226188992442411 0 0.1498051255961938 -0.157092757972084 0 0.16388512732533739 -0.13509953849785281 0 0.17075910293887969 -0.16226188992442411 0 0.18014950107347269 -0.1188522098678762 0 0.16265603278097029 -0.1302428005884553 0 0.16388512732533739 -0.13509953849785281 0 0.16095359288685571 -0.1184472051676727 0 0.1486045981545247 -0.12747252536747111 0 0.16265603278097029 -0.1302428005884553 0 0.1486045981545247 -0.12747252536747111 0 0.16265603278097029 -0.1302428005884553 0 0.16388512732533739 -0.13509953849785281 0 0.16265603278097029 -0.1302428005884553 0 0.16388512732533739 -0.13509953849785281 0 0.19406318364410949 -0.13526348461287321 0 0.16388512732533739 -0.13509953849785281 0 0.18014950107347269 -0.1188522098678762 0 0.19406318364410949 -0.13526348461287321 0 0.18014950107347269 -0.1188522098678762 0 0.19406318364410949 -0.13526348461287321 0 0.16388512732533739 -0.13509953849785281 0 0.19019323353294471 -0.15547991582157239 0 0.16388512732533739 -0.13509953849785281 0 0.17075910293887969 -0.16226188992442411 0 0.19019323353294471 -0.15547991582157239 0 0.19406318364410949 -0.13526348461287321 0 0.16388512732533739 -0.13509953849785281 0 0.19019323353294471 -0.15547991582157239 0 0.185888281266576 -0.1738959907954824 0 0.17075910293887969 -0.16226188992442411 0 0.1776330785524223 -0.18942424135099509 0 0.185888281266576 -0.1738959907954824 0 0.17075910293887969 -0.16226188992442411 0 0.1776330785524223 -0.18942424135099509 0 0.17075910293887969 -0.16226188992442411 0 0.19333004299069351 -0.19482382871724169 0 0.1776330785524223 -0.18942424135099509 0 0.185888281266576 -0.1738959907954824 0 0.1776330785524223 -0.18942424135099509 0 0.15431059237432221 -0.18438501484475869 0 0.17075910293887969 -0.16226188992442411 0 0.15431059237432221 -0.18438501484475869 0 0.1498051255961938 -0.157092757972084 0 0.17075910293887969 -0.16226188992442411 0 
</DataArray>
</Points>
<Cells>
<DataArray type="UInt32" Name="connectivity" format="ascii">
0 1 2 3 4 5 6 7 8 9 10 11 12 13 14 15 16 17 18 19 20 21 22 23 24 25 26 27 28 29 30 31 32 33 34 35 36 37 38 39 40 41 42 43 44 45 46 47 48 49 50 51 52 53 54 55 56 57 58 59 60 61 62 63 64 65 66 67 68 69 70 71 72 73 74 75 76 77 78 79 80 81 82 83 84 85 86 87 88 89 90 91 92 93 94 95 96 97 98 99 100 101 102 103 104 105 106 107 108 109 110 111 112 113 114 115 116 117 118 119 120 121 122 123 124 125 126 127 128 129 130 131 132 133 134 135 136 137 138 139 140 141 142 143 144 145 146 147 148 149 150 151 152 153 154 155 156 157 158 159 160 161 162 163 164 165 166 167 168 169 170 171 172 173 174 175 176 177 178 179 180 181 182 183 184 185 186 187 188 189 190 191 192 193 194 195 196 197 198 199 200 201 202 203 204 205 206 207 208 209 210 211 212 213 214 215 216 217 218 219 220 221 222 223 224 225 226 227 228 229 230 231 232 233 234 235 236 237 238 239 240 241 242 243 244 245 246 247 248 249 250 251 252 253 254 255 256 257 258 259 260 261 262 263 264 265 266 267 268 269 270 271 272 273 274 275 276 277 278 279 280 281 282 283 284 285 286 287 288 289 290 291 292 293 294 295 296 297 298 299 300 301 302 303 304 305 306 307 308 309 310 311 312 313 314 315 316 317 318 319 320 321 322 323 324 325 326 327 328 329 330 331 332 333 334 335 336 337 338 339 340 341 342 343 344 345 346 347 348 349 350 351 352 353 354 355 356 357 358 359 360 361 362 363 364 365 366 367 368 369 370 371 372 373 374 375 376 377 378 379 380 381 382 383 384 385 386 387 388 389 390 391 392 393 394 395 396 397 398 399 400 401 402 403 404 405 406 407 408 409 410 411 412 413 414 415 416 417 418 419 420 421 422 423 424 425 426 427 428 429 430 431 432 433 434 435 436 437 438 439 440 441 442 443 444 445 446 447 448 449 450 451 452 453 454 455 456 457 458 459 460 461 462 463 464 465 466 467 468 469 470 471 472 473 474 475 476 477 478 479 480 481 482 483 484 485 486 487 488 489 490 491 492 493 494 495 496 497 498 499 500 501 502 503 504 505 506 507 508 509 510 511 512 513 514 515 516 517 518 519 520 521 522 523 524 525 526 527 528 529 530 531 532 533 534 535 536 537 538 539 540 541 542 543 544 545 546 547 548 549 550 551 552 553 554 555 556 557 558 559 560 561 562 563 564 565 566 567 568 569 570 571 572 573 574 575 576 577 578 579 580 581 582 583 584 585 586 587 588 589 590 591 592 593 594 595 596 597 598 599 600 601 602 603 604 605 606 607 608 609 610 611 612 613 614 615 616 617 618 619 620 621 622 623 624 625 626 627 628 629 630 631 632 633 634 635 636 637 638 639 640 641 642 643 644 645 646 647 648 649 650 651 652 653 654 655 656 657 658 659 660 661 662 663 664 665 666 667 668 669 670 671 672 673 674 675 676 677 678 679 680 681 682 683 684 685 686 687 688 689 690 691 692 693 694 695 696 697 698 699 700 701 702 703 704 705 706 707 708 709 710 711 712 713 714 715 716 717 718 719 720 721 722 723 724 725 726 727 728 729 730 731 732 733 734 735 736 737 738 739 740 741 742 743 744 745 746 747 748 749 750 751 752 753 754 755 756 757 758 759 760 761 762 763 764 765 766 767 768 769 770 771 772 773 774 775 776 777 778 779 780 781 782 783 784 785 786 787 788 789 790 791 792 793 794 795 796 797 798 799 800 801 802 803 804 805 806 807 808 809 810 811 812 813 814 815 816 817 818 819 820 821 822 823 824 825 826 827 828 829 830 831 832 833 834 835 836 837 838 839 840 841 842 843 844 845 846 847 848 849 850 851 852 853 854 855 856 857 858 859 860 861 862 863 864 865 866 867 868 869 870 871 872 873 874 875 876 877 878 879 880 881 882 883 884 885 886 887 888 889 890 891 892 893 894 895 896 897 898 899 900 901 902 903 904 905 906 907 908 909 910 911 912 913 914 915 916 917 918 919 920 921 922 923 924 925 926 927 928 929 930 931 932 933 934 935 936 937 938 939 940 941 942 943 944 945 946 947 948 949 950 951 952 953 954 955 956 957 958 959 960 961 962 963 964 965 966 967 968 969 970 971 972 973 974 975 976 977 978 979 980 981 982 983 984 985 986 987 988 989 990 991 992 993 994 995 996 997 998 999 1000 1001 1002 1003 1004 1005 1006 1007 1008 1009 1010 1011 1012 1013 1014 1015 1016 1017 1018 1019 1020 1021 1022 1023 1024 1025 1026 1027 1028 1029 1030 1031 1032 1033 1034 1035 1036 1037 1038 1039 1040 1041 1042 1043 1044 1045 1046 1047 1048 1049 1050 1051 1052 1053 1054 1055 1056 1057 1058 1059 1060 1061 1062 1063 1064 1065 1066 1067 1068 1069 1070 1071 1072 1073 1074 1075 1076 1077 1078 1079 1080 1081 1082 1083 1084 1085 1086 1087 1088 1089 1090 1091 1092 1093 1094 1095 1096 1097 1098 1099 1100 1101 1102 1103 1104 1105 1106 1107 1108 1109 1110 1111 1112 1113 1114 1115 1116 1117 1118 1119 1120 1121 1122 1123 1124 1125 1126 1127 1128 1129 1130 1131 1132 1133 1134 1135 1136 1137 1138 1139 1140 1141 1142 1143 1144 1145 1146 1147 1148 1149 1150 1151 1152 1153 1154 1155 1156 1157 1158 1159 1160 1161 1162 1163 1164 1165 1166 1167 1168 1169 1170 1171 1172 1173 1174 1175 1176 1177 1178 1179 1180 1181 1182 1183 1184 1185 1186 1187 1188 1189 1190 1191 1192 1193 1194 1195 1196 1197 1198 1199 1200 1201 1202 1203 1204 1205 1206 1207 1208 1209 1210 1211 1212 1213 1214 1215 1216 1217 1218 1219 1220 1221 1222 1223 1224 1225 1226 1227 1228 1229 1230 1231 1232 1233 1234 1235 1236 1237 1238 1239 1240 1241 1242 1243 1244 1245 1246 1247 1248 1249 1250 1251 1252 1253 1254 1255 1256 1257 1258 1259 1260 1261 1262 1263 1264 1265 1266 1267 1268 1269 1270 1271 1272 1273 1274 1275 1276 1277 1278 1279 1280 1281 1282 1283 1284 1285 1286 1287 1288 1289 1290 1291 1292 1293 1294 1295 1296 1297 1298 1299 1300 1301 1302 1303 1304 1305 1306 1307 1308 1309 1310 1311 1312 1313 1314 1315 1316 1317 1318 1319 1320 1321 1322 1323 1324 1325 1326 1327 1328 1329 1330 1331 1332 1333 1334 1335 1336 1337 1338 1339 1340 1341 1342 1343 1344 1345 1346 1347 1348 1349 1350 1351 1352 1353 1354 1355 1356 1357 1358 1359 1360 1361 1362 1363 1364 1365 1366 1367 1368 1369 1370 1371 1372 1373 1374 1375 1376 1377 1378 1379 1380 1381 1382 1383 1384 1385 1386 1387 1388 1389 1390 1391 1392 1393 1394 1395 1396 1397 1398 1399 1400 1401 1402 1403 1404 1405 1406 1407 1408 1409 1410 1411 1412 1413 1414 1415 1416 1417 1418 1419 1420 1421 1422 1423 1424 1425 1426 1427 1428 1429 1430 1431 1432 1433 1434 1435 1436 1437 1438 1439 1440 1441 1442 1443 1444 1445 1446 1447 1448 1449 1450 1451 1452 1453 1454 1455 1456 1457 1458 1459 1460 1461 1462 1463 1464 1465 1466 1467 1468 1469 1470 1471 1472 1473 1474 1475 1476 1477 1478 1479 1480 1481 1482 1483 1484 1485 1486 1487 1488 1489 1490 1491 1492 1493 1494 1495 1496 1497 1498 1499 1500 1501 1502 1503 1504 1505 1506 1507 1508 1509 1510 1511 1512 1513 1514 1515 1516 1517 1518 1519 1520 1521 1522 1523 1524 1525 1526 1527 1528 1529 1530 1531 1532 1533 1534 1535 1536 1537 1538 1539 1540 1541 1542 1543 1544 1545 1546 1547 1548 1549 1550 1551 1552 1553 1554 1555 1556 1557 1558 1559 1560 1561 1562 1563 1564 1565 1566 1567 1568 1569 1570 1571 1572 1573 1574 1575 1576 1577 1578 1579 1580 1581 1582 1583 1584 1585 1586 1587 1588 1589 1590 1591 1592 1593 1594 1595 1596 1597 1598 1599 1600 1601 1602 1603 1604 1605 1606 1607 1608 1609 1610 1611 1612 1613 1614 1615 1616 1617 1618 1619 1620 1621 1622 1623 1624 1625 1626 1627 1628 1629 1630 1631 1632 1633 1634 1635 1636 1637 1638 1639 1640 1641 1642 1643 1644 1645 1646 1647 1648 1649 1650 1651 1652 1653 1654 1655 1656 1657 1658 1659 1660 1661 1662 1663 1664 1665 1666 1667 1668 1669 1670 1671 1672 1673 1674 1675 1676 1677 1678 1679 1680 1681 1682 1683 1684 1685 1686 1687 1688 1689 1690 1691 1692 1693 1694 1695 1696 1697 1698 1699 1700 1701 1702 1703 1704 1705 1706 1707 1708 1709 1710 1711 1712 1713 1714 1715 1716 1717 1718 1719 1720 1721 1722 1723 1724 1725 1726 1727 1728 1729 1730 1731 1732 1733 1734 1735 1736 1737 1738 1739 1740 1741 1742 1743 1744 1745 1746 1747 1748 1749 1750 1751 1752 1753 1754 1755 1756 1757 1758 1759 1760 1761 1762 1763 1764 1765 1766 1767 1768 1769 1770 1771 1772 1773 1774 1775 1776 1777 1778 1779 1780 1781 1782 1783 1784 1785 1786 1787 1788 1789 1790 1791 1792 1793 1794 1795 1796 1797 1798 1799 1800 1801 1802 1803 1804 1805 1806 1807 1808 1809 1810 1811 1812 1813 1814 1815 1816 1817 1818 1819 1820 1821 1822 1823 1824 1825 1826 1827 1828 1829 1830 1831 1832 1833 1834 1835 1836 1837 1838 1839 1840 1841 1842 1843 1844 1845 1846 1847 1848 1849 1850 1851 1852 1853 1854 1855 1856 1857 1858 1859 1860 1861 1862 1863 1864 1865 1866 1867 1868 1869 1870 1871 1872 1873 1874 1875 1876 1877 1878 1879 1880 1881 1882 1883 1884 1885 1886 1887 1888 1889 1890 1891 1892 1893 1894 1895 1896 1897 1898 1899 1900 1901 1902 1903 1904 1905 1906 1907 1908 1909 1910 1911 1912 1913 1914 1915 1916 1917 1918 1919 1920 1921 1922 1923 1924 1925 1926 1927 1928 1929 1930 1931 1932 1933 1934 1935 1936 1937 1938 1939 1940 1941 1942 1943 1944 1945 1946 1947 1948 1949 1950 1951 1952 1953 1954 1955 1956 1957 1958 1959 1960 1961 1962 1963 1964 1965 1966 1967 1968 1969 1970 1971 1972 1973 1974 1975 1976 1977 1978 1979 1980 1981 1982 1983 1984 1985 1986 1987 1988 1989 1990 1991 1992 1993 1994 1995 1996 1997 1998 1999 2000 2001 2002 2003 2004 2005 2006 2007 2008 2009 2010 2011 2012 2013 2014 2015 2016 2017 2018 2019 2020 2021 2022 2023 2024 2025 2026 2027 2028 2029 2030 2031 2032 2033 2034 2035 2036 2037 2038 2039 2040 2041 2042 2043 2044 2045 2046 2047 2048 2049 2050 2051 2052 2053 2054 2055 2056 2057 2058 2059 2060 2061 2062 2063 2064 2065 2066 2067 2068 2069 2070 2071 2072 2073 2074 2075 2076 2077 2078 2079 2080 2081 2082 2083 2084 2085 2086 2087 2088 2089 2090 2091 2092 2093 2094 2095 2096 2097 2098 2099 2100 2101 2102 2103 2104 2105 2106 2107 2108 2109 2110 2111 2112 2113 2114 2115 2116 2117 2118 2119 2120 2121 2122 2123 2124 2125 2126 2127 2128 2129 2130 2131 2132 2133 2134 2135 2136 2137 2138 2139 2140 2141 2142 2143 2144 2145 2146 2147 2148 2149 2150 2151 2152 2153 2154 2155 2156 2157 2158 2159 2160 2161 2162 2163 2164 2165 2166 2167 2168 2169 2170 2171 2172 2173 2174 2175 2176 2177 2178 2179 2180 2181 2182 2183 2184 2185 2186 2187 2188 2189 2190 2191 2192 2193 2194 2195 2196 2197 2198 2199 2200 2201 2202 2203 2204 2205 2206 2207 2208 2209 2210 2211 2212 2213 2214 2215 2216 2217 2218 2219 2220 2221 2222 2223 2224 2225 2226 2227 2228 2229 2230 2231 2232 2233 2234 2235 2236 2237 2238 2239 2240 2241 2242 2243 2244 2245 2246 2247 2248 2249 2250 2251 2252 2253 2254 2255 2256 2257 2258 2259 2260 2261 2262 2263 2264 2265 2266 2267 2268 2269 2270 2271 2272 2273 2274 2275 2276 2277 2278 2279 2280 2281 2282 2283 2284 2285 2286 2287 2288 2289 2290 2291 2292 2293 2294 2295 2296 2297 2298 2299 2300 2301 2302 2303 2304 2305 2306 2307 2308 2309 2310 2311 2312 2313 2314 2315 2316 2317 2318 2319 2320 2321 2322 2323 2324 2325 2326 2327 2328 2329 2330 2331 2332 2333 2334 2335 2336 2337 2338 2339 2340 2341 2342 2343 2344 2345 2346 2347 2348 2349 2350 2351 2352 2353 2354 2355 2356 2357 2358 2359 2360 2361 2362 2363 2364 2365 2366 2367 2368 2369 2370 2371 2372 2373 2374 2375 2376 2377 2378 2379 2380 2381 2382 2383 2384 2385 2386 2387 2388 2389 2390 2391 2392 2393 2394 2395 2396 2397 2398 2399 2400 2401 2402 2403 2404 2405 2406 2407 2408 2409 2410 2411 2412 2413 2414 2415 2416 2417 2418 2419 2420 2421 2422 2423 2424 2425 2426 2427 2428 2429 2430 2431 2432 2433 2434 2435 2436 2437 2438 2439 2440 2441 2442 2443 2444 2445 2446 2447 2448 2449 2450 2451 2452 2453 2454 2455 2456 2457 2458 2459 2460 2461 2462 2463 2464 2465 2466 2467 2468 2469 2470 2471 2472 2473 2474 2475 2476 2477 2478 2479 2480 2481 2482 2483 2484 2485 2486 2487 2488 2489 2490 2491 2492 2493 2494 2495 2496 2497 2498 2499 2500 2501 2502 2503 2504 2505 2506 2507 2508 2509 2510 2511 2512 2513 2514 2515 2516 2517 2518 2519 2520 2521 2522 2523 2524 2525 2526 2527 2528 2529 2530 2531 2532 2533 2534 2535 2536 2537 2538 2539 2540 2541 2542 2543 2544 2545 2546 2547 2548 2549 2550 2551 2552 2553 2554 2555 2556 2557 2558 2559 2560 2561 2562 2563 2564 2565 2566 2567 2568 2569 2570 2571 2572 2573 2574 2575 2576 2577 2578 2579 2580 2581 2582 2583 2584 2585 2586 2587 2588 2589 2590 2591 2592 2593 2594 2595 2596 2597 2598 2599 2600 2601 2602 2603 2604 2605 2606 2607 2608 2609 2610 2611 2612 2613 2614 2615 2616 2617 2618 2619 2620 2621 2622 2623 2624 2625 2626 2627 2628 2629 2630 2631 2632 2633 2634 2635 2636 2637 2638 2639 2640 2641 2642 2643 2644 2645 2646 2647 2648 2649 2650 2651 2652 2653 2654 2655 2656 2657 2658 2659 2660 2661 2662 2663 2664 2665 2666 2667 2668 2669 2670 2671 2672 2673 2674 2675 2676 2677 2678 2679 2680 2681 2682 2683 2684 2685 2686 2687 2688 2689 2690 2691 2692 2693 2694 2695 2696 2697 2698 2699 2700 2701 2702 2703 2704 2705 2706 2707 2708 2709 2710 2711 2712 2713 2714 2715 2716 2717 2718 2719 2720 2721 2722 2723 2724 2725 2726 2727 2728 2729 2730 2731 2732 2733 2734 2735 2736 2737 2738 2739 2740 2741 2742 2743 2744 2745 2746 2747 2748 2749 2750 2751 2752 2753 2754 2755 2756 2757 2758 2759 2760 2761 2762 2763 2764 2765 2766 2767 2768 2769 2770 2771 2772 2773 2774 2775 2776 2777 2778 2779 2780 2781 2782 2783 2784 2785 2786 2787 2788 2789 2790 2791 2792 2793 2794 2795 2796 2797 2798 2799 2800 2801 2802 2803 2804 2805 2806 2807 2808 2809 2810 2811 2812 2813 2814 2815 2816 2817 2818 2819 2820 2821 2822 2823 2824 2825 2826 2827 2828 2829 2830 2831 2832 2833 2834 2835 2836 2837 2838 2839 2840 2841 2842 2843 2844 2845 2846 2847 2848 2849 2850 2851 2852 2853 2854 2855 2856 2857 2858 2859 2860 2861 2862 2863 2864 2865 2866 2867 2868 2869 2870 2871 2872 2873 2874 2875 2876 2877 2878 2879 2880 2881 2882 2883 2884 2885 2886 2887 2888 2889 2890 2891 2892 2893 2894 2895 2896 2897 2898 2899 2900 2901 2902 2903 2904 2905 2906 2907 2908 2909 2910 2911 2912 2913 2914 2915 2916 2917 2918 2919 2920 2921 2922 2923 2924 2925 2926 2927 2928 2929 2930 2931 2932 2933 2934 2935 2936 2937 2938 2939 2940 2941 2942 2943 2944 2945 2946 2947 2948 2949 2950 2951 2952 2953 2954 2955 2956 2957 2958 2959 2960 2961 2962 2963 2964 2965 2966 2967 2968 2969 2970 2971 2972 2973 2974 2975 2976 2977 2978 2979 2980 2981 2982 2983 2984 2985 2986 2987 2988 2989 2990 2991 2992 2993 2994 2995 2996 2997 2998 2999 3000 3001 3002 3003 3004 3005 3006 3007 3008 3009 3010 3011 3012 3013 3014 3015 3016 3017 3018 3019 3020 3021 3022 3023 3024 3025 3026 3027 3028 3029 3030 3031 3032 3033 3034 3035 3036 3037 3038 3039 3040 3041 3042 3043 3044 3045 3046 3047 3048 3049 3050 3051 3052 3053 3054 3055 3056 3057 3058 3059 3060 3061 3062 3063 3064 3065 3066 3067 3068 3069 3070 3071 3072 3073 3074 3075 3076 3077 3078 3079 3080 3081 3082 3083 3084 3085 3086 3087 3088 3089 3090 3091 3092 3093 3094 3095 3096 3097 3098 3099 3100 3101 3102 3103 3104 3105 3106 3107 3108 3109 3110 3111 3112 3113 3114 3115 3116 3117 3118 3119 3120 3121 3122 3123 3124 3125 3126 3127 3128 3129 3130 3131 3132 3133 3134 3135 3136 3137 3138 3139 3140 3141 3142 3143 3144 3145 3146 3147 3148 3149 3150 3151 3152 3153 3154 3155 3156 3157 3158 3159 3160 3161 3162 3163 3164 3165 3166 3167 3168 3169 3170 3171 3172 3173 3174 3175 3176 3177 3178 3179 3180 3181 3182 3183 3184 3185 3186 3187 3188 3189 3190 3191 3192 3193 3194 3195 3196 3197 3198 3199 3200 3201 3202 3203 3204 3205 3206 3207 3208 3209 3210 3211 3212 3213 3214 3215 3216 3217 3218 3219 3220 3221 3222 3223 3224 3225 3226 3227 3228 3229 3230 3231 3232 3233 3234 3235 3236 3237 3238 3239 3240 3241 3242 3243 3244 3245 3246 3247 3248 3249 3250 3251 3252 3253 3254 3255 3256 3257 3258 3259 3260 3261 3262 3263 3264 3265 3266 3267 3268 3269 3270 3271 3272 3273 3274 3275 3276 3277 3278 3279 3280 3281 3282 3283 3284 3285 3286 3287 3288 3289 3290 3291 3292 3293 3294 3295 3296 3297 3298 3299 3300 3301 3302 3303 3304 3305 3306 3307 3308 3309 3310 3311 3312 3313 3314 3315 3316 3317 3318 3319 3320 3321 3322 3323 3324 3325 3326 3327 3328 3329 3330 3331 3332 3333 3334 3335 3336 3337 3338 3339 3340 3341 3342 3343 3344 3345 3346 3347 3348 3349 3350 3351 3352 3353 3354 3355 3356 3357 3358 3359 3360 3361 3362 3363 3364 3365 3366 3367 3368 3369 3370 3371 3372 3373 3374 3375 3376 3377 3378 3379 3380 3381 3382 3383 3384 3385 3386 3387 3388 3389 3390 3391 3392 3393 3394 3395 3396 3397 3398 3399 3400 3401 3402 3403 3404 3405 3406 3407 3408 3409 3410 3411 3412 3413 3414 3415 3416 3417 3418 3419 3420 3421 3422 3423 3424 3425 3426 3427 3428 3429 3430 3431 3432 3433 3434 3435 3436 3437 3438 3439 3440 3441 3442 3443 3444 3445 3446 3447 3448 3449 3450 3451 3452 3453 3454 3455 3456 3457 3458 3459 3460 3461 3462 3463 3464 3465 3466 3467 3468 3469 3470 3471 3472 3473 3474 3475 3476 3477 3478 3479 3480 3481 3482 3483 3484 3485 3486 3487 3488 3489 3490 3491 3492 3493 3494 3495 3496 3497 3498 3499 3500 3501 3502 3503 3504 3505 3506 3507 3508 3509 3510 3511 3512 3513 3514 3515 3516 3517 3518 3519 3520 3521 3522 3523 3524 3525 3526 3527 3528 3529 3530 3531 3532 3533 3534 3535 3536 3537 3538 3539 3540 3541 3542 3543 3544 3545 3546 3547 3548 3549 3550 3551 3552 3553 3554 3555 3556 3557 3558 3559 3560 3561 3562 3563 3564 3565 3566 3567 3568 3569 3570 3571 3572 3573 3574 3575 3576 3577 3578 3579 3580 3581 3582 3583 3584 3585 3586 3587 3588 3589 3590 3591 3592 3593 3594 3595 3596 3597 3598 3599 3600 3601 3602 3603 3604 3605 3606 3607 3608 3609 3610 3611 3612 3613 3614 3615 3616 3617 3618 3619 3620 3621 3622 3623 3624 3625 3626 3627 3628 3629 3630 3631 3632 3633 3634 3635 3636 3637 3638 3639 3640 3641 3642 3643 3644 3645 3646 3647 3648 3649 3650 3651 3652 3653 3654 3655 3656 3657 3658 3659 3660 3661 3662 3663 3664 3665 3666 3667 3668 3669 3670 3671 3672 3673 3674 3675 3676 3677 3678 3679 3680 3681 3682 3683 3684 3685 3686 3687 3688 3689 3690 3691 3692 3693 3694 3695 3696 3697 3698 3699 3700 3701 3702 3703 3704 3705 3706 3707 3708 3709 3710 3711 3712 3713 3714 3715 3716 3717 3718 3719 3720 3721 3722 3723 3724 3725 3726 3727 3728 3729 3730 3731 3732 3733 3734 3735 3736 3737 3738 3739 3740 3741 3742 3743 3744 3745 3746 3747 3748 3749 3750 3751 3752 3753 3754 3755 3756 3757 3758 3759 3760 3761 3762 3763 3764 3765 3766 3767 3768 3769 3770 3771 3772 3773 3774 3775 3776 3777 3778 3779 3780 3781 3782 3783 3784 3785 3786 3787 3788 3789 3790 3791 3792 3793 3794 3795 3796 3797 3798 3799 3800 3801 3802 3803 3804 3805 3806 3807 3808 3809 3810 3811 3812 3813 3814 3815 3816 3817 3818 3819 3820 3821 3822 3823 3824 3825 3826 3827 3828 3829 3830 3831 3832 3833 3834 3835 3836 3837 3838 3839 3840 3841 3842 3843 3844 3845 3846 3847 3848 3849 3850 3851 3852 3853 3854 3855 3856 3857 3858 3859 3860 3861 3862 3863 3864 3865 3866 3867 3868 3869 3870 3871 3872 3873 3874 3875 3876 3877 3878 3879 3880 3881 3882 3883 3884 3885 3886 3887 3888 3889 3890 3891 3892 3893 3894 3895 3896 3897 3898 3899 3900 3901 3902 3903 3904 3905 3906 3907 3908 3909 3910 3911 3912 3913 3914 3915 3916 3917 3918 3919 3920 3921 3922 3923 3924 3925 3926 3927 3928 3929 3930 3931 3932 3933 3934 3935 3936 3937 3938 3939 3940 3941 3942 3943 3944 3945 3946 3947 3948 3949 3950 3951 3952 3953 3954 3955 3956 3957 3958 3959 3960 3961 3962 3963 3964 3965 3966 3967 3968 3969 3970 3971 3972 3973 3974 3975 3976 3977 3978 3979 3980 3981 3982 3983 3984 3985 3986 3987 3988 3989 3990 3991 3992 3993 3994 3995 3996 3997 3998 3999 4000 4001 4002 4003 4004 4005 4006 4007 4008 4009 4010 4011 4012 4013 4014 4015 4016 4017 4018 4019 4020 4021 4022 4023 4024 4025 4026 4027 4028 4029 4030 4031 4032 4033 4034 4035 4036 4037 4038 4039 4040 4041 4042 4043 4044 4045 4046 4047 4048 4049 4050 4051 4052 4053 4054 4055 4056 4057 4058 4059 4060 4061 4062 4063 4064 4065 4066 4067 4068 4069 4070 4071 4072 4073 4074 4075 4076 4077 4078 4079 4080 4081 4082 4083 4084 4085 4086 4087 4088 4089 4090 4091 4092 4093 4094 4095 4096 4097 4098 4099 4100 4101 4102 4103 4104 4105 4106 4107 4108 4109 4110 4111 4112 4113 4114 4115 4116 4117 4118 4119 4120 4121 4122 4123 4124 4125 4126 4127 4128 4129 4130 4131 4132 4133 4134 4135 4136 4137 4138 4139 4140 4141 4142 4143 4144 4145 4146 4147 4148 4149 4150 4151 4152 4153 4154 4155 4156 4157 4158 4159 4160 4161 4162 4163 4164 4165 4166 4167 4168 4169 4170 4171 4172 4173 4174 4175 4176 4177 4178 4179 4180 4181 4182 4183 4184 4185 4186 4187 4188 4189 4190 4191 4192 4193 4194 4195 4196 4197 4198 4199 4200 4201 4202 4203 4204 4205 4206 4207 4208 4209 4210 4211 4212 4213 4214 4215 4216 4217 4218 4219 4220 4221 4222 4223 4224 4225 4226 4227 4228 4229 4230 4231 4232 4233 4234 4235 4236 4237 4238 4239 4240 4241 4242 4243 4244 4245 4246 4247 4248 4249 4250 4251 4252 4253 4254 4255 4256 4257 4258 4259 4260 4261 4262 4263 4264 4265 4266 4267 4268 4269 4270 4271 4272 4273 4274 4275 4276 4277 4278 4279 4280 4281 4282 4283 4284 4285 4286 4287 4288 4289 4290 4291 4292 4293 4294 4295 4296 4297 4298 4299 4300 4301 4302 4303 4304 4305 4306 4307 4308 4309 4310 4311 4312 4313 4314 4315 4316 4317 4318 4319 4320 4321 4322 4323 4324 4325 4326 4327 4328 4329 4330 4331 4332 4333 4334 4335 4336 4337 4338 4339 4340 4341 4342 4343 4344 4345 4346 4347 4348 4349 4350 4351 4352 4353 4354 4355 4356 4357 4358 4359 4360 4361 4362 4363 4364 4365 4366 4367 4368 4369 4370 4371 4372 4373 4374 4375 4376 4377 4378 4379 4380 4381 4382 4383 4384 4385 4386 4387 4388 4389 4390 4391 4392 4393 4394 4395 4396 4397 4398 4399 4400 4401 4402 4403 4404 4405 4406 4407 4408 4409 4410 4411 4412 4413 4414 4415 4416 4417 4418 4419 4420 4421 4422 4423 4424 4425 4426 4427 4428 4429 4430 4431 4432 4433 4434 4435 4436 4437 4438 4439 4440 4441 4442 4443 4444 4445 4446 4447 4448 4449 4450 4451 4452 4453 4454 4455 4456 4457 4458 4459 4460 4461 4462 4463 4464 4465 4466 4467 4468 4469 4470 4471 4472 4473 4474 4475 4476 4477 4478 4479 4480 4481 4482 4483 4484 4485 4486 4487 4488 4489 4490 4491 4492 4493 4494 4495 4496 4497 4498 4499 4500 4501 4502 4503 4504 4505 4506 4507 4508 4509 4510 4511 4512 4513 4514 4515 4516 4517 4518 4519 4520 4521 4522 4523 4524 4525 4526 4527 4528 4529 4530 4531 4532 4533 4534 4535 4536 4537 4538 4539 4540 4541 4542 4543 4544 4545 4546 4547 4548 4549 4550 4551 4552 4553 4554 4555 4556 4557 4558 4559 4560 4561 4562 4563 4564 4565 4566 4567 4568 4569 4570 4571 4572 4573 4574 4575 4576 4577 4578 4579 4580 4581 4582 4583 4584 4585 4586 4587 4588 4589 4590 4591 4592 4593 4594 4595 4596 4597 4598 4599 4600 4601 4602 4603 4604 4605 4606 4607 4608 4609 4610 4611 4612 4613 4614 4615 4616 4617 4618 4619 4620 4621 4622 4623 4624 4625 4626 4627 4628 4629 4630 4631 4632 4633 4634 4635 4636 4637 4638 4639 4640 4641 4642 4643 4644 4645 4646 4647 4648 4649 4650 4651 4652 4653 4654 4655 4656 4657 4658 4659 4660 4661 4662 4663 4664 4665 4666 4667 4668 4669 4670 4671 4672 4673 4674 4675 4676 4677 4678 4679 4680 4681 4682 4683 4684 4685 4686 4687 4688 4689 4690 4691 4692 4693 4694 4695 4696 4697 4698 4699 4700 4701 4702 4703 4704 4705 4706 4707 4708 4709 4710 4711 4712 4713 4714 4715 4716 4717 4718 4719 4720 4721 4722 4723 4724 4725 4726 4727 4728 4729 4730 4731 4732 4733 4734 4735 4736 4737 4738 4739 4740 4741 4742 4743 4744 4745 4746 4747 4748 4749 4750 4751 4752 4753 4754 4755 4756 4757 4758 4759 4760 4761 4762 4763 4764 4765 4766 4767 4768 4769 4770 4771 4772 4773 4774 4775 4776 4777 4778 4779 4780 4781 4782 4783 4784 4785 4786 4787 4788 4789 4790 4791 4792 4793 4794 4795 4796 4797 4798 4799 4800 4801 4802 4803 4804 4805 4806 4807 4808 4809 4810 4811 4812 4813 4814 4815 4816 4817 4818 4819 4820 4821 4822 4823 4824 4825 4826 4827 4828 4829 4830 4831 4832 4833 4834 4835 4836 4837 4838 4839 4840 4841 4842 4843 4844 4845 4846 4847 4848 4849 4850 4851 4852 4853 4854 4855 4856 4857 4858 4859 4860 4861 4862 4863 4864 4865 4866 4867 4868 4869 4870 4871 4872 4873 4874 4875 4876 4877 4878 4879 4880 4881 4882 4883 4884 4885 4886 4887 4888 4889 4890 4891 4892 4893 4894 4895 4896 4897 4898 4899 4900 4901 4902 4903 4904 4905 4906 4907 4908 4909 4910 4911 4912 4913 4914 4915 4916 4917 4918 4919 4920 4921 4922 4923 4924 4925 4926 4927 4928 4929 4930 4931 4932 4933 4934 4935 4936 4937 4938 4939 4940 4941 4942 4943 4944 4945 4946 4947 4948 4949 4950 4951 4952 4953 4954 4955 4956 4957 4958 4959 4960 4961 4962 4963 4964 4965 4966 4967 4968 4969 4970 4971 4972 4973 4974 4975 4976 4977 4978 4979 4980 4981 4982 4983 4984 4985 4986 4987 4988 4989 4990 4991 4992 4993 4994 4995 4996 4997 4998 4999 5000 5001 5002 5003 5004 5005 5006 5007 5008 5009 5010 5011 5012 5013 5014 5015 5016 5017 5018 5019 5020 5021 5022 5023 5024 5025 5026 5027 5028 5029 5030 5031 5032 5033 5034 5035 5036 5037 5038 5039 5040 5041 5042 5043 5044 5045 5046 5047 5048 5049 5050 5051 5052 5053 5054 5055 5056 5057 5058 5059 5060 5061 5062 5063 5064 5065 5066 5067 5068 5069 5070 5071 5072 5073 5074 5075 5076 5077 5078 5079 5080 5081 5082 5083 5084 5085 5086 5087 5088 5089 5090 5091 5092 5093 5094 5095 5096 5097 5098 5099 5100 5101 5102 5103 5104 5105 5106 5107 5108 5109 5110 5111 5112 5113 5114 5115 5116 5117 5118 5119 5120 5121 5122 5123 5124 5125 5126 5127 5128 5129 5130 5131 5132 5133 5134 5135 5136 5137 5138 5139 5140 5141 5142 5143 5144 5145 5146 5147 5148 5149 5150 5151 5152 5153 5154 5155 5156 5157 5158 5159 5160 5161 5162 5163 5164 5165 5166 5167 5168 5169 5170 5171 5172 5173 5174 5175 5176 5177 5178 5179 5180 5181 5182 5183 5184 5185 5186 5187 5188 5189 5190 5191 5192 5193 5194 5195 5196 5197 5198 5199 5200 5201 5202 5203 5204 5205 5206 5207 5208 5209 5210 5211 5212 5213 5214 5215 5216 5217 5218 5219 5220 5221 5222 5223 5224 5225 5226 5227 5228 5229 5230 5231 5232 5233 5234 5235 5236 5237 5238 5239 5240 5241 5242 5243 5244 5245 5246 5247 5248 5249 5250 5251 5252 5253 5254 5255 5256 5257 5258 5259 5260 5261 5262 5263 5264 5265 5266 5267 5268 5269 5270 5271 5272 5273 5274 5275 5276 5277 5278 5279 5280 5281 5282 5283 5284 5285 5286 5287 5288 5289 5290 5291 5292 5293 5294 5295 5296 5297 5298 5299 5300 5301 5302 5303 5304 5305 5306 5307 5308 5309 5310 5311 5312 5313 5314 5315 5316 5317 5318 5319 5320 5321 5322 5323 5324 5325 5326 5327 5328 5329 5330 5331 5332 5333 5334 5335 5336 5337 5338 5339 5340 5341 5342 5343 5344 5345 5346 5347 5348 5349 5350 5351 5352 5353 5354 5355 5356 5357 5358 5359 5360 5361 5362 5363 5364 5365 5366 5367 5368 5369 5370 5371 5372 5373 5374 5375 5376 5377 5378 5379 5380 5381 5382 5383 5384 5385 5386 5387 5388 5389 5390 5391 5392 5393 5394 5395 5396 5397 5398 5399 5400 5401 5402 5403 5404 5405 5406 5407 5408 5409 5410 5411 5412 5413 5414 5415 5416 5417 5418 5419 5420 5421 5422 5423 5424 5425 5426 5427 5428 5429 5430 5431 5432 5433 5434 5435 5436 5437 5438 5439 5440 5441 5442 5443 5444 5445 5446 5447 5448 5449 5450 5451 5452 5453 5454 5455 5456 5457 5458 5459 5460 5461 5462 5463 5464 5465 5466 5467 5468 5469 5470 5471 5472 5473 5474 5475 5476 5477 5478 5479 5480 5481 5482 5483 5484 5485 5486 5487 5488 5489 5490 5491 5492 5493 5494 5495 5496 5497 5498 5499 5500 5501 5502 5503 5504 5505 5506 5507 5508 5509 5510 5511 5512 5513 5514 5515 5516 5517 5518 5519 5520 5521 5522 5523 5524 5525 5526 5527 5528 5529 5530 5531 5532 5533 5534 5535 5536 5537 5538 5539 5540 5541 5542 5543 5544 5545 5546 5547 5548 5549 5550 5551 5552 5553 5554 5555 5556 5557 5558 5559 5560 5561 5562 5563 5564 5565 5566 5567 5568 5569 5570 5571 5572 5573 5574 5575 5576 5577 5578 5579 5580 5581 5582 5583 5584 5585 5586 5587 5588 5589 5590 5591 5592 5593 5594 5595 5596 5597 5598 5599 5600 5601 5602 5603 5604 5605 5606 5607 5608 5609 5610 5611 5612 5613 5614 5615 5616 5617 5618 5619 5620 5621 5622 5623 5624 5625 5626 5627 5628 5629 5630 5631 5632 5633 5634 5635 5636 5637 5638 5639 5640 5641 5642 5643 5644 5645 5646 5647 5648 5649 5650 5651 5652 5653 5654 5655 5656 5657 5658 5659 5660 5661 5662 5663 5664 5665 5666 5667 5668 5669 5670 5671 5672 5673 5674 5675 5676 5677 5678 5679 5680 5681 5682 5683 5684 5685 5686 5687 5688 5689 5690 5691 5692 5693 5694 5695 5696 5697 5698 5699 5700 5701 5702 5703 5704 5705 5706 5707 5708 5709 5710 5711 5712 5713 5714 5715 5716 5717 5718 5719 5720 5721 5722 5723 5724 5725 5726 5727 5728 5729 5730 5731 5732 5733 5734 5735 5736 5737 5738 5739 5740 5741 5742 5743 5744 5745 5746 5747 5748 5749 5750 5751 5752 5753 5754 5755 5756 5757 5758 5759 5760 5761 5762 5763 5764 5765 5766 5767 5768 5769 5770 5771 5772 5773 5774 5775 5776 5777 5778 5779 5780 5781 5782 5783 5784 5785 5786 5787 5788 5789 5790 5791 5792 5793 5794 5795 5796 5797 5798 5799 5800 5801 5802 5803 5804 5805 5806 5807 5808 5809 5810 5811 5812 5813 5814 5815 5816 5817 5818 5819 5820 5821 5822 5823 5824 5825 5826 5827 5828 5829 5830 5831 5832 5833 5834 5835 5836 5837 5838 5839 5840 5841 5842 5843 5844 5845 5846 5847 5848 5849 5850 5851 5852 5853 5854 5855 5856 5857 5858 5859 5860 5861 5862 5863 5864 5865 5866 5867 5868 5869 5870 5871 5872 5873 5874 5875 5876 5877 5878 5879 5880 5881 5882 5883 5884 5885 5886 5887 5888 5889 5890 5891 5892 5893 5894 5895 5896 5897 5898 5899 5900 5901 5902 5903 5904 5905 5906 5907 5908 5909 5910 5911 5912 5913 5914 5915 5916 5917 5918 5919 5920 5921 5922 5923 5924 5925 5926 5927 5928 5929 5930 5931 5932 5933 5934 5935 5936 5937 5938 5939 5940 5941 5942 5943 5944 5945 5946 5947 5948 5949 5950 5951 5952 5953 5954 5955 5956 5957 5958 5959 5960 5961 5962 5963 5964 5965 5966 5967 5968 5969 5970 5971 5972 5973 5974 5975 5976 5977 5978 5979 5980 5981 5982 5983 5984 5985 5986 5987 5988 5989 5990 5991 5992 5993 5994 5995 5996 5997 5998 5999 6000 6001 6002 6003 6004 6005 6006 6007 6008 6009 6010 6011 6012 6013 6014 6015 6016 6017 6018 6019 6020 6021 6022 6023 6024 6025 6026 6027 6028 6029 6030 6031 6032 6033 6034 6035 6036 6037 6038 6039 6040 6041 6042 6043 6044 6045 6046 6047 6048 6049 6050 6051 6052 6053 6054 6055 6056 6057 6058 6059 6060 6061 6062 6063 6064 6065 6066 6067 6068 6069 6070 6071 6072 6073 6074 6075 6076 6077 6078 6079 6080 6081 6082 6083 6084 6085 6086 6087 6088 6089 6090 6091 6092 6093 6094 6095 6096 6097 6098 6099 6100 6101 6102 6103 6104 6105 6106 6107 6108 6109 6110 6111 6112 6113 6114 6115 6116 6117 6118 6119 6120 6121 6122 6123 6124 6125 6126 6127 6128 6129 6130 6131 6132 6133 6134 6135 6136 6137 6138 6139 6140 6141 6142 6143 6144 6145 6146 6147 6148 6149 6150 6151 6152 6153 6154 6155 6156 6157 6158 6159 6160 6161 6162 6163 6164 6165 6166 6167 6168 6169 6170 6171 6172 6173 6174 6175 6176 6177 6178 6179 6180 6181 6182 6183 6184 6185 6186 6187 6188 6189 6190 6191 6192 6193 6194 6195 6196 6197 6198 6199 6200 6201 6202 6203 6204 6205 6206 6207 6208 6209 6210 6211 6212 6213 6214 6215 6216 6217 6218 6219 6220 6221 6222 6223 6224 6225 6226 6227 6228 6229 6230 6231 6232 6233 6234 6235 6236 6237 6238 6239 6240 6241 6242 6243 6244 6245 6246 6247 6248 6249 6250 6251 6252 6253 6254 6255 6256 6257 6258 6259 6260 6261 6262 6263 6264 6265 6266 6267 6268 6269 6270 6271 6272 6273 6274 6275 6276 6277 6278 6279 6280 6281 6282 6283 6284 6285 6286 6287 6288 6289 6290 6291 6292 6293 6294 6295 6296 6297 6298 6299 6300 6301 6302 6303 6304 6305 6306 6307 6308 6309 6310 6311 6312 6313 6314 6315 6316 6317 6318 6319 6320 6321 6322 6323 6324 6325 6326 6327 6328 6329 6330 6331 6332 6333 6334 6335 6336 6337 6338 6339 6340 6341 6342 6343 6344 6345 6346 6347 6348 6349 6350 6351 6352 6353 6354 6355 6356 6357 6358 6359 6360 6361 6362 6363 6364 6365 6366 6367 6368 6369 6370 6371 6372 6373 6374 6375 6376 6377 6378 6379 6380 6381 6382 6383 6384 6385 6386 6387 6388 6389 6390 6391 6392 6393 6394 6395 6396 6397 6398 6399 6400 6401 6402 6403 6404 6405 6406 6407 6408 6409 6410 6411 6412 6413 6414 6415 6416 6417 6418 6419 6420 6421 6422 6423 6424 6425 6426 6427 6428 6429 6430 6431 6432 6433 6434 6435 6436 6437 6438 6439 6440 6441 6442 6443 6444 6445 6446 6447 6448 6449 6450 6451 6452 6453 6454 6455 6456 6457 6458 6459 6460 6461 6462 6463 6464 6465 6466 6467 6468 6469 6470 6471 6472 6473 6474 6475 6476 6477 6478 6479 6480 6481 6482 6483 6484 6485 6486 6487 6488 6489 6490 6491 6492 6493 6494 6495 6496 6497 6498 6499 6500 6501 6502 6503 6504 6505 6506 6507 6508 6509 6510 6511 6512 6513 6514 6515 6516 6517 6518 6519 6520 6521 6522 6523 6524 6525 6526 6527 6528 6529 6530 6531 6532 6533 6534 6535 6536 6537 6538 6539 6540 6541 6542 6543 6544 6545 6546 6547 6548 6549 6550 6551 6552 6553 6554 6555 6556 6557 6558 6559 6560 6561 6562 6563 6564 6565 6566 6567 6568 6569 6570 6571 6572 6573 6574 6575 6576 6577 6578 6579 6580 6581 6582 6583 6584 6585 6586 6587 6588 6589 6590 6591 6592 6593 6594 6595 6596 6597 6598 6599 6600 6601 6602 6603 6604 6605 6606 6607 6608 6609 6610 6611 6612 6613 6614 6615 6616 6617 6618 6619 6620 6621 6622 6623 6624 6625 6626 6627 6628 6629 6630 6631 6632 6633 6634 6635 6636 6637 6638 6639 6640 6641 6642 6643 6644 6645 6646 6647 6648 6649 6650 6651 6652 6653 6654 6655 6656 6657 6658 6659 6660 6661 6662 6663 6664 6665 6666 6667 6668 6669 6670 6671 6672 6673 6674 6675 6676 6677 6678 6679 6680 6681 6682 6683 6684 6685 6686 6687 6688 6689 6690 6691 6692 6693 6694 6695 6696 6697 6698 6699 6700 6701 6702 6703 6704 6705 6706 6707 6708 6709 6710 6711 6712 6713 6714 6715 6716 6717 6718 6719 6720 6721 6722 6723 6724 6725 6726 6727 6728 6729 6730 6731 6732 6733 6734 6735 6736 6737 6738 6739 6740 6741 6742 6743 6744 6745 6746 6747 6748 6749 6750 6751 6752 6753 6754 6755 6756 6757 6758 6759 6760 6761 6762 6763 6764 6765 6766 6767 6768 6769 6770 6771 6772 6773 6774 6775 6776 6777 6778 6779 6780 6781 6782 6783 6784 6785 6786 6787 6788 6789 6790 6791 6792 6793 6794 6795 6796 6797 6798 6799 6800 6801 6802 6803 6804 6805 6806 6807 6808 6809 6810 6811 6812 6813 6814 6815 6816 6817 6818 6819 6820 6821 6822 6823 6824 6825 6826 6827 6828 6829 6830 6831 6832 6833 6834 6835 6836 6837 6838 6839 6840 6841 6842 6843 6844 6845 6846 6847 6848 6849 6850 6851 6852 6853 6854 6855 6856 6857 6858 6859 6860 6861 6862 6863 6864 6865 6866 6867 6868 6869 6870 6871 6872 6873 6874 6875 6876 6877 6878 6879 6880 6881 6882 6883 6884 6885 6886 6887 6888 6889 6890 6891 6892 6893 6894 6895 6896 6897 6898 6899 6900 6901 6902 6903 6904 6905 6906 6907 6908 6909 6910 6911 6912 6913 6914 6915 6916 6917 6918 6919 6920 6921 6922 6923 6924 6925 6926 6927 6928 6929 6930 6931 6932 6933 6934 6935 6936 6937 6938 6939 6940 6941 6942 6943 6944 6945 6946 6947 6948 6949 6950 6951 6952 6953 6954 6955 6956 6957 6958 6959 6960 6961 6962 6963 6964 6965 6966 6967 6968 6969 6970 6971 6972 6973 6974 6975 6976 6977 6978 6979 6980 6981 6982 6983 6984 6985 6986 6987 6988 6989 6990 6991 6992 6993 6994 6995 6996 6997 6998 6999 7000 7001 7002 7003 7004 7005 7006 7007 7008 7009 7010 7011 7012 7013 7014 7015 7016 7017 7018 7019 7020 7021 7022 7023 7024 7025 7026 7027 7028 7029 7030 7031 7032 7033 7034 7035 7036 7037 7038 7039 7040 7041 7042 7043 7044 7045 7046 7047 7048 7049 7050 7051 7052 7053 7054 7055 7056 7057 7058 7059 7060 7061 7062 7063 7064 7065 7066 7067 7068 7069 7070 7071 7072 7073 7074 7075 7076 7077 7078 7079 7080 7081 7082 7083 7084 7085 7086 7087 7088 7089 7090 7091 7092 7093 7094 7095 7096 7097 7098 7099 7100 7101 7102 7103 7104 7105 7106 7107 7108 7109 7110 7111 7112 7113 7114 7115 7116 7117 7118 7119 7120 7121 7122 7123 7124 7125 7126 7127 7128 7129 7130 7131 7132 7133 7134 7135 7136 7137 7138 7139 7140 7141 7142 7143 7144 7145 7146 7147 7148 7149 7150 7151 7152 7153 7154 7155 7156 7157 7158 7159 7160 7161 7162 7163 7164 7165 7166 7167 7168 7169 7170 7171 7172 7173 7174 7175 7176 7177 7178 7179 7180 7181 7182 7183 7184 7185 7186 7187 7188 7189 7190 7191 7192 7193 7194 7195 7196 7197 7198 7199 7200 7201 7202 7203 7204 7205 7206 7207 7208 7209 7210 7211 7212 7213 7214 7215 7216 7217 7218 7219 7220 7221 7222 7223 7224 7225 7226 7227 7228 7229 7230 7231 7232 7233 7234 7235 7236 7237 7238 7239 7240 7241 7242 7243 7244 7245 7246 7247 7248 7249 7250 7251 7252 7253 7254 7255 7256 7257 7258 7259 7260 7261 7262 7263 7264 7265 7266 7267 7268 7269 7270 7271 7272 7273 7274 7275 7276 7277 7278 7279 7280 7281 7282 7283 7284 7285 7286 7287 7288 7289 7290 7291 7292 7293 7294 7295 7296 7297 7298 7299 7300 7301 7302 7303 7304 7305 7306 7307 7308 7309 7310 7311 7312 7313 7314 7315 7316 7317 7318 7319 7320 7321 7322 7323 7324 7325 7326 7327 7328 7329 7330 7331 7332 7333 7334 7335 7336 7337 7338 7339 7340 7341 7342 7343 7344 7345 7346 7347 7348 7349 7350 7351 7352 7353 7354 7355 7356 7357 7358 7359 7360 7361 7362 7363 7364 7365 7366 7367 7368 7369 7370 7371 7372 7373 7374 7375 7376 7377 7378 7379 7380 7381 7382 7383 7384 7385 7386 7387 7388 7389 7390 7391 7392 7393 7394 7395 7396 7397 7398 7399 7400 7401 7402 7403 7404 7405 7406 7407 7408 7409 7410 7411 7412 7413 7414 7415 7416 7417 7418 7419 7420 7421 7422 7423 7424 7425 7426 7427 7428 7429 7430 7431 7432 7433 7434 7435 7436 7437 7438 7439 7440 7441 7442 7443 7444 7445 7446 7447 7448 7449 7450 7451 7452 7453 7454 7455 7456 7457 7458 7459 7460 7461 7462 7463 7464 7465 7466 7467 7468 7469 7470 7471 7472 7473 7474 7475 7476 7477 7478 7479 7480 7481 7482 7483 7484 7485 7486 7487 7488 7489 7490 7491 7492 7493 7494 7495 7496 7497 7498 7499 7500 7501 7502 7503 7504 7505 7506 7507 7508 7509 7510 7511 7512 7513 7514 7515 7516 7517 7518 7519 7520 7521 7522 7523 7524 7525 7526 7527 7528 7529 7530 7531 7532 7533 7534 7535 7536 7537 7538 7539 7540 7541 7542 7543 7544 7545 7546 7547 7548 7549 7550 7551 7552 7553 7554 7555 7556 7557 7558 7559 7560 7561 7562 7563 7564 7565 7566 7567 7568 7569 7570 7571 7572 7573 7574 7575 7576 7577 7578 7579 7580 7581 7582 7583 7584 7585 7586 7587 7588 7589 7590 7591 7592 7593 7594 7595 7596 7597 7598 7599 7600 7601 7602 7603 7604 7605 7606 7607 7608 7609 7610 7611 7612 7613 7614 7615 7616 7617 7618 7619 7620 7621 7622 7623 7624 7625 7626 7627 7628 7629 7630 7631 7632 7633 7634 7635 7636 7637 7638 7639 7640 7641 7642 7643 7644 7645 7646 7647 7648 7649 7650 7651 7652 7653 7654 7655 7656 7657 7658 7659 7660 7661 7662 7663 7664 7665 7666 7667 7668 7669 7670 7671 7672 7673 7674 7675 7676 7677 7678 7679 7680 7681 7682 7683 7684 7685 7686 7687 7688 7689 7690 7691 7692 7693 7694 7695 7696 7697 7698 7699 7700 7701 7702 7703 7704 7705 7706 7707 7708 7709 7710 7711 7712 7713 7714 7715 7716 7717 7718 7719 7720 7721 7722 7723 7724 7725 7726 7727 7728 7729 7730 7731 7732 7733 7734 7735 7736 7737 7738 7739 7740 7741 7742 7743 7744 7745 7746 7747 7748 7749 7750 7751 7752 7753 7754 7755 7756 7757 7758 7759 7760 7761 7762 7763 7764 7765 7766 7767 7768 7769 7770 7771 7772 7773 7774 7775 7776 7777 7778 7779 7780 7781 7782 7783 7784 7785 7786 7787 7788 7789 7790 7791 7792 7793 7794 7795 7796 7797 7798 7799 7800 7801 7802 7803 7804 7805 7806 7807 7808 7809 7810 7811 7812 7813 7814 7815 7816 7817 7818 7819 7820 7821 7822 7823 7824 7825 7826 7827 7828 7829 7830 7831 7832 7833 7834 7835 7836 7837 7838 7839 7840 7841 7842 7843 7844 7845 7846 7847 7848 7849 7850 7851 7852 7853 7854 7855 7856 7857 7858 7859 7860 7861 7862 7863 7864 7865 7866 7867 7868 7869 7870 7871 7872 7873 7874 7875 7876 7877 7878 7879 7880 7881 7882 7883 7884 7885 7886 7887 7888 7889 7890 7891 7892 7893 7894 7895 7896 7897 7898 7899 7900 7901 7902 7903 7904 7905 7906 7907 7908 7909 7910 7911 7912 7913 7914 7915 7916 7917 7918 7919 7920 7921 7922 7923 7924 7925 7926 7927 7928 7929 7930 7931 7932 7933 7934 7935 7936 7937 7938 7939 7940 7941 7942 7943 7944 7945 7946 7947 7948 7949 7950 7951 7952 7953 7954 7955 7956 7957 7958 7959 7960 7961 7962 7963 7964 7965 7966 7967 7968 7969 7970 7971 7972 7973 7974 7975 7976 7977 7978 7979 7980 7981 7982 7983 7984 7985 7986 7987 7988 7989 7990 7991 7992 7993 7994 7995 7996 7997 7998 7999 8000 8001 8002 8003 8004 8005 8006 8007 8008 8009 8010 8011 8012 8013 8014 8015 8016 8017 8018 8019 8020 8021 8022 8023 8024 8025 8026 8027 8028 8029 8030 8031 8032 8033 8034 8035 8036 8037 8038 8039 8040 8041 8042 8043 8044 8045 8046 8047 8048 8049 8050 8051 8052 8053 8054 8055 8056 8057 8058 8059 8060 8061 8062 8063 8064 8065 8066 8067 8068 8069 8070 8071 8072 8073 8074 8075 8076 8077 8078 8079 8080 8081 8082 8083 8084 8085 8086 8087 8088 8089 8090 8091 8092 8093 8094 8095 8096 8097 8098 8099 8100 8101 8102 8103 8104 8105 8106 8107 8108 8109 8110 8111 8112 8113 8114 8115 8116 8117 8118 8119 8120 8121 8122 8123 8124 8125 8126 8127 8128 8129 8130 8131 8132 8133 8134 8135 8136 8137 8138 8139 8140 8141 8142 8143 8144 8145 8146 8147 8148 8149 8150 8151 8152 8153 8154 8155 8156 8157 8158 8159 8160 8161 8162 8163 8164 8165 8166 8167 8168 8169 8170 8171 8172 8173 8174 8175 8176 8177 8178 8179 8180 8181 8182 8183 8184 8185 8186 8187 8188 8189 8190 8191 8192 8193 8194 8195 8196 8197 8198 8199 8200 8201 8202 8203 8204 8205 8206 8207 8208 8209 8210 8211 8212 8213 8214 8215 8216 8217 8218 8219 8220 8221 8222 8223 8224 8225 8226 8227 8228 8229 8230 8231 8232 8233 8234 8235 8236 8237 8238 8239 8240 8241 8242 8243 8244 8245 8246 8247 8248 8249 8250 8251 8252 8253 8254 8255 8256 8257 8258 8259 8260 8261 8262 8263 8264 8265 8266 8267 8268 8269 8270 8271 8272 8273 8274 8275 8276 8277 8278 8279 8280 8281 8282 8283 8284 8285 8286 8287 8288 8289 8290 8291 8292 8293 8294 8295 8296 8297 8298 8299 8300 8301 8302 8303 8304 8305 8306 8307 8308 8309 8310 8311 8312 8313 8314 8315 8316 8317 8318 8319 8320 8321 8322 8323 8324 8325 8326 8327 8328 8329 8330 8331 8332 8333 8334 8335 8336 8337 8338 8339 8340 8341 8342 8343 8344 8345 8346 8347 8348 8349 8350 8351 8352 8353 8354 8355 8356 8357 8358 8359 8360 8361 8362 8363 8364 8365 8366 8367 8368 8369 8370 8371 8372 8373 8374 8375 8376 8377 8378 8379 8380 8381 8382 8383 8384 8385 8386 8387 8388 8389 8390 8391 8392 8393 8394 8395 8396 8397 8398 8399 8400 8401 8402 8403 8404 8405 8406 8407 8408 8409 8410 8411 8412 8413 8414 8415 8416 8417 8418 8419 8420 8421 8422 8423 8424 8425 8426 8427 8428 8429 8430 8431 8432 8433 8434 8435 8436 8437 8438 8439 8440 8441 8442 8443 8444 8445 8446 8447 8448 8449 8450 8451 8452 8453 8454 8455 8456 8457 8458 8459 8460 8461 8462 8463 8464 8465 8466 8467 8468 8469 8470 8471 8472 8473 8474 8475 8476 8477 8478 8479 8480 8481 8482 8483 8484 8485 8486 8487 8488 8489 8490 8491 8492 8493 8494 8495 8496 8497 8498 8499 8500 8501 8502 8503 8504 8505 8506 8507 8508 8509 8510 8511 8512 8513 8514 8515 8516 8517 8518 8519 8520 8521 8522 8523 8524 8525 8526 8527 8528 8529 8530 8531 8532 8533 8534 8535 8536 8537 8538 8539 8540 8541 8542 8543 8544 8545 8546 8547 8548 8549 8550 8551 8552 8553 8554 8555 8556 8557 8558 8559 8560 8561 8562 8563 8564 8565 8566 8567 8568 8569 8570 8571 8572 8573 8574 8575 8576 8577 8578 8579 8580 8581 8582 8583 8584 8585 8586 8587 8588 8589 8590 8591 8592 8593 8594 8595 8596 8597 8598 8599 8600 8601 8602 8603 8604 8605 8606 8607 8608 8609 8610 8611 8612 8613 8614 8615 8616 8617 8618 8619 8620 8621 8622 8623 8624 8625 8626 8627 8628 8629 8630 8631 8632 8633 8634 8635 8636 8637 8638 8639 8640 8641 8642 8643 8644 8645 8646 8647 8648 8649 8650 8651 8652 8653 8654 8655 8656 8657 8658 8659 8660 8661 8662 8663 8664 8665 8666 8667 8668 8669 8670 8671 8672 8673 8674 8675 8676 8677 8678 8679 8680 8681 8682 8683 8684 8685 8686 8687 8688 8689 8690 8691 8692 8693 8694 8695 8696 8697 8698 8699 8700 8701 8702 8703 8704 8705 8706 8707 8708 8709 8710 8711 8712 8713 8714 8715 8716 8717 8718 8719 8720 8721 8722 8723 8724 8725 8726 8727 8728 8729 8730 8731 8732 8733 8734 8735 8736 8737 8738 8739 8740 8741 8742 8743 8744 8745 8746 8747 8748 8749 8750 8751 8752 8753 8754 8755 8756 8757 8758 8759 8760 8761 8762 8763 8764 8765 8766 8767 8768 8769 8770 8771 8772 8773 8774 8775 8776 8777 8778 8779 8780 8781 8782 8783 8784 8785 8786 8787 8788 8789 8790 8791 8792 8793 8794 8795 8796 8797 8798 8799 8800 8801 8802 8803 8804 8805 8806 8807 8808 8809 8810 8811 8812 8813 8814 8815 8816 8817 8818 8819 8820 8821 8822 8823 8824 8825 8826 8827 8828 8829 8830 8831 8832 8833 8834 8835 8836 8837 8838 8839 8840 8841 8842 8843 8844 8845 8846 8847 8848 8849 8850 8851 8852 8853 8854 8855 8856 8857 8858 8859 8860 8861 8862 8863 8864 8865 8866 8867 8868 8869 8870 8871 8872 8873 8874 8875 8876 8877 8878 8879 8880 8881 8882 8883 8884 8885 8886 8887 8888 8889 8890 8891 8892 8893 8894 8895 8896 8897 8898 8899 8900 8901 8902 8903 8904 8905 8906 8907 8908 8909 8910 8911 8912 8913 8914 8915 8916 8917 8918 8919 8920 8921 8922 8923 8924 8925 8926 8927 8928 8929 8930 8931 8932 8933 8934 8935 8936 8937 8938 8939 8940 8941 8942 8943 8944 8945 8946 8947 8948 8949 8950 8951 8952 8953 8954 8955 8956 8957 8958 8959 8960 8961 8962 8963 8964 8965 8966 8967 8968 8969 8970 8971 8972 8973 8974 8975 8976 8977 8978 8979 8980 8981 8982 8983 8984 8985 8986 8987 8988 8989 8990 8991 8992 8993 8994 8995 8996 8997 8998 8999 9000 9001 9002 9003 9004 9005 9006 9007 9008 9009 9010 9011 9012 9013 9014 9015 9016 9017 9018 9019 9020 9021 9022 9023 9024 9025 9026 9027 9028 9029 9030 9031 9032 9033 9034 9035 9036 9037 9038 9039 9040 9041 9042 9043 9044 9045 9046 9047 9048 9049 9050 9051 9052 9053 9054 9055 9056 9057 9058 9059 9060 9061 9062 9063 9064 9065 9066 9067 9068 9069 9070 9071 9072 9073 9074 9075 9076 9077 9078 9079 9080 9081 9082 9083 9084 9085 9086 9087 9088 9089 9090 9091 9092 9093 9094 9095 9096 9097 9098 9099 9100 9101 9102 9103 9104 9105 9106 9107 9108 9109 9110 9111 9112 9113 9114 9115 9116 9117 9118 9119 9120 9121 9122 9123 9124 9125 9126 9127 9128 9129 9130 9131 9132 9133 9134 9135 9136 9137 9138 9139 9140 9141 9142 9143 9144 9145 9146 9147 9148 9149 9150 9151 9152 9153 9154 9155 9156 9157 9158 9159 9160 9161 9162 9163 9164 9165 9166 9167 9168 9169 9170 9171 9172 9173 9174 9175 9176 9177 9178 9179 9180 9181 9182 9183 9184 9185 9186 9187 9188 9189 9190 9191 9192 9193 9194 9195 9196 9197 9198 9199 9200 9201 9202 9203 9204 9205 9206 9207 9208 9209 9210 9211 9212 9213 9214 9215 9216 9217 9218 9219 9220 9221 9222 9223 9224 9225 9226 9227 9228 9229 9230 9231 9232 9233 9234 9235 9236 9237 9238 9239 9240 9241 9242 9243 9244 9245 9246 9247 9248 9249 9250 9251 9252 9253 9254 9255 9256 9257 9258 9259 9260 9261 9262 9263 9264 9265 9266 9267 9268 9269 9270 9271 9272 9273 9274 9275 9276 9277 9278 9279 9280 9281 9282 9283 9284 9285 9286 9287 9288 9289 9290 9291 9292 9293 9294 9295 9296 9297 9298 9299 9300 9301 9302 9303 9304 9305 9306 9307 9308 9309 9310 9311 9312 9313 9314 9315 9316 9317 9318 9319 9320 9321 9322 9323 9324 9325 9326 9327 9328 9329 9330 9331 9332 9333 9334 9335 9336 9337 9338 9339 9340 9341 9342 9343 9344 9345 9346 9347 9348 9349 9350 9351 9352 9353 9354 9355 9356 9357 9358 9359 9360 9361 9362 9363 9364 9365 9366 9367 9368 9369 9370 9371 9372 9373 9374 9375 9376 9377 9378 9379 9380 9381 9382 9383 9384 9385 9386 9387 9388 9389 9390 9391 9392 9393 9394 9395 9396 9397 9398 9399 9400 9401 9402 9403 9404 9405 9406 9407 9408 9409 9410 9411 9412 9413 9414 9415 9416 9417 9418 9419 9420 9421 9422 9423 9424 9425 9426 9427 9428 9429 9430 9431 9432 9433 9434 9435 9436 9437 9438 9439 9440 9441 9442 9443 9444 9445 9446 9447 9448 9449 9450 9451 9452 9453 9454 9455 9456 9457 9458 9459 9460 9461 9462 9463 9464 9465 9466 9467 9468 9469 9470 9471 9472 9473 9474 9475 9476 9477 9478 9479 9480 9481 9482 9483 9484 9485 9486 9487 9488 9489 9490 9491 9492 9493 9494 9495 9496 9497 9498 9499 9500 9501 9502 9503 9504 9505 9506 9507 9508 9509 9510 9511 9512 9513 9514 9515 9516 9517 9518 9519 9520 9521 9522 9523 9524 9525 9526 9527 9528 9529 9530 9531 9532 9533 9534 9535 9536 9537 9538 9539 9540 9541 9542 9543 9544 9545 9546 9547 9548 9549 9550 9551 9552 9553 9554 9555 9556 9557 9558 9559 9560 9561 9562 9563 9564 9565 9566 9567 9568 9569 9570 9571 9572 9573 9574 9575 9576 9577 9578 9579 9580 9581 9582 9583 9584 9585 9586 9587 9588 9589 9590 9591 9592 9593 9594 9595 9596 9597 9598 9599 9600 9601 9602 9603 9604 9605 9606 9607 9608 9609 9610 9611 9612 9613 9614 9615 9616 9617 9618 9619 9620 9621 9622 9623 9624 9625 9626 9627 9628 9629 9630 9631 9632 9633 9634 9635 9636 9637 9638 9639 9640 9641 9642 9643 9644 9645 9646 9647 9648 9649 9650 9651 9652 9653 9654 9655 9656 9657 9658 9659 9660 9661 9662 9663 9664 9665 9666 9667 9668 9669 9670 9671 9672 9673 9674 9675 9676 9677 9678 9679 9680 9681 9682 9683 9684 9685 9686 9687 9688 9689 9690 9691 9692 9693 9694 9695 9696 9697 9698 9699 9700 9701 9702 9703 9704 9705 9706 9707 9708 9709 9710 9711 9712 9713 9714 9715 9716 9717 9718 9719 9720 9721 9722 9723 9724 9725 9726 9727 9728 9729 9730 9731 9732 9733 9734 9735 9736 9737 9738 9739 9740 9741 9742 9743 9744 9745 9746 9747 9748 9749 9750 9751 9752 9753 9754 9755 9756 9757 9758 9759 9760 9761 9762 9763 9764 9765 9766 9767 9768 9769 9770 9771 9772 9773 9774 9775 9776 9777 9778 9779 9780 9781 9782 9783 9784 9785 9786 9787 9788 9789 9790 9791 9792 9793 9794 9795 9796 9797 9798 9799 9800 9801 9802 9803 9804 9805 9806 9807 9808 9809 9810 9811 9812 9813 9814 9815 9816 9817 9818 9819 9820 9821 9822 9823 9824 9825 9826 9827 9828 9829 9830 9831 9832 9833 9834 9835 9836 9837 9838 9839 9840 9841 9842 9843 9844 9845 9846 9847 9848 9849 9850 9851 9852 9853 9854 9855 9856 9857 9858 9859 9860 9861 9862 9863 9864 9865 9866 9867 9868 9869 9870 9871 9872 9873 9874 9875 9876 9877 9878 9879 9880 9881 9882 9883 9884 9885 9886 9887 9888 9889 9890 9891 9892 9893 9894 9895 9896 9897 9898 9899 9900 9901 9902 9903 9904 9905 9906 9907 9908 9909 9910 9911 9912 9913 9914 9915 9916 9917 9918 9919 9920 9921 9922 9923 9924 9925 9926 9927 9928 9929 9930 9931 9932 9933 9934 9935 9936 9937 9938 9939 9940 9941 9942 9943 9944 9945 9946 9947 9948 9949 9950 9951 9952 9953 9954 9955 9956 9957 9958 9959 9960 9961 9962 9963 9964 9965 9966 9967 9968 9969 9970 9971 9972 9973 9974 9975 9976 9977 9978 9979 9980 9981 9982 9983 9984 9985 9986 9987 9988 9989 9990 9991 9992 9993 9994 9995 9996 9997 9998 9999 10000 10001 10002 10003 10004 10005 10006 10007 10008 10009 10010 10011 10012 10013 10014 10015 10016 10017 10018 10019 10020 10021 10022 10023 10024 10025 10026 10027 10028 10029 10030 10031 10032 10033 10034 10035 10036 10037 10038 10039 10040 10041 10042 10043 10044 10045 10046 10047 10048 10049 10050 10051 10052 10053 10054 10055 10056 10057 10058 10059 10060 10061 10062 10063 10064 10065 10066 10067 10068 10069 10070 10071 10072 10073 10074 10075 10076 10077 10078 10079 10080 10081 10082 10083 10084 10085 10086 10087 10088 10089 10090 10091 10092 10093 10094 10095 10096 10097 10098 10099 10100 10101 10102 10103 10104 10105 10106 10107 10108 10109 10110 10111 10112 10113 10114 10115 10116 10117 10118 10119 10120 10121 10122 10123 10124 10125 10126 10127 10128 10129 10130 10131 10132 10133 10134 10135 10136 10137 10138 10139 10140 10141 10142 10143 10144 10145 10146 10147 10148 10149 10150 10151 10152 10153 10154 10155 10156 10157 10158 10159 10160 10161 10162 10163 10164 10165 10166 10167 10168 10169 10170 10171 10172 10173 10174 10175 10176 10177 10178 10179 10180 10181 10182 10183 10184 10185 10186 10187 10188 10189 10190 10191 10192 10193 10194 10195 10196 10197 10198 10199 10200 10201 10202 10203 10204 10205 10206 10207 10208 10209 10210 10211 10212 10213 10214 10215 10216 10217 10218 10219 10220 10221 10222 10223 10224 10225 10226 10227 10228 10229 10230 10231 10232 10233 10234 10235 10236 10237 10238 10239 10240 10241 10242 10243 10244 10245 10246 10247 10248 10249 10250 10251 10252 10253 10254 10255 10256 10257 10258 10259 10260 10261 10262 10263 10264 10265 10266 10267 10268 10269 10270 10271 10272 10273 10274 10275 10276 10277 10278 10279 10280 10281 10282 10283 10284 10285 10286 10287 10288 10289 10290 10291 10292 10293 10294 10295 10296 10297 10298 10299 10300 10301 10302 10303 10304 10305 10306 10307 10308 10309 10310 10311 10312 10313 10314 10315 10316 10317 10318 10319 10320 10321 10322 10323 10324 10325 10326 10327 10328 10329 10330 10331 10332 10333 10334 10335 10336 10337 10338 10339 10340 10341 10342 10343 10344 10345 10346 10347 10348 10349 10350 10351 10352 10353 10354 10355 10356 10357 10358 10359 10360 10361 10362 10363 10364 10365 10366 10367 10368 10369 10370 10371 10372 10373 10374 10375 10376 10377 10378 10379 10380 10381 10382 10383 10384 10385 10386 10387 10388 10389 10390 10391 10392 10393 10394 10395 10396 10397 10398 10399 10400 10401 10402 10403 10404 10405 10406 10407 10408 10409 10410 10411 10412 10413 10414 10415 10416 10417 10418 10419 10420 10421 10422 10423 10424 10425 10426 10427 10428 10429 10430 10431 10432 10433 10434 10435 10436 10437 10438 10439 10440 10441 10442 10443 10444 10445 10446 10447 10448 10449 10450 10451 10452 10453 10454 10455 10456 10457 10458 10459 10460 10461 10462 10463 10464 10465 10466 10467 10468 10469 10470 10471 10472 10473 10474 10475 10476 10477 10478 10479 10480 10481 10482 10483 10484 10485 10486 10487 10488 10489 10490 10491 10492 10493 10494 10495 10496 10497 10498 10499 10500 10501 10502 10503 10504 10505 10506 10507 10508 10509 10510 10511 10512 10513 10514 10515 10516 10517 10518 10519 10520 10521 10522 10523 10524 10525 10526 10527 10528 10529 10530 10531 10532 10533 10534 10535 10536 10537 10538 10539 10540 10541 10542 10543 10544 10545 10546 10547 10548 10549 10550 10551 10552 10553 10554 10555 10556 10557 10558 10559 10560 10561 10562 10563 10564 10565 10566 10567 10568 10569 10570 10571 10572 10573 10574 10575 10576 10577 10578 10579 10580 10581 10582 10583 10584 10585 10586 10587 10588 10589 10590 10591 10592 10593 10594 10595 10596 10597 10598 10599 10600 10601 10602 10603 10604 10605 10606 10607 10608 10609 10610 10611 10612 10613 10614 10615 10616 10617 10618 10619 10620 10621 10622 10623 10624 10625 10626 10627 10628 10629 10630 10631 10632 10633 10634 10635 10636 10637 10638 10639 10640 10641 10642 10643 10644 10645 10646 10647 10648 10649 10650 10651 10652 10653 10654 10655 10656 10657 10658 10659 10660 10661 10662 10663 10664 10665 10666 10667 10668 10669 10670 10671 10672 10673 10674 10675 10676 10677 10678 10679 10680 10681 10682 10683 10684 10685 10686 10687 10688 10689 10690 10691 10692 10693 10694 10695 10696 10697 10698 10699 10700 10701 10702 10703 10704 10705 10706 10707 10708 10709 10710 10711 10712 10713 10714 10715 10716 10717 10718 10719 10720 10721 10722 10723 10724 10725 10726 10727 10728 10729 10730 10731 10732 10733 10734 10735 10736 10737 10738 10739 10740 10741 10742 10743 10744 10745 10746 10747 10748 10749 10750 10751 10752 10753 10754 10755 10756 10757 10758 10759 10760 10761 10762 10763 10764 10765 10766 10767 10768 10769 10770 10771 10772 10773 10774 10775 10776 10777 10778 10779 10780 10781 10782 10783 10784 10785 10786 10787 10788 10789 10790 10791 10792 10793 10794 10795 10796 10797 10798 10799 10800 10801 10802 10803 10804 10805 10806 10807 10808 10809 10810 10811 10812 10813 10814 10815 10816 10817 10818 10819 10820 10821 10822 10823 10824 10825 10826 10827 10828 10829 10830 10831 10832 10833 10834 10835 10836 10837 10838 10839 10840 10841 10842 10843 10844 10845 10846 10847 10848 10849 10850 10851 10852 10853 10854 10855 10856 10857 10858 10859 10860 10861 10862 10863 10864 10865 10866 10867 10868 10869 10870 10871 10872 10873 10874 10875 10876 10877 10878 10879 10880 10881 10882 10883 10884 10885 10886 10887 10888 10889 10890 10891 10892 10893 10894 10895 10896 10897 10898 10899 10900 10901 10902 10903 10904 10905 10906 10907 10908 10909 10910 10911 10912 10913 10914 10915 10916 10917 10918 10919 10920 10921 10922 10923 10924 10925 10926 10927 10928 10929 10930 10931 10932 10933 10934 10935 10936 10937 10938 10939 10940 10941 10942 10943 10944 10945 10946 10947 10948 10949 10950 10951 10952 10953 10954 10955 10956 10957 10958 10959 10960 10961 10962 10963 10964 10965 10966 10967 10968 10969 10970 10971 10972 10973 10974 10975 10976 10977 10978 10979 10980 10981 10982 10983 10984 10985 10986 10987 10988 10989 10990 10991 10992 10993 10994 10995 10996 10997 10998 10999 11000 11001 11002 11003 11004 11005 11006 11007 11008 11009 11010 11011 11012 11013 11014 11015 11016 11017 11018 11019 11020 11021 11022 11023 11024 11025 11026 11027 11028 11029 11030 11031 11032 11033 11034 11035 11036 11037 11038 11039 11040 11041 11042 11043 11044 11045 11046 11047 11048 11049 11050 11051 11052 11053 11054 11055 11056 11057 11058 11059 11060 11061 11062 11063 11064 11065 11066 11067 11068 11069 11070 11071 11072 11073 11074 11075 11076 11077 11078 11079 11080 11081 11082 11083 11084 11085 11086 11087 11088 11089 11090 11091 11092 11093 11094 11095 11096 11097 11098 11099 11100 11101 11102 11103 11104 11105 11106 11107 11108 11109 11110 11111 11112 11113 11114 11115 11116 11117 11118 11119 11120 11121 11122 11123 11124 11125 11126 11127 11128 11129 11130 11131 11132 11133 11134 11135 11136 11137 11138 11139 11140 11141 11142 11143 11144 11145 11146 11147 11148 11149 11150 11151 11152 11153 11154 11155 11156 11157 11158 11159 11160 11161 11162 11163 11164 11165 11166 11167 11168 11169 11170 11171 11172 11173 11174 11175 11176 11177 11178 11179 11180 11181 11182 11183 11184 11185 11186 11187 11188 11189 11190 11191 11192 11193 11194 11195 11196 11197 11198 11199 11200 11201 11202 11203 11204 11205 11206 11207 11208 11209 11210 11211 11212 11213 11214 11215 11216 11217 11218 11219 11220 11221 11222 11223 11224 11225 11226 11227 11228 11229 11230 11231 11232 11233 11234 11235 11236 11237 11238 11239 11240 11241 11242 11243 11244 11245 11246 11247 11248 11249 11250 11251 11252 11253 11254 11255 11256 11257 11258 11259 11260 11261 11262 11263 11264 11265 11266 11267 11268 11269 11270 11271 11272 11273 11274 11275 11276 11277 11278 11279 11280 11281 11282 11283 11284 11285 11286 11287 11288 11289 11290 11291 11292 11293 11294 11295 11296 11297 11298 11299 11300 11301 11302 11303 11304 11305 11306 11307 11308 11309 11310 11311 11312 11313 11314 11315 11316 11317 11318 11319 11320 11321 11322 11323 11324 11325 11326 11327 11328 11329 11330 11331 11332 11333 11334 11335 11336 11337 11338 11339 11340 11341 11342 11343 11344 11345 11346 11347 11348 11349 11350 11351 11352 11353 11354 11355 11356 11357 11358 11359 11360 11361 11362 11363 11364 11365 11366 11367 11368 11369 11370 11371 11372 11373 11374 11375 11376 11377 11378 11379 11380 11381 11382 11383 11384 11385 11386 11387 11388 11389 11390 11391 11392 11393 11394 11395 11396 11397 11398 11399 11400 11401 11402 11403 11404 11405 11406 11407 11408 11409 11410 11411 11412 11413 11414 11415 11416 11417 11418 11419 11420 11421 11422 11423 11424 11425 11426 11427 11428 11429 11430 11431 11432 11433 11434 11435 11436 11437 11438 11439 11440 11441 11442 11443 11444 11445 11446 11447 11448 11449 11450 11451 11452 11453 11454 11455 11456 11457 11458 11459 11460 11461 11462 11463 11464 11465 11466 11467 11468 11469 11470 11471 11472 11473 11474 11475 11476 11477 11478 11479 11480 11481 11482 11483 11484 11485 11486 11487 11488 11489 11490 11491 11492 11493 11494 11495 11496 11497 11498 11499 11500 11501 11502 11503 11504 11505 11506 11507 11508 11509 11510 11511 11512 11513 11514 11515 11516 11517 11518 11519 11520 11521 11522 11523 11524 11525 11526 11527 11528 11529 11530 11531 11532 11533 11534 11535 11536 11537 11538 11539 11540 11541 11542 11543 11544 11545 11546 11547 11548 11549 11550 11551 11552 11553 11554 11555 11556 11557 11558 11559 11560 11561 11562 11563 11564 11565 11566 11567 11568 11569 11570 11571 11572 11573 11574 11575 11576 11577 11578 11579 11580 11581 11582 11583 11584 11585 11586 11587 11588 11589 11590 11591 11592 11593 11594 11595 11596 11597 11598 11599 11600 11601 11602 11603 11604 11605 11606 11607 11608 11609 11610 11611 11612 11613 11614 11615 11616 11617 11618 11619 11620 11621 11622 11623 11624 11625 11626 11627 11628 11629 11630 11631 11632 11633 11634 11635 11636 11637 11638 11639 11640 11641 11642 11643 11644 11645 11646 11647 11648 11649 11650 11651 11652 11653 11654 11655 11656 11657 11658 11659 11660 11661 11662 11663 11664 11665 11666 11667 11668 11669 11670 11671 11672 11673 11674 11675 11676 11677 11678 11679 11680 11681 11682 11683 11684 11685 11686 11687 11688 11689 11690 11691 11692 11693 11694 11695 11696 11697 11698 11699 11700 11701 11702 11703 11704 11705 11706 11707 11708 11709 11710 11711 11712 11713 11714 11715 11716 11717 11718 11719 11720 11721 11722 11723 11724 11725 11726 11727 11728 11729 11730 11731 11732 11733 11734 11735 11736 11737 11738 11739 11740 11741 11742 11743 11744 11745 11746 11747 11748 11749 11750 11751 11752 11753 11754 11755 11756 11757 11758 11759 11760 11761 11762 11763 11764 11765 11766 11767 11768 11769 11770 11771 11772 11773 11774 11775 11776 11777 11778 11779 11780 11781 11782 11783 11784 11785 11786 11787 11788 11789 11790 11791 11792 11793 11794 11795 11796 11797 11798 11799 11800 11801 11802 11803 11804 11805 11806 11807 11808 11809 11810 11811 11812 11813 11814 11815 11816 11817 11818 11819 11820 11821 11822 11823 11824 11825 11826 11827 11828 11829 11830 11831 11832 11833 11834 11835 11836 11837 11838 11839 11840 11841 11842 11843 11844 11845 11846 11847 11848 11849 11850 11851 11852 11853 11854 11855 11856 11857 11858 11859 11860 11861 11862 11863 11864 11865 11866 11867 11868 11869 11870 11871 11872 11873 11874 11875 11876 11877 11878 11879 11880 11881 11882 11883 11884 11885 11886 11887 11888 11889 11890 11891 11892 11893 11894 11895 11896 11897 11898 11899 11900 11901 11902 11903 11904 11905 11906 11907 11908 11909 11910 11911 11912 11913 11914 11915 11916 11917 11918 11919 11920 11921 11922 11923 11924 11925 11926 11927 11928 11929 11930 11931 11932 11933 11934 11935 11936 11937 11938 11939 11940 11941 11942 11943 11944 11945 11946 11947 11948 11949 11950 11951 11952 11953 11954 11955 11956 11957 11958 11959 11960 11961 11962 11963 11964 11965 11966 11967 11968 11969 11970 11971 11972 11973 11974 11975 11976 11977 11978 11979 11980 11981 11982 11983 11984 11985 11986 11987 11988 11989 11990 11991 11992 11993 11994 11995 11996 11997 11998 11999 12000 12001 12002 12003 12004 12005 12006 12007 12008 12009 12010 12011 12012 12013 12014 12015 12016 12017 12018 12019 12020 12021 12022 12023 12024 12025 12026 12027 12028 12029 12030 12031 12032 12033 12034 12035 12036 12037 12038 12039 12040 12041 12042 12043 12044 12045 12046 12047 12048 12049 12050 12051 12052 12053 12054 12055 12056 12057 12058 12059 12060 12061 12062 12063 12064 12065 12066 12067 12068 12069 12070 12071 12072 12073 12074 12075 12076 12077 12078 12079 12080 12081 12082 12083 12084 12085 12086 12087 12088 12089 12090 12091 12092 12093 12094 12095 12096 12097 12098 12099 12100 12101 12102 12103 12104 12105 12106 12107 12108 12109 12110 12111 12112 12113 12114 12115 12116 12117 12118 12119 12120 12121 12122 12123 12124 12125 12126 12127 12128 12129 12130 12131 12132 12133 12134 12135 12136 12137 12138 12139 12140 12141 12142 12143 12144 12145 12146 12147 12148 12149 12150 12151 12152 12153 12154 12155 12156 12157 12158 12159 12160 12161 12162 12163 12164 12165 12166 12167 12168 12169 12170 12171 12172 12173 12174 12175 12176 12177 12178 12179 12180 12181 12182 12183 12184 12185 12186 12187 12188 12189 12190 12191 12192 12193 12194 12195 12196 12197 12198 12199 12200 12201 12202 12203 12204 12205 12206 12207 12208 12209 12210 12211 12212 12213 12214 12215 12216 12217 12218 12219 12220 12221 12222 12223 12224 12225 12226 12227 12228 12229 12230 12231 12232 12233 12234 12235 12236 12237 12238 12239 12240 12241 12242 12243 12244 12245 12246 12247 12248 12249 12250 12251 12252 12253 12254 12255 12256 12257 12258 12259 12260 12261 12262 12263 12264 12265 12266 12267 12268 12269 12270 12271 12272 12273 12274 12275 12276 12277 12278 12279 12280 12281 12282 12283 12284 12285 12286 12287 12288 12289 12290 12291 12292 12293 12294 12295 12296 12297 12298 12299 12300 12301 12302 12303 12304 12305 12306 12307 12308 12309 12310 12311 12312 12313 12314 12315 12316 12317 12318 12319 12320 12321 12322 12323 12324 12325 12326 12327 12328 12329 12330 12331 12332 12333 12334 12335 12336 12337 12338 12339 12340 12341 12342 12343 12344 12345 12346 12347 12348 12349 12350 12351 12352 12353 12354 12355 12356 12357 12358 12359 12360 12361 12362 12363 12364 12365 12366 12367 12368 12369 12370 12371 12372 12373 12374 12375 12376 12377 12378 12379 12380 12381 12382 12383 12384 12385 12386 12387 12388 12389 12390 12391 12392 12393 12394 12395 12396 12397 12398 12399 12400 12401 12402 12403 12404 12405 12406 12407 12408 12409 12410 12411 12412 12413 12414 12415 12416 12417 12418 12419 12420 12421 12422 12423 12424 12425 12426 12427 12428 12429 12430 12431 12432 12433 12434 12435 12436 12437 12438 12439 12440 12441 12442 12443 12444 12445 12446 12447 12448 12449 12450 12451 12452 12453 12454 12455 12456 12457 12458 12459 12460 12461 12462 12463 12464 12465 12466 12467 12468 12469 12470 12471 12472 12473 12474 12475 12476 12477 12478 12479 12480 12481 12482 12483 12484 12485 12486 12487 12488 12489 12490 12491 12492 12493 12494 12495 12496 12497 12498 12499 12500 12501 12502 12503 12504 12505 12506 12507 12508 12509 12510 12511 12512 12513 12514 12515 12516 12517 12518 12519 12520 12521 12522 12523 12524 12525 12526 12527 12528 12529 12530 12531 12532 12533 12534 12535 12536 12537 12538 12539 12540 12541 12542 12543 12544 12545 12546 12547 12548 12549 12550 12551 12552 12553 12554 12555 12556 12557 12558 12559 12560 12561 12562 12563 12564 12565 12566 12567 12568 12569 12570 12571 12572 12573 12574 12575 12576 12577 12578 12579 12580 12581 12582 12583 12584 12585 12586 12587 12588 12589 12590 12591 12592 12593 12594 12595 12596 12597 12598 12599 12600 12601 12602 12603 12604 12605 12606 12607 12608 12609 12610 12611 12612 12613 12614 12615 12616 12617 12618 12619 12620 12621 12622 12623 12624 12625 12626 12627 12628 12629 12630 12631 12632 12633 12634 12635 12636 12637 12638 12639 12640 12641 12642 12643 12644 12645 12646 12647 12648 12649 12650 12651 12652 12653 12654 12655 12656 12657 12658 12659 12660 12661 12662 12663 12664 12665 12666 12667 12668 12669 12670 12671 12672 12673 12674 12675 12676 12677 12678 12679 12680 12681 12682 12683 12684 12685 12686 12687 12688 12689 12690 12691 12692 12693 12694 12695 12696 12697 12698 12699 12700 12701 12702 12703 12704 12705 12706 12707 12708 12709 12710 12711 12712 12713 12714 12715 12716 12717 12718 12719 12720 12721 12722 12723 12724 12725 12726 12727 12728 12729 12730 12731 12732 12733 12734 12735 12736 12737 12738 12739 12740 12741 12742 12743 12744 12745 12746 12747 12748 12749 12750 12751 12752 12753 12754 12755 12756 12757 12758 12759 12760 12761 12762 12763 12764 12765 12766 12767 12768 12769 12770 12771 12772 12773 12774 12775 12776 12777 12778 12779 12780 12781 12782 12783 12784 12785 12786 12787 12788 12789 12790 12791 12792 12793 12794 12795 12796 12797 12798 12799 12800 12801 12802 12803 12804 12805 12806 12807 12808 12809 12810 12811 12812 12813 12814 12815 12816 12817 12818 12819 12820 12821 12822 12823 12824 12825 12826 12827 12828 12829 12830 12831 12832 12833 12834 12835 12836 12837 12838 12839 12840 12841 12842 12843 12844 12845 12846 12847 12848 12849 12850 12851 12852 12853 12854 12855 12856 12857 12858 12859 12860 12861 12862 12863 12864 12865 12866 12867 12868 12869 12870 12871 12872 12873 12874 12875 12876 12877 12878 12879 12880 12881 12882 12883 12884 12885 12886 12887 12888 12889 12890 12891 12892 12893 12894 12895 12896 12897 12898 12899 12900 12901 12902 12903 12904 12905 12906 12907 12908 12909 12910 12911 12912 12913 12914 12915 12916 12917 12918 12919 12920 12921 12922 12923 12924 12925 12926 12927 12928 12929 12930 12931 12932 12933 12934 12935 12936 12937 12938 12939 12940 12941 12942 12943 12944 12945 12946 12947 12948 12949 12950 12951 12952 12953 12954 12955 12956 12957 12958 12959 12960 12961 12962 12963 12964 12965 12966 12967 12968 12969 12970 12971 12972 12973 12974 12975 12976 12977 12978 12979 12980 12981 12982 12983 12984 12985 12986 12987 12988 12989 12990 12991 12992 12993 12994 12995 12996 12997 12998 12999 13000 13001 13002 13003 13004 13005 13006 13007 13008 13009 13010 13011 13012 13013 13014 13015 13016 13017 13018 13019 13020 13021 13022 13023 13024 13025 13026 13027 13028 13029 13030 13031 13032 13033 13034 13035 13036 13037 13038 13039 13040 13041 13042 13043 13044 13045 13046 13047 13048 13049 13050 13051 13052 13053 13054 13055 13056 13057 13058 13059 13060 13061 13062 13063 13064 13065 13066 13067 13068 13069 13070 13071 13072 13073 13074 13075 13076 13077 13078 13079 13080 13081 13082 13083 13084 13085 13086 13087 13088 13089 13090 13091 13092 13093 13094 13095 13096 13097 13098 13099 13100 13101 13102 13103 13104 13105 13106 13107 13108 13109 13110 13111 13112 13113 13114 13115 13116 13117 13118 13119 13120 13121 13122 13123 13124 13125 13126 13127 13128 13129 13130 13131 13132 13133 13134 13135 13136 13137 13138 13139 13140 13141 13142 13143 13144 13145 13146 13147 13148 13149 13150 13151 13152 13153 13154 13155 13156 13157 13158 13159 13160 13161 13162 13163 13164 13165 13166 13167 13168 13169 13170 13171 13172 13173 13174 13175 13176 13177 13178 13179 13180 13181 13182 13183 13184 13185 13186 13187 13188 13189 13190 13191 13192 13193 13194 13195 13196 13197 13198 13199 13200 13201 13202 13203 13204 13205 13206 13207 13208 13209 13210 13211 13212 13213 13214 13215 13216 13217 13218 13219 13220 13221 13222 13223 13224 13225 13226 13227 13228 13229 13230 13231 13232 13233 13234 13235 13236 13237 13238 13239 13240 13241 13242 13243 13244 13245 13246 13247 13248 13249 13250 13251 13252 13253 13254 13255 13256 13257 13258 13259 13260 13261 13262 13263 13264 13265 13266 13267 13268 13269 13270 13271 13272 13273 13274 13275 13276 13277 13278 13279 13280 13281 13282 13283 13284 13285 13286 13287 13288 13289 13290 13291 13292 13293 13294 13295 13296 13297 13298 13299 13300 13301 13302 13303 13304 13305 13306 13307 13308 13309 13310 13311 13312 13313 13314 13315 13316 13317 13318 13319 13320 13321 13322 13323 13324 13325 13326 13327 13328 13329 13330 13331 13332 13333 13334 13335 13336 13337 13338 13339 13340 13341 13342 13343 13344 13345 13346 13347 13348 13349 13350 13351 13352 13353 13354 13355 13356 13357 13358 13359 13360 13361 13362 13363 13364 13365 13366 13367 13368 13369 13370 13371 13372 13373 13374 13375 13376 13377 13378 13379 13380 13381 13382 13383 13384 13385 13386 13387 13388 13389 13390 13391 13392 13393 13394 13395 13396 13397 13398 13399 13400 13401 13402 13403 13404 13405 13406 13407 13408 13409 13410 13411 13412 13413 13414 13415 13416 13417 13418 13419 13420 13421 13422 13423 13424 13425 13426 13427 13428 13429 13430 13431 13432 13433 13434 13435 13436 13437 13438 13439 13440 13441 13442 13443 13444 13445 13446 13447 13448 13449 13450 13451 13452 13453 13454 13455 13456 13457 13458 13459 13460 13461 13462 13463 13464 13465 13466 13467 13468 13469 13470 13471 13472 13473 13474 13475 13476 13477 13478 13479 13480 13481 13482 13483 13484 13485 13486 13487 13488 13489 13490 13491 13492 13493 13494 13495 13496 13497 13498 13499 13500 13501 13502 13503 13504 13505 13506 13507 13508 13509 13510 13511 13512 13513 13514 13515 13516 13517 13518 13519 13520 13521 13522 13523 13524 13525 13526 13527 13528 13529 13530 13531 13532 13533 13534 13535 13536 13537 13538 13539 13540 13541 13542 13543 13544 13545 13546 13547 13548 13549 13550 13551 13552 13553 13554 13555 13556 13557 13558 13559 13560 13561 13562 13563 13564 13565 13566 13567 13568 13569 13570 13571 13572 13573 13574 13575 13576 13577 13578 13579 13580 13581 13582 13583 13584 13585 13586 13587 13588 13589 13590 13591 13592 13593 13594 13595 13596 13597 13598 13599 13600 13601 13602 13603 13604 13605 13606 13607 13608 13609 13610 13611 13612 13613 13614 13615 13616 13617 13618 13619 13620 13621 13622 13623 13624 13625 13626 13627 13628 13629 13630 13631 13632 13633 13634 13635 13636 13637 13638 13639 13640 13641 13642 13643 13644 13645 13646 13647 13648 13649 13650 13651 13652 13653 13654 13655 13656 13657 13658 13659 13660 13661 13662 13663 13664 13665 13666 13667 13668 13669 13670 13671 13672 13673 13674 13675 13676 13677 13678 13679 13680 13681 13682 13683 13684 13685 13686 13687 13688 13689 13690 13691 13692 13693 13694 13695 13696 13697 13698 13699 13700 13701 13702 13703 13704 13705 13706 13707 13708 13709 13710 13711 13712 13713 13714 13715 13716 13717 13718 13719 13720 13721 13722 13723 13724 13725 13726 13727 13728 13729 13730 13731 13732 13733 13734 13735 13736 13737 13738 13739 13740 13741 13742 13743 13744 13745 13746 13747 13748 13749 13750 13751 13752 13753 13754 13755 13756 13757 13758 13759 13760 13761 13762 13763 13764 13765 13766 13767 13768 13769 13770 13771 13772 13773 13774 13775 13776 13777 13778 13779 13780 13781 13782 13783 13784 13785 13786 13787 13788 13789 13790 13791 13792 13793 13794 13795 13796 13797 13798 13799 13800 13801 13802 13803 13804 13805 13806 13807 13808 13809 13810 13811 13812 13813 13814 13815 13816 13817 13818 13819 13820 13821 13822 13823 13824 13825 13826 13827 13828 13829 13830 13831 13832 13833 13834 13835 13836 13837 13838 13839 13840 13841 13842 13843 13844 13845 13846 13847 13848 13849 13850 13851 13852 13853 13854 13855 13856 13857 13858 13859 13860 13861 13862 13863 13864 13865 13866 13867 13868 13869 13870 13871 13872 13873 13874 13875 13876 13877 13878 13879 13880 13881 13882 13883 13884 13885 13886 13887 13888 13889 13890 13891 13892 13893 13894 13895 13896 13897 13898 13899 13900 13901 13902 13903 13904 13905 13906 13907 13908 13909 13910 13911 13912 13913 13914 13915 13916 13917 13918 13919 13920 13921 13922 13923 13924 13925 13926 13927 13928 13929 13930 13931 13932 13933 13934 13935 13936 13937 13938 13939 13940 13941 13942 13943 13944 13945 13946 13947 13948 13949 13950 13951 13952 13953 13954 13955 13956 13957 13958 13959 13960 13961 13962 13963 13964 13965 13966 13967 13968 13969 13970 13971 13972 13973 13974 13975 13976 13977 13978 13979 13980 13981 13982 13983 13984 13985 13986 13987 13988 13989 13990 13991 13992 13993 13994 13995 13996 13997 13998 13999 14000 14001 14002 14003 14004 14005 14006 14007 14008 14009 14010 14011 14012 14013 14014 14015 14016 14017 14018 14019 14020 14021 14022 14023 14024 14025 14026 14027 14028 14029 14030 14031 14032 14033 14034 14035 14036 14037 14038 14039 14040 14041 14042 14043 14044 14045 14046 14047 14048 14049 14050 14051 14052 14053 14054 14055 14056 14057 14058 14059 14060 14061 14062 14063 14064 14065 14066 14067 14068 14069 14070 14071 14072 14073 14074 14075 14076 14077 14078 14079 14080 14081 14082 14083 14084 14085 14086 14087 14088 14089 14090 14091 14092 14093 14094 14095 14096 14097 14098 14099 14100 14101 14102 14103 14104 14105 14106 14107 14108 14109 14110 14111 14112 14113 14114 14115 14116 14117 14118 14119 14120 14121 14122 14123 14124 14125 14126 14127 14128 14129 14130 14131 14132 14133 14134 14135 14136 14137 14138 14139 14140 14141 14142 14143 14144 14145 14146 14147 14148 14149 14150 14151 14152 14153 14154 14155 14156 14157 14158 14159 14160 14161 14162 14163 14164 14165 14166 14167 14168 14169 14170 14171 14172 14173 14174 14175 14176 14177 14178 14179 14180 14181 14182 14183 14184 14185 14186 14187 14188 14189 14190 14191 14192 14193 14194 14195 14196 14197 14198 14199 14200 14201 14202 14203 14204 14205 14206 14207 14208 14209 14210 14211 14212 14213 14214 14215 14216 14217 14218 14219 14220 14221 14222 14223 14224 14225 14226 14227 14228 14229 14230 14231 14232 14233 14234 14235 14236 14237 14238 14239 14240 14241 14242 14243 14244 14245 14246 14247 14248 14249 14250 14251 14252 14253 14254 14255 14256 14257 14258 14259 14260 14261 14262 14263 14264 14265 14266 14267 14268 14269 14270 14271 14272 14273 14274 14275 14276 14277 14278 14279 14280 14281 14282 14283 14284 14285 14286 14287 14288 14289 14290 14291 14292 14293 14294 14295 14296 14297 14298 14299 14300 14301 14302 14303 14304 14305 14306 14307 14308 14309 14310 14311 14312 14313 14314 14315 14316 14317 14318 14319 14320 14321 14322 14323 14324 14325 14326 14327 14328 14329 14330 14331 14332 14333 14334 14335 14336 14337 14338 14339 14340 14341 14342 14343 14344 14345 14346 14347 14348 14349 14350 14351 14352 14353 14354 14355 14356 14357 14358 14359 14360 14361 14362 14363 14364 14365 14366 14367 14368 14369 14370 14371 14372 14373 14374 14375 14376 14377 14378 14379 14380 14381 14382 14383 14384 14385 14386 14387 14388 14389 14390 14391 14392 14393 14394 14395 14396 14397 14398 14399 14400 14401 14402 14403 14404 14405 14406 14407 14408 14409 14410 14411 14412 14413 14414 14415 14416 14417 14418 14419 14420 14421 14422 14423 14424 14425 14426 14427 14428 14429 14430 14431 14432 14433 14434 14435 14436 14437 14438 14439 14440 14441 14442 14443 14444 14445 14446 14447 14448 14449 14450 14451 14452 14453 14454 14455 14456 14457 14458 14459 14460 14461 14462 14463 14464 14465 14466 14467 14468 14469 14470 14471 14472 14473 14474 14475 14476 14477 14478 14479 14480 14481 14482 14483 14484 14485 14486 14487 14488 14489 14490 14491 14492 14493 14494 14495 14496 14497 14498 14499 14500 14501 14502 14503 14504 14505 14506 14507 14508 14509 14510 14511 14512 14513 14514 14515 14516 14517 14518 14519 14520 14521 14522 14523 14524 14525 14526 14527 14528 14529 14530 14531 14532 14533 14534 14535 14536 14537 14538 14539 14540 14541 14542 14543 14544 14545 14546 14547 14548 14549 14550 14551 14552 14553 14554 14555 14556 14557 14558 14559 14560 14561 14562 14563 14564 14565 14566 14567 14568 14569 14570 14571 14572 14573 14574 14575 14576 14577 14578 14579 14580 14581 14582 14583 14584 14585 14586 14587 14588 14589 14590 14591 14592 14593 14594 14595 14596 14597 14598 14599 14600 14601 14602 14603 14604 14605 14606 14607 14608 14609 14610 14611 14612 14613 14614 14615 14616 14617 14618 14619 14620 14621 14622 14623 14624 14625 14626 14627 14628 14629 14630 14631 14632 14633 14634 14635 14636 14637 14638 14639 14640 14641 14642 14643 14644 14645 14646 14647 14648 14649 14650 14651 14652 14653 14654 14655 14656 14657 14658 14659 14660 14661 14662 14663 14664 14665 14666 14667 14668 14669 14670 14671 14672 14673 14674 14675 14676 14677 14678 14679 14680 14681 14682 14683 14684 14685 14686 14687 14688 14689 14690 14691 14692 14693 14694 14695 14696 14697 14698 14699 14700 14701 14702 14703 14704 14705 14706 14707 14708 14709 14710 14711 14712 14713 14714 14715 14716 14717 14718 14719 14720 14721 14722 14723 14724 14725 14726 14727 14728 14729 14730 14731 14732 14733 14734 14735 14736 14737 14738 14739 14740 14741 14742 14743 14744 14745 14746 14747 14748 14749 14750 14751 14752 14753 14754 14755 14756 14757 14758 14759 14760 14761 14762 14763 14764 14765 14766 14767 14768 14769 14770 14771 14772 14773 14774 14775 14776 14777 14778 14779 14780 14781 14782 14783 14784 14785 14786 14787 14788 14789 14790 14791 14792 14793 14794 14795 14796 14797 14798 14799 14800 14801 14802 14803 14804 14805 14806 14807 14808 14809 14810 14811 14812 14813 14814 14815 14816 14817 14818 14819 14820 14821 14822 14823 14824 14825 14826 14827 14828 14829 14830 14831 14832 14833 14834 14835 14836 14837 14838 14839 14840 14841 14842 14843 14844 14845 14846 14847 14848 14849 14850 14851 14852 14853 14854 14855 14856 14857 14858 14859 14860 14861 14862 14863 14864 14865 14866 14867 14868 14869 14870 14871 14872 14873 14874 14875 14876 14877 14878 14879 14880 14881 14882 14883 14884 14885 14886 14887 14888 14889 14890 14891 14892 14893 14894 14895 14896 14897 14898 14899 14900 14901 14902 14903 14904 14905 14906 14907 14908 14909 14910 14911 14912 14913 14914 14915 14916 14917 14918 14919 14920 14921 14922 14923 14924 14925 14926 14927 14928 14929 14930 14931 14932 14933 14934 14935 14936 14937 14938 14939 14940 14941 14942 14943 14944 14945 14946 14947 14948 14949 14950 14951 14952 14953 14954 14955 14956 14957 14958 14959 14960 14961 14962 14963 14964 14965 14966 14967 14968 14969 14970 14971 14972 14973 14974 14975 14976 14977 14978 14979 14980 14981 14982 14983 14984 14985 14986 14987 14988 14989 14990 14991 14992 14993 14994 14995 14996 14997 14998 14999 15000 15001 15002 15003 15004 15005 15006 15007 15008 15009 15010 15011 15012 15013 15014 15015 15016 15017 15018 15019 15020 15021 15022 15023 15024 15025 15026 15027 15028 15029 15030 15031 15032 15033 15034 15035 15036 15037 15038 15039 15040 15041 15042 15043 15044 15045 15046 15047 15048 15049 15050 15051 15052 15053 15054 15055 15056 15057 15058 15059 15060 15061 15062 15063 15064 15065 15066 15067 15068 15069 15070 15071 15072 15073 15074 15075 15076 15077 15078 15079 15080 15081 15082 15083 15084 15085 15086 15087 15088 15089 15090 15091 15092 15093 15094 15095 15096 15097 15098 15099 15100 15101 15102 15103 15104 15105 15106 15107 15108 15109 15110 15111 15112 15113 15114 15115 15116 15117 15118 15119 15120 15121 15122 15123 15124 15125 15126 15127 15128 15129 15130 15131 15132 15133 15134 15135 15136 15137 15138 15139 15140 15141 15142 15143 15144 15145 15146 15147 15148 15149 15150 15151 15152 15153 15154 15155 15156 15157 15158 15159 15160 15161 15162 15163 15164 15165 15166 15167 15168 15169 15170 15171 15172 15173 15174 15175 15176 15177 15178 15179 15180 15181 15182 15183 15184 15185 15186 15187 15188 15189 15190 15191 15192 15193 15194 15195 15196 15197 15198 15199 15200 15201 15202 15203 15204 15205 15206 15207 15208 15209 15210 15211 15212 15213 15214 15215 15216 15217 15218 15219 15220 15221 15222 15223 15224 15225 15226 15227 15228 15229 15230 15231 15232 15233 15234 15235 15236 15237 15238 15239 15240 15241 15242 15243 15244 15245 15246 15247 15248 15249 15250 15251 15252 15253 15254 15255 15256 15257 15258 15259 15260 15261 15262 15263 15264 15265 15266 15267 15268 15269 15270 15271 15272 15273 15274 15275 15276 15277 15278 15279 15280 15281 15282 15283 15284 15285 15286 15287 15288 15289 15290 15291 15292 15293 15294 15295 15296 15297 15298 15299 15300 15301 15302 15303 15304 15305 15306 15307 15308 15309 15310 15311 15312 15313 15314 15315 15316 15317 15318 15319 15320 15321 15322 15323 15324 15325 15326 15327 15328 15329 15330 15331 15332 15333 15334 15335 15336 15337 15338 15339 15340 15341 15342 15343 15344 15345 15346 15347 15348 15349 15350 15351 15352 15353 15354 15355 15356 15357 15358 15359 15360 15361 15362 15363 15364 15365 15366 15367 15368 15369 15370 15371 15372 15373 15374 15375 15376 15377 15378 15379 15380 15381 15382 15383 15384 15385 15386 15387 15388 15389 15390 15391 15392 15393 15394 15395 15396 15397 15398 15399 15400 15401 15402 15403 15404 15405 15406 15407 15408 15409 15410 15411 15412 15413 15414 15415 15416 15417 15418 15419 15420 15421 15422 15423 15424 15425 15426 15427 15428 15429 15430 15431 15432 15433 15434 15435 15436 15437 15438 15439 15440 15441 15442 15443 15444 15445 15446 15447 15448 15449 15450 15451 15452 15453 15454 15455 15456 15457 15458 15459 15460 15461 15462 15463 15464 15465 15466 15467 15468 15469 15470 15471 15472 15473 15474 15475 15476 15477 15478 15479 15480 15481 15482 15483 15484 15485 15486 15487 15488 15489 15490 15491 15492 15493 15494 15495 15496 15497 15498 15499 15500 15501 15502 15503 15504 15505 15506 15507 15508 15509 15510 15511 15512 15513 15514 15515 15516 15517 15518 15519 15520 15521 15522 15523 15524 15525 15526 15527 15528 15529 15530 15531 15532 15533 15534 15535 15536 15537 15538 15539 15540 15541 15542 15543 15544 15545 15546 15547 15548 15549 15550 15551 15552 15553 15554 15555 15556 15557 15558 15559 15560 15561 15562 15563 15564 15565 15566 15567 15568 15569 15570 15571 15572 15573 15574 15575 15576 15577 15578 15579 15580 15581 15582 15583 15584 15585 15586 15587 15588 15589 15590 15591 15592 15593 15594 15595 15596 15597 15598 15599 15600 15601 15602 15603 15604 15605 15606 15607 15608 15609 15610 15611 15612 15613 15614 15615 15616 15617 15618 15619 15620 15621 15622 15623 15624 15625 15626 15627 15628 15629 15630 15631 15632 15633 15634 15635 15636 15637 15638 15639 15640 15641 15642 15643 15644 15645 15646 15647 15648 15649 15650 15651 15652 15653 15654 15655 15656 15657 15658 15659 15660 15661 15662 15663 15664 15665 15666 15667 15668 15669 15670 15671 15672 15673 15674 15675 15676 15677 15678 15679 15680 15681 15682 15683 15684 15685 15686 15687 15688 15689 15690 15691 15692 15693 15694 15695 15696 15697 15698 15699 15700 15701 15702 15703 15704 15705 15706 15707 15708 15709 15710 15711 15712 15713 15714 15715 15716 15717 15718 15719 15720 15721 15722 15723 15724 15725 15726 15727 15728 15729 15730 15731 15732 15733 15734 15735 15736 15737 15738 15739 15740 15741 15742 15743 15744 15745 15746 15747 15748 15749 15750 15751 15752 15753 15754 15755 15756 15757 15758 15759 15760 15761 15762 15763 15764 15765 15766 15767 15768 15769 15770 15771 15772 15773 15774 15775 15776 15777 15778 15779 15780 15781 15782 15783 15784 15785 15786 15787 15788 15789 15790 15791 15792 15793 15794 15795 15796 15797 15798 15799 15800 15801 15802 15803 15804 15805 15806 15807 15808 15809 15810 15811 15812 15813 15814 15815 15816 15817 15818 15819 15820 15821 15822 15823 15824 15825 15826 15827 15828 15829 15830 15831 15832 15833 15834 15835 15836 15837 15838 15839 15840 15841 15842 15843 15844 15845 15846 15847 15848 15849 15850 15851 15852 15853 15854 15855 15856 15857 15858 15859 15860 15861 15862 15863 15864 15865 15866 15867 15868 15869 15870 15871 15872 15873 15874 15875 15876 15877 15878 15879 15880 15881 15882 15883 15884 15885 15886 15887 15888 15889 15890 15891 15892 15893 15894 15895 15896 15897 15898 15899 15900 15901 15902 15903 15904 15905 15906 15907 15908 15909 15910 15911 15912 15913 15914 15915 15916 15917 15918 15919 15920 15921 15922 15923 15924 15925 15926 15927 15928 15929 15930 15931 15932 15933 15934 15935 15936 15937 15938 15939 15940 15941 15942 15943 15944 15945 15946 15947 15948 15949 15950 15951 15952 15953 15954 15955 15956 15957 15958 15959 15960 15961 15962 15963 15964 15965 15966 15967 15968 15969 15970 15971 15972 15973 15974 15975 15976 15977 15978 15979 15980 15981 15982 15983 15984 15985 15986 15987 15988 15989 15990 15991 15992 15993 15994 15995 15996 15997 15998 15999 16000 16001 16002 16003 16004 16005 16006 16007 16008 16009 16010 16011 16012 16013 16014 16015 16016 16017 16018 16019 16020 16021 16022 16023 16024 16025 16026 16027 16028 16029 16030 16031 16032 16033 16034 16035 16036 16037 16038 16039 16040 16041 16042 16043 16044 16045 16046 16047 16048 16049 16050 16051 16052 16053 16054 16055 16056 16057 16058 16059 16060 16061 16062 16063 16064 16065 16066 16067 16068 16069 16070 16071 16072 16073 16074 16075 16076 16077 16078 16079 16080 16081 16082 16083 16084 16085 16086 16087 16088 16089 16090 16091 16092 16093 16094 16095 16096 16097 16098 16099 16100 16101 16102 16103 16104 16105 16106 16107 16108 16109 16110 16111 16112 16113 16114 16115 16116 16117 16118 16119 16120 16121 16122 16123 16124 16125 16126 16127 16128 16129 16130 16131 16132 16133 16134 16135 16136 16137 16138 16139 16140 16141 16142 16143 16144 16145 16146 16147 16148 16149 16150 16151 16152 16153 16154 16155 16156 16157 16158 16159 16160 16161 16162 16163 16164 16165 16166 16167 16168 16169 16170 16171 16172 16173 16174 16175 16176 16177 16178 16179 16180 16181 16182 16183 16184 16185 16186 16187 16188 16189 16190 16191 16192 16193 16194 16195 16196 16197 16198 16199 16200 16201 16202 16203 16204 16205 16206 16207 16208 16209 16210 16211 16212 16213 16214 16215 16216 16217 16218 16219 16220 16221 16222 16223 16224 16225 16226 16227 16228 16229 16230 16231 16232 16233 16234 16235 16236 16237 16238 16239 16240 16241 16242 16243 16244 16245 16246 16247 16248 16249 16250 16251 16252 16253 16254 16255 16256 16257 16258 16259 16260 16261 16262 16263 16264 16265 16266 16267 16268 16269 16270 16271 16272 16273 16274 16275 16276 16277 16278 16279 16280 16281 16282 16283 16284 16285 16286 16287 16288 16289 16290 16291 16292 16293 16294 16295 16296 16297 16298 16299 16300 16301 16302 16303 16304 16305 16306 16307 16308 16309 16310 16311 16312 16313 16314 16315 16316 16317 16318 16319 16320 16321 16322 16323 16324 16325 16326 16327 16328 16329 16330 16331 16332 16333 16334 16335 16336 16337 16338 16339 16340 16341 16342 16343 16344 16345 16346 16347 16348 16349 16350 16351 16352 16353 16354 16355 16356 16357 16358 16359 16360 16361 16362 16363 16364 16365 16366 16367 16368 16369 16370 16371 16372 16373 16374 16375 16376 16377 16378 16379 16380 16381 16382 16383 16384 16385 16386 16387 16388 16389 16390 16391 16392 16393 16394 16395 16396 16397 16398 16399 16400 16401 16402 16403 16404 16405 16406 16407 16408 16409 16410 16411 16412 16413 16414 16415 16416 16417 16418 16419 16420 16421 16422 16423 16424 16425 16426 16427 16428 16429 16430 16431 16432 16433 16434 16435 16436 16437 16438 16439 16440 16441 16442 16443 16444 16445 16446 16447 16448 16449 16450 16451 16452 16453 16454 16455 16456 16457 16458 16459 16460 16461 16462 16463 16464 16465 16466 16467 16468 16469 16470 16471 16472 16473 16474 16475 16476 16477 16478 16479 16480 16481 16482 16483 16484 16485 16486 16487 16488 16489 16490 16491 16492 16493 16494 16495 16496 16497 16498 16499 16500 16501 16502 16503 16504 16505 16506 16507 16508 16509 16510 16511 16512 16513 16514 16515 16516 16517 16518 16519 16520 16521 16522 16523 16524 16525 16526 16527 16528 16529 16530 16531 16532 16533 16534 16535 16536 16537 16538 16539 16540 16541 16542 16543 16544 16545 16546 16547 16548 16549 16550 16551 16552 16553 16554 16555 16556 16557 16558 16559 16560 16561 16562 16563 16564 16565 16566 16567 16568 16569 16570 16571 16572 16573 16574 16575 16576 16577 16578 16579 16580 16581 16582 16583 16584 16585 16586 16587 16588 16589 16590 16591 16592 16593 16594 16595 16596 16597 16598 16599 16600 16601 16602 16603 16604 16605 16606 16607 16608 16609 16610 16611 16612 16613 16614 16615 16616 16617 16618 16619 16620 16621 16622 16623 16624 16625 16626 16627 16628 16629 16630 16631 16632 16633 16634 16635 16636 16637 16638 16639 16640 16641 16642 16643 16644 16645 16646 16647 16648 16649 16650 16651 16652 16653 16654 16655 16656 16657 16658 16659 16660 16661 16662 16663 16664 16665 16666 16667 16668 16669 16670 16671 16672 16673 16674 16675 16676 16677 16678 16679 16680 16681 16682 16683 16684 16685 16686 16687 16688 16689 16690 16691 16692 16693 16694 16695 16696 16697 16698 16699 16700 16701 16702 16703 16704 16705 16706 16707 16708 16709 16710 16711 16712 16713 16714 16715 16716 16717 16718 16719 16720 16721 16722 16723 16724 16725 16726 16727 16728 16729 16730 16731 16732 16733 16734 16735 16736 16737 16738 16739 16740 16741 16742 16743 16744 16745 16746 16747 16748 16749 16750 16751 16752 16753 16754 16755 16756 16757 16758 16759 16760 16761 16762 16763 16764 16765 16766 16767 16768 16769 16770 16771 16772 16773 16774 16775 16776 16777 16778 16779 16780 16781 16782 16783 16784 16785 16786 16787 16788 16789 16790 16791 16792 16793 16794 16795 16796 16797 16798 16799 16800 16801 16802 16803 16804 16805 16806 16807 16808 16809 16810 16811 16812 16813 16814 16815 16816 16817 16818 16819 16820 16821 16822 16823 16824 16825 16826 16827 16828 16829 16830 16831 16832 16833 16834 16835 16836 16837 16838 16839 16840 16841 16842 16843 16844 16845 16846 16847 16848 16849 16850 16851 16852 16853 16854 16855 16856 16857 16858 16859 16860 16861 16862 16863 16864 16865 16866 16867 16868 16869 16870 16871 16872 16873 16874 16875 16876 16877 16878 16879 16880 16881 16882 16883 16884 16885 16886 16887 16888 16889 16890 16891 16892 16893 16894 16895 16896 16897 16898 16899 16900 16901 16902 16903 16904 16905 16906 16907 16908 16909 16910 16911 16912 16913 16914 16915 16916 16917 16918 16919 16920 16921 16922 16923 16924 16925 16926 16927 16928 16929 16930 16931 16932 16933 16934 16935 16936 16937 16938 16939 16940 16941 16942 16943 16944 16945 16946 16947 16948 16949 16950 16951 16952 16953 16954 16955 16956 16957 16958 16959 16960 16961 16962 16963 16964 16965 16966 16967 16968 16969 16970 16971 16972 16973 16974 16975 16976 16977 16978 16979 16980 16981 16982 16983 16984 16985 16986 16987 16988 16989 16990 16991 16992 16993 16994 16995 16996 16997 16998 16999 17000 17001 17002 17003 17004 17005 17006 17007 17008 17009 17010 17011 17012 17013 17014 17015 17016 17017 17018 17019 17020 17021 17022 17023 17024 17025 17026 17027 17028 17029 17030 17031 17032 17033 17034 17035 17036 17037 17038 17039 17040 17041 17042 17043 17044 17045 17046 17047 17048 17049 17050 17051 17052 17053 17054 17055 17056 17057 17058 17059 17060 17061 17062 17063 17064 17065 17066 17067 17068 17069 17070 17071 17072 17073 17074 17075 17076 17077 17078 17079 17080 17081 17082 17083 17084 17085 17086 17087 17088 17089 17090 17091 17092 17093 17094 17095 17096 17097 17098 17099 17100 17101 17102 17103 17104 17105 17106 17107 17108 17109 17110 17111 17112 17113 17114 17115 17116 17117 17118 17119 17120 17121 17122 17123 17124 17125 17126 17127 17128 17129 17130 17131 17132 17133 17134 17135 17136 17137 17138 17139 17140 17141 17142 17143 17144 17145 17146 17147 17148 17149 17150 17151 17152 17153 17154 17155 17156 17157 17158 17159 17160 17161 17162 17163 17164 17165 17166 17167 17168 17169 17170 17171 17172 17173 17174 17175 17176 17177 17178 17179 17180 17181 17182 17183 17184 17185 17186 17187 17188 17189 17190 17191 17192 17193 17194 17195 17196 17197 17198 17199 17200 17201 17202 17203 17204 17205 17206 17207 17208 17209 17210 17211 17212 17213 17214 17215 17216 17217 17218 17219 17220 17221 17222 17223 17224 17225 17226 17227 17228 17229 17230 17231 17232 17233 17234 17235 17236 17237 17238 17239 17240 17241 17242 17243 17244 17245 17246 17247 17248 17249 17250 17251 17252 17253 17254 17255 17256 17257 17258 17259 17260 17261 17262 17263 17264 17265 17266 17267 17268 17269 17270 17271 17272 17273 17274 17275 17276 17277 17278 17279 17280 17281 17282 17283 17284 17285 17286 17287 17288 17289 17290 17291 17292 17293 17294 17295 17296 17297 17298 17299 17300 17301 17302 17303 17304 17305 17306 17307 17308 17309 17310 17311 17312 17313 17314 17315 17316 17317 17318 17319 17320 17321 17322 17323 17324 17325 17326 17327 17328 17329 17330 17331 17332 17333 17334 17335 17336 17337 17338 17339 17340 17341 17342 17343 17344 17345 17346 17347 17348 17349 17350 17351 17352 17353 17354 17355 17356 17357 17358 17359 17360 17361 17362 17363 17364 17365 17366 17367 17368 17369 17370 17371 17372 17373 17374 17375 17376 17377 17378 17379 17380 17381 17382 17383 17384 17385 17386 17387 17388 17389 17390 17391 17392 17393 17394 17395 17396 17397 17398 17399 17400 17401 17402 17403 17404 17405 17406 17407 17408 17409 17410 17411 17412 17413 17414 17415 17416 17417 17418 17419 17420 17421 17422 17423 17424 17425 17426 17427 17428 17429 17430 17431 17432 17433 17434 17435 17436 17437 17438 17439 17440 17441 17442 17443 17444 17445 17446 17447 17448 17449 17450 17451 17452 17453 17454 17455 17456 17457 17458 17459 17460 17461 17462 17463 17464 17465 17466 17467 17468 17469 17470 17471 17472 17473 17474 17475 17476 17477 17478 17479 17480 17481 17482 17483 17484 17485 17486 17487 17488 17489 17490 17491 17492 17493 17494 17495 17496 17497 17498 17499 17500 17501 17502 17503 17504 17505 17506 17507 17508 17509 17510 17511 17512 17513 17514 17515 17516 17517 17518 17519 17520 17521 17522 17523 17524 17525 17526 17527 17528 17529 17530 17531 17532 17533 17534 17535 17536 17537 17538 17539 17540 17541 17542 17543 17544 17545 17546 17547 17548 17549 17550 17551 17552 17553 17554 17555 17556 17557 17558 17559 17560 17561 17562 17563 17564 17565 17566 17567 17568 17569 17570 17571 17572 17573 17574 17575 17576 17577 17578 17579 17580 17581 17582 17583 17584 17585 17586 17587 17588 17589 17590 17591 17592 17593 17594 17595 17596 17597 17598 17599 17600 17601 17602 17603 17604 17605 17606 17607 17608 17609 17610 17611 17612 17613 17614 17615 17616 17617 17618 17619 17620 17621 17622 17623 17624 17625 17626 17627 17628 17629 17630 17631 17632 17633 17634 17635 17636 17637 17638 17639 17640 17641 17642 17643 17644 17645 17646 17647 17648 17649 17650 17651 17652 17653 17654 17655 17656 17657 17658 17659 17660 17661 17662 17663 17664 17665 17666 17667 17668 17669 17670 17671 17672 17673 17674 17675 17676 17677 17678 17679 17680 17681 17682 17683 17684 17685 17686 17687 17688 17689 17690 17691 17692 17693 17694 17695 17696 17697 17698 17699 17700 17701 17702 17703 17704 17705 17706 17707 17708 17709 17710 17711 17712 17713 17714 17715 17716 17717 17718 17719 17720 17721 17722 17723 17724 17725 17726 17727 17728 17729 17730 17731 17732 17733 17734 17735 17736 17737 17738 17739 17740 17741 17742 17743 17744 17745 17746 17747 17748 17749 17750 17751 17752 17753 17754 17755 17756 17757 17758 17759 17760 17761 17762 17763 17764 17765 17766 17767 17768 17769 17770 17771 17772 17773 17774 17775 17776 17777 17778 17779 17780 17781 17782 17783 17784 17785 17786 17787 17788 17789 17790 17791 17792 17793 17794 17795 17796 17797 17798 17799 17800 17801 17802 17803 17804 17805 17806 17807 17808 17809 17810 17811 17812 17813 17814 17815 17816 17817 17818 17819 17820 17821 17822 17823 17824 17825 17826 17827 17828 17829 17830 17831 17832 17833 17834 17835 17836 17837 17838 17839 17840 17841 17842 17843 17844 17845 17846 17847 17848 17849 17850 17851 17852 17853 17854 17855 17856 17857 17858 17859 17860 17861 17862 17863 17864 17865 17866 17867 17868 17869 17870 17871 17872 17873 17874 17875 17876 17877 17878 17879 17880 17881 17882 17883 17884 17885 17886 17887 17888 17889 17890 17891 17892 17893 17894 17895 17896 17897 17898 17899 17900 17901 17902 17903 17904 17905 17906 17907 17908 17909 17910 17911 17912 17913 17914 17915 17916 17917 17918 17919 17920 17921 17922 17923 17924 17925 17926 17927 17928 17929 17930 17931 17932 17933 17934 17935 17936 17937 17938 17939 17940 17941 17942 17943 17944 17945 17946 17947 17948 17949 17950 17951 17952 17953 17954 17955 17956 17957 17958 17959 17960 17961 17962 17963 17964 17965 17966 17967 17968 17969 17970 17971 17972 17973 17974 17975 17976 17977 17978 17979 17980 17981 17982 17983 17984 17985 17986 17987 17988 17989 17990 17991 17992 17993 17994 17995 17996 17997 17998 17999 18000 18001 18002 18003 18004 18005 18006 18007 18008 18009 18010 18011 18012 18013 18014 18015 18016 18017 18018 18019 18020 18021 18022 18023 18024 18025 18026 18027 18028 18029 18030 18031 18032 18033 18034 18035 18036 18037 18038 18039 18040 18041 18042 18043 18044 18045 18046 18047 18048 18049 18050 18051 18052 18053 18054 18055 18056 18057 18058 18059 18060 18061 18062 18063 18064 18065 18066 18067 18068 18069 18070 18071 18072 18073 18074 18075 18076 18077 18078 18079 18080 18081 18082 18083 18084 18085 18086 18087 18088 18089 18090 18091 18092 18093 18094 18095 18096 18097 18098 18099 18100 18101 18102 18103 18104 18105 18106 18107 18108 18109 18110 18111 18112 18113 18114 18115 18116 18117 18118 18119 18120 18121 18122 18123 18124 18125 18126 18127 18128 18129 18130 18131 18132 18133 18134 18135 18136 18137 18138 18139 18140 18141 18142 18143 18144 18145 18146 18147 18148 18149 18150 18151 18152 18153 18154 18155 18156 18157 18158 18159 18160 18161 18162 18163 18164 18165 18166 18167 18168 18169 18170 18171 18172 18173 18174 18175 18176 18177 18178 18179 18180 18181 18182 18183 18184 18185 18186 18187 18188 18189 18190 18191 18192 18193 18194 18195 18196 18197 18198 18199 18200 18201 18202 18203 18204 18205 18206 18207 18208 18209 18210 18211 18212 18213 18214 18215 18216 18217 18218 18219 18220 18221 18222 18223 18224 18225 18226 18227 18228 18229 18230 18231 18232 18233 18234 18235 18236 18237 18238 18239 18240 18241 18242 18243 18244 18245 18246 18247 18248 18249 18250 18251 18252 18253 18254 18255 18256 18257 18258 18259 18260 18261 18262 18263 18264 18265 18266 18267 18268 18269 18270 18271 18272 18273 18274 18275 18276 18277 18278 18279 18280 18281 18282 18283 18284 18285 18286 18287 18288 18289 18290 18291 18292 18293 18294 18295 18296 18297 18298 18299 18300 18301 18302 18303 18304 18305 18306 18307 18308 18309 18310 18311 18312 18313 18314 18315 18316 18317 18318 18319 18320 18321 18322 18323 18324 18325 18326 18327 18328 18329 18330 18331 18332 18333 18334 18335 18336 18337 18338 18339 18340 18341 18342 18343 18344 18345 18346 18347 18348 18349 18350 18351 18352 18353 18354 18355 18356 18357 18358 18359 18360 18361 18362 18363 18364 18365 18366 18367 18368 18369 18370 18371 18372 18373 18374 18375 18376 18377 18378 18379 18380 18381 18382 18383 18384 18385 18386 18387 18388 18389 18390 18391 18392 18393 18394 18395 18396 18397 18398 18399 18400 18401 18402 18403 18404 18405 18406 18407 18408 18409 18410 18411 18412 18413 18414 18415 18416 18417 18418 18419 18420 18421 18422 18423 18424 18425 18426 18427 18428 18429 18430 18431 18432 18433 18434 18435 18436 18437 18438 18439 18440 18441 18442 18443 18444 18445 18446 18447 18448 18449 18450 18451 18452 18453 18454 18455 18456 18457 18458 18459 18460 18461 18462 18463 18464 18465 18466 18467 18468 18469 18470 18471 18472 18473 18474 18475 18476 18477 18478 18479 18480 18481 18482 18483 18484 18485 18486 18487 18488 18489 18490 18491 18492 18493 18494 18495 18496 18497 18498 18499 18500 18501 18502 18503 18504 18505 18506 18507 18508 18509 18510 18511 18512 18513 18514 18515 18516 18517 18518 18519 18520 18521 18522 18523 18524 18525 18526 18527 18528 18529 18530 18531 18532 18533 18534 18535 18536 18537 18538 18539 18540 18541 18542 18543 18544 18545 18546 18547 18548 18549 18550 18551 18552 18553 18554 18555 18556 18557 18558 18559 18560 18561 18562 18563 18564 18565 18566 18567 18568 18569 18570 18571 18572 18573 18574 18575 18576 18577 18578 18579 18580 18581 18582 18583 18584 18585 18586 18587 18588 18589 18590 18591 18592 18593 18594 18595 18596 18597 18598 18599 18600 18601 18602 18603 18604 18605 18606 18607 18608 18609 18610 18611 18612 18613 18614 18615 18616 18617 18618 18619 18620 18621 18622 18623 18624 18625 18626 18627 18628 18629 18630 18631 18632 18633 18634 18635 18636 18637 18638 18639 18640 18641 18642 18643 18644 18645 18646 18647 18648 18649 18650 18651 18652 18653 18654 18655 18656 18657 18658 18659 18660 18661 18662 18663 18664 18665 18666 18667 18668 18669 18670 18671 18672 18673 18674 18675 18676 18677 18678 18679 18680 18681 18682 18683 18684 18685 18686 18687 18688 18689 18690 18691 18692 18693 18694 18695 18696 18697 18698 18699 18700 18701 18702 18703 18704 18705 18706 18707 18708 18709 18710 18711 18712 18713 18714 18715 18716 18717 18718 18719 18720 18721 18722 18723 18724 18725 18726 18727 18728 18729 18730 18731 18732 18733 18734 18735 18736 18737 18738 18739 18740 18741 18742 18743 18744 18745 18746 18747 18748 18749 18750 18751 18752 18753 18754 18755 18756 18757 18758 18759 18760 18761 18762 18763 18764 18765 18766 18767 18768 18769 18770 18771 18772 18773 18774 18775 18776 18777 18778 18779 18780 18781 18782 18783 18784 18785 18786 18787 18788 18789 18790 18791 18792 18793 18794 18795 18796 18797 18798 18799 18800 18801 18802 18803 18804 18805 18806 18807 18808 18809 18810 18811 18812 18813 18814 18815 18816 18817 18818 18819 18820 18821 18822 18823 18824 18825 18826 18827 18828 18829 18830 18831 18832 18833 18834 18835 18836 18837 18838 18839 18840 18841 18842 18843 18844 18845 18846 18847 18848 18849 18850 18851 18852 18853 18854 18855 18856 18857 18858 18859 18860 18861 18862 18863 18864 18865 18866 18867 18868 18869 18870 18871 18872 18873 18874 18875 18876 18877 18878 18879 18880 18881 18882 18883 18884 18885 18886 18887 18888 18889 18890 18891 18892 18893 18894 18895 18896 18897 18898 18899 18900 18901 18902 18903 18904 18905 18906 18907 18908 18909 18910 18911 18912 18913 18914 18915 18916 18917 18918 18919 18920 18921 18922 18923 18924 18925 18926 18927 18928 18929 18930 18931 18932 18933 18934 18935 18936 18937 18938 18939 18940 18941 18942 18943 18944 18945 18946 18947 18948 18949 18950 18951 18952 18953 18954 18955 18956 18957 18958 18959 18960 18961 18962 18963 18964 18965 18966 18967 18968 18969 18970 18971 18972 18973 18974 18975 18976 18977 18978 18979 18980 18981 18982 18983 18984 18985 18986 18987 18988 18989 18990 18991 18992 18993 18994 18995 18996 18997 18998 18999 19000 19001 19002 19003 19004 19005 19006 19007 19008 19009 19010 19011 19012 19013 19014 19015 19016 19017 19018 19019 19020 19021 19022 19023 19024 19025 19026 19027 19028 19029 19030 19031 19032 19033 19034 19035 19036 19037 19038 19039 19040 19041 19042 19043 19044 19045 19046 19047 19048 19049 19050 19051 19052 19053 19054 19055 19056 19057 19058 19059 19060 19061 19062 19063 19064 19065 19066 19067 19068 19069 19070 19071 19072 19073 19074 19075 19076 19077 19078 19079 19080 19081 19082 19083 19084 19085 19086 19087 19088 19089 19090 19091 19092 19093 19094 19095 19096 19097 19098 19099 19100 19101 19102 19103 19104 19105 19106 19107 19108 19109 19110 19111 19112 19113 19114 19115 19116 19117 19118 19119 19120 19121 19122 19123 19124 19125 19126 19127 19128 19129 19130 19131 19132 19133 19134 19135 19136 19137 19138 19139 19140 19141 19142 19143 19144 19145 19146 19147 19148 19149 19150 19151 19152 19153 19154 19155 19156 19157 19158 19159 19160 19161 19162 19163 19164 19165 19166 19167 19168 19169 19170 19171 19172 19173 19174 19175 19176 19177 19178 19179 19180 19181 19182 19183 19184 19185 19186 19187 19188 19189 19190 19191 19192 19193 19194 19195 19196 19197 19198 19199 19200 19201 19202 19203 19204 19205 19206 19207 19208 19209 19210 19211 19212 19213 19214 19215 19216 19217 19218 19219 19220 19221 19222 19223 19224 19225 19226 19227 19228 19229 19230 19231 19232 19233 19234 19235 19236 19237 19238 19239 19240 19241 19242 19243 19244 19245 19246 19247 19248 19249 19250 19251 19252 19253 19254 19255 19256 19257 19258 19259 19260 19261 19262 19263 19264 19265 19266 19267 19268 19269 19270 19271 19272 19273 19274 19275 19276 19277 19278 19279 19280 19281 19282 19283 19284 19285 19286 19287 19288 19289 19290 19291 19292 19293 19294 19295 19296 19297 19298 19299 19300 19301 19302 19303 19304 19305 19306 19307 19308 19309 19310 19311 19312 19313 19314 19315 19316 19317 19318 19319 19320 19321 19322 19323 19324 19325 19326 19327 19328 19329 19330 19331 19332 19333 19334 19335 19336 19337 19338 19339 19340 19341 19342 19343 19344 19345 19346 19347 19348 19349 19350 19351 19352 19353 19354 19355 19356 19357 19358 19359 19360 19361 19362 19363 19364 19365 19366 19367 19368 19369 19370 19371 19372 19373 19374 19375 19376 19377 19378 19379 19380 19381 19382 19383 19384 19385 19386 19387 19388 19389 19390 19391 19392 19393 19394 19395 19396 19397 19398 19399 19400 19401 19402 19403 19404 19405 19406 19407 19408 19409 19410 19411 19412 19413 19414 19415 19416 19417 19418 19419 19420 19421 19422 19423 19424 19425 19426 19427 19428 19429 19430 19431 19432 19433 19434 19435 19436 19437 19438 19439 19440 19441 19442 19443 19444 19445 19446 19447 19448 19449 19450 19451 19452 19453 19454 19455 19456 19457 19458 19459 19460 19461 19462 19463 19464 19465 19466 19467 19468 19469 19470 19471 19472 19473 19474 19475 19476 19477 19478 19479 19480 19481 19482 19483 19484 19485 19486 19487 19488 19489 19490 19491 19492 19493 19494 19495 19496 19497 19498 19499 19500 19501 19502 19503 19504 19505 19506 19507 19508 19509 19510 19511 19512 19513 19514 19515 19516 19517 19518 19519 19520 19521 19522 19523 19524 19525 19526 19527 19528 19529 19530 19531 19532 19533 19534 19535 19536 19537 19538 19539 19540 19541 19542 19543 19544 19545 19546 19547 19548 19549 19550 19551 19552 19553 19554 19555 19556 19557 19558 19559 19560 19561 19562 19563 19564 19565 19566 19567 19568 19569 19570 19571 19572 19573 19574 19575 19576 19577 19578 19579 19580 19581 19582 19583 19584 19585 19586 19587 19588 19589 19590 19591 19592 19593 19594 19595 19596 19597 19598 19599 19600 19601 19602 19603 19604 19605 19606 19607 19608 19609 19610 19611 19612 19613 19614 19615 19616 19617 19618 19619 19620 19621 19622 19623 19624 19625 19626 19627 19628 19629 19630 19631 19632 19633 19634 19635 19636 19637 19638 19639 19640 19641 19642 19643 19644 19645 19646 19647 19648 19649 19650 19651 19652 19653 19654 19655 19656 19657 19658 19659 19660 19661 19662 19663 19664 19665 19666 19667 19668 19669 19670 19671 19672 19673 19674 19675 19676 19677 19678 19679 19680 19681 19682 19683 19684 19685 19686 19687 19688 19689 19690 19691 19692 19693 19694 19695 19696 19697 19698 19699 19700 19701 19702 19703 19704 19705 19706 19707 19708 19709 19710 19711 19712 19713 19714 19715 19716 19717 19718 19719 19720 19721 19722 19723 19724 19725 19726 19727 19728 19729 19730 19731 19732 19733 19734 19735 19736 19737 19738 19739 19740 19741 19742 19743 19744 19745 19746 19747 19748 19749 19750 19751 19752 19753 19754 19755 19756 19757 19758 19759 19760 19761 19762 19763 19764 19765 19766 19767 19768 19769 19770 19771 19772 19773 19774 19775 19776 19777 19778 19779 19780 19781 19782 19783 19784 19785 19786 19787 19788 19789 19790 19791 19792 19793 19794 19795 19796 19797 19798 19799 19800 19801 19802 19803 19804 19805 19806 19807 19808 19809 19810 19811 19812 19813 19814 19815 19816 19817 19818 19819 19820 19821 19822 19823 19824 19825 19826 19827 19828 19829 19830 19831 19832 19833 19834 19835 19836 19837 19838 19839 19840 19841 19842 19843 19844 19845 19846 19847 19848 19849 19850 19851 19852 19853 19854 19855 19856 19857 19858 19859 19860 19861 19862 19863 19864 19865 19866 19867 19868 19869 19870 19871 19872 19873 19874 19875 19876 19877 19878 19879 19880 19881 19882 19883 19884 19885 19886 19887 19888 19889 19890 19891 19892 19893 19894 19895 19896 19897 19898 19899 19900 19901 19902 19903 19904 19905 19906 19907 19908 19909 19910 19911 19912 19913 19914 19915 19916 19917 19918 19919 19920 19921 19922 19923 19924 19925 19926 19927 19928 19929 19930 19931 19932 19933 19934 19935 19936 19937 19938 19939 19940 19941 19942 19943 19944 19945 19946 19947 19948 19949 19950 19951 19952 19953 19954 19955 19956 19957 19958 19959 19960 19961 19962 19963 19964 19965 19966 19967 19968 19969 19970 19971 19972 19973 19974 19975 19976 19977 19978 19979 19980 19981 19982 19983 19984 19985 19986 19987 19988 19989 19990 19991 19992 19993 19994 19995 19996 19997 19998 19999 20000 20001 20002 20003 20004 20005 20006 20007 20008 20009 20010 20011 20012 20013 20014 20015 20016 20017 20018 20019 20020 20021 20022 20023 20024 20025 20026 20027 20028 20029 20030 20031 20032 20033 20034 20035 20036 20037 20038 20039 20040 20041 20042 20043 20044 20045 20046 20047 20048 20049 20050 20051 20052 20053 20054 20055 20056 20057 20058 20059 20060 20061 20062 20063 20064 20065 20066 20067 20068 20069 20070 20071 20072 20073 20074 20075 20076 20077 20078 20079 20080 20081 20082 20083 20084 20085 20086 20087 20088 20089 20090 20091 20092 20093 20094 20095 20096 20097 20098 20099 20100 20101 20102 20103 20104 20105 20106 20107 20108 20109 20110 20111 20112 20113 20114 20115 20116 20117 20118 20119 20120 20121 20122 20123 20124 20125 20126 20127 20128 20129 20130 20131 20132 20133 20134 20135 20136 20137 20138 20139 20140 20141 20142 20143 20144 20145 20146 20147 20148 20149 20150 20151 20152 20153 20154 20155 20156 20157 20158 20159 20160 20161 20162 20163 20164 20165 20166 20167 20168 20169 20170 20171 20172 20173 20174 20175 20176 20177 20178 20179 20180 20181 20182 20183 20184 20185 20186 20187 20188 20189 20190 20191 20192 20193 20194 20195 20196 20197 20198 20199 20200 20201 20202 20203 20204 20205 20206 20207 20208 20209 20210 20211 20212 20213 20214 20215 20216 20217 20218 20219 20220 20221 20222 20223 20224 20225 20226 20227 20228 20229 20230 20231 20232 20233 20234 20235 20236 20237 20238 20239 20240 20241 20242 20243 20244 20245 20246 20247 20248 20249 20250 20251 20252 20253 20254 20255 20256 20257 20258 20259 20260 20261 20262 20263 20264 20265 20266 20267 20268 20269 20270 20271 20272 20273 20274 20275 20276 20277 20278 20279 20280 20281 20282 20283 20284 20285 20286 20287 20288 20289 20290 20291 20292 20293 20294 20295 20296 20297 20298 20299 20300 20301 20302 20303 20304 20305 20306 20307 20308 20309 20310 20311 20312 20313 20314 20315 20316 20317 20318 20319 20320 20321 20322 20323 20324 20325 20326 20327 20328 20329 20330 20331 20332 20333 20334 20335 20336 20337 20338 20339 20340 20341 20342 20343 20344 20345 20346 20347 20348 20349 20350 20351 20352 20353 20354 20355 20356 20357 20358 20359 20360 20361 20362 20363 20364 20365 20366 20367 20368 20369 20370 20371 20372 20373 20374 20375 20376 20377 20378 20379 20380 20381 20382 20383 20384 20385 20386 20387 20388 20389 20390 20391 20392 20393 20394 20395 20396 20397 20398 20399 20400 20401 20402 20403 20404 20405 20406 20407 20408 20409 20410 20411 20412 20413 20414 20415 20416 20417 20418 20419 20420 20421 20422 20423 20424 20425 20426 20427 20428 20429 20430 20431 20432 20433 20434 20435 20436 20437 20438 20439 20440 20441 20442 20443 20444 20445 20446 20447 20448 20449 20450 20451 20452 20453 20454 20455 20456 20457 20458 20459 20460 20461 20462 20463 20464 20465 20466 20467 20468 20469 20470 20471 20472 20473 20474 20475 20476 20477 20478 20479 20480 20481 20482 20483 20484 20485 20486 20487 20488 20489 20490 20491 20492 20493 20494 20495 20496 20497 20498 20499 20500 20501 20502 20503 20504 20505 20506 20507 20508 20509 20510 20511 20512 20513 20514 20515 20516 20517 20518 20519 20520 20521 20522 20523 20524 20525 20526 20527 20528 20529 20530 20531 20532 20533 20534 20535 20536 20537 20538 20539 20540 20541 20542 20543 20544 20545 20546 20547 20548 20549 20550 20551 20552 20553 20554 20555 20556 20557 20558 20559 20560 20561 20562 20563 20564 20565 20566 20567 20568 20569 20570 20571 20572 20573 20574 20575 20576 20577 20578 20579 20580 20581 20582 20583 20584 20585 20586 20587 20588 20589 20590 20591 20592 20593 20594 20595 20596 20597 20598 20599 20600 20601 20602 20603 20604 20605 20606 20607 20608 20609 20610 20611 20612 20613 20614 20615 20616 20617 20618 20619 20620 20621 20622 20623 20624 20625 20626 20627 20628 20629 20630 20631 20632 20633 20634 20635 20636 20637 20638 20639 20640 20641 20642 20643 20644 20645 20646 20647 20648 20649 20650 20651 20652 20653 20654 20655 20656 20657 20658 20659 20660 20661 20662 20663 20664 20665 20666 20667 20668 20669 20670 20671 20672 20673 20674 20675 20676 20677 20678 20679 20680 20681 20682 20683 20684 20685 20686 20687 20688 20689 20690 20691 20692 20693 20694 20695 20696 20697 20698 20699 20700 20701 20702 20703 20704 20705 20706 20707 20708 20709 20710 20711 20712 20713 20714 20715 20716 20717 20718 20719 20720 20721 20722 20723 20724 20725 20726 20727 20728 20729 20730 20731 20732 20733 20734 20735 20736 20737 20738 20739 20740 20741 20742 20743 20744 20745 20746 20747 20748 20749 20750 20751 20752 20753 20754 20755 20756 20757 20758 20759 20760 20761 20762 20763 20764 20765 20766 20767 20768 20769 20770 20771 20772 20773 20774 20775 20776 20777 20778 20779 20780 20781 20782 20783 20784 20785 20786 20787 20788 20789 20790 20791 20792 20793 20794 20795 20796 20797 20798 20799 20800 20801 20802 20803 20804 20805 20806 20807 20808 20809 20810 20811 20812 20813 20814 20815 20816 20817 20818 20819 20820 20821 20822 20823 20824 20825 20826 20827 20828 20829 20830 20831 20832 20833 20834 20835 20836 20837 20838 20839 20840 20841 20842 20843 20844 20845 20846 20847 20848 20849 20850 20851 20852 20853 20854 20855 20856 20857 20858 20859 20860 20861 20862 20863 20864 20865 20866 20867 20868 20869 20870 20871 20872 20873 20874 20875 20876 20877 20878 20879 20880 20881 20882 20883 20884 20885 20886 20887 20888 20889 20890 20891 20892 20893 20894 20895 20896 20897 20898 20899 20900 20901 20902 20903 20904 20905 20906 20907 20908 20909 20910 20911 20912 20913 20914 20915 20916 20917 20918 20919 20920 20921 20922 20923 20924 20925 20926 20927 20928 20929 20930 20931 20932 20933 20934 20935 20936 20937 20938 20939 20940 20941 20942 20943 20944 20945 20946 20947 20948 20949 20950 20951 20952 20953 20954 20955 20956 20957 20958 20959 20960 20961 20962 20963 20964 20965 20966 20967 20968 20969 20970 20971 20972 20973 20974 20975 20976 20977 20978 20979 20980 20981 20982 20983 20984 20985 20986 20987 20988 20989 20990 20991 20992 20993 20994 20995 20996 20997 20998 20999 21000 21001 21002 21003 21004 21005 21006 21007 21008 21009 21010 21011 21012 21013 21014 21015 21016 21017 21018 21019 21020 21021 21022 21023 21024 21025 21026 21027 21028 21029 21030 21031 21032 21033 21034 21035 21036 21037 21038 21039 21040 21041 21042 21043 21044 21045 21046 21047 21048 21049 21050 21051 21052 21053 21054 21055 21056 21057 21058 21059 21060 21061 21062 21063 21064 21065 21066 21067 21068 21069 21070 21071 21072 21073 21074 21075 21076 21077 21078 21079 21080 21081 21082 21083 21084 21085 21086 21087 21088 21089 21090 21091 21092 21093 21094 21095 21096 21097 21098 21099 21100 21101 21102 21103 21104 21105 21106 21107 21108 21109 21110 21111 21112 21113 21114 21115 21116 21117 21118 21119 21120 21121 21122 21123 21124 21125 21126 21127 21128 21129 21130 21131 21132 21133 21134 21135 21136 21137 21138 21139 21140 21141 21142 21143 21144 21145 21146 21147 21148 21149 21150 21151 21152 21153 21154 21155 21156 21157 21158 21159 21160 21161 21162 21163 21164 21165 21166 21167 21168 21169 21170 21171 21172 21173 21174 21175 21176 21177 21178 21179 21180 21181 21182 21183 21184 21185 21186 21187 21188 21189 21190 21191 21192 21193 21194 21195 21196 21197 21198 21199 21200 21201 21202 21203 21204 21205 21206 21207 21208 21209 21210 21211 21212 21213 21214 21215 21216 21217 21218 21219 21220 21221 21222 21223 21224 21225 21226 21227 21228 21229 21230 21231 21232 21233 21234 21235 21236 21237 21238 21239 21240 21241 21242 21243 21244 21245 21246 21247 21248 21249 21250 21251 21252 21253 21254 21255 21256 21257 21258 21259 21260 21261 21262 21263 21264 21265 21266 21267 21268 21269 21270 21271 21272 21273 21274 21275 21276 21277 21278 21279 21280 21281 21282 21283 21284 21285 21286 21287 21288 21289 21290 21291 21292 21293 21294 21295 21296 21297 21298 21299 21300 21301 21302 21303 21304 21305 21306 21307 21308 21309 21310 21311 21312 21313 21314 21315 21316 21317 21318 21319 21320 21321 21322 21323 21324 21325 21326 21327 21328 21329 21330 21331 21332 21333 21334 21335 21336 21337 21338 21339 21340 21341 21342 21343 21344 21345 21346 21347 21348 21349 21350 21351 21352 21353 21354 21355 21356 21357 21358 21359 21360 21361 21362 21363 21364 21365 21366 21367 21368 21369 21370 21371 21372 21373 21374 21375 21376 21377 21378 21379 21380 21381 21382 21383 21384 21385 21386 21387 21388 21389 21390 21391 21392 21393 21394 21395 21396 21397 21398 21399 21400 21401 21402 21403 21404 21405 21406 21407 21408 21409 21410 21411 21412 21413 21414 21415 21416 21417 21418 21419 21420 21421 21422 21423 21424 21425 21426 21427 21428 21429 21430 21431 21432 21433 21434 21435 21436 21437 21438 21439 21440 21441 21442 21443 21444 21445 21446 21447 21448 21449 21450 21451 21452 21453 21454 21455 21456 21457 21458 21459 21460 21461 21462 21463 21464 21465 21466 21467 21468 21469 21470 21471 21472 21473 21474 21475 21476 21477 21478 21479 21480 21481 21482 21483 21484 21485 21486 21487 21488 21489 21490 21491 21492 21493 21494 21495 21496 21497 21498 21499 21500 21501 21502 21503 21504 21505 21506 21507 21508 21509 21510 21511 21512 21513 21514 21515 21516 21517 21518 21519 21520 21521 21522 21523 21524 21525 21526 21527 21528 21529 21530 21531 21532 21533 21534 21535 21536 21537 21538 21539 21540 21541 21542 21543 21544 21545 21546 21547 21548 21549 21550 21551 21552 21553 21554 21555 21556 21557 21558 21559 21560 21561 21562 21563 21564 21565 21566 21567 21568 21569 21570 21571 21572 21573 21574 21575 21576 21577 21578 21579 21580 21581 21582 21583 21584 21585 21586 21587 21588 21589 21590 21591 21592 21593 21594 21595 21596 21597 21598 21599 21600 21601 21602 21603 21604 21605 21606 21607 21608 21609 21610 21611 21612 21613 21614 21615 21616 21617 21618 21619 21620 21621 21622 21623 21624 21625 21626 21627 21628 21629 21630 21631 21632 21633 21634 21635 21636 21637 21638 21639 21640 21641 21642 21643 21644 21645 21646 21647 21648 21649 21650 21651 21652 21653 21654 21655 21656 21657 21658 21659 21660 21661 21662 21663 21664 21665 21666 21667 21668 21669 21670 21671 21672 21673 21674 21675 21676 21677 21678 21679 21680 21681 21682 21683 21684 21685 21686 21687 21688 21689 21690 21691 21692 21693 21694 21695 21696 21697 21698 21699 21700 21701 21702 21703 21704 21705 21706 21707 21708 21709 21710 21711 21712 21713 21714 21715 21716 21717 21718 21719 21720 21721 21722 21723 21724 21725 21726 21727 21728 21729 21730 21731 21732 21733 21734 21735 21736 21737 21738 21739 21740 21741 21742 21743 21744 21745 21746 21747 21748 21749 21750 21751 21752 21753 21754 21755 21756 21757 21758 21759 21760 21761 21762 21763 21764 21765 21766 21767 21768 21769 21770 21771 21772 21773 21774 21775 21776 21777 21778 21779 21780 21781 21782 21783 21784 21785 21786 21787 21788 21789 21790 21791 21792 21793 21794 21795 21796 21797 21798 21799 21800 21801 21802 21803 21804 21805 21806 21807 21808 21809 21810 21811 21812 21813 21814 21815 21816 21817 21818 21819 21820 21821 21822 21823 21824 21825 21826 21827 21828 21829 21830 21831 21832 21833 21834 21835 21836 21837 21838 21839 21840 21841 21842 21843 21844 21845 21846 21847 21848 21849 21850 21851 21852 21853 21854 21855 21856 21857 21858 21859 21860 21861 21862 21863 21864 21865 21866 21867 21868 21869 21870 21871 21872 21873 21874 21875 21876 21877 21878 21879 21880 21881 21882 21883 21884 21885 21886 21887 21888 21889 21890 21891 21892 21893 21894 21895 21896 21897 21898 21899 21900 21901 21902 21903 21904 21905 21906 21907 21908 21909 21910 21911 21912 21913 21914 21915 21916 21917 21918 21919 21920 21921 21922 21923 21924 21925 21926 21927 21928 21929 21930 21931 21932 21933 21934 21935 21936 21937 21938 21939 21940 21941 21942 21943 21944 21945 21946 21947 21948 21949 21950 21951 21952 21953 21954 21955 21956 21957 21958 21959 21960 21961 21962 21963 21964 21965 21966 21967 21968 21969 21970 21971 21972 21973 21974 21975 21976 21977 21978 21979 21980 21981 21982 21983 21984 21985 21986 21987 21988 21989 21990 21991 21992 21993 21994 21995 21996 21997 21998 21999 22000 22001 22002 22003 22004 22005 22006 22007 22008 22009 22010 22011 22012 22013 22014 22015 22016 22017 22018 22019 22020 22021 22022 22023 22024 22025 22026 22027 22028 22029 22030 22031 22032 22033 22034 22035 22036 22037 22038 22039 22040 22041 22042 22043 22044 22045 22046 22047 22048 22049 22050 22051 22052 22053 22054 22055 22056 22057 22058 22059 22060 22061 22062 22063 22064 22065 22066 22067 22068 22069 22070 22071 22072 22073 22074 22075 22076 22077 22078 22079 22080 22081 22082 22083 22084 22085 22086 22087 22088 22089 22090 22091 22092 22093 22094 22095 22096 22097 22098 22099 22100 22101 22102 22103 22104 22105 22106 22107 22108 22109 22110 22111 22112 22113 22114 22115 22116 22117 22118 22119 22120 22121 22122 22123 22124 22125 22126 22127 22128 22129 22130 22131 22132 22133 22134 22135 22136 22137 22138 22139 22140 22141 22142 22143 22144 22145 22146 22147 22148 22149 22150 22151 22152 22153 22154 22155 22156 22157 22158 22159 22160 22161 22162 22163 22164 22165 22166 22167 22168 22169 22170 22171 22172 22173 22174 22175 22176 22177 22178 22179 22180 22181 22182 22183 22184 22185 22186 22187 22188 22189 22190 22191 22192 22193 22194 22195 22196 22197 22198 22199 22200 22201 22202 22203 22204 22205 22206 22207 22208 22209 22210 22211 22212 22213 22214 22215 22216 22217 22218 22219 22220 22221 22222 22223 22224 22225 22226 22227 22228 22229 22230 22231 22232 22233 22234 22235 22236 22237 22238 22239 22240 22241 22242 22243 22244 22245 22246 22247 22248 22249 22250 22251 22252 22253 22254 22255 22256 22257 22258 22259 22260 22261 22262 22263 22264 22265 22266 22267 22268 22269 22270 22271 22272 22273 22274 22275 22276 22277 22278 22279 22280 22281 22282 22283 22284 22285 22286 22287 22288 22289 22290 22291 22292 22293 22294 22295 22296 22297 22298 22299 22300 22301 22302 22303 22304 22305 22306 22307 22308 22309 22310 22311 22312 22313 22314 22315 22316 22317 22318 22319 22320 22321 22322 22323 22324 22325 22326 22327 22328 22329 22330 22331 22332 22333 22334 22335 22336 22337 22338 22339 22340 22341 22342 22343 22344 22345 22346 22347 22348 22349 22350 22351 22352 22353 22354 22355 22356 22357 22358 22359 22360 22361 22362 22363 22364 22365 22366 22367 22368 22369 22370 22371 22372 22373 22374 22375 22376 22377 22378 22379 22380 22381 22382 22383 22384 22385 22386 22387 22388 22389 22390 22391 22392 22393 22394 22395 22396 22397 22398 22399 22400 22401 22402 22403 22404 22405 22406 22407 22408 22409 22410 22411 22412 22413 22414 22415 22416 22417 22418 22419 22420 22421 22422 22423 22424 22425 22426 22427 22428 22429 22430 22431 22432 22433 22434 22435 22436 22437 22438 22439 22440 22441 22442 22443 22444 22445 22446 22447 22448 22449 22450 22451 22452 22453 22454 22455 22456 22457 22458 22459 22460 22461 22462 22463 22464 22465 22466 22467 22468 22469 22470 22471 22472 22473 22474 22475 22476 22477 22478 22479 22480 22481 22482 22483 22484 22485 22486 22487 22488 22489 22490 22491 22492 22493 22494 22495 22496 22497 22498 22499 22500 22501 22502 22503 22504 22505 22506 22507 22508 22509 22510 22511 22512 22513 22514 22515 22516 22517 22518 22519 22520 22521 22522 22523 22524 22525 22526 22527 22528 22529 22530 22531 22532 22533 22534 22535 22536 22537 22538 22539 22540 22541 22542 22543 22544 22545 22546 22547 22548 22549 22550 22551 22552 22553 22554 22555 22556 22557 22558 22559 22560 22561 22562 22563 22564 22565 22566 22567 22568 22569 22570 22571 22572 22573 22574 22575 22576 22577 22578 22579 22580 22581 22582 22583 22584 22585 22586 22587 22588 22589 22590 22591 22592 22593 22594 22595 22596 22597 22598 22599 22600 22601 22602 22603 22604 22605 22606 22607 22608 22609 22610 22611 22612 22613 22614 22615 22616 22617 22618 22619 22620 22621 22622 22623 22624 22625 22626 22627 22628 22629 22630 22631 22632 22633 22634 22635 22636 22637 22638 22639 22640 22641 22642 22643 22644 22645 22646 22647 22648 22649 22650 22651 22652 22653 22654 22655 22656 22657 22658 22659 22660 22661 22662 22663 22664 22665 22666 22667 22668 22669 22670 22671 22672 22673 22674 22675 22676 22677 22678 22679 22680 22681 22682 22683 22684 22685 22686 22687 22688 22689 22690 22691 22692 22693 22694 22695 22696 22697 22698 22699 22700 22701 22702 22703 22704 22705 22706 22707 22708 22709 22710 22711 22712 22713 22714 22715 22716 22717 22718 22719 22720 22721 22722 22723 22724 22725 22726 22727 22728 22729 22730 22731 22732 22733 22734 22735 22736 22737 22738 22739 22740 22741 22742 22743 22744 22745 22746 22747 22748 22749 22750 22751 22752 22753 22754 22755 22756 22757 22758 22759 22760 22761 22762 22763 22764 22765 22766 22767 22768 22769 22770 22771 22772 22773 22774 22775 22776 22777 22778 22779 22780 22781 22782 22783 22784 22785 22786 22787 22788 22789 22790 22791 22792 22793 22794 22795 22796 22797 22798 22799 22800 22801 22802 22803 22804 22805 22806 22807 22808 22809 22810 22811 22812 22813 22814 22815 22816 22817 22818 22819 22820 22821 22822 22823 22824 22825 22826 22827 22828 22829 22830 22831 22832 22833 22834 22835 22836 22837 22838 22839 22840 22841 22842 22843 22844 22845 22846 22847 22848 22849 22850 22851 22852 22853 22854 22855 22856 22857 22858 22859 22860 22861 22862 22863 22864 22865 22866 22867 22868 22869 22870 22871 22872 22873 22874 22875 22876 22877 22878 22879 22880 22881 22882 22883 22884 22885 22886 22887 22888 22889 22890 22891 22892 22893 22894 22895 22896 22897 22898 22899 22900 22901 22902 22903 22904 22905 22906 22907 22908 22909 22910 22911 22912 22913 22914 22915 22916 22917 22918 22919 22920 22921 22922 22923 22924 22925 22926 22927 22928 22929 22930 22931 22932 22933 22934 22935 22936 22937 22938 22939 22940 22941 22942 22943 22944 22945 22946 22947 22948 22949 22950 22951 22952 22953 22954 22955 22956 22957 22958 22959 22960 22961 22962 22963 22964 22965 22966 22967 22968 22969 22970 22971 22972 22973 22974 22975 22976 22977 22978 22979 22980 22981 22982 22983 22984 22985 22986 22987 22988 22989 22990 22991 22992 22993 22994 22995 22996 22997 22998 22999 23000 23001 23002 23003 23004 23005 23006 23007 23008 23009 23010 23011 23012 23013 23014 23015 23016 23017 23018 23019 23020 23021 23022 23023 23024 23025 23026 23027 23028 23029 23030 23031 23032 23033 23034 23035 23036 23037 23038 23039 23040 23041 23042 23043 23044 23045 23046 23047 23048 23049 23050 23051 23052 23053 23054 23055 23056 23057 23058 23059 23060 23061 23062 23063 23064 23065 23066 23067 23068 23069 23070 23071 23072 23073 23074 23075 23076 23077 23078 23079 23080 23081 23082 23083 23084 23085 23086 23087 23088 23089 23090 23091 23092 23093 23094 23095 23096 23097 23098 23099 23100 23101 23102 23103 23104 23105 23106 23107 23108 23109 23110 23111 23112 23113 23114 23115 23116 23117 23118 23119 23120 23121 23122 23123 23124 23125 23126 23127 23128 23129 23130 23131 23132 23133 23134 23135 23136 23137 23138 23139 23140 23141 23142 23143 23144 23145 23146 23147 23148 23149 23150 23151 23152 23153 23154 23155 23156 23157 23158 23159 23160 23161 23162 23163 23164 23165 23166 23167 23168 23169 23170 23171 23172 23173 23174 23175 23176 23177 23178 23179 23180 23181 23182 23183 23184 23185 23186 23187 23188 23189 23190 23191 23192 23193 23194 23195 23196 23197 23198 23199 23200 23201 23202 23203 23204 23205 23206 23207 23208 23209 23210 23211 23212 23213 23214 23215 23216 23217 23218 23219 23220 23221 23222 23223 23224 23225 23226 23227 23228 23229 23230 23231 23232 23233 23234 23235 23236 23237 23238 23239 23240 23241 23242 23243 23244 23245 23246 23247 23248 23249 23250 23251 23252 23253 23254 23255 23256 23257 23258 23259 23260 23261 23262 23263 23264 23265 23266 23267 23268 23269 23270 23271 23272 23273 23274 23275 23276 23277 23278 23279 23280 23281 23282 23283 23284 23285 23286 23287 23288 23289 23290 23291 23292 23293 23294 23295 23296 23297 23298 23299 23300 23301 23302 23303 23304 23305 23306 23307 23308 23309 23310 23311 23312 23313 23314 23315 23316 23317 23318 23319 23320 23321 23322 23323 23324 23325 23326 23327 23328 23329 23330 23331 23332 23333 23334 23335 23336 23337 23338 23339 23340 23341 23342 23343 23344 23345 23346 23347 23348 23349 23350 23351 23352 23353 23354 23355 23356 23357 23358 23359 23360 23361 23362 23363 23364 23365 23366 23367 23368 23369 23370 23371 23372 23373 23374 23375 23376 23377 23378 23379 23380 23381 23382 23383 23384 23385 23386 23387 23388 23389 23390 23391 23392 23393 23394 23395 23396 23397 23398 23399 23400 23401 23402 23403 23404 23405 23406 23407 23408 23409 23410 23411 23412 23413 23414 23415 23416 23417 23418 23419 23420 23421 23422 23423 23424 23425 23426 23427 23428 23429 23430 23431 23432 23433 23434 23435 23436 23437 23438 23439 23440 23441 23442 23443 23444 23445 23446 23447 23448 23449 23450 23451 23452 23453 23454 23455 23456 23457 23458 23459 23460 23461 23462 23463 23464 23465 23466 23467 23468 23469 23470 23471 23472 23473 23474 23475 23476 23477 23478 23479 23480 23481 23482 23483 23484 23485 23486 23487 23488 23489 23490 23491 23492 23493 23494 23495 23496 23497 23498 23499 23500 23501 23502 23503 23504 23505 23506 23507 23508 23509 23510 23511 23512 23513 23514 23515 23516 23517 23518 23519 23520 23521 23522 23523 23524 23525 23526 23527 23528 23529 23530 23531 23532 23533 23534 23535 23536 23537 23538 23539 23540 23541 23542 23543 23544 23545 23546 23547 23548 23549 23550 23551 23552 23553 23554 23555 23556 23557 23558 23559 23560 23561 23562 23563 23564 23565 23566 23567 23568 23569 23570 23571 23572 23573 23574 23575 23576 23577 23578 23579 23580 23581 23582 23583 23584 23585 23586 23587 23588 23589 23590 23591 23592 23593 23594 23595 23596 23597 23598 23599 23600 23601 23602 23603 23604 23605 23606 23607 23608 23609 23610 23611 23612 23613 23614 23615 23616 23617 23618 23619 23620 23621 23622 23623 23624 23625 23626 23627 23628 23629 23630 23631 23632 23633 23634 23635 23636 23637 23638 23639 23640 23641 23642 23643 23644 23645 23646 23647 23648 23649 23650 23651 23652 23653 23654 23655 23656 23657 23658 23659 23660 23661 23662 23663 23664 23665 23666 23667 23668 23669 23670 23671 23672 23673 23674 23675 23676 23677 23678 23679 23680 23681 23682 23683 23684 23685 23686 23687 23688 23689 23690 23691 23692 23693 23694 23695 23696 23697 23698 23699 23700 23701 23702 23703 23704 23705 23706 23707 23708 23709 23710 23711 23712 23713 23714 23715 23716 23717 23718 23719 23720 23721 23722 23723 23724 23725 23726 23727 23728 23729 23730 23731 23732 23733 23734 23735 23736 23737 23738 23739 23740 23741 23742 23743 23744 23745 23746 23747 23748 23749 23750 23751 23752 23753 23754 23755 23756 23757 23758 23759 23760 23761 23762 23763 23764 23765 23766 23767 23768 23769 23770 23771 23772 23773 23774 23775 23776 23777 23778 23779 23780 23781 23782 23783 23784 23785 23786 23787 23788 23789 23790 23791 23792 23793 23794 23795 23796 23797 23798 23799 23800 23801 23802 23803 23804 23805 23806 23807 23808 23809 23810 23811 23812 23813 23814 23815 23816 23817 23818 23819 23820 23821 23822 23823 23824 23825 23826 23827 23828 23829 23830 23831 23832 23833 23834 23835 23836 23837 23838 23839 23840 23841 23842 23843 23844 23845 23846 23847 23848 23849 23850 23851 23852 23853 23854 23855 23856 23857 23858 23859 23860 23861 23862 23863 23864 23865 23866 23867 23868 23869 23870 23871 23872 23873 23874 23875 23876 23877 23878 23879 23880 23881 23882 23883 23884 23885 23886 23887 23888 23889 23890 23891 23892 23893 23894 23895 23896 23897 23898 23899 23900 23901 23902 23903 23904 23905 23906 23907 23908 23909 23910 23911 23912 23913 23914 23915 23916 23917 23918 23919 23920 23921 23922 23923 23924 23925 23926 23927 23928 23929 23930 23931 23932 23933 23934 23935 23936 23937 23938 23939 23940 23941 23942 23943 23944 23945 23946 23947 23948 23949 23950 23951 23952 23953 23954 23955 23956 23957 23958 23959 23960 23961 23962 23963 23964 23965 23966 23967 23968 23969 23970 23971 23972 23973 23974 23975 23976 23977 23978 23979 23980 23981 23982 23983 23984 23985 23986 23987 23988 23989 23990 23991 23992 23993 23994 23995 23996 23997 23998 23999 24000 24001 24002 24003 24004 24005 24006 24007 24008 24009 24010 24011 24012 24013 24014 24015 24016 24017 24018 24019 24020 24021 24022 24023 24024 24025 24026 24027 24028 24029 24030 24031 24032 24033 24034 24035 24036 24037 24038 24039 24040 24041 24042 24043 24044 24045 24046 24047 24048 24049 24050 24051 24052 24053 24054 24055 24056 24057 24058 24059 24060 24061 24062 24063 24064 24065 24066 24067 24068 24069 24070 24071 24072 24073 24074 24075 24076 24077 24078 24079 24080 24081 24082 24083 24084 24085 24086 24087 24088 24089 24090 24091 24092 24093 24094 24095 24096 24097 24098 24099 24100 24101 24102 24103 24104 24105 24106 24107 24108 24109 24110 24111 24112 24113 24114 24115 24116 24117 24118 24119 24120 24121 24122 24123 24124 24125 24126 24127 24128 24129 24130 24131 24132 24133 24134 24135 24136 24137 24138 24139 24140 24141 24142 24143 24144 24145 24146 24147 24148 24149 24150 24151 24152 24153 24154 24155 24156 24157 24158 24159 24160 24161 24162 24163 24164 24165 24166 24167 24168 24169 24170 24171 24172 24173 24174 24175 24176 24177 24178 24179 24180 24181 24182 24183 24184 24185 24186 24187 24188 24189 24190 24191 24192 24193 24194 24195 24196 24197 24198 24199 24200 24201 24202 24203 24204 24205 24206 24207 24208 24209 24210 24211 24212 24213 24214 24215 24216 24217 24218 24219 24220 24221 24222 24223 24224 24225 24226 24227 24228 24229 24230 24231 24232 24233 24234 24235 24236 24237 24238 24239 24240 24241 24242 24243 24244 24245 24246 24247 24248 24249 24250 24251 24252 24253 24254 24255 24256 24257 24258 24259 24260 24261 24262 24263 24264 24265 24266 24267 24268 24269 24270 24271 24272 24273 24274 24275 24276 24277 24278 24279 24280 24281 24282 24283 24284 24285 24286 24287 24288 24289 24290 24291 24292 24293 24294 24295 24296 24297 24298 24299 24300 24301 24302 24303 24304 24305 24306 24307 24308 24309 24310 24311 24312 24313 24314 24315 24316 24317 24318 24319 24320 24321 24322 24323 24324 24325 24326 24327 24328 24329 24330 24331 24332 24333 24334 24335 24336 24337 24338 24339 24340 24341 24342 24343 24344 24345 24346 24347 24348 24349 24350 24351 24352 24353 24354 24355 24356 24357 24358 24359 24360 24361 24362 24363 24364 24365 24366 24367 24368 24369 24370 24371 24372 24373 24374 24375 24376 24377 24378 24379 24380 24381 24382 24383 24384 24385 24386 24387 24388 24389 24390 24391 24392 24393 24394 24395 24396 24397 24398 24399 24400 24401 24402 24403 24404 24405 24406 24407 24408 24409 24410 24411 24412 24413 24414 24415 24416 24417 24418 24419 24420 24421 24422 24423 24424 24425 24426 24427 24428 24429 24430 24431 24432 24433 24434 24435 24436 24437 24438 24439 24440 24441 24442 24443 24444 24445 24446 24447 24448 24449 24450 24451 24452 24453 24454 24455 24456 24457 24458 24459 24460 24461 24462 24463 24464 24465 24466 24467 24468 24469 24470 24471 24472 24473 24474 24475 24476 24477 24478 24479 24480 24481 24482 24483 24484 24485 24486 24487 24488 24489 24490 24491 24492 24493 24494 24495 24496 24497 24498 24499 24500 24501 24502 24503 24504 24505 24506 24507 24508 24509 24510 24511 24512 24513 24514 24515 24516 24517 24518 24519 24520 24521 24522 24523 24524 24525 24526 24527 24528 24529 24530 24531 24532 24533 24534 24535 24536 24537 24538 24539 24540 24541 24542 24543 24544 24545 24546 24547 24548 24549 24550 24551 24552 24553 24554 24555 24556 24557 24558 24559 24560 24561 24562 24563 24564 24565 24566 24567 24568 24569 24570 24571 24572 24573 24574 24575 24576 24577 24578 24579 24580 24581 24582 24583 24584 24585 24586 24587 24588 24589 24590 24591 24592 24593 24594 24595 24596 24597 24598 24599 24600 24601 24602 24603 24604 24605 24606 24607 24608 24609 24610 24611 24612 24613 24614 24615 24616 24617 24618 24619 24620 24621 24622 24623 24624 24625 24626 24627 24628 24629 24630 24631 24632 24633 24634 24635 24636 24637 24638 24639 24640 24641 24642 24643 24644 24645 24646 24647 24648 24649 24650 24651 24652 24653 24654 24655 24656 24657 24658 24659 24660 24661 24662 24663 24664 24665 24666 24667 24668 24669 24670 24671 24672 24673 24674 24675 24676 24677 24678 24679 24680 24681 24682 24683 24684 24685 24686 24687 24688 24689 24690 24691 24692 24693 24694 24695 24696 24697 24698 24699 24700 24701 24702 24703 24704 24705 24706 24707 24708 24709 24710 24711 24712 24713 24714 24715 24716 24717 24718 24719 24720 24721 24722 24723 24724 24725 24726 24727 24728 24729 24730 24731 24732 24733 24734 24735 24736 24737 24738 24739 24740 24741 24742 24743 24744 24745 24746 24747 24748 24749 24750 24751 24752 24753 24754 24755 24756 24757 24758 24759 24760 24761 24762 24763 24764 24765 24766 24767 24768 24769 24770 24771 24772 24773 24774 24775 24776 24777 24778 24779 24780 24781 24782 24783 24784 24785 24786 24787 24788 24789 24790 24791 24792 24793 24794 24795 24796 24797 24798 24799 24800 24801 24802 24803 24804 24805 24806 24807 24808 24809 24810 24811 24812 24813 24814 24815 24816 24817 24818 24819 24820 24821 24822 24823 24824 24825 24826 24827 24828 24829 24830 24831 24832 24833 24834 24835 24836 24837 24838 24839 24840 24841 24842 24843 24844 24845 24846 24847 24848 24849 24850 24851 24852 24853 24854 24855 24856 24857 24858 24859 24860 24861 24862 24863 24864 24865 24866 24867 24868 24869 24870 24871 24872 24873 24874 24875 24876 24877 24878 24879 24880 24881 24882 24883 24884 24885 24886 24887 24888 24889 24890 24891 24892 24893 24894 24895 24896 24897 24898 24899 24900 24901 24902 24903 24904 24905 24906 24907 24908 24909 24910 24911 24912 24913 24914 24915 24916 24917 24918 24919 24920 24921 24922 24923 24924 24925 24926 24927 24928 24929 24930 24931 24932 24933 24934 24935 24936 24937 24938 24939 24940 24941 24942 24943 24944 24945 24946 24947 24948 24949 24950 24951 24952 24953 24954 24955 24956 24957 24958 24959 24960 24961 24962 24963 24964 24965 24966 24967 24968 24969 24970 24971 24972 24973 24974 24975 24976 24977 24978 24979 24980 24981 24982 24983 24984 24985 24986 24987 24988 24989 24990 24991 24992 24993 24994 24995 24996 24997 24998 24999 25000 25001 25002 25003 25004 25005 25006 25007 25008 25009 25010 25011 25012 25013 25014 25015 25016 25017 25018 25019 25020 25021 25022 25023 25024 25025 25026 25027 25028 25029 25030 25031 25032 25033 25034 25035 25036 25037 25038 25039 25040 25041 25042 25043 25044 25045 25046 25047 25048 25049 25050 25051 25052 25053 25054 25055 25056 25057 25058 25059 25060 25061 25062 25063 25064 25065 25066 25067 25068 25069 25070 25071 25072 25073 25074 25075 25076 25077 25078 25079 25080 25081 25082 25083 25084 25085 25086 25087 25088 25089 25090 25091 25092 25093 25094 25095 25096 25097 25098 25099 25100 25101 25102 25103 25104 25105 25106 25107 25108 25109 25110 25111 25112 25113 25114 25115 25116 25117 25118 25119 25120 25121 25122 25123 25124 25125 25126 25127 25128 25129 25130 25131 25132 25133 25134 25135 25136 25137 25138 25139 25140 25141 25142 25143 25144 25145 25146 25147 25148 25149 25150 25151 25152 25153 25154 25155 25156 25157 25158 25159 25160 25161 25162 25163 25164 25165 25166 25167 25168 25169 25170 25171 25172 25173 25174 25175 25176 25177 25178 25179 25180 25181 25182 25183 25184 25185 25186 25187 25188 25189 25190 25191 25192 25193 25194 25195 25196 25197 25198 25199 25200 25201 25202 25203 25204 25205 25206 25207 25208 25209 25210 25211 25212 25213 25214 25215 25216 25217 25218 25219 25220 25221 25222 25223 25224 25225 25226 25227 25228 25229 25230 25231 25232 25233 25234 25235 25236 25237 25238 25239 25240 25241 25242 25243 25244 25245 25246 25247 25248 25249 25250 25251 25252 25253 25254 25255 25256 25257 25258 25259 25260 25261 25262 25263 25264 25265 25266 25267 25268 25269 25270 25271 25272 25273 25274 25275 25276 25277 25278 25279 25280 25281 25282 25283 25284 25285 25286 25287 25288 25289 25290 25291 25292 25293 25294 25295 25296 25297 25298 25299 25300 25301 25302 25303 25304 25305 25306 25307 25308 25309 25310 25311 25312 25313 25314 25315 25316 25317 25318 25319 25320 25321 25322 25323 25324 25325 25326 25327 25328 25329 25330 25331 25332 25333 25334 25335 25336 25337 25338 25339 25340 25341 25342 25343 25344 25345 25346 25347 25348 25349 25350 25351 25352 25353 25354 25355 25356 25357 25358 25359 25360 25361 25362 25363 25364 25365 25366 25367 25368 25369 25370 25371 25372 25373 25374 25375 25376 25377 25378 25379 25380 25381 25382 25383 25384 25385 25386 25387 25388 25389 25390 25391 25392 25393 25394 25395 25396 25397 25398 25399 25400 25401 25402 25403 25404 25405 25406 25407 25408 25409 25410 25411 25412 25413 25414 25415 25416 25417 25418 25419 25420 25421 25422 25423 25424 25425 25426 25427 25428 25429 25430 25431 25432 25433 25434 25435 25436 25437 25438 25439 25440 25441 25442 25443 25444 25445 25446 25447 25448 25449 25450 25451 25452 25453 25454 25455 25456 25457 25458 25459 25460 25461 25462 25463 25464 25465 25466 25467 25468 25469 25470 25471 25472 25473 25474 25475 25476 25477 25478 25479 25480 25481 25482 25483 25484 25485 25486 25487 25488 25489 25490 25491 25492 25493 25494 25495 25496 25497 25498 25499 25500 25501 25502 25503 25504 25505 25506 25507 25508 25509 25510 25511 25512 25513 25514 25515 25516 25517 25518 25519 25520 25521 25522 25523 25524 25525 25526 25527 25528 25529 25530 25531 25532 25533 25534 25535 25536 25537 25538 25539 25540 25541 25542 25543 25544 25545 25546 25547 25548 25549 25550 25551 25552 25553 25554 25555 25556 25557 25558 25559 25560 25561 25562 25563 25564 25565 25566 25567 25568 25569 25570 25571 25572 25573 25574 25575 25576 25577 25578 25579 25580 25581 25582 25583 25584 25585 25586 25587 25588 25589 25590 25591 25592 25593 25594 25595 25596 25597 25598 25599 25600 25601 25602 25603 25604 25605 25606 25607 25608 25609 25610 25611 25612 25613 25614 25615 25616 25617 25618 25619 25620 25621 25622 25623 25624 25625 25626 25627 25628 25629 25630 25631 25632 25633 25634 25635 25636 25637 25638 25639 25640 25641 25642 25643 25644 25645 25646 25647 25648 25649 25650 25651 25652 25653 25654 25655 25656 25657 25658 25659 25660 25661 25662 25663 25664 25665 25666 25667 25668 25669 25670 25671 25672 25673 25674 25675 25676 25677 25678 25679 25680 25681 25682 25683 25684 25685 25686 25687 25688 25689 25690 25691 25692 25693 25694 25695 25696 25697 25698 25699 25700 25701 25702 25703 25704 25705 25706 25707 25708 25709 25710 25711 25712 25713 25714 25715 25716 25717 25718 25719 25720 25721 25722 25723 25724 25725 25726 25727 25728 25729 25730 25731 25732 25733 25734 25735 25736 25737 25738 25739 25740 25741 25742 25743 25744 25745 25746 25747 25748 25749 25750 25751 25752 25753 25754 25755 25756 25757 25758 25759 25760 25761 25762 25763 25764 25765 25766 25767 25768 25769 25770 25771 25772 25773 25774 25775 25776 25777 25778 25779 25780 25781 25782 25783 25784 25785 25786 25787 25788 25789 25790 25791 25792 25793 25794 25795 25796 25797 25798 25799 25800 25801 25802 25803 25804 25805 25806 25807 25808 25809 25810 25811 25812 25813 25814 25815 25816 25817 25818 25819 25820 25821 25822 25823 25824 25825 25826 25827 25828 25829 25830 25831 25832 25833 25834 25835 25836 25837 25838 25839 25840 25841 25842 25843 25844 25845 25846 25847 25848 25849 25850 25851 25852 25853 25854 25855 25856 25857 25858 25859 25860 25861 25862 25863 25864 25865 25866 25867 25868 25869 25870 25871 25872 25873 25874 25875 25876 25877 25878 25879 25880 25881 25882 25883 25884 25885 25886 25887 25888 25889 25890 25891 25892 25893 25894 25895 25896 25897 25898 25899 25900 25901 25902 25903 25904 25905 25906 25907 25908 25909 25910 25911 25912 25913 25914 25915 25916 25917 25918 25919 25920 25921 25922 25923 25924 25925 25926 25927 25928 25929 25930 25931 25932 25933 25934 25935 25936 25937 25938 25939 25940 25941 25942 25943 25944 25945 25946 25947 25948 25949 25950 25951 25952 25953 25954 25955 25956 25957 25958 25959 25960 25961 25962 25963 25964 25965 25966 25967 25968 25969 25970 25971 25972 25973 25974 25975 25976 25977 25978 25979 25980 25981 25982 25983 25984 25985 25986 25987 25988 25989 25990 25991 25992 25993 25994 25995 25996 25997 25998 25999 26000 26001 26002 26003 26004 26005 26006 26007 26008 26009 26010 26011 26012 26013 26014 26015 26016 26017 26018 26019 26020 26021 26022 26023 26024 26025 26026 26027 26028 26029 26030 26031 26032 26033 26034 26035 26036 26037 26038 26039 26040 26041 26042 26043 26044 26045 26046 26047 26048 26049 26050 26051 26052 26053 26054 26055 26056 26057 26058 26059 26060 26061 26062 26063 26064 26065 26066 26067 26068 26069 26070 26071 26072 26073 26074 26075 26076 26077 26078 26079 26080 26081 26082 26083 26084 26085 26086 26087 26088 26089 26090 26091 26092 26093 26094 26095 26096 26097 26098 26099 26100 26101 26102 26103 26104 26105 26106 26107 26108 26109 26110 26111 26112 26113 26114 26115 26116 26117 26118 26119 26120 26121 26122 26123 26124 26125 26126 26127 26128 26129 26130 26131 26132 26133 26134 26135 26136 26137 26138 26139 26140 26141 26142 26143 26144 26145 26146 26147 26148 26149 26150 26151 26152 26153 26154 26155 26156 26157 26158 26159 26160 26161 26162 26163 26164 26165 26166 26167 26168 26169 26170 26171 26172 26173 26174 26175 26176 26177 26178 26179 26180 26181 26182 26183 26184 26185 26186 26187 26188 26189 26190 26191 26192 26193 26194 26195 26196 26197 26198 26199 26200 26201 26202 26203 26204 26205 26206 26207 26208 26209 26210 26211 26212 26213 26214 26215 26216 26217 26218 26219 26220 26221 26222 26223 26224 26225 26226 26227 26228 26229 26230 26231 26232 26233 26234 26235 26236 26237 26238 26239 26240 26241 26242 26243 26244 26245 26246 26247 26248 26249 26250 26251 26252 26253 26254 26255 26256 26257 26258 26259 26260 26261 26262 26263 26264 26265 26266 26267 26268 26269 26270 26271 26272 26273 26274 26275 26276 26277 26278 26279 26280 26281 26282 26283 26284 26285 26286 26287 26288 26289 26290 26291 26292 26293 26294 26295 26296 26297 26298 26299 26300 26301 26302 26303 26304 26305 26306 26307 26308 26309 26310 26311 26312 26313 26314 26315 26316 26317 26318 26319 26320 26321 26322 26323 26324 26325 26326 26327 26328 26329 26330 26331 26332 26333 26334 26335 26336 26337 26338 26339 26340 26341 26342 26343 26344 26345 26346 26347 26348 26349 26350 26351 26352 26353 26354 26355 26356 26357 26358 26359 26360 26361 26362 26363 26364 26365 26366 26367 26368 26369 26370 26371 26372 26373 26374 26375 26376 26377 26378 26379 26380 26381 26382 26383 26384 26385 26386 26387 26388 26389 26390 26391 26392 26393 26394 26395 26396 26397 26398 26399 26400 26401 26402 26403 26404 26405 26406 26407 26408 26409 26410 26411 26412 26413 26414 26415 26416 26417 26418 26419 26420 26421 26422 26423 26424 26425 26426 26427 26428 26429 26430 26431 26432 26433 26434 26435 26436 26437 26438 26439 26440 26441 26442 26443 26444 26445 26446 26447 26448 26449 26450 26451 26452 26453 26454 26455 26456 26457 26458 26459 26460 26461 26462 26463 26464 26465 26466 26467 26468 26469 26470 26471 26472 26473 26474 26475 26476 26477 26478 26479 26480 26481 26482 26483 26484 26485 26486 26487 26488 26489 26490 26491 26492 26493 26494 26495 26496 26497 26498 26499 26500 26501 26502 26503 26504 26505 26506 26507 26508 26509 26510 26511 26512 26513 26514 26515 26516 26517 26518 26519 26520 26521 26522 26523 26524 26525 26526 26527 26528 26529 26530 26531 26532 26533 26534 26535 26536 26537 26538 26539 26540 26541 26542 26543 26544 26545 26546 26547 26548 26549 26550 26551 26552 26553 26554 26555 26556 26557 26558 26559 26560 26561 26562 26563 26564 26565 26566 26567 26568 26569 26570 26571 26572 26573 26574 26575 26576 26577 26578 26579 26580 26581 26582 26583 26584 26585 26586 26587 26588 26589 26590 26591 26592 26593 26594 26595 26596 26597 26598 26599 26600 26601 26602 26603 26604 26605 26606 26607 26608 26609 26610 26611 26612 26613 26614 26615 26616 26617 26618 26619 26620 26621 26622 26623 26624 26625 26626 26627 26628 26629 26630 26631 26632 26633 26634 26635 26636 26637 26638 26639 26640 26641 26642 26643 26644 26645 26646 26647 26648 26649 26650 26651 26652 26653 26654 26655 26656 26657 26658 26659 26660 26661 26662 26663 26664 26665 26666 26667 26668 26669 26670 26671 26672 26673 26674 26675 26676 26677 26678 26679 26680 26681 26682 26683 26684 26685 26686 26687 26688 26689 26690 26691 26692 26693 26694 26695 26696 26697 26698 26699 26700 26701 26702 26703 26704 26705 26706 26707 26708 26709 26710 26711 26712 26713 26714 26715 26716 26717 26718 26719 26720 26721 26722 26723 26724 26725 26726 26727 26728 26729 26730 26731 26732 26733 26734 26735 26736 26737 26738 26739 26740 26741 26742 26743 26744 26745 26746 26747 26748 26749 26750 26751 26752 26753 26754 26755 26756 26757 26758 26759 26760 26761 26762 26763 26764 26765 26766 26767 26768 26769 26770 26771 26772 26773 26774 26775 26776 26777 26778 26779 26780 26781 26782 26783 26784 26785 26786 26787 26788 26789 26790 26791 26792 26793 26794 26795 26796 26797 26798 26799 26800 26801 26802 26803 26804 26805 26806 26807 26808 26809 26810 26811 26812 26813 26814 26815 26816 26817 26818 26819 26820 26821 26822 26823 26824 26825 26826 26827 26828 26829 26830 26831 26832 26833 26834 26835 26836 26837 26838 26839 26840 26841 26842 26843 26844 26845 26846 26847 26848 26849 26850 26851 26852 26853 26854 26855 26856 26857 26858 26859 26860 26861 26862 26863 26864 26865 26866 26867 26868 26869 26870 26871 26872 26873 26874 26875 26876 26877 26878 26879 26880 26881 26882 26883 26884 26885 26886 26887 26888 26889 26890 26891 26892 26893 26894 26895 26896 26897 26898 26899 26900 26901 26902 26903 26904 26905 26906 26907 26908 26909 26910 26911 26912 26913 26914 26915 26916 26917 26918 26919 26920 26921 26922 26923 26924 26925 26926 26927 26928 26929 26930 26931 26932 26933 26934 26935 26936 26937 26938 26939 26940 26941 26942 26943 26944 26945 26946 26947 26948 26949 26950 26951 26952 26953 26954 26955 26956 26957 26958 26959 26960 26961 26962 26963 26964 26965 26966 26967 26968 26969 26970 26971 26972 26973 26974 26975 26976 26977 26978 26979 26980 26981 26982 26983 26984 26985 26986 26987 26988 26989 26990 26991 26992 26993 26994 26995 26996 26997 26998 26999 27000 27001 27002 27003 27004 27005 27006 27007 27008 27009 27010 27011 27012 27013 27014 27015 27016 27017 27018 27019 27020 27021 27022 27023 27024 27025 27026 27027 27028 27029 27030 27031 27032 27033 27034 27035 27036 27037 27038 27039 27040 27041 27042 27043 27044 27045 27046 27047 27048 27049 27050 27051 27052 27053 27054 27055 27056 27057 27058 27059 27060 27061 27062 27063 27064 27065 27066 27067 27068 27069 27070 27071 27072 27073 27074 27075 27076 27077 27078 27079 27080 27081 27082 27083 27084 27085 27086 27087 27088 27089 27090 27091 27092 27093 27094 27095 27096 27097 27098 27099 27100 27101 27102 27103 27104 27105 27106 27107 27108 27109 27110 27111 27112 27113 27114 27115 27116 27117 27118 27119 27120 27121 27122 27123 27124 27125 27126 27127 27128 27129 27130 27131 27132 27133 27134 27135 27136 27137 27138 27139 27140 27141 27142 27143 27144 27145 27146 27147 27148 27149 27150 27151 27152 27153 27154 27155 27156 27157 27158 27159 27160 27161 27162 27163 27164 27165 27166 27167 27168 27169 27170 27171 27172 27173 27174 27175 27176 27177 27178 27179 27180 27181 27182 27183 27184 27185 27186 27187 27188 27189 27190 27191 27192 27193 27194 27195 27196 27197 27198 27199 27200 27201 27202 27203 27204 27205 27206 27207 27208 27209 27210 27211 27212 27213 27214 27215 27216 27217 27218 27219 27220 27221 27222 27223 27224 27225 27226 27227 27228 27229 27230 27231 27232 27233 27234 27235 27236 27237 27238 27239 27240 27241 27242 27243 27244 27245 27246 27247 27248 27249 27250 27251 27252 27253 27254 27255 27256 27257 27258 27259 27260 27261 27262 27263 27264 27265 27266 27267 27268 27269 27270 27271 27272 27273 27274 27275 27276 27277 27278 27279 27280 27281 27282 27283 27284 27285 27286 27287 27288 27289 27290 27291 27292 27293 27294 27295 27296 27297 27298 27299 27300 27301 27302 27303 27304 27305 27306 27307 27308 27309 27310 27311 27312 27313 27314 27315 27316 27317 27318 27319 27320 27321 27322 27323 27324 27325 27326 27327 27328 27329 27330 27331 27332 27333 27334 27335 27336 27337 27338 27339 27340 27341 27342 27343 27344 27345 27346 27347 27348 27349 27350 27351 27352 27353 27354 27355 27356 27357 27358 27359 27360 27361 27362 27363 27364 27365 27366 27367 27368 27369 27370 27371 27372 27373 27374 27375 27376 27377 27378 27379 27380 27381 27382 27383 27384 27385 27386 27387 27388 27389 27390 27391 27392 27393 27394 27395 27396 27397 27398 27399 27400 27401 27402 27403 27404 27405 27406 27407 27408 27409 27410 27411 27412 27413 27414 27415 27416 27417 27418 27419 27420 27421 27422 27423 27424 27425 27426 27427 27428 27429 27430 27431 27432 27433 27434 27435 27436 27437 27438 27439 27440 27441 27442 27443 27444 27445 27446 27447 27448 27449 27450 27451 27452 27453 27454 27455 27456 27457 27458 27459 27460 27461 27462 27463 27464 27465 27466 27467 27468 27469 27470 27471 27472 27473 27474 27475 27476 27477 27478 27479 27480 27481 27482 27483 27484 27485 27486 27487 27488 27489 27490 27491 27492 27493 27494 27495 27496 27497 27498 27499 27500 27501 27502 27503 27504 27505 27506 27507 27508 27509 27510 27511 27512 27513 27514 27515 27516 27517 27518 27519 27520 27521 27522 27523 27524 27525 27526 27527 27528 27529 27530 27531 27532 27533 27534 27535 27536 27537 27538 27539 27540 27541 27542 27543 27544 27545 27546 27547 27548 27549 27550 27551 27552 27553 27554 27555 27556 27557 27558 27559 27560 27561 27562 27563 27564 27565 27566 27567 27568 27569 27570 27571 27572 27573 27574 27575 27576 27577 27578 27579 27580 27581 27582 27583 27584 27585 27586 27587 27588 27589 27590 27591 27592 27593 27594 27595 27596 27597 27598 27599 27600 27601 27602 27603 27604 27605 27606 27607 27608 27609 27610 27611 27612 27613 27614 27615 27616 27617 27618 27619 27620 27621 27622 27623 27624 27625 27626 27627 27628 27629 27630 27631 27632 27633 27634 27635 27636 27637 27638 27639 27640 27641 27642 27643 27644 27645 27646 27647 27648 27649 27650 27651 27652 27653 27654 27655 27656 27657 27658 27659 27660 27661 27662 27663 27664 27665 27666 27667 27668 27669 27670 27671 27672 27673 27674 27675 27676 27677 27678 27679 27680 27681 27682 27683 27684 27685 27686 27687 27688 27689 27690 27691 27692 27693 27694 27695 27696 27697 27698 27699 27700 27701 27702 27703 27704 27705 27706 27707 27708 27709 27710 27711 27712 27713 27714 27715 27716 27717 27718 27719 27720 27721 27722 27723 27724 27725 27726 27727 27728 27729 27730 27731 27732 27733 27734 27735 27736 27737 27738 27739 27740 27741 27742 27743 27744 27745 27746 27747 27748 27749 27750 27751 27752 27753 27754 27755 27756 27757 27758 27759 27760 27761 27762 27763 27764 27765 27766 27767 27768 27769 27770 27771 27772 27773 27774 27775 27776 27777 27778 27779 27780 27781 27782 27783 27784 27785 27786 27787 27788 27789 27790 27791 27792 27793 27794 27795 27796 27797 27798 27799 27800 27801 27802 27803 27804 27805 27806 27807 27808 27809 27810 27811 27812 27813 27814 27815 27816 27817 27818 27819 27820 27821 27822 27823 27824 27825 27826 27827 27828 27829 27830 27831 27832 27833 27834 27835 27836 27837 27838 27839 27840 27841 27842 27843 27844 27845 27846 27847 27848 27849 27850 27851 27852 27853 27854 27855 27856 27857 27858 27859 27860 27861 27862 27863 27864 27865 27866 27867 27868 27869 27870 27871 27872 27873 27874 27875 27876 27877 27878 27879 27880 27881 27882 27883 27884 27885 27886 27887 27888 27889 27890 27891 27892 27893 27894 27895 27896 27897 27898 27899 27900 27901 27902 27903 27904 27905 27906 27907 27908 27909 27910 27911 27912 27913 27914 27915 27916 27917 27918 27919 27920 27921 27922 27923 27924 27925 27926 27927 27928 27929 27930 27931 27932 27933 27934 27935 27936 27937 27938 27939 27940 27941 27942 27943 27944 27945 27946 27947 27948 27949 27950 27951 27952 27953 27954 27955 27956 27957 27958 27959 27960 27961 27962 27963 27964 27965 27966 27967 27968 27969 27970 27971 27972 27973 27974 27975 27976 27977 27978 27979 27980 27981 27982 27983 27984 27985 27986 27987 27988 27989 27990 27991 27992 27993 27994 27995 27996 27997 27998 27999 28000 28001 28002 28003 28004 28005 28006 28007 28008 28009 28010 28011 28012 28013 28014 28015 28016 28017 28018 28019 28020 28021 28022 28023 28024 28025 28026 28027 28028 28029 28030 28031 28032 28033 28034 28035 28036 28037 28038 28039 28040 28041 28042 28043 28044 28045 28046 28047 28048 28049 28050 28051 28052 28053 28054 28055 28056 28057 28058 28059 28060 28061 28062 28063 28064 28065 28066 28067 28068 28069 28070 28071 28072 28073 28074 28075 28076 28077 28078 28079 28080 28081 28082 28083 28084 28085 28086 28087 28088 28089 28090 28091 28092 28093 28094 28095 28096 28097 28098 28099 28100 28101 28102 28103 28104 28105 28106 28107 28108 28109 28110 28111 28112 28113 28114 28115 28116 28117 28118 28119 28120 28121 28122 28123 28124 28125 28126 28127 28128 28129 28130 28131 28132 28133 28134 28135 28136 28137 28138 28139 28140 28141 28142 28143 28144 28145 28146 28147 28148 28149 28150 28151 28152 28153 28154 28155 28156 28157 28158 28159 28160 28161 28162 28163 28164 28165 28166 28167 28168 28169 28170 28171 28172 28173 28174 28175 28176 28177 28178 28179 28180 28181 28182 28183 28184 28185 28186 28187 28188 28189 28190 28191 28192 28193 28194 28195 28196 28197 28198 28199 28200 28201 28202 28203 28204 28205 28206 28207 28208 28209 28210 28211 28212 28213 28214 28215 28216 28217 28218 28219 28220 28221 28222 28223 28224 28225 28226 28227 28228 28229 28230 28231 28232 28233 28234 28235 28236 28237 28238 28239 28240 28241 28242 28243 28244 28245 28246 28247 28248 28249 28250 28251 28252 28253 28254 28255 28256 28257 28258 28259 28260 28261 28262 28263 28264 28265 28266 28267 28268 28269 28270 28271 28272 28273 28274 28275 28276 28277 28278 28279 28280 28281 28282 28283 28284 28285 28286 28287 28288 28289 28290 28291 28292 28293 28294 28295 28296 28297 28298 28299 28300 28301 28302 28303 28304 28305 28306 28307 28308 28309 28310 28311 28312 28313 28314 28315 28316 28317 28318 28319 28320 28321 28322 28323 28324 28325 28326 28327 28328 28329 28330 28331 28332 28333 28334 28335 28336 28337 28338 28339 28340 28341 28342 28343 28344 28345 28346 28347 28348 28349 28350 28351 28352 28353 28354 28355 28356 28357 28358 28359 28360 28361 28362 28363 28364 28365 28366 28367 28368 28369 28370 28371 28372 28373 28374 28375 28376 28377 28378 28379 28380 28381 28382 28383 28384 28385 28386 28387 28388 28389 28390 28391 28392 28393 28394 28395 28396 28397 28398 28399 28400 28401 28402 28403 28404 28405 28406 28407 28408 28409 28410 28411 28412 28413 28414 28415 28416 28417 28418 28419 28420 28421 28422 28423 28424 28425 28426 28427 28428 28429 28430 28431 28432 28433 28434 28435 28436 28437 28438 28439 28440 28441 28442 28443 28444 28445 28446 28447 28448 28449 28450 28451 28452 28453 28454 28455 28456 28457 28458 28459 28460 28461 28462 28463 28464 28465 28466 28467 28468 28469 28470 28471 28472 28473 28474 28475 28476 28477 28478 28479 28480 28481 28482 28483 28484 28485 28486 28487 28488 28489 28490 28491 28492 28493 28494 28495 28496 28497 28498 28499 28500 28501 28502 28503 28504 28505 28506 28507 28508 28509 28510 28511 28512 28513 28514 28515 28516 28517 28518 28519 28520 28521 28522 28523 28524 28525 28526 28527 28528 28529 28530 28531 28532 28533 28534 28535 28536 28537 28538 28539 28540 28541 28542 28543 28544 28545 28546 28547 28548 28549 28550 28551 28552 28553 28554 28555 28556 28557 28558 28559 28560 28561 28562 28563 28564 28565 28566 28567 28568 28569 28570 28571 28572 28573 28574 28575 28576 28577 28578 28579 28580 28581 28582 28583 28584 28585 28586 28587 28588 28589 28590 28591 28592 28593 28594 28595 28596 28597 28598 28599 28600 28601 28602 28603 28604 28605 28606 28607 28608 28609 28610 28611 28612 28613 28614 28615 28616 28617 28618 28619 28620 28621 28622 28623 28624 28625 28626 28627 28628 28629 28630 28631 28632 28633 28634 28635 28636 28637 28638 28639 28640 28641 28642 28643 28644 28645 28646 28647 28648 28649 28650 28651 28652 28653 28654 28655 28656 28657 28658 28659 28660 28661 28662 28663 28664 28665 28666 28667 28668 28669 28670 28671 28672 28673 28674 28675 28676 28677 28678 28679 28680 28681 28682 28683 28684 28685 28686 28687 28688 28689 28690 28691 28692 28693 28694 28695 28696 28697 28698 28699 28700 28701 28702 28703 28704 28705 28706 28707 28708 28709 28710 28711 28712 28713 28714 28715 28716 28717 28718 28719 28720 28721 28722 28723 28724 28725 28726 28727 28728 28729 28730 28731 28732 28733 28734 28735 28736 28737 28738 28739 28740 28741 28742 28743 28744 28745 28746 28747 28748 28749 28750 28751 28752 28753 28754 28755 28756 28757 28758 28759 28760 28761 28762 28763 28764 28765 28766 28767 28768 28769 28770 28771 28772 28773 28774 28775 28776 28777 28778 28779 28780 28781 28782 28783 28784 28785 28786 28787 28788 28789 28790 28791 28792 28793 28794 28795 28796 28797 28798 28799 28800 28801 28802 28803 28804 28805 28806 28807 28808 28809 28810 28811 28812 28813 28814 28815 28816 28817 28818 28819 28820 28821 28822 28823 28824 28825 28826 28827 28828 28829 28830 28831 28832 28833 28834 28835 28836 28837 28838 28839 28840 28841 28842 28843 28844 28845 28846 28847 28848 28849 28850 28851 28852 28853 28854 28855 28856 28857 28858 28859 28860 28861 28862 28863 28864 28865 28866 28867 28868 28869 28870 28871 28872 28873 28874 28875 28876 28877 28878 28879 28880 28881 28882 28883 28884 28885 28886 28887 28888 28889 28890 28891 28892 28893 28894 28895 28896 28897 28898 28899 28900 28901 28902 28903 28904 28905 28906 28907 28908 28909 28910 28911 28912 28913 28914 28915 28916 28917 28918 28919 28920 28921 28922 28923 28924 28925 28926 28927 28928 28929 28930 28931 28932 28933 28934 28935 28936 28937 28938 28939 28940 28941 28942 28943 28944 28945 28946 28947 28948 28949 28950 28951 28952 28953 28954 28955 28956 28957 28958 28959 28960 28961 28962 28963 28964 28965 28966 28967 28968 28969 28970 28971 28972 28973 28974 28975 28976 28977 28978 28979 28980 28981 28982 28983 28984 28985 28986 28987 28988 28989 28990 28991 28992 28993 28994 28995 28996 28997 28998 28999 29000 29001 29002 29003 29004 29005 29006 29007 29008 29009 29010 29011 29012 29013 29014 29015 29016 29017 29018 29019 29020 29021 29022 29023 29024 29025 29026 29027 29028 29029 29030 29031 29032 29033 29034 29035 29036 29037 29038 29039 29040 29041 29042 29043 29044 29045 29046 29047 29048 29049 29050 29051 29052 29053 29054 29055 29056 29057 29058 29059 29060 29061 29062 29063 29064 29065 29066 29067 29068 29069 29070 29071 29072 29073 29074 29075 29076 29077 29078 29079 29080 29081 29082 29083 29084 29085 29086 29087 29088 29089 29090 29091 29092 29093 29094 29095 29096 29097 29098 29099 29100 29101 29102 29103 29104 29105 29106 29107 29108 29109 29110 29111 29112 29113 29114 29115 29116 29117 29118 29119 29120 29121 29122 29123 29124 29125 29126 29127 29128 29129 29130 29131 29132 29133 29134 29135 29136 29137 29138 29139 29140 29141 29142 29143 29144 29145 29146 29147 29148 29149 29150 29151 29152 29153 29154 29155 29156 29157 29158 29159 29160 29161 29162 29163 29164 29165 29166 29167 29168 29169 29170 29171 29172 29173 29174 29175 29176 29177 29178 29179 29180 29181 29182 29183 29184 29185 29186 29187 29188 29189 29190 29191 29192 29193 29194 29195 29196 29197 29198 29199 29200 29201 29202 29203 29204 29205 29206 29207 29208 29209 29210 29211 29212 29213 29214 29215 29216 29217 29218 29219 29220 29221 29222 29223 29224 29225 29226 29227 29228 29229 29230 29231 29232 29233 29234 29235 29236 29237 29238 29239 29240 29241 29242 29243 29244 29245 29246 29247 29248 29249 29250 29251 29252 29253 29254 29255 29256 29257 29258 29259 29260 29261 29262 29263 29264 29265 29266 29267 29268 29269 29270 29271 29272 29273 29274 29275 29276 29277 29278 29279 29280 29281 29282 29283 29284 29285 29286 29287 29288 29289 29290 29291 29292 29293 29294 29295 29296 29297 29298 29299 29300 29301 29302 29303 29304 29305 29306 29307 29308 29309 29310 29311 29312 29313 29314 29315 29316 29317 29318 29319 29320 29321 29322 29323 29324 29325 29326 29327 29328 29329 29330 29331 29332 29333 29334 29335 29336 29337 29338 29339 29340 29341 29342 29343 29344 29345 29346 29347 29348 29349 29350 29351 29352 29353 29354 29355 29356 29357 29358 29359 29360 29361 29362 29363 29364 29365 29366 29367 29368 29369 29370 29371 29372 29373 29374 29375 29376 29377 29378 29379 29380 29381 29382 29383 29384 29385 29386 29387 29388 29389 29390 29391 29392 29393 29394 29395 29396 29397 29398 29399 29400 29401 29402 29403 29404 29405 29406 29407 29408 29409 29410 29411 29412 29413 29414 29415 29416 29417 29418 29419 29420 29421 29422 29423 29424 29425 29426 29427 29428 29429 29430 29431 29432 29433 29434 29435 29436 29437 29438 29439 29440 29441 29442 29443 29444 29445 29446 29447 29448 29449 29450 29451 29452 29453 29454 29455 29456 29457 29458 29459 29460 29461 29462 29463 29464 29465 29466 29467 29468 29469 29470 29471 29472 29473 29474 29475 29476 29477 29478 29479 29480 29481 29482 29483 29484 29485 29486 29487 29488 29489 29490 29491 29492 29493 29494 29495 29496 29497 29498 29499 29500 29501 29502 29503 29504 29505 29506 29507 29508 29509 29510 29511 29512 29513 29514 29515 29516 29517 29518 29519 29520 29521 29522 29523 29524 29525 29526 29527 29528 29529 29530 29531 29532 29533 29534 29535 29536 29537 29538 29539 29540 29541 29542 29543 29544 29545 29546 29547 29548 29549 29550 29551 29552 29553 29554 29555 29556 29557 29558 29559 29560 29561 29562 29563 29564 29565 29566 29567 29568 29569 29570 29571 29572 29573 29574 29575 29576 29577 29578 29579 29580 29581 29582 29583 29584 29585 29586 29587 29588 29589 29590 29591 29592 29593 29594 29595 29596 29597 29598 29599 29600 29601 29602 29603 29604 29605 29606 29607 29608 29609 29610 29611 29612 29613 29614 29615 29616 29617 29618 29619 29620 29621 29622 29623 29624 29625 29626 29627 29628 29629 29630 29631 29632 29633 29634 29635 29636 29637 29638 29639 29640 29641 29642 29643 29644 29645 29646 29647 29648 29649 29650 29651 29652 29653 29654 29655 29656 29657 29658 29659 29660 29661 29662 29663 29664 29665 29666 29667 29668 29669 29670 29671 29672 29673 29674 29675 29676 29677 29678 29679 29680 29681 29682 29683 29684 29685 29686 29687 29688 29689 29690 29691 29692 29693 29694 29695 29696 29697 29698 29699 29700 29701 29702 29703 29704 29705 29706 29707 29708 29709 29710 29711 29712 29713 29714 29715 29716 29717 29718 29719 29720 29721 29722 29723 29724 29725 29726 29727 29728 29729 29730 29731 29732 29733 29734 29735 29736 29737 29738 29739 29740 29741 29742 29743 29744 29745 29746 29747 29748 29749 29750 29751 29752 29753 29754 29755 29756 29757 29758 29759 29760 29761 29762 29763 29764 29765 29766 29767 29768 29769 29770 29771 29772 29773 29774 29775 29776 29777 29778 29779 29780 29781 29782 29783 29784 29785 29786 29787 29788 29789 29790 29791 29792 29793 29794 29795 29796 29797 29798 29799 29800 29801 29802 29803 29804 29805 29806 29807 29808 29809 29810 29811 29812 29813 29814 29815 29816 29817 29818 29819 29820 29821 29822 29823 29824 29825 29826 29827 29828 29829 29830 29831 29832 29833 29834 29835 29836 29837 29838 29839 29840 29841 29842 29843 29844 29845 29846 29847 29848 29849 29850 29851 29852 29853 29854 29855 29856 29857 29858 29859 29860 29861 29862 29863 29864 29865 29866 29867 29868 29869 29870 29871 29872 29873 29874 29875 29876 29877 29878 29879 29880 29881 29882 29883 29884 29885 29886 29887 29888 29889 29890 29891 29892 29893 29894 29895 29896 29897 29898 29899 29900 29901 29902 29903 29904 29905 29906 29907 29908 29909 29910 29911 29912 29913 29914 29915 29916 29917 29918 29919 29920 29921 29922 29923 29924 29925 29926 29927 29928 29929 29930 29931 29932 29933 29934 29935 29936 29937 29938 29939 29940 29941 29942 29943 29944 29945 29946 29947 29948 29949 29950 29951 29952 29953 29954 29955 29956 29957 29958 29959 29960 29961 29962 29963 29964 29965 29966 29967 29968 29969 29970 29971 29972 29973 29974 29975 29976 29977 29978 29979 29980 29981 29982 29983 29984 29985 29986 29987 29988 29989 29990 29991 29992 29993 29994 29995 29996 29997 29998 29999 30000 30001 30002 30003 30004 30005 30006 30007 30008 30009 30010 30011 30012 30013 30014 30015 30016 30017 30018 30019 30020 30021 30022 30023 30024 30025 30026 30027 30028 30029 30030 30031 30032 30033 30034 30035 30036 30037 30038 30039 30040 30041 30042 30043 30044 30045 30046 30047 30048 30049 30050 30051 30052 30053 30054 30055 30056 30057 30058 30059 30060 30061 30062 30063 30064 30065 30066 30067 30068 30069 30070 30071 30072 30073 30074 30075 30076 30077 30078 30079 30080 30081 30082 30083 30084 30085 30086 30087 30088 30089 30090 30091 30092 30093 30094 30095 30096 30097 30098 30099 30100 30101 30102 30103 30104 30105 30106 30107 30108 30109 30110 30111 30112 30113 30114 30115 30116 30117 30118 30119 30120 30121 30122 30123 30124 30125 30126 30127 30128 30129 30130 30131 30132 30133 30134 30135 30136 30137 30138 30139 30140 30141 30142 30143 30144 30145 30146 30147 30148 30149 30150 30151 30152 30153 30154 30155 30156 30157 30158 30159 30160 30161 30162 30163 30164 30165 30166 30167 30168 30169 30170 30171 30172 30173 30174 30175 30176 30177 30178 30179 30180 30181 30182 30183 30184 30185 30186 30187 30188 30189 30190 30191 30192 30193 30194 30195 30196 30197 30198 30199 30200 30201 30202 30203 30204 30205 30206 30207 30208 30209 30210 30211 30212 30213 30214 30215 30216 30217 30218 30219 30220 30221 30222 30223 30224 30225 30226 30227 30228 30229 30230 30231 30232 30233 30234 30235 30236 30237 30238 30239 30240 30241 30242 30243 30244 30245 30246 30247 30248 30249 30250 30251 30252 30253 30254 30255 30256 30257 30258 30259 30260 30261 30262 30263 30264 30265 30266 30267 30268 30269 30270 30271 30272 30273 30274 30275 30276 30277 30278 30279 30280 30281 30282 30283 30284 30285 30286 30287 30288 30289 30290 30291 30292 30293 30294 30295 30296 30297 30298 30299 30300 30301 30302 30303 30304 30305 30306 30307 30308 30309 30310 30311 30312 30313 30314 30315 30316 30317 30318 30319 30320 30321 30322 30323 30324 30325 30326 30327 30328 30329 30330 30331 30332 30333 30334 30335 30336 30337 30338 30339 30340 30341 30342 30343 30344 30345 30346 30347 30348 30349 30350 30351 30352 30353 30354 30355 30356 30357 30358 30359 30360 30361 30362 30363 30364 30365 30366 30367 30368 30369 30370 30371 30372 30373 30374 30375 30376 30377 30378 30379 30380 30381 30382 30383 30384 30385 30386 30387 30388 30389 30390 30391 30392 30393 30394 30395 30396 30397 30398 30399 30400 30401 30402 30403 30404 30405 30406 30407 30408 30409 30410 30411 30412 30413 30414 30415 30416 30417 30418 30419 30420 30421 30422 30423 30424 30425 30426 30427 30428 30429 30430 30431 30432 30433 30434 30435 30436 30437 30438 30439 30440 30441 30442 30443 30444 30445 30446 30447 30448 30449 30450 30451 30452 30453 30454 30455 30456 30457 30458 30459 30460 30461 30462 30463 30464 30465 30466 30467 30468 30469 30470 30471 30472 30473 30474 30475 30476 30477 30478 30479 30480 30481 30482 30483 30484 30485 30486 30487 30488 30489 30490 30491 30492 30493 30494 30495 30496 30497 30498 30499 30500 30501 30502 30503 30504 30505 30506 30507 30508 30509 30510 30511 30512 30513 30514 30515 30516 30517 30518 30519 30520 30521 30522 30523 30524 30525 30526 30527 30528 30529 30530 30531 30532 30533 30534 30535 30536 30537 30538 30539 30540 30541 30542 30543 30544 30545 30546 30547 30548 30549 30550 30551 30552 30553 30554 30555 30556 30557 30558 30559 30560 30561 30562 30563 30564 30565 30566 30567 30568 30569 30570 30571 30572 30573 30574 30575 30576 30577 30578 30579 30580 30581 30582 30583 30584 30585 30586 30587 30588 30589 30590 30591 30592 30593 30594 30595 30596 30597 30598 30599 30600 30601 30602 30603 30604 30605 30606 30607 30608 30609 30610 30611 30612 30613 30614 30615 30616 30617 30618 30619 30620 30621 30622 30623 30624 30625 30626 30627 30628 30629 30630 30631 30632 30633 30634 30635 30636 30637 30638 30639 30640 30641 30642 30643 30644 30645 30646 30647 30648 30649 30650 30651 30652 30653 30654 30655 30656 30657 30658 30659 30660 30661 30662 30663 30664 30665 30666 30667 30668 30669 30670 30671 30672 30673 30674 30675 30676 30677 30678 30679 30680 30681 30682 30683 30684 30685 30686 30687 30688 30689 30690 30691 30692 30693 30694 30695 30696 30697 30698 30699 30700 30701 30702 30703 30704 30705 30706 30707 30708 30709 30710 30711 30712 30713 30714 30715 30716 30717 30718 30719 30720 30721 30722 30723 30724 30725 30726 30727 30728 30729 30730 30731 30732 30733 30734 30735 30736 30737 30738 30739 30740 30741 30742 30743 30744 30745 30746 30747 30748 30749 30750 30751 30752 30753 30754 30755 30756 30757 30758 30759 30760 30761 30762 30763 30764 30765 30766 30767 30768 30769 30770 30771 30772 30773 30774 30775 30776 30777 30778 30779 30780 30781 30782 30783 30784 30785 30786 30787 30788 30789 30790 30791 30792 30793 30794 30795 30796 30797 30798 30799 30800 30801 30802 30803 30804 30805 30806 30807 30808 30809 30810 30811 30812 30813 30814 30815 30816 30817 30818 30819 30820 30821 30822 30823 30824 30825 30826 30827 30828 30829 30830 30831 30832 30833 30834 30835 30836 30837 30838 30839 30840 30841 30842 30843 30844 30845 30846 30847 30848 30849 30850 30851 30852 30853 30854 30855 30856 30857 30858 30859 30860 30861 30862 30863 30864 30865 30866 30867 30868 30869 30870 30871 30872 30873 30874 30875 30876 30877 30878 30879 30880 
</DataArray>
<DataArray type="UInt32" Name="offsets" format="ascii">
3 6 8 11 14 17 20 22 25 28 31 34 37 40 43 46 49 52 55 58 60 63 66 69 72 74 77 80 83 86 89 92 95 97 100 103 106 109 112 115 118 121 123 126 129 132 135 138 141 144 147 150 153 156 158 160 163 166 169 172 175 178 181 184 186 189 192 195 198 201 204 207 210 213 216 219 222 225 228 231 234 237 240 243 246 249 252 254 257 260 263 266 269 272 275 278 281 284 287 289 292 295 298 300 303 306 309 312 315 318 321 324 327 330 333 336 339 342 345 348 351 354 357 360 363 366 369 372 375 378 381 384 387 390 393 396 399 402 405 408 411 414 417 420 423 426 429 432 435 437 440 442 445 448 451 454 457 460 463 466 469 472 475 478 481 484 487 490 493 496 499 502 505 508 511 514 517 520 522 525 528 530 533 535 538 541 544 547 550 553 556 559 562 565 568 571 574 577 579 582 584 587 590 593 596 599 602 605 607 610 612 615 618 621 624 627 630 632 635 638 640 643 646 649 652 655 658 660 662 665 668 670 673 675 678 680 682 685 688 691 693 696 699 702 705 708 711 714 717 720 723 726 729 732 734 737 740 743 746 749 752 755 757 760 763 766 769 772 775 778 780 783 786 789 792 794 797 800 803 806 809 812 814 817 820 823 825 828 831 834 837 840 843 846 848 851 854 857 860 863 866 868 871 874 877 880 883 886 888 891 894 897 900 903 906 909 911 914 917 920 923 926 929 932 935 938 941 944 947 950 953 956 959 962 965 968 971 974 976 978 981 984 987 990 993 995 998 1001 1004 1007 1010 1013 1016 1018 1021 1023 1026 1029 1032 1034 1037 1040 1043 1045 1048 1050 1053 1056 1059 1062 1065 1068 1071 1073 1076 1079 1082 1085 1088 1091 1094 1096 1099 1102 1105 1107 1110 1113 1116 1119 1122 1125 1128 1131 1134 1137 1140 1143 1146 1149 1152 1155 1158 1161 1164 1167 1170 1173 1176 1179 1182 1185 1188 1191 1194 1197 1200 1203 1205 1208 1211 1214 1217 1220 1223 1226 1229 1232 1235 1238 1241 1244 1247 1250 1253 1256 1259 1262 1265 1268 1271 1274 1277 1280 1283 1286 1289 1292 1295 1298 1301 1303 1306 1309 1312 1315 1318 1321 1324 1327 1330 1333 1336 1339 1342 1345 1348 1351 1354 1357 1360 1363 1365 1368 1371 1374 1377 1380 1383 1386 1388 1391 1394 1397 1400 1403 1405 1408 1411 1413 1416 1418 1421 1424 1427 1430 1432 1435 1438 1440 1443 1446 1449 1452 1455 1458 1460 1463 1466 1469 1472 1475 1478 1481 1484 1487 1490 1493 1496 1499 1502 1505 1508 1511 1514 1517 1519 1522 1525 1528 1531 1534 1537 1540 1543 1546 1549 1552 1554 1556 1559 1562 1565 1568 1571 1574 1577 1580 1583 1586 1589 1592 1595 1598 1601 1604 1607 1610 1613 1616 1619 1621 1624 1626 1628 1631 1634 1636 1639 1642 1645 1648 1651 1654 1657 1660 1663 1666 1669 1672 1675 1677 1680 1683 1686 1689 1692 1695 1698 1700 1702 1705 1708 1711 1714 1717 1720 1723 1726 1728 1730 1733 1736 1739 1741 1744 1747 1750 1753 1756 1759 1762 1765 1768 1771 1774 1777 1780 1783 1786 1789 1792 1795 1798 1801 1804 1807 1810 1813 1816 1819 1822 1825 1828 1831 1834 1837 1840 1843 1846 1848 1851 1854 1856 1859 1862 1865 1868 1870 1873 1876 1879 1881 1884 1887 1890 1892 1895 1898 1900 1903 1906 1909 1912 1915 1918 1921 1924 1927 1930 1933 1936 1939 1942 1945 1948 1951 1954 1957 1960 1963 1965 1968 1971 1974 1976 1979 1982 1985 1988 1991 1993 1996 1999 2002 2005 2008 2011 2013 2016 2019 2022 2025 2028 2031 2034 2037 2040 2043 2046 2049 2052 2055 2058 2061 2064 2067 2069 2072 2075 2078 2081 2084 2087 2090 2093 2096 2099 2102 2105 2108 2111 2114 2117 2120 2123 2126 2129 2132 2134 2137 2140 2143 2146 2149 2152 2155 2158 2161 2164 2167 2170 2173 2176 2179 2181 2184 2187 2190 2193 2196 2199 2202 2205 2208 2211 2214 2217 2220 2223 2226 2229 2232 2235 2237 2240 2243 2246 2249 2252 2255 2258 2260 2263 2266 2269 2272 2275 2278 2281 2284 2287 2290 2293 2296 2299 2302 2305 2308 2311 2314 2317 2320 2323 2325 2328 2331 2334 2337 2340 2343 2346 2349 2352 2354 2357 2360 2363 2366 2369 2372 2375 2378 2380 2383 2386 2389 2392 2395 2398 2401 2404 2407 2410 2413 2416 2419 2422 2425 2428 2431 2434 2437 2439 2442 2445 2448 2451 2454 2456 2459 2462 2465 2467 2470 2473 2476 2479 2482 2485 2487 2490 2493 2496 2499 2502 2505 2508 2511 2514 2517 2519 2522 2525 2528 2531 2534 2537 2540 2543 2546 2549 2552 2555 2557 2560 2562 2565 2568 2571 2574 2577 2580 2583 2585 2588 2590 2593 2596 2599 2602 2605 2608 2611 2614 2617 2620 2623 2626 2629 2632 2635 2638 2641 2644 2647 2650 2653 2656 2659 2662 2665 2668 2671 2674 2677 2680 2683 2686 2689 2692 2695 2698 2701 2704 2707 2710 2713 2716 2719 2722 2725 2727 2729 2732 2735 2737 2740 2743 2746 2749 2752 2755 2758 2761 2764 2767 2770 2773 2776 2779 2782 2785 2787 2790 2793 2796 2799 2801 2804 2807 2809 2812 2815 2818 2821 2824 2827 2829 2832 2834 2837 2840 2842 2845 2848 2851 2854 2857 2860 2863 2866 2869 2872 2874 2877 2880 2883 2886 2889 2891 2893 2896 2899 2902 2905 2907 2910 2913 2915 2918 2920 2923 2926 2929 2932 2935 2937 2940 2943 2945 2948 2951 2954 2957 2960 2963 2966 2969 2972 2975 2978 2981 2983 2986 2989 2992 2995 2998 3001 3004 3007 3010 3013 3016 3019 3022 3025 3028 3030 3033 3035 3038 3040 3042 3045 3047 3050 3053 3055 3058 3061 3064 3067 3070 3073 3075 3078 3080 3083 3086 3088 3091 3094 3097 3099 3102 3105 3107 3110 3113 3116 3119 3122 3124 3127 3130 3132 3135 3138 3141 3144 3147 3149 3152 3154 3157 3160 3162 3165 3168 3170 3173 3176 3179 3182 3185 3188 3191 3194 3196 3199 3202 3205 3208 3211 3214 3217 3220 3223 3226 3228 3231 3234 3237 3240 3242 3245 3248 3250 3253 3256 3259 3262 3265 3267 3270 3273 3276 3279 3282 3284 3287 3289 3292 3295 3298 3301 3304 3307 3309 3312 3315 3318 3321 3324 3327 3330 3333 3335 3337 3339 3342 3345 3348 3351 3353 3356 3358 3361 3364 3367 3369 3371 3374 3377 3380 3382 3385 3388 3391 3393 3396 3398 3401 3403 3405 3408 3410 3413 3416 3419 3422 3424 3427 3430 3433 3435 3438 3440 3443 3445 3448 3451 3454 3457 3460 3463 3466 3468 3471 3474 3477 3480 3482 3485 3488 3491 3494 3497 3500 3503 3506 3508 3511 3513 3515 3518 3521 3524 3526 3529 3532 3535 3538 3540 3542 3545 3548 3550 3552 3555 3558 3561 3564 3567 3569 3572 3575 3578 3581 3584 3587 3590 3593 3595 3598 3600 3603 3606 3609 3612 3615 3618 3621 3624 3627 3630 3633 3636 3639 3642 3645 3648 3651 3653 3656 3659 3662 3665 3668 3671 3674 3677 3680 3683 3686 3689 3692 3695 3698 3701 3704 3707 3710 3713 3716 3719 3722 3725 3728 3730 3733 3735 3738 3741 3744 3747 3750 3752 3754 3757 3760 3763 3766 3768 3770 3773 3775 3778 3781 3783 3786 3789 3791 3794 3797 3800 3803 3805 3807 3810 3813 3816 3819 3822 3825 3828 3831 3833 3836 3839 3841 3844 3847 3850 3852 3855 3858 3860 3863 3866 3869 3872 3875 3878 3880 3883 3886 3889 3892 3895 3898 3900 3903 3906 3909 3912 3915 3917 3920 3923 3925 3927 3930 3933 3935 3938 3941 3943 3946 3949 3952 3955 3958 3961 3964 3967 3970 3973 3976 3979 3981 3984 3986 3989 3992 3994 3997 4000 4003 4006 4009 4012 4014 4017 4020 4023 4025 4027 4029 4032 4035 4038 4040 4042 4045 4047 4049 4052 4055 4057 4060 4063 4065 4068 4070 4073 4075 4078 4081 4084 4086 4088 4091 4094 4096 4098 4100 4102 4105 4108 4111 4113 4115 4118 4121 4123 4125 4127 4130 4132 4134 4137 4140 4142 4145 4147 4149 4152 4154 4157 4160 4162 4165 4167 4169 4172 4175 4178 4181 4183 4185 4188 4191 4193 4196 4199 4202 4204 4207 4210 4213 4216 4219 4222 4225 4228 4231 4234 4237 4240 4243 4246 4249 4252 4255 4258 4261 4264 4267 4270 4273 4276 4279 4282 4285 4288 4291 4294 4297 4300 4303 4306 4309 4312 4315 4318 4321 4324 4327 4330 4333 4336 4339 4342 4345 4348 4351 4354 4357 4360 4363 4366 4369 4372 4375 4378 4380 4383 4385 4388 4391 4394 4397 4400 4403 4406 4409 4412 4415 4418 4421 4424 4427 4429 4432 4435 4438 4441 4444 4447 4450 4453 4456 4459 4461 4464 4467 4470 4473 4476 4479 4482 4485 4488 4491 4494 4497 4500 4503 4506 4509 4512 4515 4518 4521 4524 4527 4530 4533 4536 4539 4542 4545 4548 4551 4554 4557 4560 4563 4566 4569 4572 4575 4578 4581 4584 4587 4590 4593 4596 4599 4601 4604 4607 4610 4612 4615 4617 4620 4623 4626 4629 4632 4634 4637 4639 4642 4645 4648 4651 4654 4657 4660 4663 4666 4669 4672 4675 4678 4681 4684 4687 4690 4693 4696 4699 4702 4705 4708 4711 4714 4716 4719 4722 4725 4728 4731 4734 4736 4739 4741 4744 4747 4750 4752 4755 4758 4760 4763 4766 4769 4772 4775 4778 4781 4784 4787 4790 4793 4796 4799 4802 4805 4808 4811 4814 4817 4820 4823 4826 4829 4832 4835 4838 4841 4844 4847 4850 4853 4856 4859 4862 4865 4868 4871 4873 4876 4878 4881 4884 4887 4890 4893 4896 4899 4902 4905 4908 4910 4913 4916 4919 4922 4925 4928 4931 4934 4937 4940 4943 4946 4949 4952 4955 4958 4961 4963 4966 4969 4972 4974 4976 4979 4981 4984 4987 4990 4993 4996 4999 5002 5005 5007 5010 5013 5016 5019 5021 5024 5027 5030 5033 5036 5039 5042 5044 5047 5050 5052 5055 5057 5060 5063 5065 5068 5071 5073 5075 5078 5081 5084 5087 5090 5093 5096 5099 5102 5105 5108 5111 5114 5117 5120 5122 5125 5127 5130 5133 5136 5138 5141 5143 5146 5149 5152 5155 5158 5161 5164 5167 5170 5173 5176 5179 5181 5184 5186 5189 5192 5195 5198 5201 5204 5207 5210 5212 5215 5218 5220 5223 5226 5229 5231 5233 5236 5239 5242 5245 5248 5251 5254 5257 5260 5263 5266 5269 5272 5275 5278 5281 5284 5287 5290 5293 5296 5298 5301 5304 5307 5310 5313 5315 5318 5320 5323 5326 5329 5332 5334 5337 5340 5342 5345 5348 5351 5354 5357 5359 5362 5365 5368 5371 5373 5376 5379 5382 5385 5388 5391 5394 5396 5399 5402 5405 5407 5410 5413 5416 5419 5422 5425 5428 5431 5434 5437 5440 5442 5445 5448 5451 5454 5457 5460 5463 5466 5468 5471 5474 5477 5480 5483 5486 5488 5491 5494 5497 5500 5503 5506 5508 5511 5514 5517 5520 5523 5526 5529 5532 5535 5538 5541 5543 5546 5549 5552 5554 5557 5560 5563 5565 5568 5570 5573 5576 5579 5582 5585 5588 5590 5593 5596 5599 5602 5605 5608 5611 5614 5617 5620 5623 5626 5629 5632 5635 5637 5640 5643 5646 5649 5652 5654 5657 5660 5663 5666 5669 5672 5675 5678 5680 5683 5686 5689 5692 5695 5698 5701 5704 5707 5710 5713 5716 5719 5722 5725 5728 5730 5733 5736 5739 5742 5744 5747 5750 5753 5756 5759 5762 5765 5768 5771 5774 5777 5780 5783 5786 5789 5792 5795 5798 5801 5804 5807 5810 5813 5816 5819 5822 5824 5827 5830 5833 5835 5838 5840 5843 5846 5849 5852 5854 5857 5859 5862 5865 5868 5871 5874 5876 5879 5882 5885 5888 5891 5894 5897 5900 5903 5905 5908 5911 5914 5917 5920 5923 5926 5929 5932 5935 5938 5941 5944 5947 5950 5953 5956 5959 5962 5965 5968 5971 5974 5977 5979 5981 5984 5987 5990 5993 5996 5998 6001 6004 6007 6009 6012 6015 6018 6020 6023 6026 6028 6031 6033 6036 6039 6042 6045 6047 6050 6053 6056 6059 6061 6063 6066 6069 6072 6075 6078 6081 6084 6087 6090 6093 6096 6099 6101 6104 6107 6110 6113 6115 6118 6121 6124 6127 6130 6132 6135 6138 6140 6143 6146 6149 6152 6155 6158 6161 6164 6167 6170 6173 6176 6179 6182 6185 6188 6190 6193 6196 6198 6201 6204 6207 6209 6212 6215 6218 6221 6224 6227 6230 6233 6236 6239 6242 6244 6247 6250 6253 6256 6259 6262 6265 6268 6271 6274 6277 6280 6283 6286 6289 6292 6294 6297 6300 6302 6305 6307 6310 6313 6315 6318 6320 6323 6325 6328 6331 6334 6337 6340 6343 6346 6349 6352 6355 6358 6361 6364 6366 6369 6371 6373 6376 6379 6381 6383 6386 6389 6391 6393 6396 6399 6402 6404 6407 6409 6412 6415 6417 6420 6423 6426 6429 6431 6433 6436 6438 6441 6444 6446 6448 6451 6454 6456 6459 6462 6465 6467 6470 6473 6476 6478 6480 6482 6485 6488 6490 6493 6495 6497 6500 6503 6506 6509 6512 6515 6518 6521 6524 6527 6530 6532 6534 6537 6539 6542 6544 6547 6549 6552 6555 6558 6560 6563 6566 6569 6572 6575 6577 6580 6583 6586 6589 6592 6595 6598 6601 6604 6607 6610 6613 6616 6619 6622 6625 6628 6631 6634 6637 6640 6643 6646 6649 6651 6654 6657 6660 6663 6666 6669 6672 6675 6678 6681 6684 6687 6690 6693 6696 6699 6702 6705 6707 6710 6713 6716 6719 6722 6725 6728 6731 6734 6737 6740 6742 6745 6748 6751 6754 6757 6759 6762 6765 6768 6771 6774 6777 6780 6783 6786 6789 6792 6795 6798 6801 6803 6806 6809 6812 6815 6818 6821 6824 6827 6830 6833 6836 6839 6842 6845 6847 6850 6852 6855 6858 6861 6864 6866 6869 6872 6875 6878 6881 6884 6887 6890 6893 6896 6899 6902 6904 6907 6909 6912 6915 6918 6921 6923 6926 6929 6932 6935 6938 6941 6944 6946 6949 6952 6955 6958 6961 6964 6967 6969 6972 6975 6978 6980 6983 6985 6988 6991 6994 6997 7000 7003 7006 7009 7012 7014 7017 7020 7023 7026 7029 7032 7035 7038 7041 7044 7047 7050 7053 7056 7059 7062 7065 7068 7071 7074 7077 7080 7083 7086 7089 7092 7095 7098 7101 7104 7107 7110 7113 7116 7119 7122 7125 7128 7131 7134 7137 7140 7143 7145 7148 7151 7153 7156 7159 7162 7165 7168 7171 7174 7177 7180 7183 7185 7188 7191 7194 7197 7200 7202 7205 7208 7210 7213 7216 7219 7222 7225 7228 7230 7233 7236 7239 7242 7244 7247 7250 7252 7255 7257 7260 7263 7266 7269 7272 7275 7278 7281 7284 7287 7290 7292 7295 7297 7300 7303 7306 7309 7311 7314 7317 7320 7323 7326 7329 7332 7335 7338 7341 7344 7347 7350 7353 7356 7359 7362 7365 7368 7371 7374 7376 7379 7382 7385 7388 7390 7393 7396 7399 7402 7405 7408 7411 7413 7416 7419 7422 7425 7428 7430 7433 7436 7439 7441 7444 7447 7450 7452 7455 7458 7460 7463 7466 7469 7471 7474 7477 7479 7482 7485 7488 7491 7494 7497 7500 7503 7506 7509 7512 7515 7518 7521 7524 7527 7530 7533 7536 7539 7542 7545 7548 7551 7554 7557 7560 7563 7566 7569 7572 7574 7577 7580 7583 7586 7589 7592 7595 7598 7601 7604 7607 7609 7612 7615 7618 7621 7624 7627 7630 7633 7636 7639 7642 7645 7648 7651 7654 7656 7658 7661 7664 7667 7669 7672 7675 7678 7681 7683 7686 7689 7691 7694 7697 7700 7703 7706 7709 7712 7715 7718 7721 7724 7727 7730 7732 7734 7737 7740 7743 7746 7749 7752 7755 7758 7761 7764 7767 7769 7772 7775 7777 7780 7783 7786 7789 7792 7795 7798 7801 7804 7807 7810 7813 7816 7819 7822 7825 7828 7831 7834 7836 7839 7842 7845 7847 7850 7853 7856 7859 7862 7864 7867 7870 7873 7876 7879 7882 7885 7888 7891 7894 7897 7900 7903 7906 7909 7912 7915 7918 7921 7924 7926 7929 7932 7934 7937 7940 7943 7946 7949 7952 7955 7958 7961 7964 7967 7970 7973 7976 7979 7982 7985 7988 7991 7993 7996 7999 8002 8005 8008 8011 8014 8017 8020 8023 8026 8029 8032 8035 8038 8041 8044 8047 8050 8053 8056 8059 8062 8065 8068 8071 8074 8077 8080 8083 8086 8089 8091 8094 8097 8100 8103 8106 8109 8111 8114 8117 8120 8123 8126 8128 8131 8134 8137 8140 8142 8145 8148 8151 8154 8157 8160 8163 8166 8169 8172 8175 8178 8181 8184 8187 8190 8193 8196 8199 8202 8205 8208 8210 8213 8216 8219 8222 8225 8228 8231 8233 8236 8239 8241 8244 8247 8249 8252 8255 8258 8261 8264 8267 8269 8272 8275 8278 8281 8284 8287 8290 8293 8296 8299 8301 8304 8306 8309 8312 8315 8318 8321 8324 8327 8330 8332 8335 8338 8340 8343 8346 8349 8351 8354 8357 8360 8362 8365 8368 8371 8373 8375 8378 8381 8383 8386 8389 8391 8394 8397 8399 8402 8405 8408 8411 8414 8417 8420 8423 8426 8428 8431 8434 8437 8439 8442 8445 8448 8450 8453 8456 8459 8461 8464 8466 8469 8472 8474 8477 8480 8483 8486 8489 8492 8495 8498 8500 8503 8506 8508 8511 8514 8517 8520 8523 8526 8529 8532 8535 8538 8541 8544 8547 8549 8552 8554 8557 8560 8563 8565 8567 8570 8572 8575 8578 8581 8584 8586 8589 8591 8594 8597 8600 8603 8606 8609 8612 8615 8618 8620 8623 8626 8629 8632 8635 8638 8641 8644 8647 8650 8653 8656 8659 8662 8665 8668 8671 8674 8677 8680 8683 8686 8689 8692 8695 8698 8701 8704 8706 8709 8712 8715 8718 8721 8724 8726 8729 8732 8735 8738 8741 8744 8746 8749 8752 8755 8758 8761 8764 8766 8769 8772 8775 8777 8780 8783 8786 8788 8791 8794 8796 8799 8802 8805 8808 8811 8814 8816 8819 8822 8825 8827 8829 8832 8835 8838 8841 8844 8847 8850 8853 8856 8859 8862 8865 8868 8871 8874 8877 8880 8882 8885 8888 8891 8894 8897 8900 8903 8905 8908 8911 8914 8917 8920 8922 8925 8928 8931 8934 8937 8939 8942 8945 8947 8950 8953 8956 8959 8961 8964 8967 8970 8973 8976 8979 8981 8984 8986 8989 8991 8993 8996 8998 9001 9004 9007 9009 9012 9015 9018 9021 9024 9026 9029 9032 9035 9037 9040 9043 9046 9049 9051 9053 9055 9058 9061 9064 9067 9069 9071 9074 9076 9079 9082 9085 9088 9091 9094 9096 9099 9101 9104 9107 9109 9112 9115 9118 9120 9123 9126 9128 9131 9134 9137 9140 9143 9146 9149 9152 9155 9158 9161 9164 9166 9169 9172 9175 9178 9180 9183 9186 9189 9192 9194 9197 9200 9203 9206 9209 9212 9215 9218 9221 9223 9225 9227 9230 9233 9236 9238 9240 9243 9246 9248 9251 9253 9256 9259 9262 9265 9268 9271 9274 9276 9279 9282 9285 9288 9291 9294 9297 9300 9303 9306 9309 9312 9315 9318 9321 9324 9326 9329 9332 9335 9338 9341 9344 9347 9350 9353 9355 9358 9361 9363 9366 9368 9371 9373 9376 9379 9381 9384 9387 9390 9392 9394 9397 9400 9402 9405 9408 9411 9413 9416 9419 9422 9425 9427 9430 9433 9436 9439 9442 9445 9448 9451 9454 9457 9460 9462 9464 9467 9470 9473 9476 9479 9482 9485 9488 9491 9494 9497 9500 9503 9506 9509 9512 9515 9518 9521 9524 9527 9530 9533 9536 9539 9542 9545 9548 9551 9554 9557 9560 9562 9565 9568 9571 9574 9577 9580 9583 9586 9589 9592 9595 9598 9601 9604 9607 9610 9613 9616 9619 9621 9624 9627 9630 9633 9636 9639 9641 9643 9646 9649 9651 9653 9656 9659 9662 9664 9667 9670 9673 9676 9679 9682 9685 9688 9691 9694 9697 9700 9703 9706 9709 9712 9715 9718 9721 9724 9727 9730 9733 9735 9738 9740 9743 9745 9748 9751 9754 9757 9760 9763 9765 9768 9770 9772 9775 9778 9780 9783 9786 9789 9792 9795 9798 9800 9802 9805 9808 9810 9812 9815 9818 9820 9822 9825 9828 9831 9834 9837 9840 9843 9846 9848 9851 9854 9857 9860 9863 9865 9868 9871 9873 9876 9879 9882 9884 9887 9890 9893 9896 9899 9902 9905 9908 9911 9914 9917 9920 9923 9926 9929 9932 9935 9938 9941 9944 9947 9950 9953 9956 9959 9962 9965 9968 9971 9974 9977 9980 9983 9986 9988 9991 9994 9996 9999 10001 10003 10006 10009 10012 10015 10018 10021 10024 10027 10030 10032 10035 10038 10041 10044 10047 10049 10052 10055 10058 10061 10064 10067 10070 10072 10075 10078 10081 10084 10087 10090 10093 10096 10098 10101 10104 10107 10110 10113 10115 10118 10121 10124 10127 10130 10133 10136 10139 10142 10145 10148 10151 10154 10157 10160 10163 10166 10169 10172 10175 10178 10181 10184 10187 10190 10193 10196 10199 10202 10205 10207 10209 10212 10215 10218 10221 10224 10227 10230 10232 10235 10238 10241 10243 10246 10248 10251 10254 10257 10260 10263 10266 10269 10272 10275 10278 10281 10284 10287 10290 10293 10296 10299 10302 10305 10308 10311 10313 10316 10319 10322 10325 10328 10331 10333 10336 10339 10342 10345 10348 10351 10354 10356 10359 10362 10364 10367 10370 10373 10376 10379 10382 10384 10387 10390 10393 10395 10398 10401 10403 10405 10408 10411 10414 10417 10420 10423 10426 10429 10432 10435 10438 10441 10444 10447 10450 10453 10456 10459 10462 10465 10468 10471 10474 10477 10480 10483 10486 10489 10491 10494 10497 10500 10503 10506 10509 10512 10515 10518 10521 10524 10527 10530 10533 10536 10539 10542 10545 10548 10550 10553 10556 10559 10561 10563 10566 10569 10572 10575 10578 10580 10583 10586 10589 10591 10594 10597 10600 10603 10606 10608 10611 10614 10617 10620 10623 10626 10629 10632 10635 10638 10641 10644 10647 10650 10653 10656 10659 10662 10665 10668 10671 10673 10676 10679 10682 10685 10688 10691 10693 10696 10699 10702 10705 10708 10711 10714 10717 10720 10723 10726 10729 10731 10734 10737 10740 10743 10745 10748 10750 10753 10756 10759 10762 10765 10768 10771 10774 10777 10780 10783 10786 10789 10791 10794 10797 10800 10803 10806 10808 10811 10814 10817 10820 10823 10826 10828 10831 10834 10837 10840 10843 10846 10849 10852 10855 10858 10861 10864 10866 10869 10872 10874 10877 10880 10882 10885 10888 10890 10893 10896 10899 10902 10905 10908 10911 10914 10917 10920 10922 10925 10928 10931 10934 10937 10940 10943 10946 10948 10951 10954 10957 10959 10962 10965 10968 10970 10973 10976 10978 10981 10984 10987 10989 10992 10995 10998 11001 11004 11006 11009 11011 11014 11017 11020 11023 11025 11027 11030 11033 11036 11038 11041 11044 11047 11050 11052 11055 11058 11061 11064 11067 11070 11073 11076 11079 11082 11085 11088 11091 11094 11097 11099 11102 11105 11107 11109 11112 11115 11118 11121 11123 11126 11129 11132 11135 11138 11141 11143 11146 11149 11152 11155 11158 11161 11163 11166 11169 11172 11175 11178 11181 11184 11187 11189 11192 11195 11198 11201 11204 11207 11210 11213 11216 11219 11221 11224 11227 11229 11232 11235 11237 11240 11243 11246 11249 11252 11254 11256 11259 11262 11264 11266 11269 11271 11274 11276 11279 11281 11283 11286 11289 11291 11294 11296 11299 11301 11304 11306 11309 11311 11314 11317 11319 11322 11324 11327 11329 11332 11335 11338 11341 11344 11347 11349 11352 11355 11358 11360 11363 11366 11369 11372 11375 11378 11381 11384 11387 11389 11392 11395 11397 11400 11402 11405 11407 11410 11413 11416 11418 11420 11423 11426 11429 11432 11435 11438 11441 11444 11447 11450 11453 11455 11458 11461 11464 11467 11470 11472 11475 11478 11481 11484 11487 11490 11493 11496 11499 11502 11505 11508 11511 11514 11517 11520 11523 11525 11528 11531 11534 11537 11540 11543 11545 11548 11551 11554 11556 11559 11562 11564 11567 11570 11573 11575 11578 11580 11582 11585 11588 11591 11594 11597 11600 11603 11606 11609 11611 11614 11617 11620 11623 11626 11629 11632 11634 11637 11639 11642 11644 11647 11650 11653 11656 11659 11662 11665 11668 11671 11674 11677 11680 11683 11686 11689 11692 11695 11698 11701 11704 11707 11710 11713 11716 11719 11722 11725 11728 11731 11734 11737 11740 11743 11746 11749 11752 11755 11757 11760 11763 11765 11767 11770 11773 11776 11779 11781 11784 11787 11790 11793 11796 11798 11801 11804 11806 11808 11811 11814 11817 11820 11823 11826 11828 11831 11833 11836 11839 11841 11843 11846 11848 11851 11854 11857 11859 11862 11865 11868 11871 11873 11876 11879 11882 11884 11887 11890 11892 11894 11897 11900 11903 11905 11908 11911 11914 11917 11919 11922 11925 11927 11930 11933 11936 11938 11941 11944 11946 11949 11952 11955 11957 11960 11962 11965 11968 11970 11973 11976 11978 11980 11983 11986 11988 11991 11993 11995 11998 12001 12004 12007 12009 12012 12015 12018 12021 12023 12026 12029 12032 12035 12038 12041 12044 12047 12050 12053 12056 12059 12061 12064 12067 12070 12073 12075 12078 12080 12083 12086 12089 12092 12095 12097 12099 12101 12104 12107 12110 12113 12116 12119 12122 12125 12127 12130 12133 12136 12139 12142 12145 12147 12150 12153 12156 12159 12161 12164 12167 12170 12173 12176 12179 12182 12185 12188 12191 12194 12197 12200 12203 12206 12209 12212 12215 12217 12220 12222 12225 12228 12230 12232 12235 12237 12240 12243 12245 12248 12250 12253 12255 12258 12260 12263 12266 12269 12272 12274 12277 12280 12283 12285 12288 12291 12294 12297 12300 12303 12306 12309 12312 12315 12318 12321 12324 12327 12330 12333 12336 12339 12342 12345 12348 12351 12354 12357 12360 12362 12365 12368 12371 12374 12377 12379 12382 12385 12388 12391 12394 12397 12400 12403 12406 12409 12412 12414 12417 12420 12423 12426 12429 12431 12434 12437 12439 12441 12444 12447 12450 12452 12455 12458 12460 12462 12465 12467 12470 12473 12476 12479 12482 12485 12488 12491 12494 12497 12500 12503 12506 12509 12512 12515 12517 12520 12523 12526 12529 12531 12534 12537 12540 12543 12546 12549 12552 12555 12557 12559 12562 12565 12567 12570 12573 12576 12579 12582 12585 12588 12591 12594 12596 12598 12601 12604 12606 12609 12612 12615 12617 12620 12623 12626 12629 12632 12635 12638 12641 12644 12647 12650 12653 12656 12659 12662 12665 12668 12671 12674 12677 12680 12683 12686 12689 12692 12695 12697 12700 12703 12706 12709 12712 12715 12718 12721 12724 12727 12730 12733 12736 12739 12742 12745 12748 12751 12754 12757 12759 12762 12765 12768 12770 12772 12775 12778 12781 12783 12786 12789 12791 12794 12797 12800 12803 12806 12808 12811 12813 12816 12819 12822 12825 12828 12831 12834 12837 12839 12842 12845 12848 12850 12853 12856 12858 12861 12863 12866 12869 12872 12874 12877 12880 12883 12885 12888 12891 12894 12897 12900 12903 12906 12909 12912 12915 12918 12921 12924 12927 12930 12933 12936 12938 12941 12944 12947 12950 12953 12956 12959 12962 12965 12967 12970 12973 12976 12979 12982 12985 12988 12991 12993 12996 12999 13002 13005 13008 13011 13014 13017 13020 13023 13026 13029 13032 13034 13037 13040 13043 13045 13048 13051 13054 13057 13060 13063 13066 13069 13072 13075 13078 13081 13084 13087 13090 13093 13096 13099 13102 13104 13107 13110 13113 13115 13118 13120 13123 13126 13129 13131 13134 13137 13140 13142 13144 13147 13150 13153 13156 13159 13162 13165 13168 13171 13174 13177 13180 13183 13186 13189 13192 13195 13198 13201 13204 13207 13210 13212 13215 13218 13221 13224 13226 13229 13232 13235 13238 13240 13243 13246 13249 13252 13255 13258 13261 13263 13266 13269 13272 13275 13277 13280 13283 13286 13289 13292 13295 13297 13300 13303 13306 13309 13312 13315 13317 13320 13323 13326 13328 13331 13334 13337 13340 13343 13346 13349 13352 13355 13357 13360 13363 13366 13369 13372 13375 13377 13380 13383 13386 13389 13392 13395 13398 13401 13404 13407 13410 13412 13415 13418 13420 13423 13426 13429 13432 13435 13437 13440 13443 13445 13448 13451 13454 13457 13460 13463 13466 13468 13470 13473 13476 13479 13482 13484 13487 13490 13493 13496 13499 13502 13504 13507 13510 13513 13516 13519 13522 13525 13528 13531 13534 13536 13539 13542 13545 13548 13551 13554 13557 13560 13563 13566 13569 13572 13574 13577 13579 13582 13585 13588 13590 13593 13596 13598 13601 13604 13607 13610 13612 13615 13618 13621 13624 13627 13629 13632 13635 13638 13641 13644 13647 13650 13653 13655 13658 13661 13664 13667 13669 13672 13675 13678 13681 13684 13687 13690 13692 13695 13698 13701 13704 13707 13710 13713 13716 13719 13722 13724 13727 13730 13733 13735 13738 13740 13743 13746 13749 13752 13755 13758 13760 13763 13765 13768 13770 13773 13776 13779 13782 13784 13787 13790 13793 13796 13799 13802 13805 13808 13811 13814 13817 13820 13823 13826 13828 13831 13833 13836 13839 13842 13845 13848 13851 13854 13856 13859 13862 13865 13868 13871 13874 13877 13880 13883 13886 13889 13892 13895 13897 13900 13903 13906 13909 13911 13914 13917 13920 13923 13926 13929 13932 13935 13938 13941 13944 13947 13950 13953 13956 13959 13962 13965 13968 13971 13974 13977 13980 13983 13985 13988 13991 13994 13997 13999 14002 14005 14008 14010 14013 14016 14018 14021 14024 14026 14029 14032 14035 14038 14041 14044 14047 14050 14053 14056 14059 14062 14065 14068 14071 14073 14076 14079 14081 14084 14087 14090 14093 14096 14099 14102 14104 14107 14110 14113 14116 14119 14121 14124 14127 14130 14132 14135 14138 14141 14143 14146 14149 14152 14155 14158 14161 14164 14166 14169 14172 14175 14177 14180 14182 14184 14187 14190 14193 14196 14199 14201 14204 14207 14210 14213 14216 14219 14222 14225 14228 14231 14233 14236 14239 14242 14245 14248 14251 14254 14257 14260 14263 14266 14269 14272 14275 14278 14281 14284 14287 14290 14293 14296 14299 14302 14305 14308 14311 14314 14317 14320 14323 14326 14329 14332 14335 14338 14341 14344 14346 14349 14352 14355 14358 14361 14364 14367 14370 14373 14376 14379 14382 14385 14388 14391 14394 14396 14399 14402 14405 14408 14411 14414 14417 14420 14423 14425 14428 14431 14434 14437 14440 14443 14446 14448 14451 14454 14457 14460 14463 14466 14469 14472 14475 14478 14481 14484 14487 14490 14493 14496 14499 14502 14505 14508 14511 14513 14516 14519 14522 14525 14528 14531 14534 14537 14540 14543 14546 14549 14552 14555 14558 14561 14564 14566 14569 14572 14575 14578 14581 14584 14587 14590 14593 14596 14599 14602 14605 14608 14611 14614 14617 14620 14623 14626 14629 14632 14635 14638 14641 14644 14647 14650 14653 14656 14659 14662 14665 14668 14671 14674 14677 14680 14683 14686 14689 14692 14695 14698 14701 14704 14706 14709 14712 14715 14718 14721 14724 14727 14730 14733 14736 14739 14742 14745 14747 14750 14752 14755 14758 14761 14764 14767 14769 14772 14775 14778 14781 14784 14786 14788 14791 14794 14797 14800 14803 14806 14809 14812 14815 14818 14821 14824 14827 14830 14833 14836 14839 14841 14843 14846 14849 14852 14855 14858 14861 14863 14866 14868 14871 14874 14877 14880 14883 14886 14889 14892 14895 14897 14900 14903 14906 14909 14912 14915 14918 14921 14924 14927 14930 14933 14936 14939 14942 14945 14948 14951 14954 14956 14959 14962 14965 14968 14971 14973 14976 14978 14981 14984 14987 14990 14993 14996 14999 15001 15004 15007 15010 15012 15015 15018 15021 15023 15026 15029 15031 15034 15037 15040 15042 15045 15048 15050 15053 15055 15058 15060 15063 15066 15068 15071 15074 15077 15080 15083 15086 15089 15092 15095 15098 15101 15104 15107 15110 15113 15116 15119 15122 15125 15128 15131 15133 15136 15138 15141 15144 15147 15150 15153 15156 15159 15161 15164 15167 15170 15173 15176 15179 15182 15185 15188 15191 15194 15197 15200 15203 15206 15209 15212 15215 15218 15220 15223 15226 15229 15231 15234 15237 15240 15243 15246 15249 15252 15255 15258 15261 15263 15266 15269 15272 15275 15277 15280 15283 15285 15288 15291 15294 15297 15300 15302 15305 15308 15311 15314 15316 15319 15321 15324 15327 15329 15332 15335 15338 15341 15344 15347 15350 15352 15355 15358 15360 15363 15365 15368 15371 15374 15377 15380 15383 15386 15389 15392 15395 15398 15401 15404 15407 15410 15413 15416 15419 15421 15424 15427 15430 15433 15436 15439 15442 15444 15447 15450 15453 15456 15458 15461 15464 15467 15470 15473 15476 15479 15482 15485 15487 15490 15493 15496 15499 15501 15504 15507 15510 15513 15516 15519 15522 15525 15528 15531 15534 15537 15539 15542 15545 15548 15551 15554 15557 15560 15563 15566 15568 15571 15574 15577 15580 15583 15586 15589 15592 15595 15598 15601 15604 15606 15609 15612 15614 15617 15620 15623 15626 15629 15632 15635 15638 15641 15643 15645 15647 15650 15653 15656 15658 15661 15664 15667 15670 15673 15676 15678 15681 15684 15687 15689 15691 15694 15697 15700 15703 15706 15709 15712 15715 15718 15721 15724 15727 15729 15732 15735 15738 15740 15742 15745 15748 15751 15754 15757 15759 15762 15765 15768 15771 15773 15776 15779 15782 15785 15787 15790 15793 15796 15799 15802 15804 15806 15808 15811 15814 15817 15819 15821 15824 15827 15830 15833 15836 15839 15842 15845 15848 15850 15852 15855 15858 15861 15863 15865 15868 15871 15874 15877 15880 15883 15886 15889 15892 15895 15898 15901 15904 15907 15910 15913 15916 15918 15921 15923 15926 15929 15932 15935 15937 15940 15943 15946 15949 15952 15955 15958 15960 15963 15966 15969 15972 15975 15978 15981 15983 15986 15989 15991 15994 15996 15998 16001 16004 16007 16009 16011 16014 16017 16020 16022 16024 16027 16030 16033 16036 16039 16042 16045 16048 16051 16054 16056 16059 16062 16065 16068 16071 16074 16077 16079 16082 16085 16088 16091 16093 16096 16099 16102 16105 16108 16111 16113 16116 16119 16122 16125 16127 16130 16132 16135 16138 16141 16144 16147 16150 16153 16156 16159 16162 16165 16168 16171 16174 16176 16179 16182 16185 16188 16191 16194 16197 16199 16202 16205 16208 16211 16213 16216 16219 16222 16224 16227 16230 16233 16236 16239 16242 16245 16248 16251 16254 16257 16260 16263 16266 16269 16272 16275 16278 16281 16284 16287 16290 16292 16295 16297 16300 16303 16305 16308 16311 16314 16316 16319 16322 16324 16327 16330 16333 16336 16339 16342 16345 16348 16351 16354 16357 16360 16363 16366 16369 16372 16375 16378 16381 16384 16386 16388 16390 16393 16396 16399 16402 16405 16408 16411 16414 16417 16420 16423 16426 16429 16431 16434 16437 16440 16442 16445 16448 16450 16453 16456 16459 16462 16464 16467 16470 16472 16474 16477 16480 16483 16486 16488 16491 16494 16496 16499 16501 16504 16507 16510 16513 16516 16519 16522 16525 16528 16531 16534 16537 16539 16542 16545 16548 16551 16554 16557 16560 16562 16565 16567 16570 16573 16576 16579 16581 16584 16587 16590 16593 16596 16599 16602 16605 16608 16611 16614 16617 16620 16623 16626 16629 16632 16635 16638 16641 16644 16647 16650 16652 16655 16658 16661 16663 16666 16668 16671 16674 16677 16679 16682 16685 16688 16691 16694 16696 16699 16702 16704 16707 16710 16713 16716 16719 16722 16725 16728 16730 16733 16736 16739 16742 16745 16747 16750 16753 16756 16759 16762 16765 16768 16771 16774 16777 16780 16783 16786 16789 16791 16794 16797 16800 16803 16805 16808 16811 16814 16817 16820 16823 16826 16829 16832 16835 16838 16841 16843 16846 16849 16852 16855 16857 16860 16863 16866 16869 16872 16875 16878 16881 16884 16887 16890 16893 16896 16898 16901 16904 16906 16909 16912 16915 16917 16920 16923 16926 16929 16932 16935 16938 16941 16944 16947 16950 16953 16956 16958 16960 16963 16965 16967 16970 16973 16976 16978 16980 16983 16985 16988 16990 16993 16995 16998 17001 17004 17006 17009 17011 17014 17017 17020 17023 17025 17028 17031 17034 17037 17040 17043 17045 17048 17051 17054 17057 17060 17062 17065 17068 17070 17073 17076 17078 17081 17084 17086 17089 17092 17095 17098 17101 17103 17106 17108 17111 17114 17117 17120 17123 17126 17129 17132 17135 17138 17141 17144 17147 17149 17152 17155 17157 17160 17163 17166 17169 17172 17175 17178 17181 17184 17186 17189 17192 17195 17198 17201 17204 17207 17210 17213 17215 17218 17221 17223 17226 17228 17231 17234 17237 17240 17243 17246 17249 17251 17254 17257 17260 17263 17266 17269 17272 17274 17277 17279 17282 17285 17287 17290 17293 17296 17298 17301 17304 17307 17310 17312 17315 17318 17321 17324 17327 17329 17332 17335 17338 17341 17344 17347 17350 17353 17356 17359 17362 17365 17368 17371 17374 17377 17380 17383 17386 17389 17392 17394 17397 17400 17402 17405 17408 17411 17413 17416 17419 17422 17425 17427 17430 17433 17436 17439 17442 17445 17448 17451 17454 17457 17460 17463 17466 17469 17472 17475 17478 17481 17484 17487 17490 17493 17496 17498 17501 17504 17507 17510 17513 17516 17518 17521 17524 17527 17530 17533 17536 17539 17542 17545 17548 17551 17554 17557 17559 17562 17564 17567 17570 17572 17575 17578 17581 17584 17586 17588 17591 17593 17596 17598 17601 17604 17607 17610 17613 17615 17618 17621 17623 17625 17628 17631 17634 17637 17640 17642 17645 17648 17650 17653 17656 17659 17662 17665 17668 17671 17674 17676 17678 17681 17684 17687 17689 17692 17694 17697 17700 17703 17706 17709 17711 17714 17716 17719 17722 17725 17728 17731 17733 17735 17738 17741 17744 17747 17749 17752 17755 17758 17761 17763 17766 17769 17772 17775 17778 17781 17784 17787 17790 17793 17796 17799 17802 17805 17808 17811 17814 17816 17819 17822 17824 17827 17830 17833 17835 17838 17841 17844 17847 17850 17853 17856 17859 17862 17865 17868 17871 17874 17877 17880 17883 17886 17889 17892 17894 17897 17900 17903 17906 17909 17912 17915 17918 17921 17924 17927 17930 17933 17936 17938 17940 17943 17946 17949 17951 17954 17957 17960 17963 17966 17968 17971 17974 17977 17980 17983 17986 17989 17992 17995 17998 18001 18003 18006 18009 18011 18014 18017 18020 18023 18026 18029 18032 18035 18038 18041 18043 18046 18049 18052 18054 18057 18059 18062 18064 18067 18070 18073 18075 18077 18080 18082 18085 18088 18090 18093 18096 18098 18100 18103 18106 18109 18111 18114 18117 18119 18122 18124 18127 18130 18133 18135 18138 18141 18143 18145 18148 18150 18153 18156 18158 18161 18163 18166 18169 18172 18175 18178 18181 18184 18187 18190 18192 18195 18198 18201 18204 18207 18209 18212 18215 18218 18221 18224 18227 18230 18233 18236 18239 18241 18244 18247 18250 18253 18255 18257 18260 18263 18265 18268 18270 18273 18276 18279 18282 18285 18287 18290 18293 18295 18298 18300 18303 18306 18309 18312 18315 18318 18321 18323 18326 18329 18332 18335 18338 18341 18344 18347 18350 18352 18355 18357 18360 18362 18365 18367 18370 18373 18376 18379 18381 18384 18387 18390 18393 18396 18398 18400 18403 18406 18409 18412 18415 18418 18420 18423 18426 18429 18432 18435 18437 18440 18443 18446 18449 18451 18454 18457 18459 18462 18464 18467 18470 18473 18475 18478 18480 18483 18486 18488 18490 18492 18495 18498 18501 18504 18507 18510 18512 18514 18516 18519 18522 18525 18528 18530 18533 18535 18538 18540 18543 18546 18549 18552 18555 18558 18560 18563 18566 18569 18572 18575 18578 18581 18584 18587 18590 18593 18596 18599 18602 18605 18608 18611 18614 18617 18620 18623 18626 18629 18632 18635 18638 18641 18644 18647 18650 18653 18656 18659 18662 18665 18668 18671 18674 18677 18680 18683 18686 18689 18692 18695 18698 18701 18704 18707 18709 18712 18715 18718 18720 18722 18725 18728 18731 18734 18737 18740 18743 18746 18749 18752 18755 18758 18761 18764 18767 18770 18773 18776 18779 18781 18784 18787 18790 18793 18796 18799 18802 18804 18807 18810 18812 18815 18818 18820 18823 18826 18828 18831 18833 18836 18839 18841 18844 18847 18850 18852 18855 18857 18860 18862 18864 18867 18870 18873 18875 18877 18880 18883 18885 18888 18891 18893 18896 18899 18902 18905 18908 18911 18914 18917 18920 18923 18926 18929 18931 18934 18937 18940 18943 18945 18948 18951 18954 18957 18959 18962 18965 18968 18971 18974 18977 18980 18983 18986 18988 18991 18993 18996 18999 19002 19005 19007 19010 19013 19016 19018 19021 19024 19027 19030 19033 19036 19038 19041 19044 19046 19049 19052 19055 19057 19060 19063 19066 19069 19072 19075 19078 19080 19083 19086 19089 19092 19095 19097 19100 19103 19106 19109 19112 19115 19118 19121 19124 19127 19130 19133 19136 19139 19142 19144 19147 19150 19153 19156 19159 19161 19164 19167 19169 19172 19174 19177 19180 19183 19186 19188 19190 19193 19196 19198 19201 19204 19207 19210 19213 19216 19219 19222 19225 19228 19231 19233 19236 19238 19241 19244 19247 19250 19253 19255 19258 19261 19264 19266 19269 19272 19275 19277 19280 19283 19286 19289 19292 19295 19298 19301 19304 19307 19310 19313 19316 19318 19321 19324 19327 19330 19333 19336 19339 19341 19344 19346 19349 19352 19355 19358 19361 19364 19367 19369 19371 19374 19377 19380 19383 19386 19389 19392 19395 19398 19400 19403 19406 19409 19412 19415 19418 19420 19422 19424 19427 19429 19432 19435 19438 19441 19444 19447 19449 19452 19454 19457 19459 19462 19464 19467 19470 19473 19476 19479 19482 19484 19487 19490 19492 19495 19498 19501 19504 19506 19509 19512 19515 19518 19521 19524 19527 19530 19533 19536 19539 19542 19545 19548 19551 19554 19557 19560 19563 19566 19569 19571 19574 19576 19579 19582 19585 19588 19591 19594 19597 19600 19603 19606 19609 19612 19615 19618 19621 19624 19627 19630 19633 19636 19639 19642 19645 19648 19651 19654 19657 19660 19663 19666 19669 19672 19675 19678 19681 19684 19687 19690 19693 19696 19699 19702 19705 19708 19711 19714 19717 19720 19723 19726 19729 19732 19735 19738 19741 19744 19747 19750 19752 19755 19758 19761 19764 19767 19770 19773 19776 19779 19782 19785 19788 19791 19794 19797 19800 19803 19806 19809 19812 19815 19818 19821 19823 19826 19829 19832 19834 19837 19839 19842 19845 19848 19851 19854 19857 19860 19863 19866 19869 19872 19875 19878 19881 19884 19887 19890 19893 19896 19899 19902 19905 19908 19911 19914 19917 19920 19923 19926 19929 19932 19935 19938 19941 19944 19947 19950 19953 19956 19958 19961 19963 19966 19969 19972 19975 19978 19981 19984 19987 19990 19993 19996 19999 20002 20005 20008 20011 20014 20017 20020 20023 20026 20029 20032 20035 20038 20040 20043 20046 20049 20052 20055 20058 20061 20064 20067 20070 20073 20076 20079 20082 20085 20088 20091 20094 20097 20100 20103 20106 20109 20112 20115 20118 20121 20124 20127 20130 20133 20136 20139 20142 20145 20148 20151 20154 20157 20160 20163 20166 20169 20172 20175 20178 20181 20184 20187 20190 20193 20196 20199 20202 20205 20208 20211 20214 20217 20220 20223 20226 20229 20232 20235 20238 20241 20244 20247 20249 20252 20255 20258 20261 20264 20267 20270 20272 20275 20278 20280 20283 20286 20289 20292 20295 20298 20301 20304 20307 20310 20313 20316 20319 20322 20325 20328 20331 20334 20337 20340 20342 20345 20348 20351 20354 20357 20360 20363 20366 20369 20372 20375 20378 20381 20384 20387 20390 20393 20396 20399 20402 20405 20408 20411 20414 20417 20420 20423 20426 20429 20432 20435 20438 20440 20443 20446 20449 20452 20454 20457 20459 20462 20465 20468 20471 20474 20477 20479 20482 20485 20487 20490 20493 20495 20497 20500 20502 20505 20508 20511 20513 20516 20519 20522 20525 20528 20531 20534 20537 20540 20543 20546 20549 20552 20555 20558 20560 20563 20566 20569 20572 20575 20578 20581 20584 20586 20589 20592 20595 20598 20601 20604 20607 20610 20613 20616 20619 20622 20625 20628 20631 20634 20637 20640 20643 20646 20649 20652 20655 20658 20661 20664 20667 20670 20673 20676 20679 20682 20685 20688 20691 20694 20696 20699 20702 20705 20708 20711 20714 20717 20719 20722 20725 20727 20730 20732 20735 20738 20741 20744 20747 20750 20753 20756 20759 20762 20765 20767 20769 20772 20775 20777 20780 20783 20785 20787 20790 20793 20796 20799 20801 20804 20806 20809 20812 20814 20817 20819 20821 20824 20826 20829 20831 20834 20837 20840 20843 20846 20849 20852 20854 20857 20859 20862 20865 20868 20871 20874 20876 20879 20882 20885 20887 20890 20893 20895 20898 20900 20903 20905 20907 20910 20913 20915 20918 20921 20924 20927 20930 20933 20935 20938 20941 20944 20947 20950 20953 20956 20959 20961 20963 20966 20969 20972 20974 20977 20980 20983 20986 20988 20990 20993 20995 20998 21001 21004 21006 21009 21012 21015 21018 21021 21024 21027 21030 21033 21036 21039 21042 21045 21048 21051 21054 21056 21059 21062 21065 21068 21071 21074 21076 21079 21081 21084 21087 21090 21092 21094 21097 21100 21102 21105 21107 21110 21113 21116 21119 21122 21125 21128 21131 21134 21137 21140 21143 21145 21147 21150 21153 21156 21159 21162 21164 21167 21170 21173 21176 21179 21182 21185 21187 21190 21193 21196 21198 21201 21203 21206 21209 21211 21214 21217 21220 21223 21226 21229 21232 21235 21238 21240 21243 21246 21248 21251 21254 21257 21260 21263 21266 21269 21272 21275 21278 21281 21283 21286 21289 21292 21295 21298 21301 21304 21307 21310 21313 21316 21319 21322 21325 21328 21331 21334 21337 21340 21343 21346 21349 21351 21354 21357 21360 21363 21366 21369 21372 21375 21378 21381 21384 21386 21389 21392 21395 21398 21400 21403 21406 21409 21412 21415 21418 21421 21424 21427 21430 21433 21435 21438 21441 21444 21447 21450 21452 21455 21457 21460 21463 21466 21469 21472 21475 21478 21481 21484 21486 21489 21492 21494 21497 21500 21502 21505 21508 21511 21514 21516 21519 21522 21525 21528 21531 21534 21537 21540 21543 21546 21549 21552 21555 21558 21561 21564 21567 21570 21573 21576 21579 21581 21584 21587 21589 21592 21594 21597 21600 21603 21606 21609 21612 21615 21618 21621 21623 21626 21629 21631 21633 21635 21638 21641 21644 21646 21649 21652 21655 21658 21661 21664 21666 21668 21671 21673 21676 21679 21681 21684 21687 21689 21692 21695 21698 21701 21703 21706 21709 21712 21715 21717 21720 21723 21726 21729 21732 21735 21738 21741 21744 21747 21750 21752 21755 21758 21760 21763 21765 21767 21770 21773 21775 21777 21779 21782 21785 21788 21791 21794 21797 21800 21803 21806 21809 21811 21814 21817 21820 21823 21826 21829 21832 21835 21838 21840 21843 21846 21849 21852 21855 21857 21860 21863 21866 21869 21872 21875 21878 21881 21884 21887 21889 21892 21895 21898 21901 21904 21907 21910 21913 21916 21919 21922 21925 21928 21931 21934 21937 21940 21943 21946 21949 21952 21955 21958 21961 21963 21965 21968 21971 21974 21977 21980 21983 21986 21989 21991 21994 21997 22000 22003 22006 22009 22012 22015 22018 22021 22024 22027 22030 22033 22036 22039 22041 22044 22047 22050 22053 22055 22058 22061 22064 22066 22068 22071 22074 22077 22080 22083 22086 22088 22091 22093 22096 22099 22102 22104 22107 22110 22113 22116 22119 22122 22125 22128 22130 22133 22135 22137 22140 22143 22146 22149 22152 22155 22158 22161 22164 22167 22170 22173 22175 22178 22181 22183 22186 22188 22191 22194 22197 22200 22203 22206 22209 22212 22215 22218 22221 22224 22227 22230 22233 22236 22239 22242 22245 22248 22251 22254 22257 22259 22262 22265 22268 22271 22274 22276 22279 22282 22285 22288 22291 22294 22297 22300 22303 22306 22308 22311 22314 22317 22319 22322 22325 22328 22331 22334 22337 22340 22343 22346 22349 22352 22354 22356 22359 22362 22365 22368 22371 22373 22376 22379 22382 22384 22387 22390 22393 22396 22399 22402 22405 22408 22411 22414 22416 22419 22422 22425 22428 22431 22434 22437 22439 22441 22444 22446 22449 22452 22455 22458 22460 22463 22466 22469 22472 22475 22477 22480 22483 22486 22489 22492 22495 22498 22501 22504 22507 22509 22512 22515 22518 22521 22524 22527 22530 22533 22536 22539 22541 22544 22547 22550 22553 22556 22559 22562 22564 22567 22570 22573 22576 22579 22582 22585 22588 22591 22594 22597 22600 22603 22606 22609 22612 22615 22618 22621 22624 22626 22629 22632 22635 22637 22640 22643 22646 22649 22652 22655 22658 22661 22664 22667 22670 22673 22676 22678 22681 22683 22685 22688 22690 22692 22695 22698 22701 22704 22707 22709 22712 22715 22718 22721 22724 22727 22730 22732 22735 22738 22740 22743 22746 22748 22751 22754 22756 22759 22762 22764 22766 22768 22770 22773 22776 22778 22780 22783 22786 22788 22791 22794 22796 22799 22802 22805 22808 22810 22812 22814 22816 22819 22822 22825 22827 22830 22832 22835 22837 22840 22842 22844 22847 22850 22853 22856 22859 22862 22865 22867 22870 22873 22875 22878 22880 22883 22886 22888 22890 22893 22896 22899 22902 22905 22908 22911 22914 22917 22920 22923 22926 22929 22932 22935 22938 22941 22943 22946 22949 22952 22955 22958 22961 22964 22967 22970 22973 22976 22979 22982 22985 22988 22991 22994 22996 22999 23002 23005 23008 23011 23014 23017 23020 23023 23026 23029 23032 23035 23038 23040 23042 23045 23048 23051 23054 23056 23059 23061 23064 23067 23070 23072 23074 23077 23079 23082 23085 23088 23091 23094 23097 23100 23103 23106 23109 23112 23115 23118 23121 23124 23127 23130 23133 23136 23138 23141 23143 23146 23149 23152 23155 23157 23160 23163 23166 23169 23172 23175 23178 23181 23184 23187 23190 23193 23196 23199 23202 23205 23208 23211 23214 23217 23219 23222 23225 23228 23231 23234 23237 23240 23243 23246 23249 23252 23255 23258 23261 23263 23266 23269 23272 23275 23278 23281 23284 23287 23290 23293 23296 23299 23302 23305 23308 23311 23314 23317 23320 23323 23326 23329 23332 23335 23338 23341 23344 23347 23350 23353 23356 23359 23362 23365 23368 23371 23374 23377 23380 23383 23386 23389 23392 23395 23398 23401 23404 23407 23410 23413 23416 23419 23422 23425 23428 23431 23434 23437 23440 23443 23446 23449 23451 23454 23457 23460 23462 23465 23468 23470 23473 23476 23479 23482 23485 23488 23491 23494 23497 23500 23503 23505 23508 23511 23514 23517 23519 23522 23525 23528 23531 23534 23537 23540 23543 23546 23549 23552 23555 23558 23561 23564 23567 23570 23573 23576 23579 23582 23585 23588 23591 23594 23597 23600 23603 23606 23608 23611 23614 23617 23620 23622 23625 23628 23631 23634 23637 23640 23643 23646 23649 23652 23654 23657 23660 23662 23665 23668 23671 23674 23677 23680 23683 23686 23689 23692 23695 23698 23700 23703 23706 23709 23712 23715 23718 23721 23724 23726 23729 23732 23735 23738 23741 23744 23747 23750 23753 23756 23758 23761 23763 23766 23769 23772 23774 23777 23780 23783 23785 23788 23790 23793 23795 23797 23800 23803 23806 23809 23812 23814 23817 23820 23823 23826 23829 23832 23835 23838 23841 23844 23847 23850 23853 23856 23859 23862 23865 23868 23871 23874 23877 23880 23883 23885 23888 23891 23893 23896 23899 23902 23904 23907 23909 23912 23915 23918 23921 23924 23927 23930 23933 23936 23939 23942 23945 23947 23950 23953 23956 23959 23962 23965 23968 23971 23974 23977 23980 23983 23986 23989 23992 23995 23998 24001 24004 24006 24009 24012 24015 24018 24021 24024 24027 24030 24033 24036 24039 24042 24045 24048 24051 24054 24057 24060 24063 24066 24069 24072 24075 24078 24081 24084 24087 24089 24092 24095 24098 24101 24104 24107 24110 24113 24116 24119 24122 24125 24128 24131 24134 24137 24140 24143 24145 24148 24151 24154 24156 24159 24162 24165 24167 24169 24172 24175 24178 24181 24184 24186 24189 24192 24195 24198 24201 24204 24207 24209 24211 24214 24217 24220 24222 24225 24227 24230 24233 24236 24239 24242 24245 24247 24249 24252 24255 24257 24259 24262 24265 24268 24271 24274 24277 24280 24283 24286 24289 24291 24294 24297 24300 24303 24306 24309 24311 24314 24317 24320 24323 24326 24329 24332 24335 24338 24341 24344 24347 24350 24353 24356 24359 24362 24364 24367 24370 24373 24376 24378 24381 24384 24386 24389 24392 24395 24398 24401 24404 24407 24410 24413 24416 24419 24421 24424 24426 24429 24431 24434 24437 24440 24443 24446 24449 24452 24455 24458 24461 24464 24467 24470 24473 24476 24479 24482 24485 24488 24490 24493 24496 24498 24501 24504 24507 24509 24512 24515 24517 24520 24523 24526 24529 24531 24534 24537 24540 24543 24546 24549 24552 24554 24557 24560 24563 24566 24569 24572 24575 24578 24581 24584 24587 24590 24593 24596 24599 24602 24605 24608 24611 24614 24617 24620 24623 24626 24629 24632 24635 24638 24641 24643 24646 24649 24652 24655 24658 24661 24664 24667 24670 24673 24676 24679 24682 24685 24688 24691 24694 24697 24700 24703 24706 24709 24712 24715 24718 24721 24724 24727 24730 24733 24736 24739 24742 24745 24748 24751 24754 24756 24758 24760 24763 24766 24768 24771 24774 24777 24779 24782 24784 24787 24790 24793 24796 24799 24801 24804 24807 24810 24813 24816 24819 24822 24824 24827 24830 24833 24836 24839 24842 24845 24848 24851 24854 24857 24860 24863 24866 24868 24871 24874 24877 24879 24882 24884 24887 24890 24893 24896 24899 24902 24905 24908 24910 24913 24916 24919 24922 24925 24928 24931 24933 24936 24938 24941 24943 24946 24949 24952 24955 24958 24961 24964 24967 24969 24972 24975 24977 24979 24981 24984 24986 24989 24991 24994 24997 25000 25003 25006 25009 25012 25015 25018 25021 25024 25027 25030 25033 25036 25039 25042 25045 25048 25051 25054 25056 25059 25062 25064 25066 25069 25072 25075 25077 25080 25083 25086 25089 25092 25095 25098 25100 25103 25105 25108 25111 25114 25117 25119 25122 25125 25127 25130 25133 25136 25139 25142 25145 25148 25150 25153 25156 25158 25161 25164 25167 25169 25172 25175 25178 25181 25184 25187 25190 25193 25196 25198 25201 25204 25207 25210 25213 25216 25218 25221 25224 25226 25229 25232 25235 25238 25240 25243 25246 25249 25252 25255 25258 25260 25262 25264 25267 25270 25273 25275 25278 25280 25283 25285 25288 25291 25294 25297 25300 25303 25305 25308 25311 25314 25316 25319 25322 25325 25327 25330 25333 25336 25339 25342 25345 25348 25351 25354 25357 25360 25363 25365 25368 25371 25374 25376 25379 25382 25385 25388 25391 25393 25395 25398 25401 25403 25406 25408 25410 25412 25415 25418 25421 25423 25426 25429 25432 25435 25438 25440 25443 25446 25449 25452 25455 25458 25461 25464 25467 25470 25473 25476 25478 25481 25484 25487 25490 25493 25496 25498 25501 25504 25506 25509 25512 25514 25517 25520 25523 25526 25529 25531 25534 25537 25539 25542 25544 25547 25549 25552 25555 25558 25561 25564 25567 25569 25572 25575 25578 25581 25583 25586 25589 25592 25595 25598 25601 25604 25607 25610 25613 25615 25618 25621 25624 25627 25630 25632 25635 25638 25641 25644 25647 25650 25653 25656 25659 25662 25665 25668 25671 25674 25677 25679 25682 25685 25688 25691 25694 25696 25699 25701 25704 25707 25710 25713 25716 25718 25721 25724 25727 25730 25733 25735 25738 25741 25744 25747 25750 25752 25755 25758 25761 25764 25767 25770 25773 25776 25779 25782 25784 25787 25789 25792 25794 25797 25800 25802 25805 25808 25811 25814 25817 25820 25823 25826 25828 25831 25833 25836 25839 25842 25845 25848 25851 25854 25857 25860 25863 25865 25868 25871 25874 25877 25880 25883 25886 25889 25892 25895 25897 25900 25903 25906 25908 25911 25913 25915 25918 25921 25924 25926 25929 25932 25935 25937 25939 25942 25945 25948 25951 25954 25957 25960 25963 25966 25969 25971 25973 25976 25979 25982 25985 25988 25990 25993 25996 25999 26002 26005 26008 26011 26014 26017 26020 26022 26025 26027 26029 26031 26034 26037 26040 26043 26046 26049 26052 26055 26057 26060 26063 26066 26069 26072 26075 26078 26081 26084 26087 26090 26093 26096 26099 26102 26105 26108 26111 26114 26117 26120 26123 26126 26129 26132 26135 26138 26141 26144 26146 26149 26152 26155 26158 26160 26163 26166 26169 26172 26175 26178 26181 26184 26186 26189 26192 26195 26198 26201 26204 26207 26210 26212 26215 26218 26221 26224 26227 26230 26233 26236 26239 26242 26245 26248 26251 26254 26257 26260 26263 26266 26269 26272 26275 26278 26281 26284 26287 26290 26292 26295 26298 26301 26304 26307 26310 26312 26315 26317 26320 26323 26325 26328 26331 26334 26336 26339 26341 26344 26347 26350 26352 26355 26358 26361 26363 26366 26369 26372 26375 26378 26381 26383 26386 26389 26392 26395 26398 26401 26404 26407 26410 26413 26416 26419 26422 26425 26428 26431 26434 26437 26440 26443 26446 26449 26452 26455 26458 26461 26464 26466 26469 26471 26474 26477 26480 26483 26485 26488 26491 26494 26497 26500 26503 26506 26509 26512 26515 26518 26521 26524 26526 26529 26532 26534 26537 26540 26542 26545 26548 26551 26554 26557 26559 26562 26565 26568 26571 26574 26577 26580 26583 26585 26588 26590 26593 26596 26599 26602 26605 26607 26609 26612 26615 26617 26620 26623 26626 26628 26631 26634 26637 26640 26643 26646 26649 26651 26654 26657 26660 26663 26666 26669 26672 26675 26678 26681 26684 26687 26690 26693 26696 26699 26701 26704 26707 26710 26713 26716 26718 26721 26723 26726 26729 26732 26735 26738 26741 26744 26747 26750 26753 26756 26759 26761 26764 26766 26769 26772 26775 26778 26781 26784 26786 26788 26791 26794 26797 26800 26803 26806 26809 26812 26815 26818 26821 26824 26827 26830 26833 26836 26839 26842 26845 26848 26851 26853 26856 26859 26861 26864 26867 26870 26873 26876 26878 26881 26884 26887 26890 26893 26896 26898 26901 26904 26907 26910 26913 26916 26919 26922 26925 26928 26931 26934 26937 26940 26943 26946 26948 26951 26954 26956 26959 26962 26965 26968 26970 26973 26976 26979 26982 26985 26988 26991 26994 26997 27000 27003 27005 27008 27011 27014 27017 27020 27023 27026 27029 27032 27035 27038 27041 27044 27047 27050 27053 27056 27059 27062 27064 27067 27070 27073 27076 27079 27082 27085 27088 27091 27094 27097 27100 27102 27105 27108 27111 27114 27117 27120 27123 27126 27129 27132 27135 27138 27141 27143 27145 27148 27151 27154 27157 27160 27163 27165 27168 27171 27174 27177 27180 27183 27186 27189 27192 27195 27198 27201 27204 27207 27210 27213 27216 27219 27222 27225 27228 27231 27234 27237 27240 27243 27246 27249 27252 27255 27258 27261 27264 27267 27270 27272 27275 27278 27281 27284 27287 27290 27293 27296 27298 27301 27304 27307 27310 27313 27316 27319 27322 27325 27328 27331 27334 27336 27339 27342 27345 27348 27350 27353 27355 27358 27361 27364 27367 27370 27373 27376 27379 27381 27384 27387 27390 27393 27396 27399 27402 27405 27408 27411 27413 27416 27419 27422 27424 27427 27430 27432 27435 27438 27441 27444 27446 27449 27452 27454 27457 27460 27463 27466 27469 27472 27475 27478 27480 27483 27486 27489 27491 27494 27497 27500 27503 27506 27509 27512 27514 27517 27519 27522 27524 27527 27529 27531 27534 27537 27540 27542 27544 27546 27549 27552 27554 27557 27560 27563 27565 27568 27571 27574 27577 27579 27582 27585 27588 27591 27594 27597 27600 27603 27606 27609 27612 27615 27618 27621 27624 27627 27630 27633 27636 27639 27642 27645 27648 27651 27654 27657 27660 27663 27666 27669 27672 27675 27678 27681 27684 27687 27690 27693 27695 27698 27701 27704 27707 27710 27713 27716 27719 27721 27724 27727 27730 27733 27735 27738 27741 27743 27746 27749 27751 27754 27757 27760 27763 27765 27768 27771 27774 27777 27780 27782 27785 27788 27791 27794 27797 27800 27803 27806 27809 27812 27815 27818 27821 27823 27825 27828 27831 27834 27836 27839 27842 27845 27848 27851 27854 27857 27860 27863 27866 27869 27872 27875 27878 27880 27883 27886 27889 27892 27895 27898 27900 27903 27906 27908 27911 27914 27917 27920 27923 27926 27929 27932 27935 27938 27940 27943 27946 27949 27952 27955 27957 27960 27963 27966 27969 27972 27975 27978 27981 27984 27987 27989 27992 27995 27998 28001 28004 28007 28010 28013 28016 28019 28022 28025 28028 28031 28034 28036 28039 28042 28045 28048 28051 28054 28057 28060 28063 28066 28069 28072 28075 28078 28081 28084 28087 28090 28093 28096 28099 28102 28105 28107 28110 28112 28115 28118 28121 28123 28126 28129 28132 28135 28138 28141 28144 28147 28150 28152 28155 28158 28161 28163 28166 28169 28172 28175 28178 28181 28184 28187 28190 28193 28196 28199 28202 28205 28208 28211 28213 28216 28219 28222 28225 28228 28230 28233 28236 28239 28241 28244 28246 28249 28252 28255 28258 28261 28264 28266 28269 28272 28275 28278 28281 28284 28287 28290 28293 28296 28299 28302 28305 28308 28311 28314 28317 28320 28323 28326 28329 28332 28335 28338 28341 28344 28347 28349 28352 28355 28357 28360 28363 28366 28369 28372 28375 28378 28380 28383 28386 28389 28392 28394 28397 28400 28402 28405 28408 28411 28414 28417 28420 28422 28425 28428 28431 28433 28436 28439 28442 28444 28447 28450 28453 28456 28459 28461 28464 28467 28470 28473 28476 28478 28481 28484 28487 28490 28493 28496 28499 28502 28504 28507 28510 28512 28515 28518 28521 28524 28526 28529 28532 28535 28538 28540 28543 28546 28549 28552 28554 28557 28560 28563 28565 28568 28570 28573 28576 28579 28582 28585 28588 28591 28594 28597 28600 28602 28605 28608 28611 28614 28617 28620 28623 28625 28627 28630 28633 28636 28639 28642 28644 28647 28650 28653 28656 28659 28661 28664 28667 28670 28672 28675 28678 28680 28683 28686 28688 28691 28694 28697 28699 28702 28705 28708 28711 28714 28717 28719 28722 28725 28728 28731 28734 28736 28739 28742 28745 28748 28751 28753 28756 28759 28762 28765 28768 28771 28773 28776 28779 28782 28785 28787 28790 28793 28796 28799 28802 28804 28807 28810 28813 28816 28819 28822 28825 28828 28831 28834 28836 28839 28842 28845 28848 28851 28854 28857 28859 28862 28865 28868 28871 28873 28875 28878 28881 28883 28886 28889 28892 28895 28898 28901 28904 28906 28909 28912 28915 28918 28921 28924 28927 28929 28932 28934 28937 28940 28942 28945 28948 28951 28954 28956 28959 28961 28964 28967 28970 28973 28976 28979 28982 28985 28988 28991 28993 28996 28999 29002 29005 29008 29010 29013 29016 29019 29021 29024 29027 29030 29033 29035 29038 29041 29043 29046 29049 29052 29055 29058 29060 29063 29065 29068 29070 29072 29075 29078 29081 29084 29086 29088 29091 29094 29097 29100 29103 29106 29109 29112 29115 29118 29121 29124 29127 29129 29132 29135 29138 29141 29144 29147 29149 29151 29154 29157 29160 29163 29166 29169 29172 29175 29178 29181 29184 29187 29190 29192 29195 29198 29201 29204 29207 29210 29213 29216 29219 29222 29225 29228 29231 29234 29237 29240 29243 29246 29249 29252 29255 29258 29261 29264 29267 29270 29273 29276 29279 29282 29285 29288 29291 29293 29296 29299 29301 29304 29307 29310 29313 29316 29319 29322 29324 29327 29330 29333 29335 29338 29341 29343 29346 29349 29352 29354 29356 29359 29362 29365 29368 29370 29372 29375 29378 29381 29384 29387 29390 29393 29396 29399 29402 29405 29408 29411 29414 29416 29419 29422 29424 29427 29430 29433 29435 29438 29441 29444 29447 29449 29452 29455 29457 29460 29463 29466 29469 29472 29475 29478 29481 29484 29487 29490 29492 29495 29498 29501 29504 29507 29510 29513 29515 29518 29521 29524 29527 29530 29533 29536 29539 29542 29545 29548 29551 29554 29557 29560 29563 29566 29569 29571 29574 29577 29580 29583 29586 29589 29591 29594 29596 29599 29602 29605 29608 29611 29613 29616 29619 29621 29624 29627 29630 29632 29635 29638 29641 29643 29646 29649 29652 29655 29658 29661 29664 29667 29670 29673 29676 29679 29682 29685 29687 29690 29693 29696 29699 29701 29703 29706 29709 29712 29715 29718 29721 29724 29727 29730 29733 29736 29739 29742 29745 29748 29751 29754 29757 29760 29762 29765 29768 29771 29774 29777 29780 29783 29786 29788 29791 29793 29796 29799 29802 29805 29808 29811 29814 29816 29819 29821 29824 29827 29830 29833 29836 29838 29841 29844 29847 29850 29853 29856 29858 29861 29864 29867 29870 29873 29875 29877 29880 29883 29886 29888 29890 29892 29895 29898 29901 29904 29907 29909 29912 29915 29918 29921 29924 29926 29929 29932 29935 29938 29940 29943 29945 29947 29950 29952 29954 29957 29960 29963 29965 29968 29971 29974 29976 29979 29982 29985 29987 29990 29993 29996 29998 30001 30004 30007 30010 30013 30016 30019 30022 30024 30027 30030 30033 30035 30038 30041 30044 30047 30050 30053 30055 30058 30061 30064 30067 30070 30073 30075 30078 30081 30084 30087 30090 30093 30096 30099 30102 30105 30108 30111 30114 30117 30119 30122 30124 30127 30130 30133 30135 30138 30141 30143 30146 30148 30151 30153 30156 30159 30161 30164 30167 30170 30173 30176 30179 30181 30184 30187 30190 30193 30195 30198 30201 30204 30207 30210 30213 30215 30218 30221 30224 30227 30230 30233 30236 30239 30242 30245 30247 30250 30253 30256 30259 30262 30265 30268 30271 30274 30277 30280 30283 30286 30289 30292 30295 30298 30301 30304 30306 30308 30311 30314 30317 30319 30322 30325 30327 30330 30333 30335 30338 30341 30343 30346 30349 30351 30353 30356 30359 30362 30365 30367 30370 30373 30376 30379 30382 30385 30388 30391 30394 30397 30400 30402 30404 30407 30410 30413 30415 30418 30420 30423 30425 30428 30431 30434 30437 30440 30442 30445 30448 30450 30453 30455 30458 30461 30463 30465 30467 30470 30473 30476 30479 30481 30484 30487 30489 30492 30494 30497 30500 30502 30505 30508 30511 30514 30517 30520 30523 30526 30528 30531 30533 30535 30538 30541 30544 30547 30550 30552 30554 30557 30560 30563 30565 30567 30570 30573 30576 30579 30582 30585 30588 30591 30593 30596 30598 30601 30604 30607 30610 30613 30616 30619 30622 30625 30628 30631 30634 30637 30640 30643 30646 30649 30652 30655 30658 30661 30664 30667 30670 30673 30676 30679 30682 30685 30687 30690 30693 30696 30699 30702 30705 30708 30711 30714 30717 30720 30723 30726 30729 30732 30734 30737 30740 30742 30745 30748 30751 30754 30757 30759 30762 30765 30768 30771 30774 30777 30780 30783 30786 30789 30792 30795 30798 30800 30803 30806 30809 30812 30815 30818 30821 30824 30827 30829 30832 30835 30837 30840 30843 30846 30849 30851 30853 30855 30858 30861 30864 30867 30870 30872 30875 30878 30881 
</DataArray>
<DataArray type="UInt32" Name="types" format="ascii">
5 5 3 5 5 5 5 3 5 5 5 5 5 5 5 5 5 5 5 5 3 5 5 5 5 3 5 5 5 5 5 5 5 3 5 5 5 5 5 5 5 5 3 5 5 5 5 5 5 5 5 5 5 5 3 3 5 5 5 5 5 5 5 5 3 5 5 5 5 5 5 5 5 5 5 5 5 5 5 5 5 5 5 5 5 5 5 3 5 5 5 5 5 5 5 5 5 5 5 3 5 5 5 3 5 5 5 5 5 5 5 5 5 5 5 5 5 5 5 5 5 5 5 5 5 5 5 5 5 5 5 5 5 5 5 5 5 5 5 5 5 5 5 5 5 5 5 5 5 3 5 3 5 5 5 5 5 5 5 5 5 5 5 5 5 5 5 5 5 5 5 5 5 5 5 5 5 5 3 5 5 3 5 3 5 5 5 5 5 5 5 5 5 5 5 5 5 5 3 5 3 5 5 5 5 5 5 5 3 5 3 5 5 5 5 5 5 3 5 5 3 5 5 5 5 5 5 3 3 5 5 3 5 3 5 3 3 5 5 5 3 5 5 5 5 5 5 5 5 5 5 5 5 5 3 5 5 5 5 5 5 5 3 5 5 5 5 5 5 5 3 5 5 5 5 3 5 5 5 5 5 5 3 5 5 5 3 5 5 5 5 5 5 5 3 5 5 5 5 5 5 3 5 5 5 5 5 5 3 5 5 5 5 5 5 5 3 5 5 5 5 5 5 5 5 5 5 5 5 5 5 5 5 5 5 5 5 5 3 3 5 5 5 5 5 3 5 5 5 5 5 5 5 3 5 3 5 5 5 3 5 5 5 3 5 3 5 5 5 5 5 5 5 3 5 5 5 5 5 5 5 3 5 5 5 3 5 5 5 5 5 5 5 5 5 5 5 5 5 5 5 5 5 5 5 5 5 5 5 5 5 5 5 5 5 5 5 5 3 5 5 5 5 5 5 5 5 5 5 5 5 5 5 5 5 5 5 5 5 5 5 5 5 5 5 5 5 5 5 5 5 3 5 5 5 5 5 5 5 5 5 5 5 5 5 5 5 5 5 5 5 5 3 5 5 5 5 5 5 5 3 5 5 5 5 5 3 5 5 3 5 3 5 5 5 5 3 5 5 3 5 5 5 5 5 5 3 5 5 5 5 5 5 5 5 5 5 5 5 5 5 5 5 5 5 5 3 5 5 5 5 5 5 5 5 5 5 5 3 3 5 5 5 5 5 5 5 5 5 5 5 5 5 5 5 5 5 5 5 5 5 3 5 3 3 5 5 3 5 5 5 5 5 5 5 5 5 5 5 5 5 3 5 5 5 5 5 5 5 3 3 5 5 5 5 5 5 5 5 3 3 5 5 5 3 5 5 5 5 5 5 5 5 5 5 5 5 5 5 5 5 5 5 5 5 5 5 5 5 5 5 5 5 5 5 5 5 5 5 5 3 5 5 3 5 5 5 5 3 5 5 5 3 5 5 5 3 5 5 3 5 5 5 5 5 5 5 5 5 5 5 5 5 5 5 5 5 5 5 5 5 3 5 5 5 3 5 5 5 5 5 3 5 5 5 5 5 5 3 5 5 5 5 5 5 5 5 5 5 5 5 5 5 5 5 5 5 3 5 5 5 5 5 5 5 5 5 5 5 5 5 5 5 5 5 5 5 5 5 3 5 5 5 5 5 5 5 5 5 5 5 5 5 5 5 3 5 5 5 5 5 5 5 5 5 5 5 5 5 5 5 5 5 5 3 5 5 5 5 5 5 5 3 5 5 5 5 5 5 5 5 5 5 5 5 5 5 5 5 5 5 5 5 5 3 5 5 5 5 5 5 5 5 5 3 5 5 5 5 5 5 5 5 3 5 5 5 5 5 5 5 5 5 5 5 5 5 5 5 5 5 5 5 3 5 5 5 5 5 3 5 5 5 3 5 5 5 5 5 5 3 5 5 5 5 5 5 5 5 5 5 3 5 5 5 5 5 5 5 5 5 5 5 5 3 5 3 5 5 5 5 5 5 5 3 5 3 5 5 5 5 5 5 5 5 5 5 5 5 5 5 5 5 5 5 5 5 5 5 5 5 5 5 5 5 5 5 5 5 5 5 5 5 5 5 5 5 5 5 5 5 5 3 3 5 5 3 5 5 5 5 5 5 5 5 5 5 5 5 5 5 5 5 3 5 5 5 5 3 5 5 3 5 5 5 5 5 5 3 5 3 5 5 3 5 5 5 5 5 5 5 5 5 5 3 5 5 5 5 5 3 3 5 5 5 5 3 5 5 3 5 3 5 5 5 5 5 3 5 5 3 5 5 5 5 5 5 5 5 5 5 5 5 3 5 5 5 5 5 5 5 5 5 5 5 5 5 5 5 3 5 3 5 3 3 5 3 5 5 3 5 5 5 5 5 5 3 5 3 5 5 3 5 5 5 3 5 5 3 5 5 5 5 5 3 5 5 3 5 5 5 5 5 3 5 3 5 5 3 5 5 3 5 5 5 5 5 5 5 5 3 5 5 5 5 5 5 5 5 5 5 3 5 5 5 5 3 5 5 3 5 5 5 5 5 3 5 5 5 5 5 3 5 3 5 5 5 5 5 5 3 5 5 5 5 5 5 5 5 3 3 3 5 5 5 5 3 5 3 5 5 5 3 3 5 5 5 3 5 5 5 3 5 3 5 3 3 5 3 5 5 5 5 3 5 5 5 3 5 3 5 3 5 5 5 5 5 5 5 3 5 5 5 5 3 5 5 5 5 5 5 5 5 3 5 3 3 5 5 5 3 5 5 5 5 3 3 5 5 3 3 5 5 5 5 5 3 5 5 5 5 5 5 5 5 3 5 3 5 5 5 5 5 5 5 5 5 5 5 5 5 5 5 5 5 3 5 5 5 5 5 5 5 5 5 5 5 5 5 5 5 5 5 5 5 5 5 5 5 5 5 3 5 3 5 5 5 5 5 3 3 5 5 5 5 3 3 5 3 5 5 3 5 5 3 5 5 5 5 3 3 5 5 5 5 5 5 5 5 3 5 5 3 5 5 5 3 5 5 3 5 5 5 5 5 5 3 5 5 5 5 5 5 3 5 5 5 5 5 3 5 5 3 3 5 5 3 5 5 3 5 5 5 5 5 5 5 5 5 5 5 5 3 5 3 5 5 3 5 5 5 5 5 5 3 5 5 5 3 3 3 5 5 5 3 3 5 3 3 5 5 3 5 5 3 5 3 5 3 5 5 5 3 3 5 5 3 3 3 3 5 5 5 3 3 5 5 3 3 3 5 3 3 5 5 3 5 3 3 5 3 5 5 3 5 3 3 5 5 5 5 3 3 5 5 3 5 5 5 3 5 5 5 5 5 5 5 5 5 5 5 5 5 5 5 5 5 5 5 5 5 5 5 5 5 5 5 5 5 5 5 5 5 5 5 5 5 5 5 5 5 5 5 5 5 5 5 5 5 5 5 5 5 5 5 5 5 5 3 5 3 5 5 5 5 5 5 5 5 5 5 5 5 5 5 3 5 5 5 5 5 5 5 5 5 5 3 5 5 5 5 5 5 5 5 5 5 5 5 5 5 5 5 5 5 5 5 5 5 5 5 5 5 5 5 5 5 5 5 5 5 5 5 5 5 5 5 5 5 5 5 5 5 3 5 5 5 3 5 3 5 5 5 5 5 3 5 3 5 5 5 5 5 5 5 5 5 5 5 5 5 5 5 5 5 5 5 5 5 5 5 5 5 3 5 5 5 5 5 5 3 5 3 5 5 5 3 5 5 3 5 5 5 5 5 5 5 5 5 5 5 5 5 5 5 5 5 5 5 5 5 5 5 5 5 5 5 5 5 5 5 5 5 5 5 5 5 3 5 3 5 5 5 5 5 5 5 5 5 5 3 5 5 5 5 5 5 5 5 5 5 5 5 5 5 5 5 5 3 5 5 5 3 3 5 3 5 5 5 5 5 5 5 5 3 5 5 5 5 3 5 5 5 5 5 5 5 3 5 5 3 5 3 5 5 3 5 5 3 3 5 5 5 5 5 5 5 5 5 5 5 5 5 5 5 3 5 3 5 5 5 3 5 3 5 5 5 5 5 5 5 5 5 5 5 5 3 5 3 5 5 5 5 5 5 5 5 3 5 5 3 5 5 5 3 3 5 5 5 5 5 5 5 5 5 5 5 5 5 5 5 5 5 5 5 5 5 3 5 5 5 5 5 3 5 3 5 5 5 5 3 5 5 3 5 5 5 5 5 3 5 5 5 5 3 5 5 5 5 5 5 5 3 5 5 5 3 5 5 5 5 5 5 5 5 5 5 5 3 5 5 5 5 5 5 5 5 3 5 5 5 5 5 5 3 5 5 5 5 5 5 3 5 5 5 5 5 5 5 5 5 5 5 3 5 5 5 3 5 5 5 3 5 3 5 5 5 5 5 5 3 5 5 5 5 5 5 5 5 5 5 5 5 5 5 5 3 5 5 5 5 5 3 5 5 5 5 5 5 5 5 3 5 5 5 5 5 5 5 5 5 5 5 5 5 5 5 5 3 5 5 5 5 3 5 5 5 5 5 5 5 5 5 5 5 5 5 5 5 5 5 5 5 5 5 5 5 5 5 5 3 5 5 5 3 5 3 5 5 5 5 3 5 3 5 5 5 5 5 3 5 5 5 5 5 5 5 5 5 3 5 5 5 5 5 5 5 5 5 5 5 5 5 5 5 5 5 5 5 5 5 5 5 5 3 3 5 5 5 5 5 3 5 5 5 3 5 5 5 3 5 5 3 5 3 5 5 5 5 3 5 5 5 5 3 3 5 5 5 5 5 5 5 5 5 5 5 5 3 5 5 5 5 3 5 5 5 5 5 3 5 5 3 5 5 5 5 5 5 5 5 5 5 5 5 5 5 5 5 3 5 5 3 5 5 5 3 5 5 5 5 5 5 5 5 5 5 5 3 5 5 5 5 5 5 5 5 5 5 5 5 5 5 5 5 3 5 5 3 5 3 5 5 3 5 3 5 3 5 5 5 5 5 5 5 5 5 5 5 5 5 3 5 3 3 5 5 3 3 5 5 3 3 5 5 5 3 5 3 5 5 3 5 5 5 5 3 3 5 3 5 5 3 3 5 5 3 5 5 5 3 5 5 5 3 3 3 5 5 3 5 3 3 5 5 5 5 5 5 5 5 5 5 5 3 3 5 3 5 3 5 3 5 5 5 3 5 5 5 5 5 3 5 5 5 5 5 5 5 5 5 5 5 5 5 5 5 5 5 5 5 5 5 5 5 5 3 5 5 5 5 5 5 5 5 5 5 5 5 5 5 5 5 5 5 3 5 5 5 5 5 5 5 5 5 5 5 3 5 5 5 5 5 3 5 5 5 5 5 5 5 5 5 5 5 5 5 5 3 5 5 5 5 5 5 5 5 5 5 5 5 5 5 3 5 3 5 5 5 5 3 5 5 5 5 5 5 5 5 5 5 5 5 3 5 3 5 5 5 5 3 5 5 5 5 5 5 5 3 5 5 5 5 5 5 5 3 5 5 5 3 5 3 5 5 5 5 5 5 5 5 5 3 5 5 5 5 5 5 5 5 5 5 5 5 5 5 5 5 5 5 5 5 5 5 5 5 5 5 5 5 5 5 5 5 5 5 5 5 5 5 5 5 5 5 5 3 5 5 3 5 5 5 5 5 5 5 5 5 5 3 5 5 5 5 5 3 5 5 3 5 5 5 5 5 5 3 5 5 5 5 3 5 5 3 5 3 5 5 5 5 5 5 5 5 5 5 5 3 5 3 5 5 5 5 3 5 5 5 5 5 5 5 5 5 5 5 5 5 5 5 5 5 5 5 5 5 3 5 5 5 5 3 5 5 5 5 5 5 5 3 5 5 5 5 5 3 5 5 5 3 5 5 5 3 5 5 3 5 5 5 3 5 5 3 5 5 5 5 5 5 5 5 5 5 5 5 5 5 5 5 5 5 5 5 5 5 5 5 5 5 5 5 5 5 5 3 5 5 5 5 5 5 5 5 5 5 5 3 5 5 5 5 5 5 5 5 5 5 5 5 5 5 5 3 3 5 5 5 3 5 5 5 5 3 5 5 3 5 5 5 5 5 5 5 5 5 5 5 5 5 3 3 5 5 5 5 5 5 5 5 5 5 5 3 5 5 3 5 5 5 5 5 5 5 5 5 5 5 5 5 5 5 5 5 5 5 3 5 5 5 3 5 5 5 5 5 3 5 5 5 5 5 5 5 5 5 5 5 5 5 5 5 5 5 5 5 5 3 5 5 3 5 5 5 5 5 5 5 5 5 5 5 5 5 5 5 5 5 5 5 3 5 5 5 5 5 5 5 5 5 5 5 5 5 5 5 5 5 5 5 5 5 5 5 5 5 5 5 5 5 5 5 5 3 5 5 5 5 5 5 3 5 5 5 5 5 3 5 5 5 5 3 5 5 5 5 5 5 5 5 5 5 5 5 5 5 5 5 5 5 5 5 5 5 3 5 5 5 5 5 5 5 3 5 5 3 5 5 3 5 5 5 5 5 5 3 5 5 5 5 5 5 5 5 5 5 3 5 3 5 5 5 5 5 5 5 5 3 5 5 3 5 5 5 3 5 5 5 3 5 5 5 3 3 5 5 3 5 5 3 5 5 3 5 5 5 5 5 5 5 5 5 3 5 5 5 3 5 5 5 3 5 5 5 3 5 3 5 5 3 5 5 5 5 5 5 5 5 3 5 5 3 5 5 5 5 5 5 5 5 5 5 5 5 5 3 5 3 5 5 5 3 3 5 3 5 5 5 5 3 5 3 5 5 5 5 5 5 5 5 5 3 5 5 5 5 5 5 5 5 5 5 5 5 5 5 5 5 5 5 5 5 5 5 5 5 5 5 5 5 3 5 5 5 5 5 5 3 5 5 5 5 5 5 3 5 5 5 5 5 5 3 5 5 5 3 5 5 5 3 5 5 3 5 5 5 5 5 5 3 5 5 5 3 3 5 5 5 5 5 5 5 5 5 5 5 5 5 5 5 5 5 3 5 5 5 5 5 5 5 3 5 5 5 5 5 3 5 5 5 5 5 3 5 5 3 5 5 5 5 3 5 5 5 5 5 5 3 5 3 5 3 3 5 3 5 5 5 3 5 5 5 5 5 3 5 5 5 3 5 5 5 5 3 3 3 5 5 5 5 3 3 5 3 5 5 5 5 5 5 3 5 3 5 5 3 5 5 5 3 5 5 3 5 5 5 5 5 5 5 5 5 5 5 5 3 5 5 5 5 3 5 5 5 5 3 5 5 5 5 5 5 5 5 5 3 3 3 5 5 5 3 3 5 5 3 5 3 5 5 5 5 5 5 5 3 5 5 5 5 5 5 5 5 5 5 5 5 5 5 5 5 3 5 5 5 5 5 5 5 5 5 3 5 5 3 5 3 5 3 5 5 3 5 5 5 3 3 5 5 3 5 5 5 3 5 5 5 5 3 5 5 5 5 5 5 5 5 5 5 5 3 3 5 5 5 5 5 5 5 5 5 5 5 5 5 5 5 5 5 5 5 5 5 5 5 5 5 5 5 5 5 5 5 5 3 5 5 5 5 5 5 5 5 5 5 5 5 5 5 5 5 5 5 5 3 5 5 5 5 5 5 3 3 5 5 3 3 5 5 5 3 5 5 5 5 5 5 5 5 5 5 5 5 5 5 5 5 5 5 5 5 5 5 5 3 5 3 5 3 5 5 5 5 5 5 3 5 3 3 5 5 3 5 5 5 5 5 5 3 3 5 5 3 3 5 5 3 3 5 5 5 5 5 5 5 5 3 5 5 5 5 5 3 5 5 3 5 5 5 3 5 5 5 5 5 5 5 5 5 5 5 5 5 5 5 5 5 5 5 5 5 5 5 5 5 5 5 5 5 5 5 5 5 5 3 5 5 3 5 3 3 5 5 5 5 5 5 5 5 5 3 5 5 5 5 5 3 5 5 5 5 5 5 5 3 5 5 5 5 5 5 5 5 3 5 5 5 5 5 3 5 5 5 5 5 5 5 5 5 5 5 5 5 5 5 5 5 5 5 5 5 5 5 5 5 5 5 5 5 5 3 3 5 5 5 5 5 5 5 3 5 5 5 3 5 3 5 5 5 5 5 5 5 5 5 5 5 5 5 5 5 5 5 5 5 5 5 3 5 5 5 5 5 5 3 5 5 5 5 5 5 5 3 5 5 3 5 5 5 5 5 5 3 5 5 5 3 5 5 3 3 5 5 5 5 5 5 5 5 5 5 5 5 5 5 5 5 5 5 5 5 5 5 5 5 5 5 5 5 3 5 5 5 5 5 5 5 5 5 5 5 5 5 5 5 5 5 5 5 3 5 5 5 3 3 5 5 5 5 5 3 5 5 5 3 5 5 5 5 5 3 5 5 5 5 5 5 5 5 5 5 5 5 5 5 5 5 5 5 5 5 5 3 5 5 5 5 5 5 3 5 5 5 5 5 5 5 5 5 5 5 5 3 5 5 5 5 3 5 3 5 5 5 5 5 5 5 5 5 5 5 5 5 3 5 5 5 5 5 3 5 5 5 5 5 5 3 5 5 5 5 5 5 5 5 5 5 5 5 3 5 5 3 5 5 3 5 5 3 5 5 5 5 5 5 5 5 5 5 3 5 5 5 5 5 5 5 5 3 5 5 5 3 5 5 5 3 5 5 3 5 5 5 3 5 5 5 5 5 3 5 3 5 5 5 5 3 3 5 5 5 3 5 5 5 5 3 5 5 5 5 5 5 5 5 5 5 5 5 5 5 5 3 5 5 3 3 5 5 5 5 3 5 5 5 5 5 5 3 5 5 5 5 5 5 3 5 5 5 5 5 5 5 5 3 5 5 5 5 5 5 5 5 5 5 3 5 5 3 5 5 3 5 5 5 5 5 3 3 5 5 3 3 5 3 5 3 5 3 3 5 5 3 5 3 5 3 5 3 5 3 5 5 3 5 3 5 3 5 5 5 5 5 5 3 5 5 5 3 5 5 5 5 5 5 5 5 5 3 5 5 3 5 3 5 3 5 5 5 3 3 5 5 5 5 5 5 5 5 5 5 5 3 5 5 5 5 5 3 5 5 5 5 5 5 5 5 5 5 5 5 5 5 5 5 5 3 5 5 5 5 5 5 3 5 5 5 3 5 5 3 5 5 5 3 5 3 3 5 5 5 5 5 5 5 5 5 3 5 5 5 5 5 5 5 3 5 3 5 3 5 5 5 5 5 5 5 5 5 5 5 5 5 5 5 5 5 5 5 5 5 5 5 5 5 5 5 5 5 5 5 5 5 5 5 5 5 3 5 5 3 3 5 5 5 5 3 5 5 5 5 5 3 5 5 3 3 5 5 5 5 5 5 3 5 3 5 5 3 3 5 3 5 5 5 3 5 5 5 5 3 5 5 5 3 5 5 3 3 5 5 5 3 5 5 5 5 3 5 5 3 5 5 5 3 5 5 3 5 5 5 3 5 3 5 5 3 5 5 3 3 5 5 3 5 3 3 5 5 5 5 3 5 5 5 5 3 5 5 5 5 5 5 5 5 5 5 5 5 3 5 5 5 5 3 5 3 5 5 5 5 5 3 3 3 5 5 5 5 5 5 5 5 3 5 5 5 5 5 5 3 5 5 5 5 3 5 5 5 5 5 5 5 5 5 5 5 5 5 5 5 5 5 5 3 5 3 5 5 3 3 5 3 5 5 3 5 3 5 3 5 3 5 5 5 5 3 5 5 5 3 5 5 5 5 5 5 5 5 5 5 5 5 5 5 5 5 5 5 5 5 5 5 5 5 5 3 5 5 5 5 5 3 5 5 5 5 5 5 5 5 5 5 5 3 5 5 5 5 5 3 5 5 3 3 5 5 5 3 5 5 3 3 5 3 5 5 5 5 5 5 5 5 5 5 5 5 5 5 5 5 3 5 5 5 5 3 5 5 5 5 5 5 5 5 3 3 5 5 3 5 5 5 5 5 5 5 5 5 3 3 5 5 3 5 5 5 3 5 5 5 5 5 5 5 5 5 5 5 5 5 5 5 5 5 5 5 5 5 5 5 5 5 5 3 5 5 5 5 5 5 5 5 5 5 5 5 5 5 5 5 5 5 5 5 3 5 5 5 3 3 5 5 5 3 5 5 3 5 5 5 5 5 3 5 3 5 5 5 5 5 5 5 5 3 5 5 5 3 5 5 3 5 3 5 5 5 3 5 5 5 3 5 5 5 5 5 5 5 5 5 5 5 5 5 5 5 5 5 3 5 5 5 5 5 5 5 5 5 3 5 5 5 5 5 5 5 5 3 5 5 5 5 5 5 5 5 5 5 5 5 5 3 5 5 5 3 5 5 5 5 5 5 5 5 5 5 5 5 5 5 5 5 5 5 5 3 5 5 5 3 5 3 5 5 5 3 5 5 5 3 3 5 5 5 5 5 5 5 5 5 5 5 5 5 5 5 5 5 5 5 5 5 5 3 5 5 5 5 3 5 5 5 5 3 5 5 5 5 5 5 5 3 5 5 5 5 3 5 5 5 5 5 5 3 5 5 5 5 5 5 3 5 5 5 3 5 5 5 5 5 5 5 5 5 3 5 5 5 5 5 5 3 5 5 5 5 5 5 5 5 5 5 5 3 5 5 3 5 5 5 5 5 3 5 5 3 5 5 5 5 5 5 5 3 3 5 5 5 5 3 5 5 5 5 5 5 3 5 5 5 5 5 5 5 5 5 5 3 5 5 5 5 5 5 5 5 5 5 5 5 3 5 3 5 5 5 3 5 5 3 5 5 5 5 3 5 5 5 5 5 3 5 5 5 5 5 5 5 5 3 5 5 5 5 3 5 5 5 5 5 5 5 3 5 5 5 5 5 5 5 5 5 5 3 5 5 5 3 5 3 5 5 5 5 5 5 3 5 3 5 3 5 5 5 5 3 5 5 5 5 5 5 5 5 5 5 5 5 5 5 3 5 3 5 5 5 5 5 5 5 3 5 5 5 5 5 5 5 5 5 5 5 5 5 3 5 5 5 5 3 5 5 5 5 5 5 5 5 5 5 5 5 5 5 5 5 5 5 5 5 5 5 5 5 3 5 5 5 5 3 5 5 5 3 5 5 3 5 5 3 5 5 5 5 5 5 5 5 5 5 5 5 5 5 5 3 5 5 3 5 5 5 5 5 5 5 3 5 5 5 5 5 3 5 5 5 3 5 5 5 3 5 5 5 5 5 5 5 3 5 5 5 3 5 3 3 5 5 5 5 5 3 5 5 5 5 5 5 5 5 5 5 3 5 5 5 5 5 5 5 5 5 5 5 5 5 5 5 5 5 5 5 5 5 5 5 5 5 5 5 5 5 5 5 5 5 5 5 5 5 3 5 5 5 5 5 5 5 5 5 5 5 5 5 5 5 5 3 5 5 5 5 5 5 5 5 5 3 5 5 5 5 5 5 5 3 5 5 5 5 5 5 5 5 5 5 5 5 5 5 5 5 5 5 5 5 5 3 5 5 5 5 5 5 5 5 5 5 5 5 5 5 5 5 5 3 5 5 5 5 5 5 5 5 5 5 5 5 5 5 5 5 5 5 5 5 5 5 5 5 5 5 5 5 5 5 5 5 5 5 5 5 5 5 5 5 5 5 5 5 5 5 3 5 5 5 5 5 5 5 5 5 5 5 5 5 3 5 3 5 5 5 5 5 3 5 5 5 5 5 3 3 5 5 5 5 5 5 5 5 5 5 5 5 5 5 5 5 5 3 3 5 5 5 5 5 5 3 5 3 5 5 5 5 5 5 5 5 5 3 5 5 5 5 5 5 5 5 5 5 5 5 5 5 5 5 5 5 5 3 5 5 5 5 5 3 5 3 5 5 5 5 5 5 5 3 5 5 5 3 5 5 5 3 5 5 3 5 5 5 3 5 5 3 5 3 5 3 5 5 3 5 5 5 5 5 5 5 5 5 5 5 5 5 5 5 5 5 5 5 5 5 3 5 3 5 5 5 5 5 5 5 3 5 5 5 5 5 5 5 5 5 5 5 5 5 5 5 5 5 5 5 3 5 5 5 3 5 5 5 5 5 5 5 5 5 5 3 5 5 5 5 3 5 5 3 5 5 5 5 5 3 5 5 5 5 3 5 3 5 5 3 5 5 5 5 5 5 5 3 5 5 3 5 3 5 5 5 5 5 5 5 5 5 5 5 5 5 5 5 5 5 5 3 5 5 5 5 5 5 5 3 5 5 5 5 3 5 5 5 5 5 5 5 5 5 3 5 5 5 5 3 5 5 5 5 5 5 5 5 5 5 5 5 3 5 5 5 5 5 5 5 5 5 3 5 5 5 5 5 5 5 5 5 5 5 5 3 5 5 3 5 5 5 5 5 5 5 5 5 3 3 3 5 5 5 3 5 5 5 5 5 5 3 5 5 5 3 3 5 5 5 5 5 5 5 5 5 5 5 5 3 5 5 5 3 3 5 5 5 5 5 3 5 5 5 5 3 5 5 5 5 3 5 5 5 5 5 3 3 3 5 5 5 3 3 5 5 5 5 5 5 5 5 5 3 3 5 5 5 3 3 5 5 5 5 5 5 5 5 5 5 5 5 5 5 5 5 5 3 5 3 5 5 5 5 3 5 5 5 5 5 5 5 3 5 5 5 5 5 5 5 3 5 5 3 5 3 3 5 5 5 3 3 5 5 5 3 3 5 5 5 5 5 5 5 5 5 5 3 5 5 5 5 5 5 5 3 5 5 5 5 3 5 5 5 5 5 5 3 5 5 5 5 3 5 3 5 5 5 5 5 5 5 5 5 5 5 5 5 5 3 5 5 5 5 5 5 5 3 5 5 5 5 3 5 5 5 3 5 5 5 5 5 5 5 5 5 5 5 5 5 5 5 5 5 5 5 5 5 5 3 5 3 5 5 3 5 5 5 3 5 5 3 5 5 5 5 5 5 5 5 5 5 5 5 5 5 5 5 5 5 5 5 3 3 3 5 5 5 5 5 5 5 5 5 5 5 5 5 3 5 5 5 3 5 5 3 5 5 5 5 3 5 5 3 3 5 5 5 5 3 5 5 3 5 3 5 5 5 5 5 5 5 5 5 5 5 5 3 5 5 5 5 5 5 5 3 5 3 5 5 5 5 3 5 5 5 5 5 5 5 5 5 5 5 5 5 5 5 5 5 5 5 5 5 5 5 3 5 5 5 3 5 3 5 5 5 3 5 5 5 5 5 3 5 5 3 5 5 5 5 5 5 5 5 3 5 5 5 5 5 3 5 5 5 5 5 5 5 5 5 5 5 5 5 5 3 5 5 5 5 3 5 5 5 5 5 5 5 5 5 5 5 5 3 5 5 5 5 3 5 5 5 5 5 5 5 5 5 5 5 5 5 3 5 5 3 5 5 5 3 5 5 5 5 5 5 5 5 5 5 5 5 5 3 3 5 3 3 5 5 5 3 3 5 3 5 3 5 3 5 5 5 3 5 3 5 5 5 5 3 5 5 5 5 5 5 3 5 5 5 5 5 3 5 5 3 5 5 3 5 5 3 5 5 5 5 5 3 5 3 5 5 5 5 5 5 5 5 5 5 5 5 5 3 5 5 3 5 5 5 5 5 5 5 5 5 3 5 5 5 5 5 5 5 5 5 3 5 5 3 5 3 5 5 5 5 5 5 5 3 5 5 5 5 5 5 5 3 5 3 5 5 3 5 5 5 3 5 5 5 5 3 5 5 5 5 5 3 5 5 5 5 5 5 5 5 5 5 5 5 5 5 5 5 5 5 5 5 5 3 5 5 3 5 5 5 3 5 5 5 5 3 5 5 5 5 5 5 5 5 5 5 5 5 5 5 5 5 5 5 5 5 5 5 5 3 5 5 5 5 5 5 3 5 5 5 5 5 5 5 5 5 5 5 5 5 3 5 3 5 5 3 5 5 5 5 3 3 5 3 5 3 5 5 5 5 5 3 5 5 3 3 5 5 5 5 5 3 5 5 3 5 5 5 5 5 5 5 5 3 3 5 5 5 3 5 3 5 5 5 5 5 3 5 3 5 5 5 5 5 3 3 5 5 5 5 3 5 5 5 5 3 5 5 5 5 5 5 5 5 5 5 5 5 5 5 5 5 5 3 5 5 3 5 5 5 3 5 5 5 5 5 5 5 5 5 5 5 5 5 5 5 5 5 5 5 3 5 5 5 5 5 5 5 5 5 5 5 5 5 5 3 3 5 5 5 3 5 5 5 5 5 3 5 5 5 5 5 5 5 5 5 5 5 3 5 5 3 5 5 5 5 5 5 5 5 5 5 3 5 5 5 3 5 3 5 3 5 5 5 3 3 5 3 5 5 3 5 5 3 3 5 5 5 3 5 5 3 5 3 5 5 5 3 5 5 3 3 5 3 5 5 3 5 3 5 5 5 5 5 5 5 5 5 3 5 5 5 5 5 3 5 5 5 5 5 5 5 5 5 5 3 5 5 5 5 3 3 5 5 3 5 3 5 5 5 5 5 3 5 5 3 5 3 5 5 5 5 5 5 5 3 5 5 5 5 5 5 5 5 5 3 5 3 5 3 5 3 5 5 5 5 3 5 5 5 5 5 3 3 5 5 5 5 5 5 3 5 5 5 5 5 3 5 5 5 5 3 5 5 3 5 3 5 5 5 3 5 3 5 5 3 3 3 5 5 5 5 5 5 3 3 3 5 5 5 5 3 5 3 5 3 5 5 5 5 5 5 3 5 5 5 5 5 5 5 5 5 5 5 5 5 5 5 5 5 5 5 5 5 5 5 5 5 5 5 5 5 5 5 5 5 5 5 5 5 5 5 5 5 5 5 5 5 5 5 5 5 3 5 5 5 3 3 5 5 5 5 5 5 5 5 5 5 5 5 5 5 5 5 5 5 5 3 5 5 5 5 5 5 5 3 5 5 3 5 5 3 5 5 3 5 3 5 5 3 5 5 5 3 5 3 5 3 3 5 5 5 3 3 5 5 3 5 5 3 5 5 5 5 5 5 5 5 5 5 5 5 3 5 5 5 5 3 5 5 5 5 3 5 5 5 5 5 5 5 5 5 3 5 3 5 5 5 5 3 5 5 5 3 5 5 5 5 5 5 3 5 5 3 5 5 5 3 5 5 5 5 5 5 5 3 5 5 5 5 5 3 5 5 5 5 5 5 5 5 5 5 5 5 5 5 5 3 5 5 5 5 5 3 5 5 3 5 3 5 5 5 5 3 3 5 5 3 5 5 5 5 5 5 5 5 5 5 5 3 5 3 5 5 5 5 5 3 5 5 5 3 5 5 5 3 5 5 5 5 5 5 5 5 5 5 5 5 5 3 5 5 5 5 5 5 5 3 5 3 5 5 5 5 5 5 5 3 3 5 5 5 5 5 5 5 5 5 3 5 5 5 5 5 5 3 3 3 5 3 5 5 5 5 5 5 3 5 3 5 3 5 3 5 5 5 5 5 5 3 5 5 3 5 5 5 5 3 5 5 5 5 5 5 5 5 5 5 5 5 5 5 5 5 5 5 5 5 5 3 5 3 5 5 5 5 5 5 5 5 5 5 5 5 5 5 5 5 5 5 5 5 5 5 5 5 5 5 5 5 5 5 5 5 5 5 5 5 5 5 5 5 5 5 5 5 5 5 5 5 5 5 5 5 5 5 5 5 5 5 3 5 5 5 5 5 5 5 5 5 5 5 5 5 5 5 5 5 5 5 5 5 5 5 3 5 5 5 3 5 3 5 5 5 5 5 5 5 5 5 5 5 5 5 5 5 5 5 5 5 5 5 5 5 5 5 5 5 5 5 5 5 5 5 5 5 5 5 5 5 3 5 3 5 5 5 5 5 5 5 5 5 5 5 5 5 5 5 5 5 5 5 5 5 5 5 5 5 3 5 5 5 5 5 5 5 5 5 5 5 5 5 5 5 5 5 5 5 5 5 5 5 5 5 5 5 5 5 5 5 5 5 5 5 5 5 5 5 5 5 5 5 5 5 5 5 5 5 5 5 5 5 5 5 5 5 5 5 5 5 5 5 5 5 5 5 5 5 3 5 5 5 5 5 5 5 3 5 5 3 5 5 5 5 5 5 5 5 5 5 5 5 5 5 5 5 5 5 5 5 3 5 5 5 5 5 5 5 5 5 5 5 5 5 5 5 5 5 5 5 5 5 5 5 5 5 5 5 5 5 5 5 5 3 5 5 5 5 3 5 3 5 5 5 5 5 5 3 5 5 3 5 5 3 3 5 3 5 5 5 3 5 5 5 5 5 5 5 5 5 5 5 5 5 5 5 3 5 5 5 5 5 5 5 5 3 5 5 5 5 5 5 5 5 5 5 5 5 5 5 5 5 5 5 5 5 5 5 5 5 5 5 5 5 5 5 5 5 5 5 5 5 3 5 5 5 5 5 5 5 3 5 5 3 5 3 5 5 5 5 5 5 5 5 5 5 5 3 3 5 5 3 5 5 3 3 5 5 5 5 3 5 3 5 5 3 5 3 3 5 3 5 3 5 5 5 5 5 5 5 3 5 3 5 5 5 5 5 3 5 5 5 3 5 5 3 5 3 5 3 3 5 5 3 5 5 5 5 5 5 3 5 5 5 5 5 5 5 5 3 3 5 5 5 3 5 5 5 5 3 3 5 3 5 5 5 3 5 5 5 5 5 5 5 5 5 5 5 5 5 5 5 5 3 5 5 5 5 5 5 3 5 3 5 5 5 3 3 5 5 3 5 3 5 5 5 5 5 5 5 5 5 5 5 5 3 3 5 5 5 5 5 3 5 5 5 5 5 5 5 3 5 5 5 3 5 3 5 5 3 5 5 5 5 5 5 5 5 5 3 5 5 3 5 5 5 5 5 5 5 5 5 5 5 3 5 5 5 5 5 5 5 5 5 5 5 5 5 5 5 5 5 5 5 5 5 5 3 5 5 5 5 5 5 5 5 5 5 5 3 5 5 5 5 3 5 5 5 5 5 5 5 5 5 5 5 3 5 5 5 5 5 3 5 3 5 5 5 5 5 5 5 5 5 3 5 5 3 5 5 3 5 5 5 5 3 5 5 5 5 5 5 5 5 5 5 5 5 5 5 5 5 5 5 5 5 5 3 5 5 3 5 3 5 5 5 5 5 5 5 5 5 3 5 5 3 3 3 5 5 5 3 5 5 5 5 5 5 3 3 5 3 5 5 3 5 5 3 5 5 5 5 3 5 5 5 5 3 5 5 5 5 5 5 5 5 5 5 5 3 5 5 3 5 3 3 5 5 3 3 3 5 5 5 5 5 5 5 5 5 5 3 5 5 5 5 5 5 5 5 5 3 5 5 5 5 5 3 5 5 5 5 5 5 5 5 5 5 3 5 5 5 5 5 5 5 5 5 5 5 5 5 5 5 5 5 5 5 5 5 5 5 5 3 3 5 5 5 5 5 5 5 5 3 5 5 5 5 5 5 5 5 5 5 5 5 5 5 5 5 3 5 5 5 5 3 5 5 5 3 3 5 5 5 5 5 5 3 5 3 5 5 5 3 5 5 5 5 5 5 5 5 3 5 3 3 5 5 5 5 5 5 5 5 5 5 5 5 3 5 5 3 5 3 5 5 5 5 5 5 5 5 5 5 5 5 5 5 5 5 5 5 5 5 5 5 5 3 5 5 5 5 5 3 5 5 5 5 5 5 5 5 5 5 3 5 5 5 3 5 5 5 5 5 5 5 5 5 5 5 3 3 5 5 5 5 5 3 5 5 5 3 5 5 5 5 5 5 5 5 5 5 3 5 5 5 5 5 5 5 3 3 5 3 5 5 5 5 3 5 5 5 5 5 3 5 5 5 5 5 5 5 5 5 5 3 5 5 5 5 5 5 5 5 5 5 3 5 5 5 5 5 5 5 3 5 5 5 5 5 5 5 5 5 5 5 5 5 5 5 5 5 5 5 5 3 5 5 5 3 5 5 5 5 5 5 5 5 5 5 5 5 5 3 5 3 3 5 3 3 5 5 5 5 5 3 5 5 5 5 5 5 5 3 5 5 3 5 5 3 5 5 3 5 5 3 3 3 3 5 5 3 3 5 5 3 5 5 3 5 5 5 5 3 3 3 3 5 5 5 3 5 3 5 3 5 3 3 5 5 5 5 5 5 5 3 5 5 3 5 3 5 5 3 3 5 5 5 5 5 5 5 5 5 5 5 5 5 5 5 5 5 3 5 5 5 5 5 5 5 5 5 5 5 5 5 5 5 5 5 3 5 5 5 5 5 5 5 5 5 5 5 5 5 5 3 3 5 5 5 5 3 5 3 5 5 5 3 3 5 3 5 5 5 5 5 5 5 5 5 5 5 5 5 5 5 5 5 5 5 3 5 3 5 5 5 5 3 5 5 5 5 5 5 5 5 5 5 5 5 5 5 5 5 5 5 5 5 3 5 5 5 5 5 5 5 5 5 5 5 5 5 5 3 5 5 5 5 5 5 5 5 5 5 5 5 5 5 5 5 5 5 5 5 5 5 5 5 5 5 5 5 5 5 5 5 5 5 5 5 5 5 5 5 5 5 5 5 5 5 5 5 5 5 5 5 5 5 5 5 5 5 5 5 5 5 3 5 5 5 3 5 5 3 5 5 5 5 5 5 5 5 5 5 5 3 5 5 5 5 3 5 5 5 5 5 5 5 5 5 5 5 5 5 5 5 5 5 5 5 5 5 5 5 5 5 5 5 5 5 3 5 5 5 5 3 5 5 5 5 5 5 5 5 5 5 3 5 5 3 5 5 5 5 5 5 5 5 5 5 5 5 3 5 5 5 5 5 5 5 5 3 5 5 5 5 5 5 5 5 5 5 3 5 3 5 5 5 3 5 5 5 3 5 3 5 3 3 5 5 5 5 5 3 5 5 5 5 5 5 5 5 5 5 5 5 5 5 5 5 5 5 5 5 5 5 5 3 5 5 3 5 5 5 3 5 3 5 5 5 5 5 5 5 5 5 5 5 5 3 5 5 5 5 5 5 5 5 5 5 5 5 5 5 5 5 5 5 5 3 5 5 5 5 5 5 5 5 5 5 5 5 5 5 5 5 5 5 5 5 5 5 5 5 5 5 5 3 5 5 5 5 5 5 5 5 5 5 5 5 5 5 5 5 5 5 3 5 5 5 3 5 5 5 3 3 5 5 5 5 5 3 5 5 5 5 5 5 5 3 3 5 5 5 3 5 3 5 5 5 5 5 5 3 3 5 5 3 3 5 5 5 5 5 5 5 5 5 5 3 5 5 5 5 5 5 3 5 5 5 5 5 5 5 5 5 5 5 5 5 5 5 5 5 3 5 5 5 5 3 5 5 3 5 5 5 5 5 5 5 5 5 5 5 3 5 3 5 3 5 5 5 5 5 5 5 5 5 5 5 5 5 5 5 5 5 5 5 3 5 5 3 5 5 5 3 5 5 3 5 5 5 5 3 5 5 5 5 5 5 5 3 5 5 5 5 5 5 5 5 5 5 5 5 5 5 5 5 5 5 5 5 5 5 5 5 5 5 5 5 5 3 5 5 5 5 5 5 5 5 5 5 5 5 5 5 5 5 5 5 5 5 5 5 5 5 5 5 5 5 5 5 5 5 5 5 5 5 5 3 3 3 5 5 3 5 5 5 3 5 3 5 5 5 5 5 3 5 5 5 5 5 5 5 3 5 5 5 5 5 5 5 5 5 5 5 5 5 5 3 5 5 5 3 5 3 5 5 5 5 5 5 5 5 3 5 5 5 5 5 5 5 3 5 3 5 3 5 5 5 5 5 5 5 5 3 5 5 3 3 3 5 3 5 3 5 5 5 5 5 5 5 5 5 5 5 5 5 5 5 5 5 5 5 5 5 3 5 5 3 3 5 5 5 3 5 5 5 5 5 5 5 3 5 3 5 5 5 5 3 5 5 3 5 5 5 5 5 5 5 3 5 5 3 5 5 5 3 5 5 5 5 5 5 5 5 5 3 5 5 5 5 5 5 3 5 5 3 5 5 5 5 3 5 5 5 5 5 5 3 3 3 5 5 5 3 5 3 5 3 5 5 5 5 5 5 3 5 5 5 3 5 5 5 3 5 5 5 5 5 5 5 5 5 5 5 5 3 5 5 5 3 5 5 5 5 5 3 3 5 5 3 5 3 3 3 5 5 5 3 5 5 5 5 5 3 5 5 5 5 5 5 5 5 5 5 5 5 3 5 5 5 5 5 5 3 5 5 3 5 5 3 5 5 5 5 5 3 5 5 3 5 3 5 3 5 5 5 5 5 5 3 5 5 5 5 3 5 5 5 5 5 5 5 5 5 5 3 5 5 5 5 5 3 5 5 5 5 5 5 5 5 5 5 5 5 5 5 5 3 5 5 5 5 5 3 5 3 5 5 5 5 5 3 5 5 5 5 5 3 5 5 5 5 5 3 5 5 5 5 5 5 5 5 5 5 3 5 3 5 3 5 5 3 5 5 5 5 5 5 5 5 3 5 3 5 5 5 5 5 5 5 5 5 5 3 5 5 5 5 5 5 5 5 5 5 3 5 5 5 3 5 3 3 5 5 5 3 5 5 5 3 3 5 5 5 5 5 5 5 5 5 5 3 3 5 5 5 5 5 3 5 5 5 5 5 5 5 5 5 5 3 5 3 3 3 5 5 5 5 5 5 5 5 3 5 5 5 5 5 5 5 5 5 5 5 5 5 5 5 5 5 5 5 5 5 5 5 5 5 5 5 5 5 3 5 5 5 5 3 5 5 5 5 5 5 5 5 3 5 5 5 5 5 5 5 5 3 5 5 5 5 5 5 5 5 5 5 5 5 5 5 5 5 5 5 5 5 5 5 5 5 5 5 3 5 5 5 5 5 5 3 5 3 5 5 3 5 5 5 3 5 3 5 5 5 3 5 5 5 3 5 5 5 5 5 5 3 5 5 5 5 5 5 5 5 5 5 5 5 5 5 5 5 5 5 5 5 5 5 5 5 5 5 5 3 5 3 5 5 5 5 3 5 5 5 5 5 5 5 5 5 5 5 5 5 3 5 5 3 5 5 3 5 5 5 5 5 3 5 5 5 5 5 5 5 5 3 5 3 5 5 5 5 5 3 3 5 5 3 5 5 5 3 5 5 5 5 5 5 5 3 5 5 5 5 5 5 5 5 5 5 5 5 5 5 5 5 3 5 5 5 5 5 3 5 3 5 5 5 5 5 5 5 5 5 5 5 5 3 5 3 5 5 5 5 5 5 3 3 5 5 5 5 5 5 5 5 5 5 5 5 5 5 5 5 5 5 5 5 5 3 5 5 3 5 5 5 5 5 3 5 5 5 5 5 5 3 5 5 5 5 5 5 5 5 5 5 5 5 5 5 5 5 3 5 5 3 5 5 5 5 3 5 5 5 5 5 5 5 5 5 5 5 3 5 5 5 5 5 5 5 5 5 5 5 5 5 5 5 5 5 5 5 3 5 5 5 5 5 5 5 5 5 5 5 5 3 5 5 5 5 5 5 5 5 5 5 5 5 5 3 3 5 5 5 5 5 5 3 5 5 5 5 5 5 5 5 5 5 5 5 5 5 5 5 5 5 5 5 5 5 5 5 5 5 5 5 5 5 5 5 5 5 5 3 5 5 5 5 5 5 5 5 3 5 5 5 5 5 5 5 5 5 5 5 5 3 5 5 5 5 3 5 3 5 5 5 5 5 5 5 5 3 5 5 5 5 5 5 5 5 5 5 3 5 5 5 3 5 5 3 5 5 5 5 3 5 5 3 5 5 5 5 5 5 5 5 3 5 5 5 3 5 5 5 5 5 5 5 3 5 3 5 3 5 3 3 5 5 5 3 3 3 5 5 3 5 5 5 3 5 5 5 5 3 5 5 5 5 5 5 5 5 5 5 5 5 5 5 5 5 5 5 5 5 5 5 5 5 5 5 5 5 5 5 5 5 5 5 5 5 5 5 3 5 5 5 5 5 5 5 5 3 5 5 5 5 3 5 5 3 5 5 3 5 5 5 5 3 5 5 5 5 5 3 5 5 5 5 5 5 5 5 5 5 5 5 5 3 3 5 5 5 3 5 5 5 5 5 5 5 5 5 5 5 5 5 5 3 5 5 5 5 5 5 3 5 5 3 5 5 5 5 5 5 5 5 5 5 3 5 5 5 5 5 3 5 5 5 5 5 5 5 5 5 5 3 5 5 5 5 5 5 5 5 5 5 5 5 5 5 5 3 5 5 5 5 5 5 5 5 5 5 5 5 5 5 5 5 5 5 5 5 5 5 5 3 5 3 5 5 5 3 5 5 5 5 5 5 5 5 5 3 5 5 5 3 5 5 5 5 5 5 5 5 5 5 5 5 5 5 5 5 3 5 5 5 5 5 3 5 5 5 3 5 3 5 5 5 5 5 5 3 5 5 5 5 5 5 5 5 5 5 5 5 5 5 5 5 5 5 5 5 5 5 5 5 5 5 5 3 5 5 3 5 5 5 5 5 5 5 3 5 5 5 5 3 5 5 3 5 5 5 5 5 5 3 5 5 5 3 5 5 5 3 5 5 5 5 5 3 5 5 5 5 5 3 5 5 5 5 5 5 5 5 3 5 5 3 5 5 5 5 3 5 5 5 5 3 5 5 5 5 3 5 5 5 3 5 3 5 5 5 5 5 5 5 5 5 5 3 5 5 5 5 5 5 5 3 3 5 5 5 5 5 3 5 5 5 5 5 3 5 5 5 3 5 5 3 5 5 3 5 5 5 3 5 5 5 5 5 5 3 5 5 5 5 5 3 5 5 5 5 5 3 5 5 5 5 5 5 3 5 5 5 5 3 5 5 5 5 5 3 5 5 5 5 5 5 5 5 5 5 3 5 5 5 5 5 5 5 3 5 5 5 5 3 3 5 5 3 5 5 5 5 5 5 5 3 5 5 5 5 5 5 5 3 5 3 5 5 3 5 5 5 5 3 5 3 5 5 5 5 5 5 5 5 5 5 3 5 5 5 5 5 3 5 5 5 3 5 5 5 5 3 5 5 3 5 5 5 5 5 3 5 3 5 3 3 5 5 5 5 3 3 5 5 5 5 5 5 5 5 5 5 5 5 5 3 5 5 5 5 5 5 3 3 5 5 5 5 5 5 5 5 5 5 5 5 5 3 5 5 5 5 5 5 5 5 5 5 5 5 5 5 5 5 5 5 5 5 5 5 5 5 5 5 5 5 5 5 5 5 5 3 5 5 3 5 5 5 5 5 5 5 3 5 5 5 3 5 5 3 5 5 5 3 3 5 5 5 5 3 3 5 5 5 5 5 5 5 5 5 5 5 5 5 5 3 5 5 3 5 5 5 3 5 5 5 5 3 5 5 3 5 5 5 5 5 5 5 5 5 5 5 3 5 5 5 5 5 5 5 3 5 5 5 5 5 5 5 5 5 5 5 5 5 5 5 5 5 5 3 5 5 5 5 5 5 3 5 3 5 5 5 5 5 3 5 5 3 5 5 5 3 5 5 5 3 5 5 5 5 5 5 5 5 5 5 5 5 5 5 3 5 5 5 5 3 3 5 5 5 5 5 5 5 5 5 5 5 5 5 5 5 5 5 5 5 3 5 5 5 5 5 5 5 5 3 5 3 5 5 5 5 5 5 5 3 5 3 5 5 5 5 5 3 5 5 5 5 5 5 3 5 5 5 5 5 3 3 5 5 5 3 3 3 5 5 5 5 5 3 5 5 5 5 5 3 5 5 5 5 3 5 3 3 5 3 3 5 5 5 3 5 5 5 3 5 5 5 3 5 5 5 3 5 5 5 5 5 5 5 5 3 5 5 5 3 5 5 5 5 5 5 3 5 5 5 5 5 5 3 5 5 5 5 5 5 5 5 5 5 5 5 5 5 3 5 3 5 5 5 3 5 5 3 5 3 5 3 5 5 3 5 5 5 5 5 5 3 5 5 5 5 3 5 5 5 5 5 5 3 5 5 5 5 5 5 5 5 5 5 3 5 5 5 5 5 5 5 5 5 5 5 5 5 5 5 5 5 5 5 3 3 5 5 5 3 5 5 3 5 5 3 5 5 3 5 5 3 3 5 5 5 5 3 5 5 5 5 5 5 5 5 5 5 5 3 3 5 5 5 3 5 3 5 3 5 5 5 5 5 3 5 5 3 5 3 5 5 3 3 3 5 5 5 5 3 5 5 3 5 3 5 5 3 5 5 5 5 5 5 5 5 3 5 3 3 5 5 5 5 5 3 3 5 5 5 3 3 5 5 5 5 5 5 5 5 3 5 3 5 5 5 5 5 5 5 5 5 5 5 5 5 5 5 5 5 5 5 5 5 5 5 5 5 5 5 5 5 3 5 5 5 5 5 5 5 5 5 5 5 5 5 5 5 3 5 5 3 5 5 5 5 5 3 5 5 5 5 5 5 5 5 5 5 5 5 5 3 5 5 5 5 5 5 5 5 5 3 5 5 3 5 5 5 5 3 3 3 5 5 5 5 5 3 5 5 5 
</DataArray>
</Cells>
<PointData Scalars="" Vectors="displacement," Tensors="">
<DataArray type="Float64" Name="displacement" NumberOfComponents="3" format="ascii">
-1.3213065658662419e-06 0.09249590104239086 0 8.811466696717666e-07 0.094994697964929889 0 -4.3035491106999336e-07 0.094924486513886935 0 8.811466696717666e-07 0.094994697964929889 0 -4.3035491106999336e-07 0.094924486513886935 0 -4.3713648957503487e-07 0.095002334729096735 0 -3.0764515388245229e-07 0.092489580461709076 0 7.8912550774266096e-06 0.093674857900424277 0 3.2435820266265538e-07 0.092481807960815426 0 0.0004904088684274336 0.091037817950466005 0 0.0004613350887195797 0.091953419666967615 0 3.2435820266265538e-07 0.092481807960815426 0 0.0004904088684274336 0.091037817950466005 0 2.7678978686225664e-06 0.088540041969365976 0 0.0004904088684274336 0.091037817950466005 0 0.00027699038939858278 0.092917292403866966 0 0.00038629337641958334 0.092242177629161107 0 0.0004904088684274336 0.091037817950466005 0 0.0004613350887195797 0.091953419666967615 0 0.00027699038939858278 0.092917292403866966 0 7.8912550774266096e-06 0.093674857900424277 0 4.453334626398059e-07 0.094997758079314557 0 0.0004613350887195797 0.091953419666967615 0 3.2199012307355904e-06 0.09499350476087394 0 0.00027699038939858278 0.092917292403866966 0 3.2199012307355904e-06 0.09499350476087394 0 0.00027699038939858278 0.092917292403866966 0 0.00026087836528098068 0.093753469693246883 0 0.00027699038939858278 0.092917292403866966 0 0.00026087836528098068 0.093753469693246883 0 0.00038629337641958334 0.092242177629161107 0 0.00041348118518350313 0.09299881079068241 0 0.00026087836528098068 0.093753469693246883 0 0.00038629337641958334 0.092242177629161107 0 0.00041348118518350313 0.09299881079068241 0 0.00026087836528098068 0.093753469693246883 0 0.00016778789784815503 0.093786367961919304 0 0.00026087836528098068 0.093753469693246883 0 -9.5284180315224298e-07 0.09499848630684235 0 0.00016778789784815503 0.093786367961919304 0 3.2199012307355904e-06 0.09499350476087394 0 0.00026087836528098068 0.093753469693246883 0 -9.5284180315224298e-07 0.09499848630684235 0 0.00054119131128270556 0.092096605550022997 0 0.0018882093470710757 0.090512138936603578 0 0.0012269463866272214 0.091699322730188382 0 0.00041348118518350313 0.09299881079068241 0 0.00054119131128270556 0.092096605550022997 0 0.00038629337641958334 0.092242177629161107 0 0.00041348118518350313 0.09299881079068241 0 0.00054119131128270556 0.092096605550022997 0 0.00066393024080079713 0.092607202079973625 0 0.00054119131128270556 0.092096605550022997 0 0.00038629337641958334 0.092242177629161107 0 -0.00072163539383082026 0.091611531119432432 0 0.00054119131128270556 0.092096605550022997 0 -0.00072163539383082026 0.091611531119432432 0 0.0018882093470710757 0.090512138936603578 0 0.00039903490969086012 0.086821282163067143 0 0.00058004787650215188 0.088268739375056984 0 0.00038629337641958334 0.092242177629161107 0 -0.00072163539383082026 0.091611531119432432 0 0.00045659935514992289 0.08966336541444285 0 0.0004904088684274336 0.091037817950466005 0 0.00038629337641958334 0.092242177629161107 0 0.00045659935514992289 0.08966336541444285 0 0.0004904088684274336 0.091037817950466005 0 0.00045659935514992289 0.08966336541444285 0 2.7678978686225664e-06 0.088540041969365976 0 0.00045659935514992289 0.08966336541444285 0 2.7678978686225664e-06 0.088540041969365976 0 -5.2602746149890921e-06 0.084599650819784739 0 0.00039903490969086012 0.086821282163067143 0 9.9697969177757187e-07 0.084592917604941184 0 0.0022163731843854928 0.081952796806683409 0 5.808654614882032e-07 0.084581408659320997 0 0.0009112065948788954 0.081543324464661199 0 -0.00072163539383082026 0.091611531119432432 0 0.00045659935514992289 0.08966336541444285 0 -5.2602746149890921e-06 0.084599650819784739 0 5.808654614882032e-07 0.084581408659320997 0 0.0009112065948788954 0.081543324464661199 0 2.4094990213459381e-06 0.079028013514475401 0 0.0009112065948788954 0.081543324464661199 0 2.4094990213459381e-06 0.079028013514475401 0 9.232759638429736e-05 0.080916199826728236 0 2.4094990213459381e-06 0.079028013514475401 0 9.232759638429736e-05 0.080916199826728236 0 -0.00021700233052972053 0.077983793144194555 0 0.0022163731843854928 0.081952796806683409 0 0.0009112065948788954 0.081543324464661199 0 9.232759638429736e-05 0.080916199826728236 0 -4.2533988860610603e-06 0.073458488746532408 0 -0.0017681905239519747 0.079149481845363134 0 -0.00069703926922062506 0.070537451849928906 0 -0.00016442287100928648 0.074545957271810417 0 -0.00016479410264848119 0.073949026497445641 0 -4.2533988860610603e-06 0.073458488746532408 0 -0.00021700233052972053 0.077983793144194555 0 -0.0017681905239519747 0.079149481845363134 0 2.4094990213459381e-06 0.079028013514475401 0 -4.2533988860610603e-06 0.073458488746532408 0 -0.00021700233052972053 0.077983793144194555 0 9.232759638429736e-05 0.080916199826728236 0 -0.00021700233052972053 0.077983793144194555 0 -0.0017681905239519747 0.079149481845363134 0 9.232759638429736e-05 0.080916199826728236 0 -0.0017681905239519747 0.079149481845363134 0 -0.0017105333447519097 0.084573843475815189 0 -0.0012293541053554182 0.064578695505046954 0 -0.000543052970885149 0.066034035683723999 0 -0.00080726119837130298 0.064672578835999181 0 -0.0012293541053554182 0.064578695505046954 0 -0.00069703926922062506 0.070537451849928906 0 -0.000543052970885149 0.066034035683723999 0 -6.5796239627080065e-05 0.06524229566152033 0 -0.00080726119837130298 0.064672578835999181 0 -0.001017633805754018 0.065184192491145251 0 -0.0012293541053554182 0.064578695505046954 0 -6.5796239627080065e-05 0.06524229566152033 0 -0.00080726119837130298 0.064672578835999181 0 -0.00016442287100928648 0.074545957271810417 0 0.00045206562682264232 0.076632106293101188 0 -0.0012293541053554182 0.064578695505046954 0 -6.5796239627080065e-05 0.06524229566152033 0 0.0021055697146436523 0.064959743733906769 0 0.0019088120715383846 0.066364494974831545 0 0.0038599746538196381 0.065949627280894277 0 0.0021896603187340647 0.068321401336306334 0 -6.5796239627080065e-05 0.06524229566152033 0 0.0019088120715383846 0.066364494974831545 0 0.00070394175394194157 0.067339866228463538 0 -6.5796239627080065e-05 0.06524229566152033 0 0.0019088120715383846 0.066364494974831545 0 0.0021055697146436523 0.064959743733906769 0 -6.5796239627080065e-05 0.06524229566152033 0 -0.0010240518570637314 0.067091179163407996 0 0.00070394175394194157 0.067339866228463538 0 -6.5796239627080065e-05 0.06524229566152033 0 -0.0010240518570637314 0.067091179163407996 0 -0.001017633805754018 0.065184192491145251 0 0.0022163731843854928 0.081952796806683409 0 0.00038042534108552613 0.085546877282231842 0 0.0018882093470710757 0.090512138936603578 0 0.0022163731843854928 0.081952796806683409 0 9.232759638429736e-05 0.080916199826728236 0 0.00038042534108552613 0.085546877282231842 0 0.00038042534108552613 0.085546877282231842 0 -0.0017105333447519097 0.084573843475815189 0 -0.0010574994092439865 0.087797875268409126 0 9.232759638429736e-05 0.080916199826728236 0 0.00038042534108552613 0.085546877282231842 0 -0.0017105333447519097 0.084573843475815189 0 0.0019088120715383846 0.066364494974831545 0 0.0021055697146436523 0.064959743733906769 0 0.0038599746538196381 0.065949627280894277 0 0.00045206562682264232 0.076632106293101188 0 0.00087099498479985011 0.078169696291860144 0 0.00087099498479985011 0.078169696291860144 0 0.0017506994386606862 0.079849448780755311 0 0.00038042534108552613 0.085546877282231842 0 0.00088203985465336494 0.090882083922921894 0 0.0018882093470710757 0.090512138936603578 0 0.00038042534108552613 0.085546877282231842 0 -0.0010574994092439865 0.087797875268409126 0 0.00088203985465336494 0.090882083922921894 0 0.00088203985465336494 0.090882083922921894 0 0.0018882093470710757 0.090512138936603578 0 0.0015158788514717406 0.091331150188259047 0 0.0015158788514717406 0.091331150188259047 0 0.0014801065800050138 0.091245450681476881 0 0.0015023741541684114 0.091565419643194923 0 0.00088203985465336494 0.090882083922921894 0 0.0015158788514717406 0.091331150188259047 0 0.0014801065800050138 0.091245450681476881 0 0.0038599746538196381 0.065949627280894277 0 0.0048193288222625032 0.070352075911097198 0 0.0021896603187340647 0.068321401336306334 0 0.00068629875793249195 0.09078594927893513 0 0.00088203985465336494 0.090882083922921894 0 0.0014801065800050138 0.091245450681476881 0 0.00068629875793249195 0.09078594927893513 0 0.0014801065800050138 0.091245450681476881 0 0.002026726558654502 0.091353044391270025 0 0.00087099498479985011 0.078169696291860144 0 0.0024582250408755443 0.080806592948975367 0 0.0014801065800050138 0.091245450681476881 0 0.002026726558654502 0.091353044391270025 0 0.0017853358050753834 0.091237397332806364 0 0.002026726558654502 0.091353044391270025 0 0.0017853358050753834 0.091237397332806364 0 0.0020361095831980241 0.090713925772631626 0 0.0017853358050753834 0.091237397332806364 0 0.0020361095831980241 0.090713925772631626 0 0.0015023741541684114 0.091565419643194923 0 0.0014801065800050138 0.091245450681476881 0 0.0017853358050753834 0.091237397332806364 0 0.0015023741541684114 0.091565419643194923 0 -0.0010240518570637314 0.067091179163407996 0 0.00019137063473057591 0.068807870538370022 0 -0.0013682611529617157 0.07002066004902785 0 -0.0010240518570637314 0.067091179163407996 0 0.00019137063473057591 0.068807870538370022 0 0.00070394175394194157 0.067339866228463538 0 0.00019137063473057591 0.068807870538370022 0 0.00070394175394194157 0.067339866228463538 0 0.0021896603187340647 0.068321401336306334 0 0.0019088120715383846 0.066364494974831545 0 0.00070394175394194157 0.067339866228463538 0 0.0021896603187340647 0.068321401336306334 0 0.0048193288222625032 0.070352075911097198 0 0.00077505632203407734 0.071736039956743908 0 0.0019935949297932329 0.075283991802712863 0 0.00019137063473057591 0.068807870538370022 0 0.0021896603187340647 0.068321401336306334 0 0.00077505632203407734 0.071736039956743908 0 0.0048193288222625032 0.070352075911097198 0 0.0021896603187340647 0.068321401336306334 0 0.00077505632203407734 0.071736039956743908 0 0.00019137063473057591 0.068807870538370022 0 0.00077505632203407734 0.071736039956743908 0 -0.0013682611529617157 0.07002066004902785 0 0.00077505632203407734 0.071736039956743908 0 -0.0013682611529617157 0.07002066004902785 0 -0.0017596065141567948 0.072781317026856515 0 -0.0012046999891740476 0.075390375643263993 0 -0.0017596065141567948 0.072781317026856515 0 -0.003588006646245982 0.074782880067226498 0 0.00077505632203407734 0.071736039956743908 0 -0.0012046999891740476 0.075390375643263993 0 -0.0017596065141567948 0.072781317026856515 0 0.00077505632203407734 0.071736039956743908 0 -0.0012046999891740476 0.075390375643263993 0 0.0019935949297932329 0.075283991802712863 0 0.0019935949297932329 0.075283991802712863 0 0.005396789941847141 0.077195915841775598 0 0.0018909122267415091 0.08075164837055239 0 0.0019935949297932329 0.075283991802712863 0 -0.0015991289420713482 0.080415176712739275 0 0.0018909122267415091 0.08075164837055239 0 -0.0012046999891740476 0.075390375643263993 0 0.0019935949297932329 0.075283991802712863 0 -0.0015991289420713482 0.080415176712739275 0 -0.0012046999891740476 0.075390375643263993 0 -0.0015991289420713482 0.080415176712739275 0 -0.0036488991544196712 0.077715519536782032 0 0.002026726558654502 0.091353044391270025 0 0.0020361095831980241 0.090713925772631626 0 0.0035421140817358445 0.089892500078231422 0 0.0048193288222625032 0.070352075911097198 0 0.0019935949297932329 0.075283991802712863 0 0.005396789941847141 0.077195915841775598 0 0.0024582250408755443 0.080806592948975367 0 0.0032899985599453997 0.083178249646963326 0 0.0035421140817358445 0.089892500078231422 0 0.0024322343280614727 0.089370982882549466 0 0.0030481413510306888 0.087440079842650897 0 0.0024322343280614727 0.089370982882549466 0 0.0015533815210768747 0.089775380285148476 0 0.0023115213194344507 0.088234435969404654 0 0.0020361095831980241 0.090713925772631626 0 0.0024322343280614727 0.089370982882549466 0 0.0015533815210768747 0.089775380285148476 0 0.0020361095831980241 0.090713925772631626 0 0.0035421140817358445 0.089892500078231422 0 0.0024322343280614727 0.089370982882549466 0 0.0015533815210768747 0.089775380285148476 0 0.0012186285772388728 0.091339434876457029 0 0.00065529479151187368 0.090562107840459996 0 0.0020361095831980241 0.090713925772631626 0 0.0015533815210768747 0.089775380285148476 0 0.0012186285772388728 0.091339434876457029 0 0.0012186285772388728 0.091339434876457029 0 0.00065529479151187368 0.090562107840459996 0 0.00039406177347804867 0.091831144688839308 0 0.0015533815210768747 0.089775380285148476 0 0.00065529479151187368 0.090562107840459996 0 0.00076390111119594654 0.089231157934182959 0 0.00065529479151187368 0.090562107840459996 0 -0.00025860756925483468 0.08989085799617863 0 0.00076390111119594654 0.089231157934182959 0 -0.00025860756925483468 0.08989085799617863 0 -0.0015264625715922951 0.090999605154578403 0 -6.2019493090534621e-05 0.091158827061146142 0 0.00065529479151187368 0.090562107840459996 0 -0.00025860756925483468 0.08989085799617863 0 -6.2019493090534621e-05 0.091158827061146142 0 -0.00012349843479620258 0.093296693799572714 0 0.00022367120957129778 0.094088194430463332 0 -5.8907070508724331e-05 0.09510137462039113 0 -9.1251840116072436e-08 0.094998272374536397 0 -6.1051609528777609e-08 0.095001162320511118 0 -5.8907070508724331e-05 0.09510137462039113 0 2.3683255639481731e-05 0.094990494231362188 0 -6.1051609528777609e-08 0.095001162320511118 0 -0.00025860756925483468 0.08989085799617863 0 -0.0015264625715922951 0.090999605154578403 0 -0.0016732115004859415 0.089107333100003266 0 -0.00012349843479620258 0.093296693799572714 0 -0.00019046852244149291 0.093373413037696695 0 -0.0015264625715922951 0.090999605154578403 0 -6.2019493090534621e-05 0.091158827061146142 0 -0.00015240859368935506 0.092435202428676533 0 -5.8907070508724331e-05 0.09510137462039113 0 -9.1251840116072436e-08 0.094998272374536397 0 -0.00039603839055159294 0.094220416894073331 0 -0.0015264625715922951 0.090999605154578403 0 -0.00015240859368935506 0.092435202428676533 0 -0.00039603839055159294 0.094220416894073331 0 0.00065529479151187368 0.090562107840459996 0 -6.2019493090534621e-05 0.091158827061146142 0 0.00039406177347804867 0.091831144688839308 0 -6.2019493090534621e-05 0.091158827061146142 0 -0.00015240859368935506 0.092435202428676533 0 0.00039406177347804867 0.091831144688839308 0 0.00039406177347804867 0.091831144688839308 0 0.00024905649680261743 0.09314186356086733 0 0.00077510005358417738 0.092234606273644631 0 -0.00015240859368935506 0.092435202428676533 0 0.00024905649680261743 0.09314186356086733 0 -0.00039603839055159294 0.094220416894073331 0 -0.00015240859368935506 0.092435202428676533 0 0.00039406177347804867 0.091831144688839308 0 0.00024905649680261743 0.09314186356086733 0 0.00024905649680261743 0.09314186356086733 0 -0.00039603839055159294 0.094220416894073331 0 -3.6910048902423625e-05 0.094067478571918564 0 -9.1251840116072436e-08 0.094998272374536397 0 -0.00039603839055159294 0.094220416894073331 0 -9.5284180315224298e-07 0.09499848630684235 0 -0.00039603839055159294 0.094220416894073331 0 -3.6910048902423625e-05 0.094067478571918564 0 -9.5284180315224298e-07 0.09499848630684235 0 -3.6910048902423625e-05 0.094067478571918564 0 -9.5284180315224298e-07 0.09499848630684235 0 0.00016778789784815503 0.093786367961919304 0 0.00041348118518350313 0.09299881079068241 0 0.00016778789784815503 0.093786367961919304 0 0.00066393024080079713 0.092607202079973625 0 0.00024905649680261743 0.09314186356086733 0 0.00016778789784815503 0.093786367961919304 0 0.00066393024080079713 0.092607202079973625 0 0.00024905649680261743 0.09314186356086733 0 -3.6910048902423625e-05 0.094067478571918564 0 0.00016778789784815503 0.093786367961919304 0 0.00054119131128270556 0.092096605550022997 0 0.00066393024080079713 0.092607202079973625 0 0.0012269463866272214 0.091699322730188382 0 0.00066393024080079713 0.092607202079973625 0 0.0011335813848843137 0.09193924123989268 0 0.00077510005358417738 0.092234606273644631 0 0.00066393024080079713 0.092607202079973625 0 0.0012269463866272214 0.091699322730188382 0 0.0011335813848843137 0.09193924123989268 0 0.0018882093470710757 0.090512138936603578 0 0.0015158788514717406 0.091331150188259047 0 0.0012269463866272214 0.091699322730188382 0 0.0015158788514717406 0.091331150188259047 0 0.0012269463866272214 0.091699322730188382 0 0.0015023741541684114 0.091565419643194923 0 0.0012269463866272214 0.091699322730188382 0 0.0011335813848843137 0.09193924123989268 0 0.0015023741541684114 0.091565419643194923 0 0.0020361095831980241 0.090713925772631626 0 0.0012186285772388728 0.091339434876457029 0 0.0015023741541684114 0.091565419643194923 0 0.0012186285772388728 0.091339434876457029 0 0.0011335813848843137 0.09193924123989268 0 0.0015023741541684114 0.091565419643194923 0 0.0012186285772388728 0.091339434876457029 0 0.0011335813848843137 0.09193924123989268 0 0.00077510005358417738 0.092234606273644631 0 0.0012186285772388728 0.091339434876457029 0 0.00039406177347804867 0.091831144688839308 0 0.00077510005358417738 0.092234606273644631 0 0.00024905649680261743 0.09314186356086733 0 0.00066393024080079713 0.092607202079973625 0 0.00077510005358417738 0.092234606273644631 0 0.00041627593667007979 0.054286981245981122 0 0.0005387036425819028 0.055806340255098653 0 -0.00031632797630554594 0.055434594297943049 0 0.00041627593667007979 0.054286981245981122 0 0.001002200900105674 0.055654106140665613 0 0.0005387036425819028 0.055806340255098653 0 0.00041627593667007979 0.054286981245981122 0 -0.00031632797630554594 0.055434594297943049 0 -0.00036408919332115856 0.05381875812697879 0 0.00041627593667007979 0.054286981245981122 0 0.001002200900105674 0.055654106140665613 0 0.00099834598541687558 0.054339101397169784 0 0.001002200900105674 0.055654106140665613 0 0.00099834598541687558 0.054339101397169784 0 0.001193415584347935 0.056290882109499958 0 0.00099834598541687558 0.054339101397169784 0 0.00036757580636700548 0.050563629288960264 0 -1.0324178032598675e-05 0.052248938988743665 0 0.00041627593667007979 0.054286981245981122 0 0.00099834598541687558 0.054339101397169784 0 -1.0324178032598675e-05 0.052248938988743665 0 0.00041627593667007979 0.054286981245981122 0 -1.0324178032598675e-05 0.052248938988743665 0 -0.00036408919332115856 0.05381875812697879 0 0.00036757580636700548 0.050563629288960264 0 1.0071967590517449e-06 0.051196684823945654 0 1.1405068284252054e-06 0.045628913462912847 0 0.00036757580636700548 0.050563629288960264 0 1.0071967590517449e-06 0.051196684823945654 0 0.00065828183425168123 0.054173526329660035 0 0.00099834598541687558 0.054339101397169784 0 0.00036757580636700548 0.050563629288960264 0 0.00065828183425168123 0.054173526329660035 0 0.00099834598541687558 0.054339101397169784 0 0.00065828183425168123 0.054173526329660035 0 0.00090536378373767194 0.056978873724099169 0 0.00065828183425168123 0.054173526329660035 0 1.5516181508357319e-06 0.056761705506277974 0 0.00090536378373767194 0.056978873724099169 0 1.0071967590517449e-06 0.051196684823945654 0 0.00065828183425168123 0.054173526329660035 0 1.5516181508357319e-06 0.056761705506277974 0 1.5516181508357319e-06 0.056761705506277974 0 0.00090536378373767194 0.056978873724099169 0 0.00021589650714883726 0.060495903690447855 0 0.00090536378373767194 0.056978873724099169 0 0.001193415584347935 0.056290882109499958 0 0.00037739499105060966 0.058578709791518448 0 0.00099834598541687558 0.054339101397169784 0 0.00090536378373767194 0.056978873724099169 0 0.001193415584347935 0.056290882109499958 0 0.001002200900105674 0.055654106140665613 0 0.001193415584347935 0.056290882109499958 0 0.0011254249332621352 0.05602418520181246 0 0.001193415584347935 0.056290882109499958 0 0.00037739499105060966 0.058578709791518448 0 0.00094720473492240569 0.056153117108489976 0 -0.0011784046614835681 0.055690129364782813 0 -0.0017409608962948464 0.055121339017799503 0 0.00037739499105060966 0.058578709791518448 0 -0.0016439037371211594 0.062071082005809672 0 -0.0016315927987823199 0.056923800674524926 0 -0.0030844299574985909 0.062547169084891524 0 -0.0034562764297537242 0.063169411805089504 0 0.00037739499105060966 0.058578709791518448 0 -0.0016439037371211594 0.062071082005809672 0 0.00021589650714883726 0.060495903690447855 0 0.00090536378373767194 0.056978873724099169 0 0.00037739499105060966 0.058578709791518448 0 0.00021589650714883726 0.060495903690447855 0 1.5516181508357319e-06 0.056761705506277974 0 0.00021589650714883726 0.060495903690447855 0 1.7618667113173542e-07 0.06232614976815546 0 0.00021589650714883726 0.060495903690447855 0 1.7618667113173542e-07 0.06232614976815546 0 -0.00020308689351896457 0.063968069762221386 0 1.7618667113173542e-07 0.06232614976815546 0 -5.3160649522322396e-07 0.067890869064827844 0 -0.00020308689351896457 0.063968069762221386 0 -0.0016439037371211594 0.062071082005809672 0 0.00021589650714883726 0.060495903690447855 0 -0.00020308689351896457 0.063968069762221386 0 -0.0016439037371211594 0.062071082005809672 0 -0.00053531020454952933 0.064618358124154382 0 -0.00020308689351896457 0.063968069762221386 0 -0.00053531020454952933 0.064618358124154382 0 -0.00020308689351896457 0.063968069762221386 0 -0.00015308392480256351 0.066681510275374389 0 -5.3160649522322396e-07 0.067890869064827844 0 -0.00020308689351896457 0.063968069762221386 0 -0.00015308392480256351 0.066681510275374389 0 -5.3160649522322396e-07 0.067890869064827844 0 -0.00069703926922062506 0.070537451849928906 0 -0.00015308392480256351 0.066681510275374389 0 -4.2533988860610603e-06 0.073458488746532408 0 -5.3160649522322396e-07 0.067890869064827844 0 -0.00069703926922062506 0.070537451849928906 0 -0.00069703926922062506 0.070537451849928906 0 -0.00015308392480256351 0.066681510275374389 0 -0.000543052970885149 0.066034035683723999 0 -0.00053531020454952933 0.064618358124154382 0 -0.000543052970885149 0.066034035683723999 0 -0.00080726119837130298 0.064672578835999181 0 -0.00053531020454952933 0.064618358124154382 0 -0.00015308392480256351 0.066681510275374389 0 -0.000543052970885149 0.066034035683723999 0 -0.00080726119837130298 0.064672578835999181 0 -0.0011390428715798446 0.064012991983837086 0 -0.001017633805754018 0.065184192491145251 0 -0.00053531020454952933 0.064618358124154382 0 -0.00080726119837130298 0.064672578835999181 0 -0.0011390428715798446 0.064012991983837086 0 -0.0016439037371211594 0.062071082005809672 0 -0.00053531020454952933 0.064618358124154382 0 -0.0011390428715798446 0.064012991983837086 0 -0.0016439037371211594 0.062071082005809672 0 -0.0011390428715798446 0.064012991983837086 0 -0.0020973918877495151 0.066008026972762882 0 -0.0016439037371211594 0.062071082005809672 0 -0.0020973918877495151 0.066008026972762882 0 -0.0042475423983620083 0.066708439173002551 0 -0.0010240518570637314 0.067091179163407996 0 -0.0020973918877495151 0.066008026972762882 0 -0.001017633805754018 0.065184192491145251 0 -0.0011390428715798446 0.064012991983837086 0 -0.0020973918877495151 0.066008026972762882 0 -0.001017633805754018 0.065184192491145251 0 -0.0010240518570637314 0.067091179163407996 0 -0.0013682611529617157 0.07002066004902785 0 -0.002747200280046891 0.068544658219492988 0 -0.0010240518570637314 0.067091179163407996 0 -0.0020973918877495151 0.066008026972762882 0 -0.002747200280046891 0.068544658219492988 0 -0.0020973918877495151 0.066008026972762882 0 -0.002747200280046891 0.068544658219492988 0 -0.0034160338614982171 0.06836961770086479 0 -0.0020973918877495151 0.066008026972762882 0 -0.0034160338614982171 0.06836961770086479 0 -0.0042475423983620083 0.066708439173002551 0 -0.002747200280046891 0.068544658219492988 0 -0.0034160338614982171 0.06836961770086479 0 -0.0028348784662158553 0.069332131480876233 0 -0.0041195781296837443 0.07284720982924274 0 -0.0047482628073189257 0.068208784815950871 0 -0.0034160338614982171 0.06836961770086479 0 -0.0028348784662158553 0.069332131480876233 0 -0.0046135088762819677 0.069376872492819555 0 -0.002747200280046891 0.068544658219492988 0 -0.0052659765950790255 0.072027442565638367 0 -0.0038038560478328718 0.072191866131724888 0 -0.0041195781296837443 0.07284720982924274 0 -0.0041472568979738006 0.072828943338103067 0 -0.0013682611529617157 0.07002066004902785 0 -0.002747200280046891 0.068544658219492988 0 -0.0038038560478328718 0.072191866131724888 0 -0.0038139970908269961 0.071866875193418167 0 -0.0041195781296837443 0.07284720982924274 0 -0.0013682611529617157 0.07002066004902785 0 -0.0017596065141567948 0.072781317026856515 0 -0.0038038560478328718 0.072191866131724888 0 -0.0017596065141567948 0.072781317026856515 0 -0.0038038560478328718 0.072191866131724888 0 -0.003588006646245982 0.074782880067226498 0 -0.0064185287517935707 0.072054557012776563 0 -0.0048952459453895907 0.073897468277293168 0 -0.0058607721563396506 0.07638093209349503 0 -0.0038038560478328718 0.072191866131724888 0 -0.0048952459453895907 0.073897468277293168 0 -0.003588006646245982 0.074782880067226498 0 -0.0064185287517935707 0.072054557012776563 0 -0.0038038560478328718 0.072191866131724888 0 -0.0048952459453895907 0.073897468277293168 0 -0.0058607721563396506 0.07638093209349503 0 -0.003588006646245982 0.074782880067226498 0 -0.0036488991544196712 0.077715519536782032 0 -0.0048952459453895907 0.073897468277293168 0 -0.0058607721563396506 0.07638093209349503 0 -0.003588006646245982 0.074782880067226498 0 -0.0012046999891740476 0.075390375643263993 0 -0.003588006646245982 0.074782880067226498 0 -0.0036488991544196712 0.077715519536782032 0 -0.0058607721563396506 0.07638093209349503 0 -0.0036488991544196712 0.077715519536782032 0 -0.0050831002883418392 0.080326347577886439 0 -0.0015991289420713482 0.080415176712739275 0 -0.0036488991544196712 0.077715519536782032 0 -0.0050831002883418392 0.080326347577886439 0 -0.0058607721563396506 0.07638093209349503 0 -0.0050831002883418392 0.080326347577886439 0 -0.0089566292261539331 0.079389716002786423 0 -0.0064185287517935707 0.072054557012776563 0 -0.0058607721563396506 0.07638093209349503 0 -0.0089566292261539331 0.079389716002786423 0 -0.0062878990364050652 0.080661118232689968 0 -0.0073827436837114362 0.083748590448489965 0 -0.0079992260178940785 0.082010328315864509 0 -0.0062878990364050652 0.080661118232689968 0 -0.0079992260178940785 0.082010328315864509 0 -0.0089985772305415726 0.080439046333142569 0 -0.0041195781296837443 0.07284720982924274 0 -0.0072252662929613966 0.080601754392766359 0 -0.0079992260178940785 0.082010328315864509 0 -0.0093124505123779611 0.08316689156799037 0 -0.0089985772305415726 0.080439046333142569 0 -0.0067122715479138052 0.076599498407630903 0 -0.0047482628073189257 0.068208784815950871 0 -0.0073827436837114362 0.083748590448489965 0 -0.0079992260178940785 0.082010328315864509 0 -0.0093124505123779611 0.08316689156799037 0 -0.0073827436837114362 0.083748590448489965 0 -0.0093124505123779611 0.08316689156799037 0 -0.0086663726293273683 0.084790228848211691 0 -0.0063754478057083536 0.072985040737373663 0 -0.0088737969925595708 0.074946850804670881 0 -0.0098402957625280552 0.071381459628641633 0 -0.0088737969925595708 0.074946850804670881 0 -0.0098402957625280552 0.071381459628641633 0 -0.011508575535178072 0.074828377706791654 0 -0.0063754478057083536 0.072985040737373663 0 -0.0098402957625280552 0.071381459628641633 0 -0.0057402234058808376 0.068051035937374313 0 -0.0098402957625280552 0.071381459628641633 0 -0.0057402234058808376 0.068051035937374313 0 -0.010613087197359287 0.067638533823701261 0 -0.001191335032052501 0.054052462338409095 0 0.00017577844425422937 0.055864253802487149 0 0.0013563182362899271 0.054288468382862561 0 -0.0047482628073189257 0.068208784815950871 0 -0.0050477967565424756 0.06193301689358064 0 -0.0034160338614982171 0.06836961770086479 0 -0.0046135088762819677 0.069376872492819555 0 -0.0042475423983620083 0.066708439173002551 0 -0.0047482628073189257 0.068208784815950871 0 -0.0034562764297537242 0.063169411805089504 0 -0.001191335032052501 0.054052462338409095 0 -0.0016315927987823199 0.056923800674524926 0 0.00017577844425422937 0.055864253802487149 0 0.00017577844425422937 0.055864253802487149 0 0.0020611586129594263 0.056504469076946062 0 0.0013563182362899271 0.054288468382862561 0 0.00037739499105060966 0.058578709791518448 0 -0.0016315927987823199 0.056923800674524926 0 0.00017577844425422937 0.055864253802487149 0 0.00037739499105060966 0.058578709791518448 0 0.00017577844425422937 0.055864253802487149 0 0.0020611586129594263 0.056504469076946062 0 0.001193415584347935 0.056290882109499958 0 0.00094720473492240569 0.056153117108489976 0 0.0011254249332621352 0.05602418520181246 0 0.00094720473492240569 0.056153117108489976 0 0.0011254249332621352 0.05602418520181246 0 0.0011889474919119861 0.05622988041709371 0 -0.0017409608962948464 0.055121339017799503 0 -0.0061825790406651957 0.056064657433382847 0 0.001002200900105674 0.055654106140665613 0 0.0011254249332621352 0.05602418520181246 0 0.0011889474919119861 0.05622988041709371 0 0.0020611586129594263 0.056504469076946062 0 0.003819903373809734 0.054511121560651014 0 0.0013563182362899271 0.054288468382862561 0 -0.0061825790406651957 0.056064657433382847 0 -0.0050477967565424756 0.06193301689358064 0 -0.015472628149215833 0.067210366551867795 0 -0.010613087197359287 0.067638533823701261 0 -0.014152062491596562 0.07148530821395413 0 -0.0098402957625280552 0.071381459628641633 0 -0.010613087197359287 0.067638533823701261 0 -0.014152062491596562 0.07148530821395413 0 -0.0098402957625280552 0.071381459628641633 0 -0.011508575535178072 0.074828377706791654 0 -0.014152062491596562 0.07148530821395413 0 -0.014152062491596562 0.07148530821395413 0 -0.019236642704368419 0.071353041173527268 0 -0.016795366474539351 0.076066601668919959 0 -0.011508575535178072 0.074828377706791654 0 -0.014152062491596562 0.07148530821395413 0 -0.016795366474539351 0.076066601668919959 0 -0.015472628149215833 0.067210366551867795 0 -0.014152062491596562 0.07148530821395413 0 -0.019236642704368419 0.071353041173527268 0 -0.0061825790406651957 0.056064657433382847 0 -0.0074406414527520377 0.050921784349359879 0 -0.0074406414527520377 0.050921784349359879 0 -0.0098404854132288187 0.052764913126081441 0 -0.0082675042330420893 0.032556282291390834 0 -0.0076245713063937664 0.031810630727978448 0 -0.0087286837220481462 0.031523396785955685 0 -0.0091832951027675282 0.033156684718028052 0 -0.0076245713063937664 0.031810630727978448 0 -0.0075725588088721985 0.033650361673316281 0 -0.0074406414527520377 0.050921784349359879 0 -0.0042690762198996698 0.043676500891742437 0 -0.0091832951027675282 0.033156684718028052 0 -0.0075725588088721985 0.033650361673316281 0 -0.0080889928166041868 0.035806238338146813 0 -0.0074406414527520377 0.050921784349359879 0 -0.005487253357076477 0.049641224899034317 0 -0.0075725588088721985 0.033650361673316281 0 -0.0080889928166041868 0.035806238338146813 0 -0.0065381628793445253 0.036068500818598165 0 -0.005487253357076477 0.049641224899034317 0 -0.0059108513211159211 0.048910337740949522 0 -0.0061825790406651957 0.056064657433382847 0 -0.005487253357076477 0.049641224899034317 0 0.0011889474919119861 0.05622988041709371 0 0.00039968495145068633 0.056317710198160613 0 0.0005387036425819028 0.055806340255098653 0 -0.0060366148341665423 0.052500763990669566 0 -0.0060940835041802107 0.0525575641581685 0 -0.006130786814216394 0.052484228693284042 0 0.001002200900105674 0.055654106140665613 0 0.0011889474919119861 0.05622988041709371 0 0.0005387036425819028 0.055806340255098653 0 -0.005487253357076477 0.049641224899034317 0 -0.0045963600212782785 0.048015339122044219 0 0.00039968495145068633 0.056317710198160613 0 0.0005387036425819028 0.055806340255098653 0 -0.00031632797630554594 0.055434594297943049 0 -0.0079311369365176413 0.035968461074206745 0 -0.0065371888802315519 0.038484665418038397 0 -0.0065381628793445253 0.036068500818598165 0 -0.0078128133924522166 0.029266508118742936 0 -0.0075868009499056484 0.029960468550333654 0 -0.0072601428729231129 0.029311398557321993 0 -0.0078128133924522166 0.029266508118742936 0 -0.0083303227938708365 0.029133422963509983 0 -0.0079282741204688163 0.028697095021889975 0 -0.0078128133924522166 0.029266508118742936 0 -0.0083303227938708365 0.029133422963509983 0 -0.0082858070045277576 0.029840531343161961 0 -0.0083303227938708365 0.029133422963509983 0 -0.0082858070045277576 0.029840531343161961 0 -0.0087301377453707415 0.029509239910714493 0 -0.0082858070045277576 0.029840531343161961 0 -0.0075868009499056484 0.029960468550333654 0 -0.0080351388175111116 0.030729238988744884 0 -0.0078128133924522166 0.029266508118742936 0 -0.0082858070045277576 0.029840531343161961 0 -0.0075868009499056484 0.029960468550333654 0 -0.0075868009499056484 0.029960468550333654 0 -0.0080351388175111116 0.030729238988744884 0 -0.0071433103569311287 0.030720367802699225 0 -0.0076245713063937664 0.031810630727978448 0 -0.0080351388175111116 0.030729238988744884 0 -0.0071433103569311287 0.030720367802699225 0 -0.0076245713063937664 0.031810630727978448 0 -0.0080351388175111116 0.030729238988744884 0 -0.0087286837220481462 0.031523396785955685 0 -0.0080351388175111116 0.030729238988744884 0 -0.0090467228346769648 0.030444889012850786 0 -0.0087286837220481462 0.031523396785955685 0 -0.0082858070045277576 0.029840531343161961 0 -0.0080351388175111116 0.030729238988744884 0 -0.0090467228346769648 0.030444889012850786 0 -0.01014545274626762 0.054929835418649327 0 -0.0098404854132288187 0.052764913126081441 0 -0.011508575535178072 0.074828377706791654 0 -0.016795366474539351 0.076066601668919959 0 -0.012699867058379869 0.077776340190200702 0 -0.014280682385196522 0.080787708098453773 0 -0.016795366474539351 0.076066601668919959 0 -0.012699867058379869 0.077776340190200702 0 -0.011508575535178072 0.074828377706791654 0 -0.012699867058379869 0.077776340190200702 0 -0.0099468767932356893 0.077235029588779536 0 -0.012699867058379869 0.077776340190200702 0 -0.010311398535332647 0.079966658080118463 0 -0.0099468767932356893 0.077235029588779536 0 -0.014280682385196522 0.080787708098453773 0 -0.010381738002219112 0.082680338686684895 0 -0.010311398535332647 0.079966658080118463 0 -0.014280682385196522 0.080787708098453773 0 -0.012699867058379869 0.077776340190200702 0 -0.010311398535332647 0.079966658080118463 0 -0.014280682385196522 0.080787708098453773 0 -0.011539238739213515 0.085251828591694653 0 -0.010381738002219112 0.082680338686684895 0 -0.01014545274626762 0.054929835418649327 0 -0.0095660933259728055 0.056824164573694713 0 -0.011539238739213515 0.085251828591694653 0 -0.0097576035091565053 0.084459231441030444 0 -0.010381738002219112 0.082680338686684895 0 -0.0082858070045277576 0.029840531343161961 0 -0.0090467228346769648 0.030444889012850786 0 -0.0087301377453707415 0.029509239910714493 0 -0.0090467228346769648 0.030444889012850786 0 -0.0087301377453707415 0.029509239910714493 0 -0.0090813730375381378 0.029605208217682234 0 -0.0087301377453707415 0.029509239910714493 0 -0.0089173770340641289 0.029417522958310304 0 -0.0086758128629472343 0.029076645767388255 0 -0.0083303227938708365 0.029133422963509983 0 -0.0087301377453707415 0.029509239910714493 0 -0.0086758128629472343 0.029076645767388255 0 -0.0090813730375381378 0.029605208217682234 0 -0.0088145420545444088 0.029728840161238088 0 -0.0089173770340641289 0.029417522958310304 0 -0.0087301377453707415 0.029509239910714493 0 -0.0090813730375381378 0.029605208217682234 0 -0.0089173770340641289 0.029417522958310304 0 -0.0095660933259728055 0.056824164573694713 0 -0.0084731028354136616 0.05860869066488926 0 -0.0091936345194328327 0.086799578010669107 0 -0.0093555077980874753 0.08737025035289242 0 -0.0093977658893839074 0.087201545316423157 0 -0.011539238739213515 0.085251828591694653 0 -0.0091936345194328327 0.086799578010669107 0 -0.0094994956246218006 0.087073153415167304 0 -0.0091936345194328327 0.086799578010669107 0 -0.0079224878771588098 0.08287216184195309 0 -0.0097576035091565053 0.084459231441030444 0 -0.011539238739213515 0.085251828591694653 0 -0.0091936345194328327 0.086799578010669107 0 -0.0097576035091565053 0.084459231441030444 0 -0.0085347285972066419 0.085112835445231169 0 -0.0083047328765049663 0.083962389372491217 0 -0.0091936345194328327 0.086799578010669107 0 -0.0091619448346935868 0.087261469291986832 0 -0.0093555077980874753 0.08737025035289242 0 -0.0093555077980874753 0.08737025035289242 0 -0.0086787377690426149 0.087818499625514551 0 -0.0089205395830723976 0.087646137846519687 0 -0.0091619448346935868 0.087261469291986832 0 -0.0093555077980874753 0.08737025035289242 0 -0.0089205395830723976 0.087646137846519687 0 -0.0091619448346935868 0.087261469291986832 0 -0.0089205395830723976 0.087646137846519687 0 -0.00897003068250583 0.087465013389799964 0 -0.0093555077980874753 0.08737025035289242 0 -0.0093977658893839074 0.087201545316423157 0 -0.0085725733718820338 0.086398906912122028 0 -0.0093555077980874753 0.08737025035289242 0 -0.010061165948377002 0.085637698026717807 0 -0.0090301085933440876 0.087150716488242033 0 -0.009095325846175558 0.085947675324075226 0 -0.0086749860148262938 0.084624001702722343 0 -0.0093555077980874753 0.08737025035289242 0 -0.0090301085933440876 0.087150716488242033 0 -0.0086787377690426149 0.087818499625514551 0 -0.0079224878771588098 0.08287216184195309 0 -0.0097576035091565053 0.084459231441030444 0 -0.010381738002219112 0.082680338686684895 0 -0.0079224878771588098 0.08287216184195309 0 -0.010381738002219112 0.082680338686684895 0 -0.010311398535332647 0.079966658080118463 0 -0.0083047328765049663 0.083962389372491217 0 -0.0077200863540321449 0.081071968356118643 0 -0.0079224878771588098 0.08287216184195309 0 -0.010311398535332647 0.079966658080118463 0 -0.0070597890178128939 0.077952996347335865 0 -0.0063754478057083536 0.072985040737373663 0 -0.0088737969925595708 0.074946850804670881 0 -0.0070597890178128939 0.077952996347335865 0 -0.010311398535332647 0.079966658080118463 0 -0.0099468767932356893 0.077235029588779536 0 -0.0070597890178128939 0.077952996347335865 0 -0.0088737969925595708 0.074946850804670881 0 -0.0099468767932356893 0.077235029588779536 0 -0.0070597890178128939 0.077952996347335865 0 -0.0088737969925595708 0.074946850804670881 0 -0.011508575535178072 0.074828377706791654 0 -0.0099468767932356893 0.077235029588779536 0 -0.0093124505123779611 0.08316689156799037 0 -0.0086663726293273683 0.084790228848211691 0 -0.0094638331214374899 0.08569099375067081 0 -0.0086663726293273683 0.084790228848211691 0 -0.0094638331214374899 0.08569099375067081 0 -0.0085725733718820338 0.086398906912122028 0 -0.0067122715479138052 0.076599498407630903 0 -0.0077200863540321449 0.081071968356118643 0 -0.0073827436837114362 0.083748590448489965 0 -0.0086663726293273683 0.084790228848211691 0 -0.0085725733718820338 0.086398906912122028 0 -0.0093977658893839074 0.087201545316423157 0 -0.0094638331214374899 0.08569099375067081 0 -0.0085725733718820338 0.086398906912122028 0 -0.010061165948377002 0.085637698026717807 0 -0.0070852154009906666 0.083528581008494654 0 -0.0077255200905116395 0.087389396638400216 0 -0.010061165948377002 0.085637698026717807 0 -0.0077255200905116395 0.087389396638400216 0 -0.0090301085933440876 0.087150716488242033 0 -0.0050831002883418392 0.080326347577886439 0 -0.0089566292261539331 0.079389716002786423 0 -0.0070852154009906666 0.083528581008494654 0 -0.0089566292261539331 0.079389716002786423 0 -0.010061165948377002 0.085637698026717807 0 -0.0070852154009906666 0.083528581008494654 0 -0.0072252662929613966 0.080601754392766359 0 -0.0086749860148262938 0.084624001702722343 0 -0.0015991289420713482 0.080415176712739275 0 -0.0050831002883418392 0.080326347577886439 0 -0.0034706899102493098 0.084087003272722213 0 -0.0050831002883418392 0.080326347577886439 0 -0.0070852154009906666 0.083528581008494654 0 -0.0034706899102493098 0.084087003272722213 0 -0.0070852154009906666 0.083528581008494654 0 -0.0034706899102493098 0.084087003272722213 0 -0.0077255200905116395 0.087389396638400216 0 -0.0034706899102493098 0.084087003272722213 0 -0.0077255200905116395 0.087389396638400216 0 -0.0012572526497313197 0.088114254673244033 0 -0.0077255200905116395 0.087389396638400216 0 -0.0086787377690426149 0.087818499625514551 0 -0.007987479648798982 0.089115475584657461 0 -0.0077255200905116395 0.087389396638400216 0 -0.007987479648798982 0.089115475584657461 0 -0.0067139409276240469 0.087974440778983046 0 -0.0053103121363064542 0.088559552755374915 0 -0.0037873554507063486 0.088804353682101544 0 -0.0077255200905116395 0.087389396638400216 0 -0.0090301085933440876 0.087150716488242033 0 -0.0086787377690426149 0.087818499625514551 0 -0.0086787377690426149 0.087818499625514551 0 -0.0085969255011236791 0.088070417402158693 0 -0.007987479648798982 0.089115475584657461 0 -0.0086787377690426149 0.087818499625514551 0 -0.0089205395830723976 0.087646137846519687 0 -0.0085969255011236791 0.088070417402158693 0 -0.0089205395830723976 0.087646137846519687 0 -0.0085969255011236791 0.088070417402158693 0 -0.0087938341200604134 0.087707268562289123 0 -0.0085969255011236791 0.088070417402158693 0 -0.007987479648798982 0.089115475584657461 0 -0.0086981744893611553 0.087889472889922465 0 -0.007987479648798982 0.089115475584657461 0 -0.0091689354183966034 0.087317415633343998 0 -0.0086981744893611553 0.087889472889922465 0 -0.007987479648798982 0.089115475584657461 0 -0.0091056115980796114 0.093885979823132057 0 -0.0070232477928570194 0.091628071892975782 0 -0.0067587611013700272 0.089777126299315363 0 -0.0063507758825871686 0.090166994340696388 0 -0.0091689354183966034 0.087317415633343998 0 -0.0089474987185196482 0.08742893272379143 0 -0.0086981744893611553 0.087889472889922465 0 -0.0091056115980796114 0.093885979823132057 0 -0.0077481936648169164 0.094025953453148528 0 -0.0070232477928570194 0.091628071892975782 0 -0.0085969255011236791 0.088070417402158693 0 -0.0086981744893611553 0.087889472889922465 0 -0.0087938341200604134 0.087707268562289123 0 -0.0086981744893611553 0.087889472889922465 0 -0.0087938341200604134 0.087707268562289123 0 -0.0088585411956789532 0.087539988962978252 0 -0.0089205395830723976 0.087646137846519687 0 -0.0087938341200604134 0.087707268562289123 0 -0.00897003068250583 0.087465013389799964 0 -0.0087938341200604134 0.087707268562289123 0 -0.00897003068250583 0.087465013389799964 0 -0.0089891558247557901 0.087314130318913857 0 -0.00897003068250583 0.087465013389799964 0 -0.0089891558247557901 0.087314130318913857 0 -0.0091156018514280193 0.087225718451043446 0 -0.0087938341200604134 0.087707268562289123 0 -0.0089891558247557901 0.087314130318913857 0 -0.0088585411956789532 0.087539988962978252 0 -0.0089474987185196482 0.08742893272379143 0 -0.0086981744893611553 0.087889472889922465 0 -0.0088585411956789532 0.087539988962978252 0 -0.0089891558247557901 0.087314130318913857 0 -0.0088585411956789532 0.087539988962978252 0 -0.0089634386499490779 0.087308336678225587 0 -0.0089474987185196482 0.08742893272379143 0 -0.0088585411956789532 0.087539988962978252 0 -0.0089634386499490779 0.087308336678225587 0 -0.0089474987185196482 0.08742893272379143 0 -0.0089634386499490779 0.087308336678225587 0 -0.0090398485538955731 0.087174311699831752 0 -0.0090398485538955731 0.087174311699831752 0 -0.0090613337408122375 0.087050490667263128 0 -0.0090438324746648577 0.08701847740024711 0 -0.0089634386499490779 0.087308336678225587 0 -0.0090398485538955731 0.087174311699831752 0 -0.0090346738469525133 0.087138828255965375 0 -0.0090346738469525133 0.087138828255965375 0 -0.0091517766813593478 0.08692949954137659 0 -0.0091810884037951106 0.087025829000257696 0 -0.0089891558247557901 0.087314130318913857 0 -0.0089634386499490779 0.087308336678225587 0 -0.0090346738469525133 0.087138828255965375 0 -0.0089891558247557901 0.087314130318913857 0 -0.0090346738469525133 0.087138828255965375 0 -0.0091810884037951106 0.087025829000257696 0 -0.0090346738469525133 0.087138828255965375 0 -0.0090613337408122375 0.087050490667263128 0 -0.0091517766813593478 0.08692949954137659 0 -0.0090613337408122375 0.087050490667263128 0 -0.0091167194885645401 0.087036684868190911 0 -0.0091517766813593478 0.08692949954137659 0 -0.0090398485538955731 0.087174311699831752 0 -0.0090346738469525133 0.087138828255965375 0 -0.0090613337408122375 0.087050490667263128 0 -0.0089712354639939554 0.094592616226888498 0 -0.0098162052773327051 0.097324769207982595 0 -0.0067895625216997926 0.095788313570122866 0 -0.0063507758825871686 0.090166994340696388 0 -0.0038334958994888347 0.088050112101925607 0 -0.0050049322953370405 0.092632313536447713 0 -0.0037875431089878474 0.092718441898769308 0 -0.0089712354639939554 0.094592616226888498 0 -0.0077481936648169164 0.094025953453148528 0 -0.0064591392777774244 0.095864310109495851 0 -0.0091689354183966034 0.087317415633343998 0 -0.0090398485538955731 0.087174311699831752 0 -0.0090438324746648577 0.08701847740024711 0 -0.0091056115980796114 0.093885979823132057 0 -0.0089712354639939554 0.094592616226888498 0 -0.0098162052773327051 0.097324769207982595 0 -0.0091689354183966034 0.087317415633343998 0 -0.0089474987185196482 0.08742893272379143 0 -0.0090398485538955731 0.087174311699831752 0 -0.0091056115980796114 0.093885979823132057 0 -0.0089712354639939554 0.094592616226888498 0 -0.0077481936648169164 0.094025953453148528 0 -0.0038334958994888347 0.088050112101925607 0 -0.0037875431089878474 0.092718441898769308 0 0.00088925265640291053 0.094879485974848826 0 0.00065244432815340188 0.094989725511879758 0 0.00068419253948493884 0.094772692864309324 0 0.00088925265640291053 0.094879485974848826 0 0.00083564708065475481 0.094737368206365594 0 0.00068419253948493884 0.094772692864309324 0 0.00088925265640291053 0.094879485974848826 0 0.00083564708065475481 0.094737368206365594 0 0.00097686077626830416 0.09464651670365494 0 0.00083564708065475481 0.094737368206365594 0 0.00079910874623560573 0.094646052591131444 0 0.00097686077626830416 0.09464651670365494 0 0.00083564708065475481 0.094737368206365594 0 0.00068419253948493884 0.094772692864309324 0 0.00079910874623560573 0.094646052591131444 0 0.004578306544605234 0.077887320986241723 0 0.0020261246215344153 0.080406958672899417 0 0.0038375178945101039 0.081311647852701882 0 0.004578306544605234 0.077887320986241723 0 0.0015002758419272366 0.079415562497784864 0 0.0020261246215344153 0.080406958672899417 0 -0.0038334958994888347 0.088050112101925607 0 -0.00075742978717399808 0.087992931085418932 0 -0.0090438324746648577 0.08701847740024711 0 -0.0091167194885645401 0.087036684868190911 0 -0.0091734641160058118 0.087221837417978773 0 -0.0038334958994888347 0.088050112101925607 0 -0.001372839076039875 0.078830622232092237 0 -0.0090613337408122375 0.087050490667263128 0 -0.0090438324746648577 0.08701847740024711 0 -0.0091167194885645401 0.087036684868190911 0 -0.0091167194885645401 0.087036684868190911 0 -0.0092558950359201142 0.086979678870824653 0 -0.0091517766813593478 0.08692949954137659 0 -0.0091167194885645401 0.087036684868190911 0 -0.0092558950359201142 0.086979678870824653 0 -0.0091734641160058118 0.087221837417978773 0 -0.0055803189576756193 0.063125823850507357 0 -0.001372839076039875 0.078830622232092237 0 0.00034606768044233792 0.074938281848420246 0 0.0022627067101130289 0.078587248016485631 0 8.1549725211365421e-06 0.077459935539207631 0 -0.0092558950359201142 0.086979678870824653 0 -0.0094909206143796374 0.086900018264382831 0 -0.0091734641160058118 0.087221837417978773 0 0.0022627067101130289 0.078587248016485631 0 -0.00072628518956854241 0.078707170418076816 0 8.1549725211365421e-06 0.077459935539207631 0 -0.001372839076039875 0.078830622232092237 0 -0.0016671354144905288 0.079507246626745118 0 0.0014760937976455129 0.079357667466998558 0 0.00064915533958146451 0.080751888668047195 0 -0.001130615298264947 0.080629217716118098 0 -0.001372839076039875 0.078830622232092237 0 -0.0012211779892124341 0.079007063526500859 0 0.00064915533958146451 0.080751888668047195 0 0.0020261246215344153 0.080406958672899417 0 0.0012154964444597018 0.081682135055861582 0 0.0014760937976455129 0.079357667466998558 0 0.00064915533958146451 0.080751888668047195 0 0.0020261246215344153 0.080406958672899417 0 -0.0008207233784976296 0.080149508345309012 0 -0.0021573477505944976 0.078729737535269781 0 -0.0037813343080486299 0.081789447311962651 0 0.0022627067101130289 0.078587248016485631 0 -0.0008207233784976296 0.080149508345309012 0 -0.00072628518956854241 0.078707170418076816 0 -0.00072628518956854241 0.078707170418076816 0 -0.0021573477505944976 0.078729737535269781 0 8.1549725211365421e-06 0.077459935539207631 0 -0.0008207233784976296 0.080149508345309012 0 -0.00072628518956854241 0.078707170418076816 0 -0.0021573477505944976 0.078729737535269781 0 -0.0091419680838476548 0.029594880775106153 0 -0.0093809008571788637 0.027847355730346853 0 -0.0091184008477308218 0.028795998821325462 0 -0.0055803189576756193 0.063125823850507357 0 -0.0046239470532331893 0.056340178212626373 0 -0.0093809008571788637 0.027847355730346853 0 -0.0091184008477308218 0.028795998821325462 0 -0.0090767890660130197 0.028255066834339138 0 0.00034606768044233792 0.074938281848420246 0 -0.0021573477505944976 0.078729737535269781 0 8.1549725211365421e-06 0.077459935539207631 0 -0.0091419680838476548 0.029594880775106153 0 -0.0091184008477308218 0.028795998821325462 0 -0.0090752934594630665 0.029241224026092541 0 -0.0091184008477308218 0.028795998821325462 0 -0.008986767374727922 0.029046928668373388 0 -0.0090752934594630665 0.029241224026092541 0 -0.008986767374727922 0.029046928668373388 0 -0.0089882581271604877 0.02938311751718722 0 -0.0088956771516065947 0.029285881305948728 0 -0.0091419680838476548 0.029594880775106153 0 -0.0089882581271604877 0.02938311751718722 0 -0.0088145420545444088 0.029728840161238088 0 -0.0095121974821560807 0.085796171357762616 0 -0.0094251498004971294 0.086786975471842248 0 -0.0094994956246218006 0.087073153415167304 0 -0.0055803189576756193 0.063125823850507357 0 -0.0084731028354136616 0.05860869066488926 0 -0.008986767374727922 0.029046928668373388 0 -0.0090752934594630665 0.029241224026092541 0 -0.0089882581271604877 0.02938311751718722 0 -0.0089882581271604877 0.02938311751718722 0 -0.0088145420545444088 0.029728840161238088 0 -0.0088956771516065947 0.029285881305948728 0 -0.0091419680838476548 0.029594880775106153 0 -0.0090752934594630665 0.029241224026092541 0 -0.0089882581271604877 0.02938311751718722 0 -0.0055803189576756193 0.063125823850507357 0 -0.0066219059380990082 0.065161921533111039 0 -0.0092558950359201142 0.086979678870824653 0 -0.0094909206143796374 0.086900018264382831 0 -0.0094334059399598328 0.086613900490798937 0 -0.0095121974821560807 0.085796171357762616 0 -0.0094334059399598328 0.086613900490798937 0 -0.0094251498004971294 0.086786975471842248 0 -0.0092558950359201142 0.086979678870824653 0 -0.0094334059399598328 0.086613900490798937 0 -0.0091517766813593478 0.08692949954137659 0 -0.0094334059399598328 0.086613900490798937 0 -0.0091517766813593478 0.08692949954137659 0 -0.0091810884037951106 0.087025829000257696 0 -0.0094334059399598328 0.086613900490798937 0 -0.0091810884037951106 0.087025829000257696 0 -0.0094251498004971294 0.086786975471842248 0 -0.0091810884037951106 0.087025829000257696 0 -0.0094251498004971294 0.086786975471842248 0 -0.0092362849056427786 0.087068538173815629 0 -0.0089891558247557901 0.087314130318913857 0 -0.0091810884037951106 0.087025829000257696 0 -0.0091156018514280193 0.087225718451043446 0 -0.0091810884037951106 0.087025829000257696 0 -0.0092362849056427786 0.087068538173815629 0 -0.0091156018514280193 0.087225718451043446 0 -0.0091619448346935868 0.087261469291986832 0 -0.00897003068250583 0.087465013389799964 0 -0.0091156018514280193 0.087225718451043446 0 -0.0091936345194328327 0.086799578010669107 0 -0.0091619448346935868 0.087261469291986832 0 -0.0092362849056427786 0.087068538173815629 0 -0.0091619448346935868 0.087261469291986832 0 -0.0092362849056427786 0.087068538173815629 0 -0.0091156018514280193 0.087225718451043446 0 -0.0091936345194328327 0.086799578010669107 0 -0.0092362849056427786 0.087068538173815629 0 -0.0094994956246218006 0.087073153415167304 0 -0.0094251498004971294 0.086786975471842248 0 -0.0092362849056427786 0.087068538173815629 0 -0.0094994956246218006 0.087073153415167304 0 -0.0088145420545444088 0.029728840161238088 0 -0.0088599820437421754 0.029266140578817341 0 -0.0089173770340641289 0.029417522958310304 0 -0.0088145420545444088 0.029728840161238088 0 -0.0088599820437421754 0.029266140578817341 0 -0.0088956771516065947 0.029285881305948728 0 -0.0088599820437421754 0.029266140578817341 0 -0.0086758128629472343 0.029076645767388255 0 -0.0087438840366594744 0.028764501136941085 0 -0.0088599820437421754 0.029266140578817341 0 -0.0089173770340641289 0.029417522958310304 0 -0.0086758128629472343 0.029076645767388255 0 -0.0087438840366594744 0.028764501136941085 0 -0.0084864447633096404 0.028154704689041757 0 -0.0083485443492332494 0.028487562788502532 0 -0.0086758128629472343 0.029076645767388255 0 -0.0087438840366594744 0.028764501136941085 0 -0.0083485443492332494 0.028487562788502532 0 -0.0087438840366594744 0.028764501136941085 0 -0.0088674621476820745 0.028800401842333234 0 -0.0087159849831214605 0.028186415994662893 0 -0.0087438840366594744 0.028764501136941085 0 -0.0088674621476820745 0.028800401842333234 0 -0.0088956771516065947 0.029285881305948728 0 -0.0088599820437421754 0.029266140578817341 0 -0.0087438840366594744 0.028764501136941085 0 -0.0088956771516065947 0.029285881305948728 0 -0.008986767374727922 0.029046928668373388 0 -0.0088674621476820745 0.028800401842333234 0 -0.0088956771516065947 0.029285881305948728 0 -0.0091184008477308218 0.028795998821325462 0 -0.008986767374727922 0.029046928668373388 0 -0.008971750419846122 0.028596570932721325 0 -0.008986767374727922 0.029046928668373388 0 -0.0088674621476820745 0.028800401842333234 0 -0.008971750419846122 0.028596570932721325 0 -0.0088674621476820745 0.028800401842333234 0 -0.008971750419846122 0.028596570932721325 0 -0.0087159849831214605 0.028186415994662893 0 -0.008908612863584315 0.028121134659487755 0 -0.0087813373617142455 0.027722119029925888 0 -0.0087159849831214605 0.028186415994662893 0 -0.008971750419846122 0.028596570932721325 0 -0.008908612863584315 0.028121134659487755 0 -0.0087159849831214605 0.028186415994662893 0 -0.0091184008477308218 0.028795998821325462 0 -0.008971750419846122 0.028596570932721325 0 -0.0090767890660130197 0.028255066834339138 0 -0.008971750419846122 0.028596570932721325 0 -0.008908612863584315 0.028121134659487755 0 -0.0090767890660130197 0.028255066834339138 0 -0.008908612863584315 0.028121134659487755 0 -0.0090767890660130197 0.028255066834339138 0 -0.0089923860693058941 0.027877021526331244 0 -0.0093809008571788637 0.027847355730346853 0 -0.0089052128007160881 0.027415416537457837 0 -0.0089352557736031048 0.026724390784213743 0 -0.0046239470532331893 0.056340178212626373 0 -0.005923290500695024 0.055295001098673559 0 -0.0093809008571788637 0.027847355730346853 0 -0.0089923860693058941 0.027877021526331244 0 -0.0089052128007160881 0.027415416537457837 0 -0.0093809008571788637 0.027847355730346853 0 -0.0090767890660130197 0.028255066834339138 0 -0.0089923860693058941 0.027877021526331244 0 -0.0089923860693058941 0.027877021526331244 0 -0.0087813373617142455 0.027722119029925888 0 -0.0089052128007160881 0.027415416537457837 0 -0.0087813373617142455 0.027722119029925888 0 -0.0089052128007160881 0.027415416537457837 0 -0.0086554761115115141 0.027354388852687823 0 -0.008908612863584315 0.028121134659487755 0 -0.0089923860693058941 0.027877021526331244 0 -0.0087813373617142455 0.027722119029925888 0 -0.0084425223392799748 0.027152265716096878 0 -0.0086554761115115141 0.027354388852687823 0 -0.0086098008674417859 0.026936958753396568 0 -0.0089052128007160881 0.027415416537457837 0 -0.0086554761115115141 0.027354388852687823 0 -0.0086098008674417859 0.026936958753396568 0 -0.0087813373617142455 0.027722119029925888 0 -0.0086554761115115141 0.027354388852687823 0 -0.0085821559216094877 0.027585523913664017 0 -0.0084425223392799748 0.027152265716096878 0 -0.0085821559216094877 0.027585523913664017 0 -0.0084111166196457945 0.02761849600800232 0 -0.0084425223392799748 0.027152265716096878 0 -0.0086554761115115141 0.027354388852687823 0 -0.0085821559216094877 0.027585523913664017 0 -0.0085821559216094877 0.027585523913664017 0 -0.0087159849831214605 0.028186415994662893 0 -0.0084111166196457945 0.02761849600800232 0 -0.0087813373617142455 0.027722119029925888 0 -0.0085821559216094877 0.027585523913664017 0 -0.0087159849831214605 0.028186415994662893 0 -0.0087438840366594744 0.028764501136941085 0 -0.0087159849831214605 0.028186415994662893 0 -0.0084864447633096404 0.028154704689041757 0 -0.0087159849831214605 0.028186415994662893 0 -0.0084864447633096404 0.028154704689041757 0 -0.0084111166196457945 0.02761849600800232 0 -0.008156580398256218 0.027662007929803077 0 -0.0084111166196457945 0.02761849600800232 0 -0.0082128857737597087 0.027019307023107876 0 -0.0084864447633096404 0.028154704689041757 0 -0.008156580398256218 0.027662007929803077 0 -0.0084111166196457945 0.02761849600800232 0 -0.0084425223392799748 0.027152265716096878 0 -0.0084111166196457945 0.02761849600800232 0 -0.0082128857737597087 0.027019307023107876 0 -0.0084425223392799748 0.027152265716096878 0 -0.0082128857737597087 0.027019307023107876 0 -0.0082850095582379189 0.026624680821819565 0 -0.0079226037445884363 0.02683536328745164 0 -0.0079381175853590544 0.026114474896014862 0 -0.0076097710201900523 0.026276556759684225 0 -0.0082128857737597087 0.027019307023107876 0 -0.0079226037445884363 0.02683536328745164 0 -0.0079381175853590544 0.026114474896014862 0 -0.008156580398256218 0.027662007929803077 0 -0.0079226037445884363 0.02683536328745164 0 -0.0076986254959091529 0.027216507968838309 0 -0.008156580398256218 0.027662007929803077 0 -0.0082128857737597087 0.027019307023107876 0 -0.0079226037445884363 0.02683536328745164 0 -0.008156580398256218 0.027662007929803077 0 -0.0078609777367895962 0.02802181350965173 0 -0.0076986254959091529 0.027216507968838309 0 -0.0084864447633096404 0.028154704689041757 0 -0.008156580398256218 0.027662007929803077 0 -0.0083485443492332494 0.028487562788502532 0 -0.008156580398256218 0.027662007929803077 0 -0.0078609777367895962 0.02802181350965173 0 -0.0083485443492332494 0.028487562788502532 0 -0.0083303227938708365 0.029133422963509983 0 -0.0083485443492332494 0.028487562788502532 0 -0.0079282741204688163 0.028697095021889975 0 -0.0083303227938708365 0.029133422963509983 0 -0.0086758128629472343 0.029076645767388255 0 -0.0083485443492332494 0.028487562788502532 0 -0.0078609777367895962 0.02802181350965173 0 -0.0083485443492332494 0.028487562788502532 0 -0.0079282741204688163 0.028697095021889975 0 -0.0078609777367895962 0.02802181350965173 0 -0.0079282741204688163 0.028697095021889975 0 -0.0074150754358737513 0.028642084623296531 0 -0.0078128133924522166 0.029266508118742936 0 -0.0079282741204688163 0.028697095021889975 0 -0.0074150754358737513 0.028642084623296531 0 -0.00040359849453769337 0.093014710026660632 0 -0.00066973450321666794 0.092939961596180662 0 -0.00041658138450383569 0.093472624935027157 0 -0.00040359849453769337 0.093014710026660632 0 -0.00041658138450383569 0.093472624935027157 0 -0.00020267152900043896 0.093873889042114383 0 -0.00093218928767446166 0.092463213748938608 0 -0.00052066836102350087 0.090987293977604744 0 -0.00040359849453769337 0.093014710026660632 0 -0.0010190862243246383 0.092399945431979685 0 -0.00066973450321666794 0.092939961596180662 0 -0.00040359849453769337 0.093014710026660632 0 -0.0010190862243246383 0.092399945431979685 0 -0.0015118978363307812 0.091404962354871555 0 -0.0010190862243246383 0.092399945431979685 0 -0.00066973450321666794 0.092939961596180662 0 -0.00080434029347228463 0.09305478712346045 0 -0.0010190862243246383 0.092399945431979685 0 -0.00080434029347228463 0.09305478712346045 0 -0.0012673763694117659 0.092520942383554572 0 -0.00080434029347228463 0.09305478712346045 0 -0.00097647065327048318 0.093271053445293794 0 -0.0012673763694117659 0.092520942383554572 0 -0.00080434029347228463 0.09305478712346045 0 -0.00097647065327048318 0.093271053445293794 0 -0.00061568221230707664 0.093701959084681472 0 -0.00041658138450383569 0.093472624935027157 0 -0.00028882270850865999 0.094021102130396383 0 -0.00061568221230707664 0.093701959084681472 0 -0.00041658138450383569 0.093472624935027157 0 -0.00028882270850865999 0.094021102130396383 0 -0.00014913061612416786 0.094162378818888615 0 -0.00080434029347228463 0.09305478712346045 0 -0.00041658138450383569 0.093472624935027157 0 -0.00061568221230707664 0.093701959084681472 0 -0.00066973450321666794 0.092939961596180662 0 -0.00080434029347228463 0.09305478712346045 0 -0.00041658138450383569 0.093472624935027157 0 -0.00028882270850865999 0.094021102130396383 0 -0.00014913061612416786 0.094162378818888615 0 -6.5996704463629625e-05 0.094564591015906682 0 -0.00014913061612416786 0.094162378818888615 0 -4.4334808005191895e-05 0.094562381102338167 0 -6.5996704463629625e-05 0.094564591015906682 0 -0.00041658138450383569 0.093472624935027157 0 -0.00014913061612416786 0.094162378818888615 0 -0.00020267152900043896 0.093873889042114383 0 -0.00014913061612416786 0.094162378818888615 0 -4.4334808005191895e-05 0.094562381102338167 0 -8.171627045539773e-05 0.094352367034436918 0 8.2026248459892114e-08 0.094998775903189753 0 -4.4334808005191895e-05 0.094562381102338167 0 -6.5996704463629625e-05 0.094564591015906682 0 8.2026248459892114e-08 0.094998775903189753 0 -4.4334808005191895e-05 0.094562381102338167 0 3.6992888815799539e-05 0.094828853844506095 0 8.2026248459892114e-08 0.094998775903189753 0 3.6992888815799539e-05 0.094828853844506095 0 1.1035553338944793e-08 0.094999660338806871 0 3.6992888815799539e-05 0.094828853844506095 0 -5.8882177597190233e-05 0.094435724208319236 0 0.00015506844147378913 0.094022803257164556 0 -4.4334808005191895e-05 0.094562381102338167 0 3.6992888815799539e-05 0.094828853844506095 0 -8.171627045539773e-05 0.094352367034436918 0 3.6992888815799539e-05 0.094828853844506095 0 -8.171627045539773e-05 0.094352367034436918 0 -5.8882177597190233e-05 0.094435724208319236 0 -0.00093218928767446166 0.092463213748938608 0 -0.00065171596048809377 0.092960996915320782 0 -0.00040359849453769337 0.093014710026660632 0 -5.8882177597190233e-05 0.094435724208319236 0 -0.00020267152900043896 0.093873889042114383 0 -8.171627045539773e-05 0.094352367034436918 0 -5.8882177597190233e-05 0.094435724208319236 0 -0.00020267152900043896 0.093873889042114383 0 -0.00014913061612416786 0.094162378818888615 0 -8.171627045539773e-05 0.094352367034436918 0 -0.00020267152900043896 0.093873889042114383 0 -5.8882177597190233e-05 0.094435724208319236 0 -0.00064206473457342978 0.09412680665318629 0 -0.00025991319049167968 0.094027014835876763 0 -0.0010019670707394491 0.094358342562378322 0 -5.8882177597190233e-05 0.094435724208319236 0 -0.00064206473457342978 0.09412680665318629 0 -0.00025991319049167968 0.094027014835876763 0 -0.00015013801237538109 0.09381453461084989 0 -0.00059887656254617591 0.093771390139120225 0 -0.00064206473457342978 0.09412680665318629 0 -0.00025991319049167968 0.094027014835876763 0 -0.00059887656254617591 0.093771390139120225 0 0.00017630616244139171 0.094462884011864326 0 0.00018802097317101174 0.094352156674567852 0 3.6992888815799539e-05 0.094828853844506095 0 1.1035553338944793e-08 0.094999660338806871 0 1.3958994018411466e-05 0.095019649832747299 0 1.1035553338944793e-08 0.094999660338806871 0 1.3958994018411466e-05 0.095019649832747299 0 1.4988730366614553e-08 0.095000218635167805 0 -5.8882177597190233e-05 0.094435724208319236 0 -0.00025991319049167968 0.094027014835876763 0 0.00015506844147378913 0.094022803257164556 0 -0.00025991319049167968 0.094027014835876763 0 0.00015506844147378913 0.094022803257164556 0 -0.00015013801237538109 0.09381453461084989 0 0.00015506844147378913 0.094022803257164556 0 -0.00015013801237538109 0.09381453461084989 0 0.00011225821232109429 0.093443469983462132 0 0.00018802097317101174 0.094352156674567852 0 0.00022367120957129778 0.094088194430463332 0 -0.00015013801237538109 0.09381453461084989 0 0.00011225821232109429 0.093443469983462132 0 -0.00059887656254617591 0.093771390139120225 0 1.3958994018411466e-05 0.095019649832747299 0 -1.0703402246300423e-06 0.095002452482652766 0 1.4988730366614553e-08 0.095000218635167805 0 0.00022367120957129778 0.094088194430463332 0 -3.2371311834673157e-07 0.094993744584231404 0 -0.00025860756925483468 0.08989085799617863 0 -0.0016732115004859415 0.089107333100003266 0 -8.9925269664014511e-05 0.088316015921929558 0 0.00022367120957129778 0.094088194430463332 0 0.00015512056002195293 0.092368084886056523 0 -0.00025860756925483468 0.08989085799617863 0 -8.9925269664014511e-05 0.088316015921929558 0 0.00076390111119594654 0.089231157934182959 0 0.00076390111119594654 0.089231157934182959 0 0.00086220682482358489 0.08829347259773658 0 0.001570993100177682 0.088200003559068901 0 -8.9925269664014511e-05 0.088316015921929558 0 0.00076390111119594654 0.089231157934182959 0 0.00086220682482358489 0.08829347259773658 0 -8.9925269664014511e-05 0.088316015921929558 0 0.00086220682482358489 0.08829347259773658 0 0.0011790548202826143 0.087367674076947566 0 0.00015512056002195293 0.092368084886056523 0 7.4516604557267477e-05 0.091395617254977593 0 -0.00064206473457342978 0.09412680665318629 0 -0.00059887656254617591 0.093771390139120225 0 -0.0012487774815461553 0.094071282232260398 0 -0.0010019670707394491 0.094358342562378322 0 -0.00064206473457342978 0.09412680665318629 0 -0.0012487774815461553 0.094071282232260398 0 7.4516604557267477e-05 0.091395617254977593 0 -0.00052066836102350087 0.090987293977604744 0 0.0011790548202826143 0.087367674076947566 0 0.001570993100177682 0.088200003559068901 0 0.0028182550600094778 0.08641153147687089 0 -0.0010019670707394491 0.094358342562378322 0 -0.0012487774815461553 0.094071282232260398 0 -0.001859259744334684 0.094327289619701424 0 0.0015533815210768747 0.089775380285148476 0 0.001570993100177682 0.088200003559068901 0 0.0023115213194344507 0.088234435969404654 0 0.0015533815210768747 0.089775380285148476 0 0.00076390111119594654 0.089231157934182959 0 0.001570993100177682 0.088200003559068901 0 0.00086220682482358489 0.08829347259773658 0 0.0011790548202826143 0.087367674076947566 0 0.001570993100177682 0.088200003559068901 0 0.0024322343280614727 0.089370982882549466 0 0.0023115213194344507 0.088234435969404654 0 0.0030481413510306888 0.087440079842650897 0 0.0032899985599453997 0.083178249646963326 0 0.0034578206288754312 0.084536550464481636 0 0.0035421140817358445 0.089892500078231422 0 0.0030481413510306888 0.087440079842650897 0 0.0040055561755659563 0.086065975190862898 0 0.0034590370784277238 0.086682470454022081 0 0.0035489274649699301 0.087263869165622968 0 0.0028182550600094778 0.08641153147687089 0 0.0030481413510306888 0.087440079842650897 0 0.0040055561755659563 0.086065975190862898 0 0.0034590370784277238 0.086682470454022081 0 0.0040055561755659563 0.086065975190862898 0 0.0034590370784277238 0.086682470454022081 0 0.0035489274649699301 0.087263869165622968 0 0.001570993100177682 0.088200003559068901 0 0.0023115213194344507 0.088234435969404654 0 0.0028182550600094778 0.08641153147687089 0 0.0023115213194344507 0.088234435969404654 0 0.0030481413510306888 0.087440079842650897 0 0.0028182550600094778 0.08641153147687089 0 0.0030481413510306888 0.087440079842650897 0 0.0034590370784277238 0.086682470454022081 0 0.0028182550600094778 0.08641153147687089 0 -0.0015991289420713482 0.080415176712739275 0 0.0018909122267415091 0.08075164837055239 0 0.00026370206409572985 0.084620276924752297 0 -0.0015991289420713482 0.080415176712739275 0 -0.0034706899102493098 0.084087003272722213 0 0.00026370206409572985 0.084620276924752297 0 0.005396789941847141 0.077195915841775598 0 0.0040055561755659563 0.086065975190862898 0 0.0018909122267415091 0.08075164837055239 0 0.0040055561755659563 0.086065975190862898 0 0.0018909122267415091 0.08075164837055239 0 0.00026370206409572985 0.084620276924752297 0 0.0040055561755659563 0.086065975190862898 0 0.0017741704426303233 0.086474440892396739 0 0.00026370206409572985 0.084620276924752297 0 0.0017741704426303233 0.086474440892396739 0 -0.0012572526497313197 0.088114254673244033 0 0.0035489274649699301 0.087263869165622968 0 0.0040055561755659563 0.086065975190862898 0 0.0017741704426303233 0.086474440892396739 0 0.0035489274649699301 0.087263869165622968 0 -0.0034706899102493098 0.084087003272722213 0 0.00026370206409572985 0.084620276924752297 0 -0.0012572526497313197 0.088114254673244033 0 0.0017741704426303233 0.086474440892396739 0 0.00026370206409572985 0.084620276924752297 0 -0.0012572526497313197 0.088114254673244033 0 -0.007987479648798982 0.089115475584657461 0 -0.0067139409276240469 0.087974440778983046 0 -0.0063250951744599215 0.089810777957764903 0 -0.0067139409276240469 0.087974440778983046 0 -0.0051010745193937283 0.089547698381254967 0 -0.0063250951744599215 0.089810777957764903 0 -0.0067139409276240469 0.087974440778983046 0 -0.0051010745193937283 0.089547698381254967 0 -0.0036447546122548567 0.088602729344344891 0 -0.0037873554507063486 0.088804353682101544 0 -0.0013349346732892022 0.089497163639277122 0 -0.0051010745193937283 0.089547698381254967 0 -0.0039654129403363034 0.090666253351401285 0 -0.0030500999387358782 0.090304727000333401 0 -0.0051010745193937283 0.089547698381254967 0 -0.0036447546122548567 0.088602729344344891 0 -0.0030500999387358782 0.090304727000333401 0 -0.0039654129403363034 0.090666253351401285 0 -0.0049439605658069159 0.091208735265571855 0 -0.0035181498381563854 0.091650284825132558 0 -0.0049439605658069159 0.091208735265571855 0 -0.0035181498381563854 0.091650284825132558 0 -0.0038151446267687241 0.092614281408692878 0 -0.0051010745193937283 0.089547698381254967 0 -0.0039654129403363034 0.090666253351401285 0 -0.0049439605658069159 0.091208735265571855 0 -0.0051010745193937283 0.089547698381254967 0 -0.0049439605658069159 0.091208735265571855 0 -0.0063250951744599215 0.089810777957764903 0 -0.0049439605658069159 0.091208735265571855 0 -0.0063250951744599215 0.089810777957764903 0 -0.0070232477928570194 0.091628071892975782 0 -0.007987479648798982 0.089115475584657461 0 -0.0063250951744599215 0.089810777957764903 0 -0.0070232477928570194 0.091628071892975782 0 -0.0015118978363307812 0.091404962354871555 0 -0.0018734108626153115 0.09215283713390833 0 -0.0012673763694117659 0.092520942383554572 0 -0.0010190862243246383 0.092399945431979685 0 -0.0015118978363307812 0.091404962354871555 0 -0.0012673763694117659 0.092520942383554572 0 -0.0015118978363307812 0.091404962354871555 0 -0.0025696711853922063 0.091348054736123577 0 -0.0018734108626153115 0.09215283713390833 0 -0.00052066836102350087 0.090987293977604744 0 -0.0014047215763336137 0.091112511754644548 0 -0.0013349346732892022 0.089497163639277122 0 -0.00052066836102350087 0.090987293977604744 0 -0.0015118978363307812 0.091404962354871555 0 -0.0030500999387358782 0.090304727000333401 0 -0.0025696711853922063 0.091348054736123577 0 -0.0036447546122548567 0.088602729344344891 0 0.00070195288623933012 0.088660120301278678 0 -0.0030500999387358782 0.090304727000333401 0 -0.0039654129403363034 0.090666253351401285 0 -0.0030500999387358782 0.090304727000333401 0 -0.0025696711853922063 0.091348054736123577 0 -0.0025696711853922063 0.091348054736123577 0 -0.0026897198060628772 0.092265208475841951 0 -0.0018734108626153115 0.09215283713390833 0 -0.0039654129403363034 0.090666253351401285 0 -0.0025696711853922063 0.091348054736123577 0 -0.0035181498381563854 0.091650284825132558 0 -0.0025696711853922063 0.091348054736123577 0 -0.0035181498381563854 0.091650284825132558 0 -0.0026897198060628772 0.092265208475841951 0 -0.0035181498381563854 0.091650284825132558 0 -0.0026897198060628772 0.092265208475841951 0 -0.0038151446267687241 0.092614281408692878 0 -0.0026897198060628772 0.092265208475841951 0 -0.0018734108626153115 0.09215283713390833 0 -0.002062512764126374 0.092859196622032764 0 -0.0018734108626153115 0.09215283713390833 0 -0.0014016247963974807 0.093145601889272275 0 -0.002062512764126374 0.092859196622032764 0 -0.0018734108626153115 0.09215283713390833 0 -0.0012673763694117659 0.092520942383554572 0 -0.0014016247963974807 0.093145601889272275 0 -0.00097647065327048318 0.093271053445293794 0 -0.0012673763694117659 0.092520942383554572 0 -0.0014016247963974807 0.093145601889272275 0 -0.0014016247963974807 0.093145601889272275 0 -0.0013417906221953287 0.093853261309543301 0 -0.00094779809993659602 0.093774514198532499 0 -0.0014016247963974807 0.093145601889272275 0 -0.0013417906221953287 0.093853261309543301 0 -0.0018634057246487584 0.093530420607922493 0 -0.0013417906221953287 0.093853261309543301 0 -0.0018634057246487584 0.093530420607922493 0 -0.0016624304612466009 0.094136941872528315 0 -0.0014016247963974807 0.093145601889272275 0 -0.0018634057246487584 0.093530420607922493 0 -0.002062512764126374 0.092859196622032764 0 -0.0026897198060628772 0.092265208475841951 0 -0.002062512764126374 0.092859196622032764 0 -0.0026747771461888841 0.093163222769974172 0 -0.0018634057246487584 0.093530420607922493 0 -0.002062512764126374 0.092859196622032764 0 -0.0026747771461888841 0.093163222769974172 0 -0.0026897198060628772 0.092265208475841951 0 -0.0026747771461888841 0.093163222769974172 0 -0.0038151446267687241 0.092614281408692878 0 -0.0026747771461888841 0.093163222769974172 0 -0.0038151446267687241 0.092614281408692878 0 -0.0035463960037704933 0.093502726325155189 0 -0.0026747771461888841 0.093163222769974172 0 -0.0026697007308421248 0.093739524007628042 0 -0.0035463960037704933 0.093502726325155189 0 -0.0018634057246487584 0.093530420607922493 0 -0.002111583028533935 0.093756187847603575 0 -0.0016624304612466009 0.094136941872528315 0 -0.0023389483388302997 0.093436673447475138 0 -0.0023803607796845051 0.093445628154093852 0 -0.0018634057246487584 0.093530420607922493 0 -0.0026747771461888841 0.093163222769974172 0 -0.0026973257272666254 0.093877011663171223 0 -0.0023855809942056995 0.093442933275851556 0 -0.0023803607796845051 0.093445628154093852 0 -0.0023803607796845051 0.093445628154093852 0 -0.0032882384179516635 0.093274883272863568 0 -0.0022184375125797835 0.093299085007943983 0 -0.0022204584071428804 0.093432583350568033 0 -0.0023471003607847848 0.093362100482990942 0 -0.002111583028533935 0.093756187847603575 0 -0.0019635731574634387 0.09441629827071836 0 -0.0016624304612466009 0.094136941872528315 0 -0.0023803607796845051 0.093445628154093852 0 -0.0018048272319478179 0.093919126062434827 0 -0.0019635731574634387 0.09441629827071836 0 -0.0016624304612466009 0.094136941872528315 0 -0.0013887895693560793 0.09466858135280358 0 -0.0016624304612466009 0.094136941872528315 0 -0.0013887895693560793 0.09466858135280358 0 -0.00095353766960898519 0.094376280747102068 0 -0.0013417906221953287 0.093853261309543301 0 -0.0016624304612466009 0.094136941872528315 0 -0.00095353766960898519 0.094376280747102068 0 -0.0049439605658069159 0.091208735265571855 0 -0.0070232477928570194 0.091628071892975782 0 -0.0053511349938975871 0.092859006610385708 0 -0.0077481936648169164 0.094025953453148528 0 -0.0065930050870554556 0.093815264784723199 0 -0.0070232477928570194 0.091628071892975782 0 -0.0065930050870554556 0.093815264784723199 0 -0.0053511349938975871 0.092859006610385708 0 -0.005571866598301221 0.094259983524791827 0 -0.0065930050870554556 0.093815264784723199 0 -0.0070232477928570194 0.091628071892975782 0 -0.0053511349938975871 0.092859006610385708 0 -0.0044192332388898279 0.093523577814421985 0 -0.0053511349938975871 0.092859006610385708 0 -0.0038151446267687241 0.092614281408692878 0 -0.0044192332388898279 0.093523577814421985 0 -0.0053511349938975871 0.092859006610385708 0 -0.005571866598301221 0.094259983524791827 0 -0.0049439605658069159 0.091208735265571855 0 -0.0053511349938975871 0.092859006610385708 0 -0.0038151446267687241 0.092614281408692878 0 -0.0044192332388898279 0.093523577814421985 0 -0.0035463960037704933 0.093502726325155189 0 -0.0043420735785569872 0.094642649810892182 0 -0.0044192332388898279 0.093523577814421985 0 -0.0038151446267687241 0.092614281408692878 0 -0.0035463960037704933 0.093502726325155189 0 -0.0026697007308421248 0.093739524007628042 0 -0.0035463960037704933 0.093502726325155189 0 -0.0043420735785569872 0.094642649810892182 0 -0.0032882384179516635 0.093274883272863568 0 -0.0037875431089878474 0.092718441898769308 0 -0.0023471003607847848 0.093362100482990942 0 -0.0024778398875110038 0.093424389853175083 0 -0.0023493414871637135 0.093496427600436749 0 -0.0022204584071428804 0.093432583350568033 0 -0.0023471003607847848 0.093362100482990942 0 -0.0023493414871637135 0.093496427600436749 0 -0.0044192332388898279 0.093523577814421985 0 -0.0043420735785569872 0.094642649810892182 0 -0.005571866598301221 0.094259983524791827 0 -0.0043420735785569872 0.094642649810892182 0 -0.005571866598301221 0.094259983524791827 0 -0.0064591392777774244 0.095864310109495851 0 -0.0065930050870554556 0.093815264784723199 0 -0.005571866598301221 0.094259983524791827 0 -0.0064591392777774244 0.095864310109495851 0 -0.0077481936648169164 0.094025953453148528 0 -0.0065930050870554556 0.093815264784723199 0 -0.0064591392777774244 0.095864310109495851 0 0.00065244432815340188 0.094989725511879758 0 0.00050654501155482357 0.094906021589411679 0 0.00068419253948493884 0.094772692864309324 0 -0.0037875431089878474 0.092718441898769308 0 -0.0019282436583967881 0.093857632827020435 0 -0.0019282436583967881 0.093857632827020435 0 -0.0011658237793061366 0.094443036145071713 0 0.00050654501155482357 0.094906021589411679 0 0.00048506357052965942 0.094775623693349353 0 0.00037091161260625872 0.094822396193541922 0 0.00048506357052965942 0.094775623693349353 0 0.00068419253948493884 0.094772692864309324 0 0.00053070898000795593 0.094666110777448867 0 0.00050654501155482357 0.094906021589411679 0 0.00048506357052965942 0.094775623693349353 0 0.00068419253948493884 0.094772692864309324 0 0.00048506357052965942 0.094775623693349353 0 0.00038810040912175996 0.09465289208325163 0 0.00053070898000795593 0.094666110777448867 0 -0.0013887895693560793 0.09466858135280358 0 -0.00094726514202001985 0.095190925584040992 0 -0.00095667610139624866 0.094792537629292878 0 -0.0013887895693560793 0.09466858135280358 0 -0.00095667610139624866 0.094792537629292878 0 -0.00095353766960898519 0.094376280747102068 0 -0.0019635731574634387 0.09441629827071836 0 -0.0013887895693560793 0.09466858135280358 0 -0.001870390085401831 0.094949748825026783 0 -0.0022204584071428804 0.093432583350568033 0 -0.0023493414871637135 0.093496427600436749 0 -0.0022215828839710133 0.093568462071027245 0 -0.0018048272319478179 0.093919126062434827 0 -0.0011658237793061366 0.094443036145071713 0 -0.0011658237793061366 0.094443036145071713 0 -0.00068928764037643809 0.094661829529632854 0 0.0003973716151365142 0.095334989942844769 0 -9.7068907962012561e-06 0.095113258913235701 0 0.00040814204956772423 0.095004325914247553 0 0.00048506357052965942 0.094775623693349353 0 0.00037091161260625872 0.094822396193541922 0 0.00038810040912175996 0.09465289208325163 0 -0.0013887895693560793 0.09466858135280358 0 -0.001870390085401831 0.094949748825026783 0 -0.00094726514202001985 0.095190925584040992 0 -0.0011658237793061366 0.094443036145071713 0 -0.00062289782148463658 0.094873037507773483 0 -0.00094726514202001985 0.095190925584040992 0 -0.00035761762797388466 0.094974251376684957 0 -0.00057698963498132444 0.094784067936794988 0 -0.00094726514202001985 0.095190925584040992 0 -0.00057698963498132444 0.094784067936794988 0 -0.00095667610139624866 0.094792537629292878 0 -0.00094726514202001985 0.095190925584040992 0 -0.00035761762797388466 0.094974251376684957 0 -0.000319885439335019 0.095006728436202115 0 -0.00057698963498132444 0.094784067936794988 0 -0.00046024215324085287 0.094494501372761802 0 -0.00025978640252374022 0.094788622811014203 0 -0.00035761762797388466 0.094974251376684957 0 -0.00057698963498132444 0.094784067936794988 0 -0.00025978640252374022 0.094788622811014203 0 -0.00057698963498132444 0.094784067936794988 0 -0.00095667610139624866 0.094792537629292878 0 -0.00095353766960898519 0.094376280747102068 0 -0.00095353766960898519 0.094376280747102068 0 -0.00063699146540391598 0.094146503939318629 0 -0.00046024215324085287 0.094494501372761802 0 -0.00095353766960898519 0.094376280747102068 0 -0.00063699146540391598 0.094146503939318629 0 -0.00094779809993659602 0.093774514198532499 0 -0.00057698963498132444 0.094784067936794988 0 -0.00095353766960898519 0.094376280747102068 0 -0.00046024215324085287 0.094494501372761802 0 -0.0013417906221953287 0.093853261309543301 0 -0.00095353766960898519 0.094376280747102068 0 -0.00094779809993659602 0.093774514198532499 0 -0.00046024215324085287 0.094494501372761802 0 -0.0002060708069508656 0.094594773820816533 0 -0.00025978640252374022 0.094788622811014203 0 -0.00046024215324085287 0.094494501372761802 0 -0.00034172440125982946 0.094254447727754639 0 -0.0002060708069508656 0.094594773820816533 0 -0.00063699146540391598 0.094146503939318629 0 -0.00046024215324085287 0.094494501372761802 0 -0.00034172440125982946 0.094254447727754639 0 -0.00063699146540391598 0.094146503939318629 0 -0.00034172440125982946 0.094254447727754639 0 -0.00061568221230707664 0.093701959084681472 0 -0.00028882270850865999 0.094021102130396383 0 -0.00034172440125982946 0.094254447727754639 0 -0.00061568221230707664 0.093701959084681472 0 -0.00097647065327048318 0.093271053445293794 0 -0.00061568221230707664 0.093701959084681472 0 -0.00094779809993659602 0.093774514198532499 0 -0.00097647065327048318 0.093271053445293794 0 -0.0014016247963974807 0.093145601889272275 0 -0.00094779809993659602 0.093774514198532499 0 -0.00063699146540391598 0.094146503939318629 0 -0.00061568221230707664 0.093701959084681472 0 -0.00094779809993659602 0.093774514198532499 0 8.2026248459892114e-08 0.094998775903189753 0 -6.5996704463629625e-05 0.094564591015906682 0 -1.9454552073214655e-09 0.094999641733660087 0 -0.00034172440125982946 0.094254447727754639 0 -6.5996704463629625e-05 0.094564591015906682 0 -0.0002060708069508656 0.094594773820816533 0 -0.00028882270850865999 0.094021102130396383 0 -0.00034172440125982946 0.094254447727754639 0 -6.5996704463629625e-05 0.094564591015906682 0 -6.5996704463629625e-05 0.094564591015906682 0 -0.0002060708069508656 0.094594773820816533 0 -4.9556837357134096e-05 0.094880100434206499 0 -6.5996704463629625e-05 0.094564591015906682 0 -1.9454552073214655e-09 0.094999641733660087 0 -4.9556837357134096e-05 0.094880100434206499 0 -4.5257761600608955e-08 0.094999858685612046 0 -4.9556837357134096e-05 0.094880100434206499 0 -0.0001107997961102117 0.094954891829441793 0 -1.9454552073214655e-09 0.094999641733660087 0 -4.5257761600608955e-08 0.094999858685612046 0 -4.9556837357134096e-05 0.094880100434206499 0 -4.9556837357134096e-05 0.094880100434206499 0 -0.00025978640252374022 0.094788622811014203 0 -0.0001107997961102117 0.094954891829441793 0 -0.0002060708069508656 0.094594773820816533 0 -4.9556837357134096e-05 0.094880100434206499 0 -0.00025978640252374022 0.094788622811014203 0 -0.00035761762797388466 0.094974251376684957 0 -0.00025978640252374022 0.094788622811014203 0 -0.0001107997961102117 0.094954891829441793 0 -0.00035761762797388466 0.094974251376684957 0 -0.0001107997961102117 0.094954891829441793 0 -0.00016671284139030713 0.095038951994900145 0 -4.5257761600608955e-08 0.094999858685612046 0 -0.0001107997961102117 0.094954891829441793 0 -7.1782246471489342e-08 0.095000097751899409 0 -0.0001107997961102117 0.094954891829441793 0 -7.1782246471489342e-08 0.095000097751899409 0 -0.00016671284139030713 0.095038951994900145 0 -7.1782246471489342e-08 0.095000097751899409 0 -0.00016671284139030713 0.095038951994900145 0 -9.3024443642216207e-05 0.095002286707679892 0 -0.00016671284139030713 0.095038951994900145 0 -9.3024443642216207e-05 0.095002286707679892 0 -2.6275651005841345e-05 0.095016515044173869 0 -7.1782246471489342e-08 0.095000097751899409 0 -9.3024443642216207e-05 0.095002286707679892 0 -1.095920225975479e-07 0.095000009468777513 0 -9.7068907962012561e-06 0.095113258913235701 0 -0.00010582888199702215 0.094895391814145455 0 -0.000319885439335019 0.095006728436202115 0 -0.00062289782148463658 0.094873037507773483 0 -0.00052040268904768642 0.094940521059201047 0 -0.00035761762797388466 0.094974251376684957 0 -0.00016671284139030713 0.095038951994900145 0 -0.000319885439335019 0.095006728436202115 0 -0.00016671284139030713 0.095038951994900145 0 -0.000319885439335019 0.095006728436202115 0 -0.00034992017789497407 0.094811491350519653 0 -0.00013018872895016111 0.094888395167508549 0 -8.3323946076578964e-05 0.094811546756723625 0 -9.3024443642216207e-05 0.095002286707679892 0 -2.6275651005841345e-05 0.095016515044173869 0 -4.0236373080894383e-05 0.094928223792791033 0 -0.00010582888199702215 0.094895391814145455 0 -0.000319885439335019 0.095006728436202115 0 -0.00034992017789497407 0.094811491350519653 0 -0.00010582888199702215 0.094895391814145455 0 -0.00034992017789497407 0.094811491350519653 0 5.4321894922672416e-05 0.094676747887239232 0 -2.6275651005841345e-05 0.095016515044173869 0 -4.0236373080894383e-05 0.094928223792791033 0 0.00016839426642652194 0.094845448892688422 0 -8.3323946076578964e-05 0.094811546756723625 0 7.8499306109213669e-05 0.094601979804038408 0 -4.0236373080894383e-05 0.094928223792791033 0 6.6120419692655419e-06 0.094801496897607182 0 0.00016839426642652194 0.094845448892688422 0 -0.00034992017789497407 0.094811491350519653 0 5.9325919735072789e-05 0.094257227267318527 0 5.4321894922672416e-05 0.094676747887239232 0 -4.0236373080894383e-05 0.094928223792791033 0 6.6120419692655419e-06 0.094801496897607182 0 -9.1224705922111869e-05 0.094955633366925765 0 9.2747897734143681e-05 0.094810164804179337 0 8.8719189045661167e-06 0.094917201604641996 0 4.3571013992614332e-05 0.094809316166523758 0 0.00011061658906601167 0.094764951168029798 0 1.5774330621573019e-05 0.094920105372831423 0 4.3571013992614332e-05 0.094809316166523758 0 0.00011061658906601167 0.094764951168029798 0 8.8168076445691845e-05 0.094686346336838145 0 6.6120419692655419e-06 0.094801496897607182 0 0.00016839426642652194 0.094845448892688422 0 0.0002638777334890877 0.094471474136562053 0 9.2747897734143681e-05 0.094810164804179337 0 0.00018031197571053938 0.094735365301334196 0 0.00011061658906601167 0.094764951168029798 0 0.00015688152097558612 0.094602460380451947 0 0.0002638777334890877 0.094471474136562053 0 0.00011061658906601167 0.094764951168029798 0 8.8168076445691845e-05 0.094686346336838145 0 0.00015688152097558612 0.094602460380451947 0 -3.1260619747008023e-08 0.094999855946706624 0 8.8719189045661167e-06 0.094917201604641996 0 -1.5376434961789227e-08 0.094999996989297064 0 1.5774330621573019e-05 0.094920105372831423 0 2.8153120328359571e-06 0.094906012901891032 0 -9.3024443642216207e-05 0.095002286707679892 0 -1.095920225975479e-07 0.095000009468777513 0 -9.1224705922111869e-05 0.094955633366925765 0 -9.3024443642216207e-05 0.095002286707679892 0 -4.0236373080894383e-05 0.094928223792791033 0 -9.1224705922111869e-05 0.094955633366925765 0 4.3571013992614332e-05 0.094809316166523758 0 1.5774330621573019e-05 0.094920105372831423 0 2.8153120328359571e-06 0.094906012901891032 0 4.3571013992614332e-05 0.094809316166523758 0 2.8153120328359571e-06 0.094906012901891032 0 3.6383454781347808e-05 0.094770072115016479 0 -1.5376434961789227e-08 0.094999996989297064 0 2.8153120328359571e-06 0.094906012901891032 0 -7.6985965442431534e-09 0.09499976877634958 0 2.8153120328359571e-06 0.094906012901891032 0 -7.6985965442431534e-09 0.09499976877634958 0 6.6374605309366839e-06 0.094869797623995458 0 -7.6985965442431534e-09 0.09499976877634958 0 6.6374605309366839e-06 0.094869797623995458 0 4.7226162375241804e-09 0.094999756000181193 0 1.788073687438409e-05 0.09479736797140291 0 6.6374605309366839e-06 0.094869797623995458 0 4.7226162375241804e-09 0.094999756000181193 0 1.788073687438409e-05 0.09479736797140291 0 6.6374605309366839e-06 0.094869797623995458 0 4.1458299492523929e-05 0.094723738846558367 0 6.6374605309366839e-06 0.094869797623995458 0 3.6383454781347808e-05 0.094770072115016479 0 4.1458299492523929e-05 0.094723738846558367 0 2.8153120328359571e-06 0.094906012901891032 0 6.6374605309366839e-06 0.094869797623995458 0 3.6383454781347808e-05 0.094770072115016479 0 4.3571013992614332e-05 0.094809316166523758 0 3.6383454781347808e-05 0.094770072115016479 0 8.8168076445691845e-05 0.094686346336838145 0 3.6383454781347808e-05 0.094770072115016479 0 8.8168076445691845e-05 0.094686346336838145 0 8.3965786595617431e-05 0.09462497727889832 0 3.6383454781347808e-05 0.094770072115016479 0 8.3965786595617431e-05 0.09462497727889832 0 4.1458299492523929e-05 0.094723738846558367 0 0.00015688152097558612 0.094602460380451947 0 0.00014571200706744585 0.094547160229650845 0 0.00020318848205392369 0.094490018764850081 0 8.8168076445691845e-05 0.094686346336838145 0 0.00015688152097558612 0.094602460380451947 0 0.00014571200706744585 0.094547160229650845 0 8.3965786595617431e-05 0.09462497727889832 0 0.00014571200706744585 0.094547160229650845 0 0.00015908483492276706 0.094466945875937333 0 8.8168076445691845e-05 0.094686346336838145 0 8.3965786595617431e-05 0.09462497727889832 0 0.00014571200706744585 0.094547160229650845 0 0.00014571200706744585 0.094547160229650845 0 0.00015908483492276706 0.094466945875937333 0 0.0002552361461317174 0.094337490149648845 0 -0.0001727895671070059 0.094378461063008429 0 -4.4885931377519964e-05 0.094148737020844656 0 0.00011441573917869814 0.094163357331708358 0 3.1566475610600541e-05 0.094568121578507636 0 0.00016988278291189465 0.094419273733019976 0 0.00015908483492276706 0.094466945875937333 0 9.2587237056814635e-05 0.094552571775419522 0 0.00024182194559948589 0.0942748101906071 0 8.3965786595617431e-05 0.09462497727889832 0 0.00015908483492276706 0.094466945875937333 0 9.2587237056814635e-05 0.094552571775419522 0 1.788073687438409e-05 0.09479736797140291 0 4.1458299492523929e-05 0.094723738846558367 0 9.2587237056814635e-05 0.094552571775419522 0 -2.1603338737645446e-05 0.094769894731480883 0 3.1566475610600541e-05 0.094568121578507636 0 8.3965786595617431e-05 0.09462497727889832 0 4.1458299492523929e-05 0.094723738846558367 0 9.2587237056814635e-05 0.094552571775419522 0 -8.8062392478156269e-05 0.0946431940161781 0 -0.0001727895671070059 0.094378461063008429 0 -0.00019192824415188587 0.094477414361362172 0 -0.0001727895671070059 0.094378461063008429 0 -0.00019192824415188587 0.094477414361362172 0 -4.4885931377519964e-05 0.094148737020844656 0 -0.00019192824415188587 0.094477414361362172 0 -4.4885931377519964e-05 0.094148737020844656 0 -2.2754368708127163e-05 0.093737072216590417 0 -0.00034652472667292194 0.094726359666203144 0 -0.00017754220996550038 0.094749521707697459 0 -0.00023533821726955689 0.094836325502744387 0 -0.00095631050655853192 0.092939420118688831 0 -0.0011208489050988843 0.092453983694567782 0 -0.00019192824415188587 0.094477414361362172 0 -0.00017754220996550038 0.094749521707697459 0 -4.235162888358807e-05 0.094810200682386311 0 -0.00019192824415188587 0.094477414361362172 0 -0.00034652472667292194 0.094726359666203144 0 -0.00017754220996550038 0.094749521707697459 0 -4.235162888358807e-05 0.094810200682386311 0 -9.7324518579820109e-05 0.094868260522264977 0 -3.1792891827690178e-05 0.094930663406463167 0 -0.00017754220996550038 0.094749521707697459 0 -4.235162888358807e-05 0.094810200682386311 0 -9.7324518579820109e-05 0.094868260522264977 0 -4.235162888358807e-05 0.094810200682386311 0 -2.5593469067071643e-09 0.094999899032994467 0 -3.1792891827690178e-05 0.094930663406463167 0 -8.8062392478156269e-05 0.0946431940161781 0 -4.235162888358807e-05 0.094810200682386311 0 3.915053293489191e-08 0.094999503074689087 0 -2.1603338737645446e-05 0.094769894731480883 0 -3.8963963056044956e-08 0.094999493222461956 0 -4.235162888358807e-05 0.094810200682386311 0 -2.5593469067071643e-09 0.094999899032994467 0 3.915053293489191e-08 0.094999503074689087 0 -8.8062392478156269e-05 0.0946431940161781 0 -0.00019192824415188587 0.094477414361362172 0 -4.235162888358807e-05 0.094810200682386311 0 0.00057180859443255682 0.093560108857129107 0 0.00041440739404997721 0.09380448779296624 0 0.00066314140140296004 0.093669832054383478 0 0.00072426716918125213 0.093473258038021909 0 0.00057180859443255682 0.093560108857129107 0 0.00066314140140296004 0.093669832054383478 0 0.00072426716918125213 0.093473258038021909 0 0.00066314140140296004 0.093669832054383478 0 0.00082190339831545421 0.093431306074249681 0 0.00072426716918125213 0.093473258038021909 0 0.00063345694723917849 0.093398657383087155 0 0.00057180859443255682 0.093560108857129107 0 0.00072426716918125213 0.093473258038021909 0 0.0008371405032116877 0.09339241440744854 0 0.00073994910044709427 0.093330855058299411 0 0.00072426716918125213 0.093473258038021909 0 0.00063345694723917849 0.093398657383087155 0 0.00073994910044709427 0.093330855058299411 0 0.00063345694723917849 0.093398657383087155 0 0.00057180859443255682 0.093560108857129107 0 0.00049076614052398992 0.093453435442393581 0 0.00057180859443255682 0.093560108857129107 0 0.00049076614052398992 0.093453435442393581 0 0.00035162376282023934 0.093640257892539214 0 0.00057180859443255682 0.093560108857129107 0 0.00035162376282023934 0.093640257892539214 0 0.00041440739404997721 0.09380448779296624 0 0.00049076614052398992 0.093453435442393581 0 0.00035162376282023934 0.093640257892539214 0 0.00029538848448539576 0.093340469642439042 0 -2.2754368708127163e-05 0.093737072216590417 0 0.00035162376282023934 0.093640257892539214 0 0.0001631526847792909 0.093911467448900401 0 -2.2754368708127163e-05 0.093737072216590417 0 0.00035162376282023934 0.093640257892539214 0 0.00029538848448539576 0.093340469642439042 0 -4.4885931377519964e-05 0.094148737020844656 0 0.0001631526847792909 0.093911467448900401 0 0.00011441573917869814 0.094163357331708358 0 -4.4885931377519964e-05 0.094148737020844656 0 -2.2754368708127163e-05 0.093737072216590417 0 0.0001631526847792909 0.093911467448900401 0 0.0001631526847792909 0.093911467448900401 0 0.00041440739404997721 0.09380448779296624 0 0.00011441573917869814 0.094163357331708358 0 0.00035162376282023934 0.093640257892539214 0 0.0001631526847792909 0.093911467448900401 0 0.00041440739404997721 0.09380448779296624 0 0.00026657040879773123 0.094357894831611208 0 0.00016988278291189465 0.094419273733019976 0 0.00041440739404997721 0.09380448779296624 0 0.0004329708181164952 0.093968309921573318 0 0.00011441573917869814 0.094163357331708358 0 0.0004329708181164952 0.093968309921573318 0 0.00024182194559948589 0.0942748101906071 0 0.0002552361461317174 0.094337490149648845 0 0.00015908483492276706 0.094466945875937333 0 0.00024182194559948589 0.0942748101906071 0 0.0002552361461317174 0.094337490149648845 0 0.00015688152097558612 0.094602460380451947 0 0.00020318848205392369 0.094490018764850081 0 0.0002638777334890877 0.094471474136562053 0 0.00014571200706744585 0.094547160229650845 0 0.0002552361461317174 0.094337490149648845 0 0.00020318848205392369 0.094490018764850081 0 0.0002552361461317174 0.094337490149648845 0 0.00036799866641657001 0.094205457510147431 0 0.0002638777334890877 0.094471474136562053 0 0.0002552361461317174 0.094337490149648845 0 0.00020318848205392369 0.094490018764850081 0 0.0002638777334890877 0.094471474136562053 0 0.00036799866641657001 0.094205457510147431 0 0.00053092373429926764 0.093978584231363307 0 0.00040842631122783347 0.094154175774607884 0 0.0004329708181164952 0.093968309921573318 0 0.0002552361461317174 0.094337490149648845 0 0.00036799866641657001 0.094205457510147431 0 0.0004329708181164952 0.093968309921573318 0 0.00036799866641657001 0.094205457510147431 0 0.00053092373429926764 0.093978584231363307 0 0.0004329708181164952 0.093968309921573318 0 0.00053092373429926764 0.093978584231363307 0 0.00066314140140296004 0.093669832054383478 0 0.00041440739404997721 0.09380448779296624 0 0.0004329708181164952 0.093968309921573318 0 0.00066314140140296004 0.093669832054383478 0 0.00066314140140296004 0.093669832054383478 0 0.00074033235449597718 0.093783187343586497 0 0.00087072753962352063 0.09350403611904487 0 0.00053092373429926764 0.093978584231363307 0 0.00066314140140296004 0.093669832054383478 0 0.00074033235449597718 0.093783187343586497 0 0.00053092373429926764 0.093978584231363307 0 0.00074033235449597718 0.093783187343586497 0 0.00065152134496448532 0.094097827914734589 0 0.00053092373429926764 0.093978584231363307 0 0.00049222523439805489 0.094209678943755176 0 0.00040842631122783347 0.094154175774607884 0 0.00053092373429926764 0.093978584231363307 0 0.00065152134496448532 0.094097827914734589 0 0.00049222523439805489 0.094209678943755176 0 0.00049222523439805489 0.094209678943755176 0 0.00041295853119837793 0.094368607017276784 0 0.00054714979443509814 0.094386203220932233 0 0.00065152134496448532 0.094097827914734589 0 0.00049222523439805489 0.094209678943755176 0 0.00054714979443509814 0.094386203220932233 0 0.00065152134496448532 0.094097827914734589 0 0.00054714979443509814 0.094386203220932233 0 0.00078236650642798293 0.09428665495357498 0 0.00036799866641657001 0.094205457510147431 0 0.00016839426642652194 0.094845448892688422 0 0.0002638777334890877 0.094471474136562053 0 0.00019264819117191469 0.094459643770715307 0 7.8499306109213669e-05 0.094601979804038408 0 5.9325919735072789e-05 0.094257227267318527 0 0.00030930812500502798 0.094218666896761991 0 0.00024589147102313177 0.094283954844335924 0 0.00036799866641657001 0.094205457510147431 0 5.9325919735072789e-05 0.094257227267318527 0 0.00030930812500502798 0.094218666896761991 0 0.00030930812500502798 0.094218666896761991 0 0.00035455802922304579 0.094263519330416962 0 0.00024589147102313177 0.094283954844335924 0 0.00036799866641657001 0.094205457510147431 0 0.00030930812500502798 0.094218666896761991 0 0.00040842631122783347 0.094154175774607884 0 0.00030930812500502798 0.094218666896761991 0 0.00040842631122783347 0.094154175774607884 0 0.00035455802922304579 0.094263519330416962 0 0.00049222523439805489 0.094209678943755176 0 0.00040842631122783347 0.094154175774607884 0 0.00035455802922304579 0.094263519330416962 0 0.00049222523439805489 0.094209678943755176 0 0.00035455802922304579 0.094263519330416962 0 0.00041295853119837793 0.094368607017276784 0 0.00041295853119837793 0.094368607017276784 0 0.00024120345801698881 0.094410726876557299 0 0.00039499409512260664 0.094573986099226001 0 0.00035455802922304579 0.094263519330416962 0 0.00024589147102313177 0.094283954844335924 0 0.00024120345801698881 0.094410726876557299 0 0.00035455802922304579 0.094263519330416962 0 0.00041295853119837793 0.094368607017276784 0 0.00024120345801698881 0.094410726876557299 0 5.9325919735072789e-05 0.094257227267318527 0 0.00024120345801698881 0.094410726876557299 0 5.4321894922672416e-05 0.094676747887239232 0 5.9325919735072789e-05 0.094257227267318527 0 0.00024589147102313177 0.094283954844335924 0 0.00024120345801698881 0.094410726876557299 0 -0.00010582888199702215 0.094895391814145455 0 5.4321894922672416e-05 0.094676747887239232 0 0.00017330307125129569 0.094836737222717515 0 5.4321894922672416e-05 0.094676747887239232 0 0.00039499409512260664 0.094573986099226001 0 0.00017330307125129569 0.094836737222717515 0 0.00024120345801698881 0.094410726876557299 0 5.4321894922672416e-05 0.094676747887239232 0 0.00039499409512260664 0.094573986099226001 0 -0.00054395818033209711 0.094657328957693562 0 -0.00068928764037643809 0.094661829529632854 0 0.00039499409512260664 0.094573986099226001 0 0.00040814204956772423 0.095004325914247553 0 0.00017330307125129569 0.094836737222717515 0 0.00039499409512260664 0.094573986099226001 0 0.00038810040912175996 0.09465289208325163 0 0.00049279095073416891 0.09456919392172207 0 -9.7068907962012561e-06 0.095113258913235701 0 0.00040814204956772423 0.095004325914247553 0 0.00017330307125129569 0.094836737222717515 0 -9.7068907962012561e-06 0.095113258913235701 0 -0.00010582888199702215 0.094895391814145455 0 0.00017330307125129569 0.094836737222717515 0 0.00054714979443509814 0.094386203220932233 0 0.00064627961718132919 0.094553327166272516 0 0.00078236650642798293 0.09428665495357498 0 0.00054714979443509814 0.094386203220932233 0 0.00049279095073416891 0.09456919392172207 0 0.00064627961718132919 0.094553327166272516 0 0.00041295853119837793 0.094368607017276784 0 0.00039499409512260664 0.094573986099226001 0 0.00054714979443509814 0.094386203220932233 0 0.00039499409512260664 0.094573986099226001 0 0.00054714979443509814 0.094386203220932233 0 0.00049279095073416891 0.09456919392172207 0 0.00049279095073416891 0.09456919392172207 0 0.00053070898000795593 0.094666110777448867 0 0.00064627961718132919 0.094553327166272516 0 0.00038810040912175996 0.09465289208325163 0 0.00049279095073416891 0.09456919392172207 0 0.00053070898000795593 0.094666110777448867 0 0.00068419253948493884 0.094772692864309324 0 0.00053070898000795593 0.094666110777448867 0 0.00064627961718132919 0.094553327166272516 0 0.00068419253948493884 0.094772692864309324 0 0.00064627961718132919 0.094553327166272516 0 0.00079910874623560573 0.094646052591131444 0 0.00064627961718132919 0.094553327166272516 0 0.00079910874623560573 0.094646052591131444 0 0.0008544527785078526 0.094502419709191626 0 0.00079910874623560573 0.094646052591131444 0 0.0008544527785078526 0.094502419709191626 0 0.00097686077626830416 0.09464651670365494 0 0.0008544527785078526 0.094502419709191626 0 0.00078236650642798293 0.09428665495357498 0 0.0010930325543860833 0.094350527301898801 0 0.00064627961718132919 0.094553327166272516 0 0.0008544527785078526 0.094502419709191626 0 0.00078236650642798293 0.09428665495357498 0 0.0031128928849645009 0.08492081401188982 0 0.0038375178945101039 0.081311647852701882 0 0.0022850449632164016 0.082281179597899087 0 0.0008544527785078526 0.094502419709191626 0 0.0010930325543860833 0.094350527301898801 0 0.00097686077626830416 0.09464651670365494 0 0.00043454272387780573 0.08937987046409776 0 -0.00075742978717399808 0.087992931085418932 0 0.0020261246215344153 0.080406958672899417 0 0.0038375178945101039 0.081311647852701882 0 0.0022850449632164016 0.082281179597899087 0 0.0020261246215344153 0.080406958672899417 0 0.0022850449632164016 0.082281179597899087 0 0.0012154964444597018 0.081682135055861582 0 0.00064915533958146451 0.080751888668047195 0 0.0012154964444597018 0.081682135055861582 0 -0.00026468611361201929 0.082122907040322768 0 0.001131670044025304 0.083419831946817471 0 -0.00026468611361201929 0.082122907040322768 0 -0.00039660696472532906 0.083917255196411356 0 0.0012154964444597018 0.081682135055861582 0 0.001131670044025304 0.083419831946817471 0 -0.00026468611361201929 0.082122907040322768 0 0.0022850449632164016 0.082281179597899087 0 0.0012154964444597018 0.081682135055861582 0 0.001131670044025304 0.083419831946817471 0 -0.001130615298264947 0.080629217716118098 0 -0.0024279839458035976 0.082033438750444082 0 -0.0037813343080486299 0.081789447311962651 0 -0.0016671354144905288 0.079507246626745118 0 -0.0023300761768424521 0.079999334659033805 0 -0.001130615298264947 0.080629217716118098 0 -0.0024279839458035976 0.082033438750444082 0 -0.0013948811559550459 0.081952673541304297 0 -0.001130615298264947 0.080629217716118098 0 -0.00026468611361201929 0.082122907040322768 0 -0.0013948811559550459 0.081952673541304297 0 0.00064915533958146451 0.080751888668047195 0 -0.001130615298264947 0.080629217716118098 0 -0.00026468611361201929 0.082122907040322768 0 -0.00026468611361201929 0.082122907040322768 0 -0.0013948811559550459 0.081952673541304297 0 -0.0017600516831507013 0.083051517944981348 0 -0.00026468611361201929 0.082122907040322768 0 -0.0017600516831507013 0.083051517944981348 0 -0.00039660696472532906 0.083917255196411356 0 -0.0024279839458035976 0.082033438750444082 0 -0.0017600516831507013 0.083051517944981348 0 -0.003167126974260857 0.082803494085257209 0 -0.0024279839458035976 0.082033438750444082 0 -0.0013948811559550459 0.081952673541304297 0 -0.0017600516831507013 0.083051517944981348 0 -0.0014102856863863447 0.08537710032133386 0 -0.0032485958355685171 0.084471963423852769 0 -0.0030904365150015633 0.087155697290134657 0 -0.0017600516831507013 0.083051517944981348 0 -0.0014102856863863447 0.08537710032133386 0 -0.0032485958355685171 0.084471963423852769 0 -0.0017600516831507013 0.083051517944981348 0 -0.00039660696472532906 0.083917255196411356 0 -0.0014102856863863447 0.08537710032133386 0 -0.00039660696472532906 0.083917255196411356 0 -0.0014102856863863447 0.08537710032133386 0 0.00060659727081315408 0.08564648766848193 0 0.0031128928849645009 0.08492081401188982 0 0.001131670044025304 0.083419831946817471 0 0.00060659727081315408 0.08564648766848193 0 0.0031128928849645009 0.08492081401188982 0 0.0022850449632164016 0.082281179597899087 0 0.001131670044025304 0.083419831946817471 0 0.001131670044025304 0.083419831946817471 0 -0.00039660696472532906 0.083917255196411356 0 0.00060659727081315408 0.08564648766848193 0 0.00060659727081315408 0.08564648766848193 0 -0.00092877925250213294 0.087651876852046798 0 0.0023030723369393599 0.088691135870419116 0 0.0031128928849645009 0.08492081401188982 0 0.00060659727081315408 0.08564648766848193 0 0.0023030723369393599 0.088691135870419116 0 -0.0014102856863863447 0.08537710032133386 0 -0.00092877925250213294 0.087651876852046798 0 -0.0030904365150015633 0.087155697290134657 0 -0.0014102856863863447 0.08537710032133386 0 0.00060659727081315408 0.08564648766848193 0 -0.00092877925250213294 0.087651876852046798 0 -0.00092877925250213294 0.087651876852046798 0 -0.0020013879151846588 0.08967861765881778 0 -0.0030904365150015633 0.087155697290134657 0 -0.00092877925250213294 0.087651876852046798 0 -0.0020013879151846588 0.08967861765881778 0 -3.1748250338027226e-05 0.089809780197838876 0 -0.0020013879151846588 0.08967861765881778 0 -3.1748250338027226e-05 0.089809780197838876 0 -0.00085427623917652164 0.091540104031508515 0 0.00076419529347982232 0.090855301097254634 0 0.00075023808997386253 0.091647756116550572 0 -3.1748250338027226e-05 0.089809780197838876 0 0.0023030723369393599 0.088691135870419116 0 0.0010373350957959898 0.092894290104130209 0 -0.00092877925250213294 0.087651876852046798 0 -3.1748250338027226e-05 0.089809780197838876 0 0.0023030723369393599 0.088691135870419116 0 0.0011922422455567618 0.09388678200470682 0 0.00089566223836925302 0.093992942420634273 0 0.00093447115197151489 0.09361631960419102 0 0.0011922422455567618 0.09388678200470682 0 0.00093447115197151489 0.09361631960419102 0 0.0010373350957959898 0.092894290104130209 0 0.00074033235449597718 0.093783187343586497 0 0.00065152134496448532 0.094097827914734589 0 0.00089566223836925302 0.093992942420634273 0 0.00074033235449597718 0.093783187343586497 0 0.00089566223836925302 0.093992942420634273 0 0.00093447115197151489 0.09361631960419102 0 0.00078236650642798293 0.09428665495357498 0 0.0010930325543860833 0.094350527301898801 0 0.00089566223836925302 0.093992942420634273 0 0.00065152134496448532 0.094097827914734589 0 0.00078236650642798293 0.09428665495357498 0 0.00089566223836925302 0.093992942420634273 0 0.0010930325543860833 0.094350527301898801 0 0.0011922422455567618 0.09388678200470682 0 0.00089566223836925302 0.093992942420634273 0 0.00043454272387780573 0.08937987046409776 0 0.00076419529347982232 0.090855301097254634 0 -0.0079381175853590544 0.026114474896014862 0 -0.0081455887480792466 0.026250744868753624 0 -0.0080077050580833198 0.026010525613040632 0 -0.0081455887480792466 0.026250744868753624 0 -0.0082596589889662852 0.026156396942236634 0 -0.0080077050580833198 0.026010525613040632 0 -0.0079381175853590544 0.026114474896014862 0 -0.0082850095582379189 0.026624680821819565 0 -0.0081455887480792466 0.026250744868753624 0 -0.0082128857737597087 0.027019307023107876 0 -0.0079381175853590544 0.026114474896014862 0 -0.0082850095582379189 0.026624680821819565 0 -0.0082850095582379189 0.026624680821819565 0 -0.0081455887480792466 0.026250744868753624 0 -0.0084101113121765759 0.026445236950536383 0 -0.008523597007407414 0.026228370219857973 0 -0.0084101113121765759 0.026445236950536383 0 -0.0082596589889662852 0.026156396942236634 0 -0.0081455887480792466 0.026250744868753624 0 -0.0084101113121765759 0.026445236950536383 0 -0.0082596589889662852 0.026156396942236634 0 -0.008523597007407414 0.026228370219857973 0 -0.0084101113121765759 0.026445236950536383 0 -0.0089352557736031048 0.026724390784213743 0 -0.007065392553725687 0.054966908997722302 0 -0.005923290500695024 0.055295001098673559 0 -0.006501173753736344 0.08568814470848192 0 -0.0045095643889449671 0.082566358449921037 0 -0.0045249558370676988 0.085689586722157596 0 -0.0082850095582379189 0.026624680821819565 0 -0.0084101113121765759 0.026445236950536383 0 -0.0086098008674417859 0.026936958753396568 0 -0.0084101113121765759 0.026445236950536383 0 -0.0086098008674417859 0.026936958753396568 0 -0.0089352557736031048 0.026724390784213743 0 -0.0084425223392799748 0.027152265716096878 0 -0.0082850095582379189 0.026624680821819565 0 -0.0086098008674417859 0.026936958753396568 0 -0.0021573477505944976 0.078729737535269781 0 -0.0045095643889449671 0.082566358449921037 0 -0.0037813343080486299 0.081789447311962651 0 -0.0089052128007160881 0.027415416537457837 0 -0.0086098008674417859 0.026936958753396568 0 -0.0089352557736031048 0.026724390784213743 0 -0.0045095643889449671 0.082566358449921037 0 -0.003167126974260857 0.082803494085257209 0 -0.0032485958355685171 0.084471963423852769 0 -0.0024279839458035976 0.082033438750444082 0 -0.0037813343080486299 0.081789447311962651 0 -0.003167126974260857 0.082803494085257209 0 -0.0045095643889449671 0.082566358449921037 0 -0.0037813343080486299 0.081789447311962651 0 -0.003167126974260857 0.082803494085257209 0 -0.0017600516831507013 0.083051517944981348 0 -0.003167126974260857 0.082803494085257209 0 -0.0032485958355685171 0.084471963423852769 0 -0.0032485958355685171 0.084471963423852769 0 -0.0045249558370676988 0.085689586722157596 0 -0.0030904365150015633 0.087155697290134657 0 -0.0045095643889449671 0.082566358449921037 0 -0.0032485958355685171 0.084471963423852769 0 -0.0045249558370676988 0.085689586722157596 0 -0.0045249558370676988 0.085689586722157596 0 -0.0030904365150015633 0.087155697290134657 0 -0.0052806850079228484 0.088573396482308664 0 -0.0030904365150015633 0.087155697290134657 0 -0.0035197499271683464 0.088899439732350538 0 -0.0052806850079228484 0.088573396482308664 0 -0.0020013879151846588 0.08967861765881778 0 -0.0030904365150015633 0.087155697290134657 0 -0.0035197499271683464 0.088899439732350538 0 -0.0037945721743090949 0.090524348893442061 0 -0.0052806850079228484 0.088573396482308664 0 -0.0053454411798736249 0.091998794695090133 0 -0.0020013879151846588 0.08967861765881778 0 -0.0035197499271683464 0.088899439732350538 0 -0.0037945721743090949 0.090524348893442061 0 -0.0020013879151846588 0.08967861765881778 0 -0.0037945721743090949 0.090524348893442061 0 -0.0022039786370660957 0.092044241312711925 0 -0.0035197499271683464 0.088899439732350538 0 -0.0037945721743090949 0.090524348893442061 0 -0.0052806850079228484 0.088573396482308664 0 -0.0064788796047899342 0.051925958382159264 0 -0.0045477735481175684 0.056939081935567029 0 -0.0052806850079228484 0.088573396482308664 0 -0.0086039547245934621 0.088763664181278984 0 -0.0053454411798736249 0.091998794695090133 0 -0.006501173753736344 0.08568814470848192 0 -0.0052806850079228484 0.088573396482308664 0 -0.0086039547245934621 0.088763664181278984 0 -0.006501173753736344 0.08568814470848192 0 -0.0045249558370676988 0.085689586722157596 0 -0.0052806850079228484 0.088573396482308664 0 -0.0082596589889662852 0.026156396942236634 0 -0.0083318365295444903 0.026115547632757322 0 -0.0080077050580833198 0.026010525613040632 0 -0.008523597007407414 0.026228370219857973 0 -0.0082596589889662852 0.026156396942236634 0 -0.0083318365295444903 0.026115547632757322 0 -0.007065392553725687 0.054966908997722302 0 -0.0064788796047899342 0.051925958382159264 0 -0.0098226889535987915 0.022834445321906201 0 -0.010142057734925679 0.022691110634435751 0 -0.0087675771445895993 0.024982456863471714 0 -0.0098226889535987915 0.022834445321906201 0 -0.0096508327177377406 0.02255756644611832 0 -0.0087675771445895993 0.024982456863471714 0 -0.0098226889535987915 0.022834445321906201 0 -0.0099782720603184064 0.022755012285400077 0 -0.010142057734925679 0.022691110634435751 0 -0.0063470785254534636 0.051596224772406371 0 -0.0064788796047899342 0.051925958382159264 0 -0.0099782720603184064 0.022755012285400077 0 -0.010142057734925679 0.022691110634435751 0 -0.0097501413850447083 0.022984473544602743 0 -0.010142057734925679 0.022691110634435751 0 -0.0095892026555293684 0.022265288406099541 0 -0.0099129840182234936 0.02160638355225351 0 -0.010142057734925679 0.022691110634435751 0 -0.0095892026555293684 0.022265288406099541 0 -0.0097501413850447083 0.022984473544602743 0 -0.0095892026555293684 0.022265288406099541 0 -0.0097501413850447083 0.022984473544602743 0 -0.0088564392616035052 0.022773807413306372 0 -0.0099782720603184064 0.022755012285400077 0 -0.0097501413850447083 0.022984473544602743 0 -0.0095526997904031696 0.023809182626831338 0 -0.0097501413850447083 0.022984473544602743 0 -0.0095526997904031696 0.023809182626831338 0 -0.0088564392616035052 0.022773807413306372 0 -0.0064788796047899342 0.051925958382159264 0 -0.01242218571765883 0.033980844342714651 0 -0.010359798991641515 0.020534064746070134 0 -0.0098532324617610356 0.020802262053228233 0 -0.0094071713879088411 0.020061322398835561 0 -0.010359798991641515 0.020534064746070134 0 -0.010822084036309302 0.020207651453610722 0 -0.0094071713879088411 0.020061322398835561 0 -0.010359798991641515 0.020534064746070134 0 -0.0098532324617610356 0.020802262053228233 0 -0.010361819228361116 0.021098075329069849 0 -0.0098532324617610356 0.020802262053228233 0 -0.0099129840182234936 0.02160638355225351 0 -0.0093469177810135869 0.02097493189361849 0 -0.0095892026555293684 0.022265288406099541 0 -0.0099129840182234936 0.02160638355225351 0 -0.0093469177810135869 0.02097493189361849 0 -0.010142057734925679 0.022691110634435751 0 -0.0099129840182234936 0.02160638355225351 0 -0.010528606340481689 0.021746270414764086 0 -0.0098532324617610356 0.020802262053228233 0 -0.0099129840182234936 0.02160638355225351 0 -0.010361819228361116 0.021098075329069849 0 -0.0099129840182234936 0.02160638355225351 0 -0.010361819228361116 0.021098075329069849 0 -0.010528606340481689 0.021746270414764086 0 -0.010142057734925679 0.022691110634435751 0 -0.010528606340481689 0.021746270414764086 0 -0.011426984008594867 0.02138461326139144 0 -0.010361819228361116 0.021098075329069849 0 -0.010820044337714409 0.021266289600897211 0 -0.010966675663080809 0.020863431061886033 0 -0.014057293229746234 0.029383902850073029 0 -0.013871306303980792 0.032875093767254698 0 -0.010361819228361116 0.021098075329069849 0 -0.010820044337714409 0.021266289600897211 0 -0.010528606340481689 0.021746270414764086 0 -0.010820044337714409 0.021266289600897211 0 -0.010528606340481689 0.021746270414764086 0 -0.011426984008594867 0.02138461326139144 0 -0.010820044337714409 0.021266289600897211 0 -0.010966675663080809 0.020863431061886033 0 -0.011426984008594867 0.02138461326139144 0 -0.010966675663080809 0.020863431061886033 0 -0.011366975638164155 0.020892078634636532 0 -0.011426984008594867 0.02138461326139144 0 -0.010966675663080809 0.020863431061886033 0 -0.011357097609045415 0.020573585035636579 0 -0.011366975638164155 0.020892078634636532 0 -0.010359798991641515 0.020534064746070134 0 -0.010361819228361116 0.021098075329069849 0 -0.010966675663080809 0.020863431061886033 0 -0.010359798991641515 0.020534064746070134 0 -0.010966675663080809 0.020863431061886033 0 -0.010926324452533663 0.020526173512000843 0 -0.010359798991641515 0.020534064746070134 0 -0.010926324452533663 0.020526173512000843 0 -0.010822084036309302 0.020207651453610722 0 -0.010926324452533663 0.020526173512000843 0 -0.011357097609045415 0.020573585035636579 0 -0.010822084036309302 0.020207651453610722 0 -0.010966675663080809 0.020863431061886033 0 -0.010926324452533663 0.020526173512000843 0 -0.011357097609045415 0.020573585035636579 0 -0.011357097609045415 0.020573585035636579 0 -0.011713166055260717 0.020747643501482775 0 -0.012476723602933311 0.020468652546331338 0 -0.011357097609045415 0.020573585035636579 0 -0.012476723602933311 0.020468652546331338 0 -0.010822084036309302 0.020207651453610722 0 -0.0079670754700614643 0.050205806503827749 0 -0.011537244797037143 0.033011062806125313 0 -0.011713166055260717 0.020747643501482775 0 -0.011426984008594867 0.02138461326139144 0 -0.012476723602933311 0.020468652546331338 0 -0.013871306303980792 0.032875093767254698 0 -0.0079670754700614643 0.050205806503827749 0 -0.011713166055260717 0.020747643501482775 0 -0.011366975638164155 0.020892078634636532 0 -0.011426984008594867 0.02138461326139144 0 -0.011357097609045415 0.020573585035636579 0 -0.011713166055260717 0.020747643501482775 0 -0.011366975638164155 0.020892078634636532 0 -0.0087675771445895993 0.024982456863471714 0 -0.007324096986032461 0.024726312222879625 0 -0.0061292838739693831 0.027680528545675147 0 -0.0096508327177377406 0.02255756644611832 0 -0.0087675771445895993 0.024982456863471714 0 -0.007324096986032461 0.024726312222879625 0 -0.0053454411798736249 0.091998794695090133 0 -0.0033145632243577212 0.092367939258482995 0 -0.0019205673361665072 0.094756650648807395 0 -0.0037945721743090949 0.090524348893442061 0 -0.0053454411798736249 0.091998794695090133 0 -0.0033145632243577212 0.092367939258482995 0 -0.0037945721743090949 0.090524348893442061 0 -0.0033145632243577212 0.092367939258482995 0 -0.0022039786370660957 0.092044241312711925 0 -0.0045477735481175684 0.056939081935567029 0 -0.00038618159695998116 0.061746974645260209 0 -0.007324096986032461 0.024726312222879625 0 -0.0061292838739693831 0.027680528545675147 0 -0.0043338305395316645 0.02752901519704511 0 -0.0079670754700614643 0.050205806503827749 0 -0.00038618159695998116 0.061746974645260209 0 -0.0070018708121809574 0.02307281596719479 0 -0.0062122188100397491 0.025502628529097928 0 -0.00076166490542566891 0.02521829038234696 0 -0.0077401723729713665 0.018758240268264569 0 -0.0070018708121809574 0.02307281596719479 0 -0.00076166490542566891 0.02521829038234696 0 -0.0077401723729713665 0.018758240268264569 0 -0.0070018708121809574 0.02307281596719479 0 -0.010492725444859706 0.021685709601906616 0 -0.0098244068848311692 0.024206166533797882 0 -0.0070018708121809574 0.02307281596719479 0 -0.010492725444859706 0.021685709601906616 0 -0.0098244068848311692 0.024206166533797882 0 -0.0070018708121809574 0.02307281596719479 0 -0.0062122188100397491 0.025502628529097928 0 -0.0062122188100397491 0.025502628529097928 0 -0.0088959458836827161 0.027564244212322366 0 -0.0043171858012841444 0.029047806681880055 0 -0.0088959458836827161 0.027564244212322366 0 -0.0043171858012841444 0.029047806681880055 0 -0.0090814872357743229 0.031560619452033555 0 -0.0098244068848311692 0.024206166533797882 0 -0.0062122188100397491 0.025502628529097928 0 -0.0088959458836827161 0.027564244212322366 0 -0.0098244068848311692 0.024206166533797882 0 -0.0088959458836827161 0.027564244212322366 0 -0.012598457550598583 0.025494781582685328 0 -0.0088959458836827161 0.027564244212322366 0 -0.012598457550598583 0.025494781582685328 0 -0.012375289691750883 0.029078250152685663 0 -0.0088959458836827161 0.027564244212322366 0 -0.012375289691750883 0.029078250152685663 0 -0.0090814872357743229 0.031560619452033555 0 -0.012375289691750883 0.029078250152685663 0 -0.015850348544568058 0.026540239315189725 0 -0.015682763726445205 0.030519317684305994 0 -0.012375289691750883 0.029078250152685663 0 -0.015682763726445205 0.030519317684305994 0 -0.01322634205819768 0.032782153653988476 0 -0.012598457550598583 0.025494781582685328 0 -0.012375289691750883 0.029078250152685663 0 -0.015850348544568058 0.026540239315189725 0 -0.0077401723729713665 0.018758240268264569 0 -0.013706653296418127 0.021555453439106136 0 -0.018568138508418472 0.020434463902426411 0 -0.012598457550598583 0.025494781582685328 0 -0.015146882459178656 0.023408608888265656 0 -0.015850348544568058 0.026540239315189725 0 -0.0077401723729713665 0.018758240268264569 0 -0.010492725444859706 0.021685709601906616 0 -0.013706653296418127 0.021555453439106136 0 -0.015146882459178656 0.023408608888265656 0 -0.01279021377402405 0.023147650232834792 0 -0.013706653296418127 0.021555453439106136 0 -0.012598457550598583 0.025494781582685328 0 -0.015146882459178656 0.023408608888265656 0 -0.01279021377402405 0.023147650232834792 0 -0.0098244068848311692 0.024206166533797882 0 -0.01279021377402405 0.023147650232834792 0 -0.010492725444859706 0.021685709601906616 0 -0.0098244068848311692 0.024206166533797882 0 -0.012598457550598583 0.025494781582685328 0 -0.01279021377402405 0.023147650232834792 0 -0.01279021377402405 0.023147650232834792 0 -0.010492725444859706 0.021685709601906616 0 -0.013706653296418127 0.021555453439106136 0 -0.015146882459178656 0.023408608888265656 0 -0.013706653296418127 0.021555453439106136 0 -0.017172046723484508 0.021594298697465847 0 -0.013706653296418127 0.021555453439106136 0 -0.017172046723484508 0.021594298697465847 0 -0.018568138508418472 0.020434463902426411 0 -0.017172046723484508 0.021594298697465847 0 -0.018026612384762958 0.020996941549102553 0 -0.017976583021520075 0.022049455500511635 0 -0.017172046723484508 0.021594298697465847 0 -0.018026612384762958 0.020996941549102553 0 -0.018568138508418472 0.020434463902426411 0 -0.017976583021520075 0.022049455500511635 0 -0.018422141435940721 0.020332468316994222 0 -0.019306540258379926 0.023912997824888753 0 -0.018026612384762958 0.020996941549102553 0 -0.018568138508418472 0.020434463902426411 0 -0.018422141435940721 0.020332468316994222 0 -0.018026612384762958 0.020996941549102553 0 -0.017976583021520075 0.022049455500511635 0 -0.018422141435940721 0.020332468316994222 0 -0.017976583021520075 0.022049455500511635 0 -0.019306540258379926 0.023912997824888753 0 -0.017314389509724828 0.023824606751952915 0 -0.019306540258379926 0.023912997824888753 0 -0.017314389509724828 0.023824606751952915 0 -0.018412063689423497 0.025958701917327111 0 -0.015146882459178656 0.023408608888265656 0 -0.017314389509724828 0.023824606751952915 0 -0.015850348544568058 0.026540239315189725 0 -0.017172046723484508 0.021594298697465847 0 -0.017976583021520075 0.022049455500511635 0 -0.017314389509724828 0.023824606751952915 0 -0.015146882459178656 0.023408608888265656 0 -0.017172046723484508 0.021594298697465847 0 -0.017314389509724828 0.023824606751952915 0 -0.015850348544568058 0.026540239315189725 0 -0.018697845870058852 0.029113578553021865 0 -0.018412063689423497 0.025958701917327111 0 -0.017314389509724828 0.023824606751952915 0 -0.015850348544568058 0.026540239315189725 0 -0.018412063689423497 0.025958701917327111 0 -0.015850348544568058 0.026540239315189725 0 -0.015682763726445205 0.030519317684305994 0 -0.018697845870058852 0.029113578553021865 0 -0.018697845870058852 0.029113578553021865 0 -0.020982332223920718 0.026946083390195223 0 -0.022505611416328182 0.029561053621520578 0 -0.019306540258379926 0.023912997824888753 0 -0.018412063689423497 0.025958701917327111 0 -0.020982332223920718 0.026946083390195223 0 -0.018697845870058852 0.029113578553021865 0 -0.018412063689423497 0.025958701917327111 0 -0.020982332223920718 0.026946083390195223 0 -0.020982332223920718 0.026946083390195223 0 -0.022505611416328182 0.029561053621520578 0 -0.024515190832081504 0.02619923446890458 0 -0.019306540258379926 0.023912997824888753 0 -0.020982332223920718 0.026946083390195223 0 -0.024515190832081504 0.02619923446890458 0 -0.022505611416328182 0.029561053621520578 0 -0.024515190832081504 0.02619923446890458 0 -0.030082569634052234 0.031833659275294454 0 -0.018422141435940721 0.020332468316994222 0 -0.016603731418109058 0.017618776303774883 0 -0.014765981117988974 0.020038959761213507 0 -0.018568138508418472 0.020434463902426411 0 -0.018422141435940721 0.020332468316994222 0 -0.014765981117988974 0.020038959761213507 0 -0.011537244797037143 0.033011062806125313 0 -0.011194665763920879 0.02608202402550417 0 -0.017165898694565942 0.023816075326234407 0 -0.017265891328301409 0.024911125143102439 0 -0.018422141435940721 0.020332468316994222 0 -0.019306540258379926 0.023912997824888753 0 -0.024515190832081504 0.02619923446890458 0 0.00087072753962352063 0.09350403611904487 0 0.0006501225608928563 0.093105972170170637 0 0.00077100632720985619 0.093316625727544247 0 -0.00060683581754606005 0.08066671878809803 0 -0.0008826190742201699 0.076616018861474233 0 0.00087072753962352063 0.09350403611904487 0 0.0010650100986985538 0.093444176367150314 0 0.0010932438020345278 0.093821917990945303 0 0.00087072753962352063 0.09350403611904487 0 0.00077100632720985619 0.093316625727544247 0 0.00082190339831545421 0.093431306074249681 0 0.00066314140140296004 0.093669832054383478 0 0.00087072753962352063 0.09350403611904487 0 0.00082190339831545421 0.093431306074249681 0 0.00074033235449597718 0.093783187343586497 0 0.00087072753962352063 0.09350403611904487 0 0.00093447115197151489 0.09361631960419102 0 0.00087072753962352063 0.09350403611904487 0 0.00093447115197151489 0.09361631960419102 0 0.0010650100986985538 0.093444176367150314 0 0.00093447115197151489 0.09361631960419102 0 0.0010650100986985538 0.093444176367150314 0 0.0010373350957959898 0.092894290104130209 0 0.0010650100986985538 0.093444176367150314 0 0.0010373350957959898 0.092894290104130209 0 0.0010932438020345278 0.093821917990945303 0 -3.1748250338027226e-05 0.089809780197838876 0 0.0010373350957959898 0.092894290104130209 0 -0.00085427623917652164 0.091540104031508515 0 0.0010373350957959898 0.092894290104130209 0 -0.00085427623917652164 0.091540104031508515 0 -0.00044692450706849902 0.093127491420689615 0 0.0010373350957959898 0.092894290104130209 0 -0.00044692450706849902 0.093127491420689615 0 0.0010932438020345278 0.093821917990945303 0 -0.0033145632243577212 0.092367939258482995 0 -0.0022039786370660957 0.092044241312711925 0 -0.0019205673361665072 0.094756650648807395 0 -0.0020013879151846588 0.08967861765881778 0 -0.0022039786370660957 0.092044241312711925 0 -0.00085427623917652164 0.091540104031508515 0 -0.0022039786370660957 0.092044241312711925 0 -0.00085427623917652164 0.091540104031508515 0 -0.00044692450706849902 0.093127491420689615 0 -0.0022039786370660957 0.092044241312711925 0 -0.00044692450706849902 0.093127491420689615 0 -0.0019205673361665072 0.094756650648807395 0 -0.00044692450706849902 0.093127491420689615 0 -0.0019205673361665072 0.094756650648807395 0 0.0010932438020345278 0.093821917990945303 0 0.00043148554940478052 0.092930267349186552 0 0.0006501225608928563 0.093105972170170637 0 0.00049577674574252206 0.093047339366622198 0 -0.00038618159695998116 0.061746974645260209 0 -0.0008826190742201699 0.076616018861474233 0 0.0006501225608928563 0.093105972170170637 0 0.00066441979396309467 0.093204613205205594 0 0.00049577674574252206 0.093047339366622198 0 0.00049577674574252206 0.093047339366622198 0 9.1664014917834473e-05 0.09336146238583512 0 0.0004786609192318592 0.093308227917420231 0 0.00049577674574252206 0.093047339366622198 0 0.0006314613342908663 0.093298970596203484 0 0.0004786609192318592 0.093308227917420231 0 0.00066441979396309467 0.093204613205205594 0 0.00049577674574252206 0.093047339366622198 0 0.0006314613342908663 0.093298970596203484 0 -0.0079670754700614643 0.050205806503827749 0 -0.0021090379263703483 0.059166536523271113 0 -0.0005050938870989251 0.091851944628381824 0 0.00049577674574252206 0.093047339366622198 0 9.1664014917834473e-05 0.09336146238583512 0 -0.0015401981265805646 0.091906271755153007 0 -0.0005050938870989251 0.091851944628381824 0 9.1664014917834473e-05 0.09336146238583512 0 -0.00038618159695998116 0.061746974645260209 0 0.0041954161107401501 0.069921347853336424 0 -0.00076166490542566891 0.02521829038234696 0 -0.0001014072392608372 0.030030759265257473 0 -0.0043171858012841444 0.029047806681880055 0 -0.0062122188100397491 0.025502628529097928 0 -0.00076166490542566891 0.02521829038234696 0 -0.0043171858012841444 0.029047806681880055 0 -0.00076166490542566891 0.02521829038234696 0 -0.0001014072392608372 0.030030759265257473 0 0.0039926700162598106 0.029591222756604418 0 -0.0001014072392608372 0.030030759265257473 0 0.0039926700162598106 0.029591222756604418 0 0.0063219550914738205 0.031730323804796103 0 0.0006314613342908663 0.093298970596203484 0 0.00061853516877527276 0.09346721225547959 0 0.00072479620268849423 0.093397312010918207 0 0.0006314613342908663 0.093298970596203484 0 0.0004786609192318592 0.093308227917420231 0 0.00061853516877527276 0.09346721225547959 0 -0.0021090379263703483 0.059166536523271113 0 -0.00029811265746149167 0.063723940752622013 0 9.1664014917834473e-05 0.09336146238583512 0 0.0004786609192318592 0.093308227917420231 0 0.00061853516877527276 0.09346721225547959 0 -0.00029811265746149167 0.063723940752622013 0 0.00023267579396586046 0.066025669098364353 0 0.00061853516877527276 0.09346721225547959 0 0.00072479620268849423 0.093397312010918207 0 0.00068773512327774053 0.093470577232339674 0 0.00072479620268849423 0.093397312010918207 0 0.0008371405032116877 0.09339241440744854 0 0.00068773512327774053 0.093470577232339674 0 -0.0023779259541860565 0.072568292961567679 0 0.00023267579396586046 0.066025669098364353 0 0.00072479620268849423 0.093397312010918207 0 0.00076306258573513846 0.093342506188000315 0 0.0008371405032116877 0.09339241440744854 0 0.0006314613342908663 0.093298970596203484 0 0.00072479620268849423 0.093397312010918207 0 0.00076306258573513846 0.093342506188000315 0 0.00066441979396309467 0.093204613205205594 0 0.0006314613342908663 0.093298970596203484 0 0.00076306258573513846 0.093342506188000315 0 0.00076306258573513846 0.093342506188000315 0 0.00077100632720985619 0.093316625727544247 0 0.00082190339831545421 0.093431306074249681 0 0.0006501225608928563 0.093105972170170637 0 0.00066441979396309467 0.093204613205205594 0 0.00077100632720985619 0.093316625727544247 0 0.00066441979396309467 0.093204613205205594 0 0.00076306258573513846 0.093342506188000315 0 0.00077100632720985619 0.093316625727544247 0 0.00076306258573513846 0.093342506188000315 0 0.00082190339831545421 0.093431306074249681 0 0.0008371405032116877 0.09339241440744854 0 0.00072426716918125213 0.093473258038021909 0 0.00082190339831545421 0.093431306074249681 0 0.0008371405032116877 0.09339241440744854 0 0.0008371405032116877 0.09339241440744854 0 0.00085038751186486384 0.093235933279434441 0 0.0010510041450047598 0.093214166982204791 0 0.0008371405032116877 0.09339241440744854 0 0.00085038751186486384 0.093235933279434441 0 0.00073994910044709427 0.093330855058299411 0 0.0017812144652181758 0.076887690730749636 0 -6.4951672192774989e-05 0.08243838582135371 0 0.00085038751186486384 0.093235933279434441 0 0.00089958187979264823 0.093088967617682233 0 0.00074267865991253356 0.093189614964142339 0 0.00030648332479055955 0.079119768465162263 0 0.0018542179026429428 0.079177213724500164 0 0.0013686905646785421 0.079596020129935552 0 0.00030648332479055955 0.079119768465162263 0 0.0010667852753085264 0.079952420575142735 0 0.0013686905646785421 0.079596020129935552 0 0.0018765776229133857 0.069793227762588797 0 0.002137941486255816 0.070882626620675654 0 0.0033221159448513274 0.071381841009363692 0 0.0018765776229133857 0.069793227762588797 0 0.002137941486255816 0.070882626620675654 0 0.0011168136725230766 0.07065539477513505 0 0.0017812144652181758 0.076887690730749636 0 0.00085287803319247747 0.078281983032224334 0 0.0017812144652181758 0.076887690730749636 0 0.00034681601965815527 0.07508339975419788 0 0.0019569651334743186 0.069755127078819076 0 -0.00020054527275608763 0.069669819085985282 0 -4.0028651181928384e-05 0.067568960495018218 0 0.0018765776229133857 0.069793227762588797 0 0.0011168136725230766 0.07065539477513505 0 -0.00022977497208801268 0.069699659411873185 0 0.0011168136725230766 0.07065539477513505 0 -0.00022977497208801268 0.069699659411873185 0 -0.00078101906240251413 0.070946742315789901 0 0.00085038751186486384 0.093235933279434441 0 0.00089958187979264823 0.093088967617682233 0 0.0010510041450047598 0.093214166982204791 0 0.0017812144652181758 0.076887690730749636 0 0.0011818950350727963 0.06937401692949996 0 0.0008371405032116877 0.09339241440744854 0 0.0010510041450047598 0.093214166982204791 0 0.0010911847539209322 0.093243963008376576 0 -0.00020054527275608763 0.069669819085985282 0 -4.0028651181928384e-05 0.067568960495018218 0 -0.00053192788095902054 0.06703136906241948 0 0.0011818950350727963 0.06937401692949996 0 0.00023267579396586046 0.066025669098364353 0 -0.00020054527275608763 0.069669819085985282 0 -0.0015624377708277903 0.068235285969639611 0 -0.00053192788095902054 0.06703136906241948 0 0.00023267579396586046 0.066025669098364353 0 -0.0029960250170485785 0.057818782950287896 0 -0.0015624377708277903 0.068235285969639611 0 -0.00053192788095902054 0.06703136906241948 0 -0.0041137736685133795 0.067928639790588413 0 -0.0001014072392608372 0.030030759265257473 0 0.0063219550914738205 0.031730323804796103 0 -0.003325027848991028 0.034110830028000305 0 -0.0015624377708277903 0.068235285969639611 0 -0.0041137736685133795 0.067928639790588413 0 -0.0023600795075860337 0.069583837820494474 0 -0.0001014072392608372 0.030030759265257473 0 -0.0043171858012841444 0.029047806681880055 0 -0.003325027848991028 0.034110830028000305 0 -0.0041137736685133795 0.067928639790588413 0 -0.0041953344361491882 0.069907757906657778 0 -0.0023600795075860337 0.069583837820494474 0 -0.0049911257329622568 0.063871331450373034 0 -0.0021707389470020529 0.06950515923240308 0 -0.0067012105423683178 0.064283532445814445 0 -0.0029525451082500018 0.065447803670985266 0 -0.0046857189126406056 0.066245979390156293 0 -0.0041953344361491882 0.069907757906657778 0 -0.0023600795075860337 0.069583837820494474 0 -0.00078101906240251413 0.070946742315789901 0 0.00034681601965815527 0.07508339975419788 0 -0.00036887427591792663 0.074513777106437376 0 -0.00022977497208801268 0.069699659411873185 0 -0.0023600795075860337 0.069583837820494474 0 -0.00078101906240251413 0.070946742315789901 0 -0.00020054527275608763 0.069669819085985282 0 -0.0015624377708277903 0.068235285969639611 0 -0.0023600795075860337 0.069583837820494474 0 -0.0029525451082500018 0.065447803670985266 0 -0.0046857189126406056 0.066245979390156293 0 -0.0032822624204407332 0.067201266005141161 0 -0.0046857189126406056 0.066245979390156293 0 -0.0032822624204407332 0.067201266005141161 0 -0.0045631152586425991 0.067663895982996755 0 -0.0029525451082500018 0.065447803670985266 0 -0.0032822624204407332 0.067201266005141161 0 -0.0017276968281528457 0.067310502566830938 0 -0.0067012105423683178 0.064283532445814445 0 -0.0060405319980798228 0.066506689756366061 0 -0.0071889208764230302 0.065533250731817011 0 -0.0067012105423683178 0.064283532445814445 0 -0.0046857189126406056 0.066245979390156293 0 -0.0060405319980798228 0.066506689756366061 0 -0.0060405319980798228 0.066506689756366061 0 -0.0058615999600947002 0.067737828654125046 0 -0.0045631152586425991 0.067663895982996755 0 -0.0046857189126406056 0.066245979390156293 0 -0.0060405319980798228 0.066506689756366061 0 -0.0045631152586425991 0.067663895982996755 0 -0.0060405319980798228 0.066506689756366061 0 -0.0058615999600947002 0.067737828654125046 0 -0.0074108247727590129 0.067466421614628513 0 -0.0060405319980798228 0.066506689756366061 0 -0.0071889208764230302 0.065533250731817011 0 -0.0074108247727590129 0.067466421614628513 0 -0.0052683695143658973 0.069171546350218341 0 -0.0074108247727590129 0.067466421614628513 0 -0.0059771285011060715 0.07097148193324887 0 -0.0047056563729256096 0.064267539941468971 0 -0.003495502585503775 0.059311933602592244 0 -0.0058615999600947002 0.067737828654125046 0 -0.0052683695143658973 0.069171546350218341 0 -0.0074108247727590129 0.067466421614628513 0 -0.0058615999600947002 0.067737828654125046 0 -0.0052683695143658973 0.069171546350218341 0 -0.0045631152586425991 0.067663895982996755 0 -0.0052683695143658973 0.069171546350218341 0 -0.0029982850663115416 0.068735317216453179 0 -0.0030712430453910234 0.070954144495032484 0 -0.0052683695143658973 0.069171546350218341 0 -0.0045631152586425991 0.067663895982996755 0 -0.0029982850663115416 0.068735317216453179 0 -0.0032822624204407332 0.067201266005141161 0 -0.0045631152586425991 0.067663895982996755 0 -0.0029982850663115416 0.068735317216453179 0 -0.0032822624204407332 0.067201266005141161 0 -0.0029982850663115416 0.068735317216453179 0 -0.0017276968281528457 0.067310502566830938 0 -0.0029982850663115416 0.068735317216453179 0 -0.00080722117859374895 0.069271984450813201 0 -0.0030712430453910234 0.070954144495032484 0 -0.0029982850663115416 0.068735317216453179 0 -0.00080722117859374895 0.069271984450813201 0 -0.0017276968281528457 0.067310502566830938 0 -0.00080722117859374895 0.069271984450813201 0 -0.00029616765970997172 0.06786526301204647 0 -0.0017276968281528457 0.067310502566830938 0 -0.00080722117859374895 0.069271984450813201 0 0.00064975096527899589 0.068264454399327892 0 0.00099838141739869526 0.070421212020896767 0 0.00064975096527899589 0.068264454399327892 0 0.00099838141739869526 0.070421212020896767 0 0.0025780838432162283 0.06717810387419354 0 -0.00080722117859374895 0.069271984450813201 0 0.00064975096527899589 0.068264454399327892 0 -0.00029616765970997172 0.06786526301204647 0 0.00064975096527899589 0.068264454399327892 0 -0.00029616765970997172 0.06786526301204647 0 0.00069467379676418906 0.066628955233009005 0 0.00036307857711913397 0.076804535854367362 0 0.00083722315145615947 0.0766640269131528 0 0.0011872323646862639 0.077045575583703077 0 0.00064975096527899589 0.068264454399327892 0 0.00069467379676418906 0.066628955233009005 0 0.0025780838432162283 0.06717810387419354 0 0.00072703942415714774 0.07608864173360963 0 0.00051594871452117087 0.078411041539199866 0 0.002137941486255816 0.070882626620675654 0 0.0025788175898631112 0.07195256087726512 0 0.0033164034731234262 0.071379218704041333 0 0.00080092837004373352 0.077952674229713817 0 0.00085287803319247747 0.078281983032224334 0 0.0025788175898631112 0.07195256087726512 0 0.0033164034731234262 0.071379218704041333 0 0.0035720917084653627 0.07165971296212191 0 0.00072703942415714774 0.07608864173360963 0 0.00076406886314882283 0.078266556188208658 0 0.00085287803319247747 0.078281983032224334 0 0.00076406886314882283 0.078266556188208658 0 0.002137941486255816 0.070882626620675654 0 0.0011168136725230766 0.07065539477513505 0 0.0025788175898631112 0.07195256087726512 0 -0.0021707389470020529 0.06950515923240308 0 0.00072703942415714774 0.07608864173360963 0 -0.00029616765970997172 0.06786526301204647 0 0.00069467379676418906 0.066628955233009005 0 -0.0017276968281528457 0.067310502566830938 0 -0.0029525451082500018 0.065447803670985266 0 0.00077549128828127321 0.066592965880102814 0 -0.0017276968281528457 0.067310502566830938 0 0.00072703942415714774 0.07608864173360963 0 0.00078944387797633445 0.074900542347847668 0 0.0011168136725230766 0.07065539477513505 0 -0.00078101906240251413 0.070946742315789901 0 0.0025788175898631112 0.07195256087726512 0 -0.0096891303978845003 0.03355281833987165 0 -0.0089931540078875601 0.036011934136764505 0 -0.012674187467126653 0.034240817549021592 0 -0.0096891303978845003 0.03355281833987165 0 -0.010344131831655756 0.031391697099499995 0 -0.012674187467126653 0.034240817549021592 0 -0.022505611416328182 0.029561053621520578 0 -0.024014006187931154 0.033608347951310132 0 -0.017873169205906227 0.035409940213458474 0 -0.022505611416328182 0.029561053621520578 0 -0.024014006187931154 0.033608347951310132 0 -0.030082569634052234 0.031833659275294454 0 -0.0096891303978845003 0.03355281833987165 0 -0.010344131831655756 0.031391697099499995 0 -0.0075500261381095633 0.032210564293219335 0 -0.016320501478155575 0.035512976678736943 0 -0.014843059935773005 0.044820904307607143 0 -0.015682763726445205 0.030519317684305994 0 -0.018697845870058852 0.029113578553021865 0 -0.018077806408621114 0.03512525707593199 0 -0.018443911231126126 0.03944693694205071 0 -0.014843059935773005 0.044820904307607143 0 -0.018697845870058852 0.029113578553021865 0 -0.022505611416328182 0.029561053621520578 0 -0.018077806408621114 0.03512525707593199 0 -0.015682763726445205 0.030519317684305994 0 -0.018077806408621114 0.03512525707593199 0 -0.01322634205819768 0.032782153653988476 0 -0.014843059935773005 0.044820904307607143 0 -0.009028197554164917 0.055666680369282379 0 -0.0075500261381095633 0.032210564293219335 0 -0.0049301999130826968 0.035514907759340096 0 -0.0089931540078875601 0.036011934136764505 0 -0.0096891303978845003 0.03355281833987165 0 -0.0075500261381095633 0.032210564293219335 0 -0.0089931540078875601 0.036011934136764505 0 -0.011766701274744308 0.062574098804860478 0 -0.010610554148148276 0.063297711432088941 0 -0.009791147828949005 0.064864018180908173 0 -0.014843059935773005 0.044820904307607143 0 -0.0093479171419131677 0.050351998864800358 0 -0.0099604162336515284 0.063135918484624354 0 -0.0085656640211844645 0.06391428202850151 0 -0.009791147828949005 0.064864018180908173 0 -0.011766701274744308 0.062574098804860478 0 -0.0098706810773337463 0.063080384855818239 0 -0.010610554148148276 0.063297711432088941 0 -0.009028197554164917 0.055666680369282379 0 -0.0091924825336180908 0.055822718311738011 0 -0.0099604162336515284 0.063135918484624354 0 -0.010610554148148276 0.063297711432088941 0 -0.009791147828949005 0.064864018180908173 0 -0.018077806408621114 0.03512525707593199 0 -0.012754283919946546 0.036679489347152372 0 -0.01322634205819768 0.032782153653988476 0 -0.012375289691750883 0.029078250152685663 0 -0.01322634205819768 0.032782153653988476 0 -0.0090814872357743229 0.031560619452033555 0 -0.012754283919946546 0.036679489347152372 0 -0.01322634205819768 0.032782153653988476 0 -0.0090814872357743229 0.031560619452033555 0 -0.003325027848991028 0.034110830028000305 0 -0.012754283919946546 0.036679489347152372 0 -0.0090814872357743229 0.031560619452033555 0 -0.0029960250170485785 0.057818782950287896 0 -0.009028197554164917 0.055666680369282379 0 -0.0043171858012841444 0.029047806681880055 0 -0.003325027848991028 0.034110830028000305 0 -0.0090814872357743229 0.031560619452033555 0 -0.0041137736685133795 0.067928639790588413 0 -0.0041953344361491882 0.069907757906657778 0 -0.0076223748516234483 0.068868146604592617 0 -0.0049911257329622568 0.063871331450373034 0 -0.009028197554164917 0.055666680369282379 0 -0.0067012105423683178 0.064283532445814445 0 -0.0099604162336515284 0.063135918484624354 0 -0.0085656640211844645 0.06391428202850151 0 -0.0067012105423683178 0.064283532445814445 0 -0.0085656640211844645 0.06391428202850151 0 -0.0071889208764230302 0.065533250731817011 0 -0.0077066793440049514 0.066200562702729768 0 -0.0082130759239178019 0.06661432376784443 0 -0.009791147828949005 0.064864018180908173 0 -0.0085656640211844645 0.06391428202850151 0 -0.0077066793440049514 0.066200562702729768 0 -0.009791147828949005 0.064864018180908173 0 -0.0085656640211844645 0.06391428202850151 0 -0.0071889208764230302 0.065533250731817011 0 -0.0074108247727590129 0.067466421614628513 0 -0.005621304638603883 0.064164483906002434 0 -0.0047056563729256096 0.064267539941468971 0 -0.0077066793440049514 0.066200562702729768 0 -0.0082130759239178019 0.06661432376784443 0 -0.0068648272232393242 0.068182566018385876 0 -0.0064123855377799114 0.05408435968606546 0 -0.003495502585503775 0.059311933602592244 0 -0.0022887574339882262 0.038840246888655172 0 -0.0055713066079678894 0.03925497297696582 0 -0.0027204503787886586 0.041914863681568638 0 -0.0022887574339882262 0.038840246888655172 0 -0.0055713066079678894 0.03925497297696582 0 -0.0049301999130826968 0.035514907759340096 0 -0.0064123855377799114 0.05408435968606546 0 -0.0093479171419131677 0.050351998864800358 0 -0.0055713066079678894 0.03925497297696582 0 -0.0049301999130826968 0.035514907759340096 0 -0.0089931540078875601 0.036011934136764505 0 -0.0055713066079678894 0.03925497297696582 0 -0.0091332078640584437 0.040527873979752563 0 -0.0089931540078875601 0.036011934136764505 0 -0.0059219225059626074 0.029076727122962609 0 -0.0091548551932994736 0.024584000784396376 0 -0.0091332078640584437 0.040527873979752563 0 -0.0089931540078875601 0.036011934136764505 0 -0.012912863471185268 0.038318840472922597 0 0.00016615010389169855 0.022994675669481084 0 0.0037164400650799641 0.019512948970407069 0 0.0028531933881047302 0.027738871018596959 0 -0.0053515900054681527 0.022476843508423792 0 -0.0029309309428260017 0.022603449108640195 0 -0.0046560913539609476 0.024618881332621495 0 -0.0029309309428260017 0.022603449108640195 0 -0.0017191700452917928 0.024913624416431721 0 -0.0046560913539609476 0.024618881332621495 0 -0.0029309309428260017 0.022603449108640195 0 -0.0044948816309966447 0.020409212839669753 0 -0.0006525484314559817 0.020032011780309718 0 -0.0053515900054681527 0.022476843508423792 0 -0.0029309309428260017 0.022603449108640195 0 -0.0044948816309966447 0.020409212839669753 0 -0.0020957691844969953 0.016006111018763734 0 -0.0044948816309966447 0.020409212839669753 0 -0.007468453655008654 0.017656723474740944 0 -0.0020957691844969953 0.016006111018763734 0 -0.0044948816309966447 0.020409212839669753 0 -0.0006525484314559817 0.020032011780309718 0 -0.0059219225059626074 0.029076727122962609 0 -0.0025614877895960872 0.034205548550485083 0 -0.0055713066079678894 0.03925497297696582 0 -0.0091332078640584437 0.040527873979752563 0 -0.0053240484726792096 0.042757327769942066 0 -0.0020957691844969953 0.016006111018763734 0 -0.0006525484314559817 0.020032011780309718 0 0.0037164400650799641 0.019512948970407069 0 -0.0006525484314559817 0.020032011780309718 0 0.00016615010389169855 0.022994675669481084 0 0.0037164400650799641 0.019512948970407069 0 -0.0029309309428260017 0.022603449108640195 0 -0.0006525484314559817 0.020032011780309718 0 0.00016615010389169855 0.022994675669481084 0 -0.0029309309428260017 0.022603449108640195 0 0.00016615010389169855 0.022994675669481084 0 -0.0017191700452917928 0.024913624416431721 0 0.0037164400650799641 0.019512948970407069 0 0.0093528787144225058 0.022894837569010527 0 0.0028531933881047302 0.027738871018596959 0 -0.0055713066079678894 0.03925497297696582 0 -0.0053240484726792096 0.042757327769942066 0 -0.0027204503787886586 0.041914863681568638 0 -0.0022887574339882262 0.038840246888655172 0 -0.0027204503787886586 0.041914863681568638 0 0.00037170908452828727 0.042193262749939495 0 -0.0027204503787886586 0.041914863681568638 0 -0.0014778090064843554 0.044996672510163906 0 0.00037170908452828727 0.042193262749939495 0 -0.0053240484726792096 0.042757327769942066 0 -0.0027204503787886586 0.041914863681568638 0 -0.0014778090064843554 0.044996672510163906 0 -0.0025614877895960872 0.034205548550485083 0 -0.00012473215668382483 0.041195677503588948 0 0.0093528787144225058 0.022894837569010527 0 0.0096724773626383122 0.028877882188549902 0 0.0028531933881047302 0.027738871018596959 0 0.0066321706962274669 0.046723246988391476 0 0.0075098357924339469 0.04797450033037904 0 0.0058844851740722749 0.047949456057767105 0 0.0066321706962274669 0.046723246988391476 0 0.0045931532752758247 0.046343060502052377 0 0.0058844851740722749 0.047949456057767105 0 0.0045931532752758247 0.046343060502052377 0 0.0043944103506104865 0.047603188359527843 0 0.0058844851740722749 0.047949456057767105 0 0.0059025542162128844 0.044213200388595074 0 0.002804843966431699 0.039721024926060285 0 0.00016615010389169855 0.022994675669481084 0 0.0028531933881047302 0.027738871018596959 0 -0.0017191700452917928 0.024913624416431721 0 0.0028531933881047302 0.027738871018596959 0 -0.0039581604072848409 0.026613708121089721 0 -0.0017191700452917928 0.024913624416431721 0 0.002804843966431699 0.039721024926060285 0 -0.0025722602842320288 0.036756384559035703 0 0.0045931532752758247 0.046343060502052377 0 0.0036408231869667403 0.047032931756048862 0 0.0024754870436787678 0.045975974620150323 0 0.0045931532752758247 0.046343060502052377 0 0.0043944103506104865 0.047603188359527843 0 0.0036408231869667403 0.047032931756048862 0 0.0043944103506104865 0.047603188359527843 0 0.0036408231869667403 0.047032931756048862 0 0.0032902354884354994 0.048190785305753617 0 -0.0040765856056791542 0.02976738889315856 0 -0.0034564225433167755 0.02709802235246268 0 -0.00028603415737317467 0.035910982540664674 0 0.0036408231869667403 0.047032931756048862 0 0.0024754870436787678 0.045975974620150323 0 0.0032902354884354994 0.048190785305753617 0 -0.0025722602842320288 0.036756384559035703 0 0.00058363254430350803 0.042197605942173012 0 -0.0040765856056791542 0.02976738889315856 0 -0.0058863235895647466 0.031618266073602248 0 -0.00028603415737317467 0.035910982540664674 0 -0.0040765856056791542 0.02976738889315856 0 -0.0059206548050212051 0.028244803771730886 0 -0.0058863235895647466 0.031618266073602248 0 -0.0040765856056791542 0.02976738889315856 0 -0.0034564225433167755 0.02709802235246268 0 -0.0039487451468362958 0.027018410339536895 0 -0.0040765856056791542 0.02976738889315856 0 -0.0039487451468362958 0.027018410339536895 0 -0.0059206548050212051 0.028244803771730886 0 -0.0039487451468362958 0.027018410339536895 0 -0.0058983930123128287 0.026002108067011212 0 -0.0059206548050212051 0.028244803771730886 0 -0.0025722602842320288 0.036756384559035703 0 -0.0025804766879018791 0.036746654132618906 0 -0.0039581604072848409 0.026613708121089721 0 -0.0017191700452917928 0.024913624416431721 0 -0.0046560913539609476 0.024618881332621495 0 -0.0025722602842320288 0.036756384559035703 0 -0.0029267896451922455 0.035607548264996576 0 -0.0034704375574386988 0.027087467600294905 0 -0.0039487451468362958 0.027018410339536895 0 -0.0046560913539609476 0.024618881332621495 0 -0.0039487451468362958 0.027018410339536895 0 -0.0046560913539609476 0.024618881332621495 0 -0.0058983930123128287 0.026002108067011212 0 -0.002030453801262174 0.072868947113380045 0 -0.00075316089956502751 0.073686157479257372 0 -0.00117510543083701 0.071413424386209318 0 -0.002030453801262174 0.072868947113380045 0 -0.0035981400002401843 0.073805607479274921 0 -0.0016076816957578404 0.07432791846905111 0 -0.002030453801262174 0.072868947113380045 0 -0.00075316089956502751 0.073686157479257372 0 -0.0016076816957578404 0.07432791846905111 0 -0.00075316089956502751 0.073686157479257372 0 0.00052383324383868798 0.073260316259032496 0 -0.00032996174820008932 0.075233053341153877 0 0.0010027780466789085 0.073291519044793557 0 0.0014622597933056252 0.073265223192787943 0 -0.00075316089956502751 0.073686157479257372 0 0.00052383324383868798 0.073260316259032496 0 0.00033426230404234853 0.071755108546639843 0 0.00052383324383868798 0.073260316259032496 0 0.00033426230404234853 0.071755108546639843 0 0.0011630911695856042 0.071755332432556093 0 -0.00075316089956502751 0.073686157479257372 0 0.00099838141739869526 0.070421212020896767 0 -0.00117510543083701 0.071413424386209318 0 -0.00080722117859374895 0.069271984450813201 0 0.00099838141739869526 0.070421212020896767 0 -0.00117510543083701 0.071413424386209318 0 -0.00080722117859374895 0.069271984450813201 0 -0.00117510543083701 0.071413424386209318 0 -0.0030712430453910234 0.070954144495032484 0 -0.002030453801262174 0.072868947113380045 0 -0.00117510543083701 0.071413424386209318 0 -0.0030712430453910234 0.070954144495032484 0 -0.0052683695143658973 0.069171546350218341 0 -0.0030712430453910234 0.070954144495032484 0 -0.0059771285011060715 0.07097148193324887 0 -0.0030712430453910234 0.070954144495032484 0 -0.0059771285011060715 0.07097148193324887 0 -0.0035981400002401843 0.073805607479274921 0 -0.003495502585503775 0.059311933602592244 0 -0.0018521130347199787 0.054926775964580017 0 -0.003495502585503775 0.059311933602592244 0 -0.0010911894883811519 0.064148098419912813 0 -0.00012473215668382483 0.041195677503588948 0 0.00015604442113181373 0.052563353967439649 0 -0.0035512008712423955 0.058141921593622276 0 -0.0029720259817312355 0.059533521928864588 0 -0.0019709980380527774 0.060094102673387204 0 -0.0014778090064843554 0.044996672510163906 0 0.00037170908452828727 0.042193262749939495 0 0.0013877490976140524 0.044706184077639759 0 -0.0014778090064843554 0.044996672510163906 0 0.0013877490976140524 0.044706184077639759 0 0.0023992700827037156 0.047233908403254019 0 -0.002030453801262174 0.072868947113380045 0 -0.0030712430453910234 0.070954144495032484 0 -0.0035981400002401843 0.073805607479274921 0 -0.0018521130347199787 0.054926775964580017 0 0.00015604442113181373 0.052563353967439649 0 -0.0029720259817312355 0.059533521928864588 0 -0.0019709980380527774 0.060094102673387204 0 -0.0023983182387370852 0.060933646347880933 0 0.00015604442113181373 0.052563353967439649 0 0.00053873511550558083 0.065074027692615652 0 -0.0019709980380527774 0.060094102673387204 0 -0.0023983182387370852 0.060933646347880933 0 -0.00038545714995122463 0.062074008824020775 0 -0.002641085424026835 0.058174796268265064 0 -0.001754064665175592 0.060394685863039789 0 0.0020180980989338046 0.06085613142245698 0 0.014970861870407933 0.026247673402590425 0 0.013920713764356794 0.026832291092715062 0 0.015963017451271617 0.028801961913497303 0 0.00015604442113181373 0.052563353967439649 0 0.0024145266429587125 0.051728840553170709 0 0.0023069361757346047 0.049980624744794609 0 0.0024145266429587125 0.051728840553170709 0 0.0093528787144225058 0.022894837569010527 0 0.0096724773626383122 0.028877882188549902 0 0.013920713764356794 0.026832291092715062 0 0.0093528787144225058 0.022894837569010527 0 0.014970861870407933 0.026247673402590425 0 0.013920713764356794 0.026832291092715062 0 0.0096724773626383122 0.028877882188549902 0 0.013920713764356794 0.026832291092715062 0 0.015931334043719401 0.028721183786674983 0 0.0059025542162128844 0.044213200388595074 0 0.0033571341981187908 0.052343832395978653 0 0.0096724773626383122 0.028877882188549902 0 0.016433642425245278 0.03000232894801403 0 0.015931334043719401 0.028721183786674983 0 0.0066321706962274669 0.046723246988391476 0 0.0086486779849727115 0.047069983046418226 0 0.0075098357924339469 0.04797450033037904 0 0.0010788322773992111 0.058693182251555183 0 0.0019621950793910947 0.058830996571147896 0 0.0025947859960156563 0.062487379419574149 0 0.0033571341981187908 0.052343832395978653 0 0.0032689334273629449 0.05784746911668931 0 -0.00035005012471336341 0.061688604424297841 0 -0.001754064665175592 0.060394685863039789 0 0.0020180980989338046 0.06085613142245698 0 0.0033571341981187908 0.052343832395978653 0 0.0026474755827647026 0.054005515721641077 0 0.0020399208327151778 0.054129520779723023 0 0.0022551527724218204 0.054163844317002136 0 0.0019352634109330992 0.053866524947237877 0 0.0026474755827647026 0.054005515721641077 0 0.0024145266429587125 0.051728840553170709 0 0.0033571341981187908 0.052343832395978653 0 0.0024145266429587125 0.051728840553170709 0 0.0086486779849727115 0.047069983046418226 0 0.008368941512293674 0.048108137146744737 0 0.0075098357924339469 0.04797450033037904 0 0.0026474755827647026 0.054005515721641077 0 0.0028095914563619436 0.054943503172203409 0 -0.00035005012471336341 0.061688604424297841 0 0.0035456361735302488 0.062305949563869763 0 0.0020180980989338046 0.06085613142245698 0 -0.00034809152749463123 0.061690058403865225 0 0.0035456361735302488 0.062305949563869763 0 0.0044797609947164587 0.066165016339082727 0 -0.0035981400002401843 0.073805607479274921 0 -0.0013894400105536155 0.075962313118558944 0 -0.0016076816957578404 0.07432791846905111 0 -0.0013894400105536155 0.075962313118558944 0 -0.0016076816957578404 0.07432791846905111 0 -0.00032996174820008932 0.075233053341153877 0 -0.0010911894883811519 0.064148098419912813 0 0.00053873511550558083 0.065074027692615652 0 -0.00075316089956502751 0.073686157479257372 0 -0.0016076816957578404 0.07432791846905111 0 -0.00032996174820008932 0.075233053341153877 0 0.00016370703159366453 0.074366546631731645 0 -0.00032996174820008932 0.075233053341153877 0 0.00043627115484372656 0.07507165356533653 0 -0.00032996174820008932 0.075233053341153877 0 0.00020320222270757193 0.076489398781529466 0 0.00043627115484372656 0.07507165356533653 0 0.00092170992004730694 0.074966961095198639 0 0.00072783546776628732 0.075021625516011103 0 -0.0013894400105536155 0.075962313118558944 0 -0.00032996174820008932 0.075233053341153877 0 0.00020320222270757193 0.076489398781529466 0 0.00053873511550558083 0.065074027692615652 0 0.00045965327889743826 0.076110893538586744 0 0.0035456361735302488 0.062305949563869763 0 0.0020180980989338046 0.06085613142245698 0 0.0064606742079097801 0.063422177855588735 0 0.00045965327889743826 0.076110893538586744 0 -0.00061067827099204838 0.083208989746036036 0 -0.00026500574626071166 0.094723508874952553 0 -0.00025196656738953114 0.094752512086838728 0 -0.00026347688867351066 0.094735008886550592 0 -0.00025196656738953114 0.094752512086838728 0 -0.00023774914690766015 0.094771158759674651 0 -0.00024210332342264589 0.09476529169145155 0 -0.00025196656738953114 0.094752512086838728 0 -0.00024210332342264589 0.09476529169145155 0 -0.00026347688867351066 0.094735008886550592 0 -0.00024210332342264589 0.09476529169145155 0 -0.00026347688867351066 0.094735008886550592 0 -0.0002244084097938127 0.094717388770277397 0 0.00020320222270757193 0.076489398781529466 0 0.00088260943413300138 0.075061998636236124 0 0.00043627115484372656 0.07507165356533653 0 0.00088260943413300138 0.075061998636236124 0 0.00043627115484372656 0.07507165356533653 0 0.00070763917777290624 0.074956046167498708 0 0.00043627115484372656 0.07507165356533653 0 0.00069229793812790948 0.074859761386322193 0 0.00070763917777290624 0.074956046167498708 0 0.00084277586536132593 0.075261710511948757 0 0.00087367989179032706 0.075378969001568652 0 0.00016370703159366453 0.074366546631731645 0 0.00043627115484372656 0.07507165356533653 0 0.00050555291671185556 0.07425292075870929 0 0.00069229793812790948 0.074859761386322193 0 0.00079964445066900685 0.074919054119928441 0 0.00076436983270251728 0.07485245474378753 0 0.00069229793812790948 0.074859761386322193 0 0.00079964445066900685 0.074919054119928441 0 0.00070763917777290624 0.074956046167498708 0 0.00088260943413300138 0.075061998636236124 0 0.00079964445066900685 0.074919054119928441 0 0.00070763917777290624 0.074956046167498708 0 -0.00061067827099204838 0.083208989746036036 0 0.00028561693561766124 0.085184769888119599 0 0.00079964445066900685 0.074919054119928441 0 0.00080898167901245841 0.074862806338898899 0 0.0008433276224244264 0.074833524556500136 0 0.00088260943413300138 0.075061998636236124 0 0.00079964445066900685 0.074919054119928441 0 0.0008433276224244264 0.074833524556500136 0 -0.00026347688867351066 0.094735008886550592 0 -0.0002244084097938127 0.094717388770277397 0 -0.00022218956352685511 0.094635878927470718 0 0.00079964445066900685 0.074919054119928441 0 0.00080898167901245841 0.074862806338898899 0 0.00076436983270251728 0.07485245474378753 0 0.00080898167901245841 0.074862806338898899 0 0.00079172293507460902 0.074847215757472219 0 0.00076436983270251728 0.07485245474378753 0 0.00079172293507460902 0.074847215757472219 0 0.00082480148196970222 0.074863877853443214 0 0.00076832860049007225 0.074810732536802954 0 0.00080898167901245841 0.074862806338898899 0 0.00079172293507460902 0.074847215757472219 0 0.00082167729781714837 0.074868281118849966 0 0.00079172293507460902 0.074847215757472219 0 0.00082480148196970222 0.074863877853443214 0 0.00082167729781714837 0.074868281118849966 0 0.0006072101559275563 0.08471114754808054 0 0.00028561693561766124 0.085184769888119599 0 0.00016370703159366453 0.074366546631731645 0 0.00050555291671185556 0.07425292075870929 0 0.0005890425706448092 0.073478927919241252 0 0.00087367989179032706 0.075378969001568652 0 0.00091491829692872577 0.076205381712829118 0 0.00092170992004730694 0.074966961095198639 0 0.00091491829692872577 0.076205381712829118 0 0.00069229793812790948 0.074859761386322193 0 0.00074785132446764102 0.074833717037804406 0 0.00076436983270251728 0.07485245474378753 0 0.00079172293507460902 0.074847215757472219 0 0.00074785132446764102 0.074833717037804406 0 0.00076436983270251728 0.07485245474378753 0 9.0139692679513654e-05 0.088327013806260984 0 -7.7833280025519101e-05 0.088373134904689121 0 0.00012789125932923648 0.088451515842676853 0 5.7046428272531882e-05 0.088845999988343749 0 0.0003185728601099109 0.090784872250369256 0 -9.7788055009054338e-05 0.094797140205641214 0 -9.125695596743036e-05 0.094825415331153587 0 -7.7937091342564246e-05 0.094821250439211302 0 9.0139692679513654e-05 0.088327013806260984 0 0.00018073059984632489 0.088362231472435201 0 0.00012789125932923648 0.088451515842676853 0 9.0139692679513654e-05 0.088327013806260984 0 0.00018073059984632489 0.088362231472435201 0 0.00027135622772895618 0.088292842690705114 0 -9.7788055009054338e-05 0.094797140205641214 0 -0.00012198252837854303 0.094781896264592352 0 -0.00010413945475648475 0.094817479342582778 0 5.7046428272531882e-05 0.088845999988343749 0 0.00017043034308601048 0.085723553992997401 0 0.00017043034308601048 0.085723553992997401 0 4.6128100595181324e-05 0.086984860793235474 0 0.00018073059984632489 0.088362231472435201 0 0.00027135622772895618 0.088292842690705114 0 0.0001544858651231445 0.088458856532681887 0 -0.00021518167771748342 0.094623835206205015 0 -0.00022218956352685511 0.094635878927470718 0 -0.00020251308092976954 0.094682136752425983 0 0.00017043034308601048 0.085723553992997401 0 0.00028561693561766124 0.085184769888119599 0 0.00017043034308601048 0.085723553992997401 0 0.0016029215715806606 0.089979863343067595 0 -0.0002244084097938127 0.094717388770277397 0 -0.00022218956352685511 0.094635878927470718 0 -0.00020251308092976954 0.094682136752425983 0 -0.00021518167771748342 0.094623835206205015 0 -0.00020251308092976954 0.094682136752425983 0 -0.00014967161833021389 0.094702486009445905 0 -0.0002244084097938127 0.094717388770277397 0 -0.00020251308092976954 0.094682136752425983 0 -0.00017842395249065727 0.094765092720778904 0 -0.00020251308092976954 0.094682136752425983 0 -0.00014967161833021389 0.094702486009445905 0 -0.00017842395249065727 0.094765092720778904 0 -9.7788055009054338e-05 0.094797140205641214 0 -0.00010413945475648475 0.094817479342582778 0 -9.125695596743036e-05 0.094825415331153587 0 0.0016029215715806606 0.089979863343067595 0 0.0018146261787886466 0.090928162118834838 0 -0.00010413945475648475 0.094817479342582778 0 -9.125695596743036e-05 0.094825415331153587 0 -9.6862082464061006e-05 0.094829503602150561 0 -9.125695596743036e-05 0.094825415331153587 0 -9.6862082464061006e-05 0.094829503602150561 0 -7.5130797553881032e-05 0.094848411825442444 0 -9.6862082464061006e-05 0.094829503602150561 0 -0.00017842395249065727 0.094765092720778904 0 -0.00012976642072322581 0.094886875783421046 0 -9.6862082464061006e-05 0.094829503602150561 0 -0.00012976642072322581 0.094886875783421046 0 -6.6022698384888209e-05 0.09488510014040899 0 -0.00014967161833021389 0.094702486009445905 0 -9.6862082464061006e-05 0.094829503602150561 0 -0.00017842395249065727 0.094765092720778904 0 -0.00024210332342264589 0.09476529169145155 0 -0.00017842395249065727 0.094765092720778904 0 -0.00012976642072322581 0.094886875783421046 0 -0.00024210332342264589 0.09476529169145155 0 -0.0002244084097938127 0.094717388770277397 0 -0.00017842395249065727 0.094765092720778904 0 -0.00023774914690766015 0.094771158759674651 0 -0.00024210332342264589 0.09476529169145155 0 -0.00020966731641293182 0.094765294776893855 0 -0.00018450439042961927 0.094826878020869976 0 -0.00015137954438138111 0.09484674265850164 0 -0.00023774914690766015 0.094771158759674651 0 -0.00020966731641293182 0.094765294776893855 0 -0.00022547809235956443 0.094795641862970056 0 -0.00015137954438138111 0.09484674265850164 0 -9.3907068483441066e-05 0.094884004352880635 0 -0.00020966731641293182 0.094765294776893855 0 -0.00011712220141792872 0.094812612687513773 0 -0.00020007386972263096 0.094823739405030194 0 -0.00012976642072322581 0.094886875783421046 0 -5.4987707109489289e-05 0.09495218053608695 0 -6.6022698384888209e-05 0.09488510014040899 0 -5.4987707109489289e-05 0.09495218053608695 0 -2.9055993113754775e-05 0.094933916879513094 0 -6.6022698384888209e-05 0.09488510014040899 0 -5.4987707109489289e-05 0.09495218053608695 0 -2.9055993113754775e-05 0.094933916879513094 0 -8.1961034759301449e-06 0.09498758954712308 0 -2.9055993113754775e-05 0.094933916879513094 0 -1.8299490584381961e-05 0.09491974028881886 0 -4.7912098072125661e-05 0.094884763499551897 0 -2.9055993113754775e-05 0.094933916879513094 0 -4.7912098072125661e-05 0.094884763499551897 0 -6.6022698384888209e-05 0.09488510014040899 0 -4.7912098072125661e-05 0.094884763499551897 0 -6.6022698384888209e-05 0.09488510014040899 0 -7.5130797553881032e-05 0.094848411825442444 0 -9.6862082464061006e-05 0.094829503602150561 0 -6.6022698384888209e-05 0.09488510014040899 0 -7.5130797553881032e-05 0.094848411825442444 0 1.313398717458087e-08 0.094999958047379734 0 -3.5542083458534779e-06 0.094961605775828933 0 2.0196045371415335e-07 0.094990638013838558 0 -3.5542083458534779e-06 0.094961605775828933 0 -8.1961034759301449e-06 0.09498758954712308 0 2.0196045371415335e-07 0.094990638013838558 0 -2.9055993113754775e-05 0.094933916879513094 0 -3.5542083458534779e-06 0.094961605775828933 0 -8.1961034759301449e-06 0.09498758954712308 0 -2.9055993113754775e-05 0.094933916879513094 0 -1.8299490584381961e-05 0.09491974028881886 0 -3.5542083458534779e-06 0.094961605775828933 0 -1.8299490584381961e-05 0.09491974028881886 0 -3.5542083458534779e-06 0.094961605775828933 0 9.5188536026776873e-08 0.094945713981195931 0 1.313398717458087e-08 0.094999958047379734 0 9.5188536026776873e-08 0.094945713981195931 0 9.4322574432020684e-06 0.094952935726770701 0 1.313398717458087e-08 0.094999958047379734 0 -3.5542083458534779e-06 0.094961605775828933 0 9.5188536026776873e-08 0.094945713981195931 0 1.313398717458087e-08 0.094999958047379734 0 -7.0618221080328165e-09 0.094999925704951999 0 9.4322574432020684e-06 0.094952935726770701 0 -7.0618221080328165e-09 0.094999925704951999 0 9.4322574432020684e-06 0.094952935726770701 0 1.091277784643059e-05 0.094980218065757085 0 0.00062131390684628564 0.093499663496822871 0 0.00056100591875166389 0.093240054419662807 0 9.4322574432020684e-06 0.094952935726770701 0 2.6849724193166305e-05 0.094975082147557524 0 1.091277784643059e-05 0.094980218065757085 0 9.5188536026776873e-08 0.094945713981195931 0 9.4322574432020684e-06 0.094952935726770701 0 -1.0167361543569557e-05 0.094903388936200747 0 -1.8299490584381961e-05 0.09491974028881886 0 9.5188536026776873e-08 0.094945713981195931 0 -1.0167361543569557e-05 0.094903388936200747 0 -1.0167361543569557e-05 0.094903388936200747 0 2.567172948405494e-08 0.094852254108179337 0 -2.5354368001007391e-05 0.094860722751390611 0 9.4322574432020684e-06 0.094952935726770701 0 -1.0167361543569557e-05 0.094903388936200747 0 2.567172948405494e-08 0.094852254108179337 0 2.6849724193166305e-05 0.094975082147557524 0 2.4848718032014753e-05 0.094981315251391168 0 1.091277784643059e-05 0.094980218065757085 0 2.6849724193166305e-05 0.094975082147557524 0 2.4848718032014753e-05 0.094981315251391168 0 3.0918587197826547e-05 0.09498048997594527 0 2.4848718032014753e-05 0.094981315251391168 0 1.6284322419046287e-05 0.094988248294936795 0 3.0443374308788625e-05 0.094987813889472555 0 1.6284322419046287e-05 0.094988248294936795 0 1.091277784643059e-05 0.094980218065757085 0 5.1108236956642665e-06 0.094993182823289612 0 2.4848718032014753e-05 0.094981315251391168 0 1.6284322419046287e-05 0.094988248294936795 0 1.091277784643059e-05 0.094980218065757085 0 1.6284322419046287e-05 0.094988248294936795 0 5.1108236956642665e-06 0.094993182823289612 0 1.0298270731613935e-05 0.094998243220806897 0 -7.0618221080328165e-09 0.094999925704951999 0 5.1108236956642665e-06 0.094993182823289612 0 7.8687323187184635e-09 0.095000028278009629 0 -7.0618221080328165e-09 0.094999925704951999 0 1.091277784643059e-05 0.094980218065757085 0 5.1108236956642665e-06 0.094993182823289612 0 -6.0389659608363122e-05 0.094840207293895112 0 -7.5130797553881032e-05 0.094848411825442444 0 -7.7937091342564246e-05 0.094821250439211302 0 -9.125695596743036e-05 0.094825415331153587 0 -7.5130797553881032e-05 0.094848411825442444 0 -7.7937091342564246e-05 0.094821250439211302 0 -4.7912098072125661e-05 0.094884763499551897 0 -6.0389659608363122e-05 0.094840207293895112 0 -7.5130797553881032e-05 0.094848411825442444 0 -4.7912098072125661e-05 0.094884763499551897 0 -6.0389659608363122e-05 0.094840207293895112 0 -3.5901084870783396e-05 0.094874096215275205 0 -1.8299490584381961e-05 0.09491974028881886 0 -4.7912098072125661e-05 0.094884763499551897 0 -3.5901084870783396e-05 0.094874096215275205 0 -1.8299490584381961e-05 0.09491974028881886 0 -1.0167361543569557e-05 0.094903388936200747 0 -3.5901084870783396e-05 0.094874096215275205 0 -1.0167361543569557e-05 0.094903388936200747 0 -3.5901084870783396e-05 0.094874096215275205 0 -2.5354368001007391e-05 0.094860722751390611 0 -3.5901084870783396e-05 0.094874096215275205 0 -2.5354368001007391e-05 0.094860722751390611 0 -4.4800919623298144e-05 0.094842060530203914 0 -6.0389659608363122e-05 0.094840207293895112 0 -3.5901084870783396e-05 0.094874096215275205 0 -4.4800919623298144e-05 0.094842060530203914 0 -6.0389659608363122e-05 0.094840207293895112 0 -5.8122273770353687e-05 0.09482616328588328 0 -4.4800919623298144e-05 0.094842060530203914 0 -5.8122273770353687e-05 0.09482616328588328 0 -4.4800919623298144e-05 0.094842060530203914 0 -2.7966267564661944e-05 0.094824143249276321 0 -2.7966267564661944e-05 0.094824143249276321 0 -7.0335662151131258e-05 0.094763056463961479 0 -0.00015115031266073399 0.094743734946485539 0 0.00061888140441764526 0.091581499272681777 0 0.0003185728601099109 0.090784872250369256 0 -5.8122273770353687e-05 0.09482616328588328 0 -2.7966267564661944e-05 0.094824143249276321 0 -7.2063106361170662e-05 0.094799674252399935 0 0.00056100591875166389 0.093240054419662807 0 0.00025362531585195483 0.092311562500677707 0 2.567172948405494e-08 0.094852254108179337 0 -2.7966267564661944e-05 0.094824143249276321 0 -7.0335662151131258e-05 0.094763056463961479 0 2.567172948405494e-08 0.094852254108179337 0 -2.5354368001007391e-05 0.094860722751390611 0 -2.7966267564661944e-05 0.094824143249276321 0 -2.5354368001007391e-05 0.094860722751390611 0 -4.4800919623298144e-05 0.094842060530203914 0 -2.7966267564661944e-05 0.094824143249276321 0 2.4848718032014753e-05 0.094981315251391168 0 3.0918587197826547e-05 0.09498048997594527 0 3.0443374308788625e-05 0.094987813889472555 0 2.6849724193166305e-05 0.094975082147557524 0 3.0918587197826547e-05 0.09498048997594527 0 3.5786495698944503e-05 0.094979754073913875 0 0.00027402091543453919 0.092362567983558505 0 0.00025362531585195483 0.092311562500677707 0 -0.00011047353763072882 0.093623450639953254 0 -7.9600521700407304e-05 0.093557766771256767 0 3.0918587197826547e-05 0.09498048997594527 0 3.1088144589043237e-05 0.09497819905312771 0 3.0443374308788625e-05 0.094987813889472555 0 3.0918587197826547e-05 0.09498048997594527 0 3.1088144589043237e-05 0.09497819905312771 0 2.9513199965152591e-05 0.094977411469230236 0 3.1088144589043237e-05 0.09497819905312771 0 2.2123341449410838e-05 0.094970902840979504 0 3.9751442319069676e-05 0.094965200070936312 0 3.1088144589043237e-05 0.09497819905312771 0 2.9513199965152591e-05 0.094977411469230236 0 2.2123341449410838e-05 0.094970902840979504 0 0.00025362531585195483 0.092311562500677707 0 0.00012570133523344407 0.09237481357168506 0 0.00025362531585195483 0.092311562500677707 0 0.0001956563291340274 0.091606344372645657 0 0.00051014562344197907 0.09159235659307001 0 0.00027230824577199062 0.091381999747955245 0 4.4061825476405464e-06 0.091445288992702753 0 0.00012570133523344407 0.09237481357168506 0 0.0001956563291340274 0.091606344372645657 0 -9.7788055009054338e-05 0.094797140205641214 0 -7.2063106361170662e-05 0.094799674252399935 0 -7.7937091342564246e-05 0.094821250439211302 0 -7.0335662151131258e-05 0.094763056463961479 0 -0.00011683451046608379 0.09474083896166656 0 -0.00015115031266073399 0.094743734946485539 0 0.0001956563291340274 0.091606344372645657 0 0.0003185728601099109 0.090784872250369256 0 -5.8122273770353687e-05 0.09482616328588328 0 -7.2063106361170662e-05 0.094799674252399935 0 -7.7937091342564246e-05 0.094821250439211302 0 -6.0389659608363122e-05 0.094840207293895112 0 -5.8122273770353687e-05 0.09482616328588328 0 -7.7937091342564246e-05 0.094821250439211302 0 0.0001956563291340274 0.091606344372645657 0 8.5311164798148418e-05 0.087847031246450991 0 -0.0012352257873670801 0.093685329382934238 0 -0.0010938961712844233 0.093652446114129762 0 -0.00061362421832482882 0.094246955214920769 0 -0.00011150676669692932 0.094880369425427283 0 -9.7491672034107405e-05 0.094853081510537965 0 -0.00011394408236212144 0.094888873770798327 0 -0.0010938961712844233 0.093652446114129762 0 -0.00061362421832482882 0.094246955214920769 0 -5.7777518798835217e-05 0.093959856606671374 0 0.00073268650757508881 0.089903675441530079 0 0.00052570191222884991 0.089949785980051697 0 -0.00036096290849316063 0.089566148980033192 0 0.00012570133523344407 0.09237481357168506 0 0.00027681814528383186 0.093488018739743425 0 0.00012570133523344407 0.09237481357168506 0 -7.9600521700407304e-05 0.093557766771256767 0 -0.00011150676669692932 0.094880369425427283 0 -0.00011556937679326131 0.094884379773677391 0 -0.00011394408236212144 0.094888873770798327 0 -0.00011796937774865105 0.094894933590311842 0 -9.4184309415451626e-05 0.094938850738138458 0 -0.00013575758460487731 0.094927733345551435 0 -0.00011394408236212144 0.094888873770798327 0 -0.00011796937774865105 0.094894933590311842 0 -9.4184309415451626e-05 0.094938850738138458 0 -0.00011796937774865105 0.094894933590311842 0 -0.0001083280178056041 0.094877818006478459 0 -0.00013575758460487731 0.094927733345551435 0 -9.7491672034107405e-05 0.094853081510537965 0 -0.00011796937774865105 0.094894933590311842 0 -0.0001083280178056041 0.094877818006478459 0 -9.7491672034107405e-05 0.094853081510537965 0 -0.00011394408236212144 0.094888873770798327 0 -0.00011796937774865105 0.094894933590311842 0 -0.0001083280178056041 0.094877818006478459 0 -0.00010537751949800241 0.094891531879274113 0 -7.9984122415373952e-05 0.094846920444811147 0 -9.7491672034107405e-05 0.094853081510537965 0 -0.0001083280178056041 0.094877818006478459 0 -7.9984122415373952e-05 0.094846920444811147 0 -2.911542578745902e-07 0.094998355231296322 0 -6.5341720051730111e-05 0.094370647856871256 0 5.1108236956642665e-06 0.094993182823289612 0 7.8687323187184635e-09 0.095000028278009629 0 1.0298270731613935e-05 0.094998243220806897 0 -2.6362538010924598e-09 0.094999993048789602 0 1.1142203666972246e-06 0.094995133336675822 0 6.2694660425931422e-07 0.094998929975139063 0 -7.9600521700407304e-05 0.093557766771256767 0 -6.5341720051730111e-05 0.094370647856871256 0 1.6284322419046287e-05 0.094988248294936795 0 3.0443374308788625e-05 0.094987813889472555 0 1.0298270731613935e-05 0.094998243220806897 0 -0.00011556937679326131 0.094884379773677391 0 -0.00011394408236212144 0.094888873770798327 0 -9.4184309415451626e-05 0.094938850738138458 0 4.6757933845830406e-06 0.094991124065357424 0 1.1142203666972246e-06 0.094995133336675822 0 6.2694660425931422e-07 0.094998929975139063 0 -7.9600521700407304e-05 0.093557766771256767 0 -0.00017486579356352483 0.094623910434455324 0 -2.6362538010924598e-09 0.094999993048789602 0 6.2694660425931422e-07 0.094998929975139063 0 1.38651377266049e-09 0.095000000028746409 0 6.2694660425931422e-07 0.094998929975139063 0 1.38651377266049e-09 0.095000000028746409 0 -1.0499037724057668e-09 0.0950000003744461 0 -0.00017486579356352483 0.094623910434455324 0 -3.9661119273946859e-07 0.094999524197701135 0 -9.4184309415451626e-05 0.094938850738138458 0 -8.4068061744774556e-08 0.094999841549917571 0 -7.1335533133011148e-05 0.094942673130268176 0 -9.4184309415451626e-05 0.094938850738138458 0 -7.1335533133011148e-05 0.094942673130268176 0 -0.00013575758460487731 0.094927733345551435 0 -7.1335533133011148e-05 0.094942673130268176 0 -9.7324518579820109e-05 0.094868260522264977 0 -0.00013575758460487731 0.094927733345551435 0 -7.1335533133011148e-05 0.094942673130268176 0 -9.7324518579820109e-05 0.094868260522264977 0 -3.1792891827690178e-05 0.094930663406463167 0 -2.5593469067071643e-09 0.094999899032994467 0 -8.4068061744774556e-08 0.094999841549917571 0 -3.1792891827690178e-05 0.094930663406463167 0 -8.4068061744774556e-08 0.094999841549917571 0 -7.1335533133011148e-05 0.094942673130268176 0 -3.1792891827690178e-05 0.094930663406463167 0 -0.00030263302947414867 0.090096421983930475 0 -0.00018176085433039174 0.090914399312982855 0 -0.00031370436426145595 0.094911566345115356 0 -0.00013575758460487731 0.094927733345551435 0 -0.00023533821726955689 0.094836325502744387 0 -0.0001083280178056041 0.094877818006478459 0 -0.00010537751949800241 0.094891531879274113 0 -0.00013575758460487731 0.094927733345551435 0 -9.7324518579820109e-05 0.094868260522264977 0 -0.00013575758460487731 0.094927733345551435 0 -0.00023533821726955689 0.094836325502744387 0 -0.00017754220996550038 0.094749521707697459 0 -9.7324518579820109e-05 0.094868260522264977 0 -0.00023533821726955689 0.094836325502744387 0 -0.00034652472667292194 0.094726359666203144 0 -0.00023533821726955689 0.094836325502744387 0 -0.00036220307266735885 0.094829802165390609 0 -0.00031370436426145595 0.094911566345115356 0 -0.00023533821726955689 0.094836325502744387 0 -0.00036220307266735885 0.094829802165390609 0 -0.0011208489050988843 0.092453983694567782 0 -0.0014706220101062021 0.090609304520243447 0 -0.00034652472667292194 0.094726359666203144 0 -0.00036220307266735885 0.094829802165390609 0 -0.00042717982648269589 0.094805427109581952 0 -0.00036220307266735885 0.094829802165390609 0 -0.00042437615779032228 0.094833962060805341 0 -0.00042717982648269589 0.094805427109581952 0 -0.00010537751949800241 0.094891531879274113 0 8.8886991123945274e-05 0.094918025404400558 0 1.1731855412323683e-05 0.094781411407368857 0 -0.00010537751949800241 0.094891531879274113 0 -7.9984122415373952e-05 0.094846920444811147 0 1.1731855412323683e-05 0.094781411407368857 0 -0.00031370436426145595 0.094911566345115356 0 -0.00036220307266735885 0.094829802165390609 0 -0.00039886770507974845 0.094863424010187353 0 -0.00030263302947414867 0.090096421983930475 0 -0.0009180728159954918 0.087309005392424074 0 -0.00031370436426145595 0.094911566345115356 0 -0.00039886770507974845 0.094863424010187353 0 -0.00044358824559300825 0.094859377829463881 0 -0.00036220307266735885 0.094829802165390609 0 -0.00039886770507974845 0.094863424010187353 0 -0.00042437615779032228 0.094833962060805341 0 -0.0009180728159954918 0.087309005392424074 0 -0.00064717296387237287 0.085215583964401501 0 -0.0014706220101062021 0.090609304520243447 0 -0.00064717296387237287 0.085215583964401501 0 8.8886991123945274e-05 0.094918025404400558 0 0.00067438301631034519 0.094764341191573856 0 0.00031694182756835212 0.094619636132852278 0 -0.00042826912708756774 0.094852580577949791 0 -0.00042437615779032228 0.094833962060805341 0 -0.00048851632257051862 0.094825550111469134 0 -0.0009180728159954918 0.087309005392424074 0 -0.00099194206473617367 0.083873483466609625 0 -0.00042437615779032228 0.094833962060805341 0 -0.00042717982648269589 0.094805427109581952 0 -0.00048851632257051862 0.094825550111469134 0 -0.00039886770507974845 0.094863424010187353 0 -0.00042826912708756774 0.094852580577949791 0 -0.00042437615779032228 0.094833962060805341 0 -0.0010151750143366854 0.087524402675690963 0 -0.0009180728159954918 0.087309005392424074 0 0.00049076614052398992 0.093453435442393581 0 0.00029538848448539576 0.093340469642439042 0 0.00054866903142154863 0.093292243265266278 0 0.00029538848448539576 0.093340469642439042 0 0.00054866903142154863 0.093292243265266278 0 0.00056296546484930587 0.093092410417188035 0 0.00063345694723917849 0.093398657383087155 0 0.00049076614052398992 0.093453435442393581 0 0.00054866903142154863 0.093292243265266278 0 0.00063345694723917849 0.093398657383087155 0 0.00054866903142154863 0.093292243265266278 0 0.00066069358831605349 0.093264822796177899 0 0.00054866903142154863 0.093292243265266278 0 0.00066069358831605349 0.093264822796177899 0 0.00060741713349586894 0.093183305348224624 0 0.00063345694723917849 0.093398657383087155 0 0.00073994910044709427 0.093330855058299411 0 0.00066069358831605349 0.093264822796177899 0 0.00066069358831605349 0.093264822796177899 0 0.00074267865991253356 0.093189614964142339 0 0.00066677255747012577 0.093175945980102801 0 0.00066069358831605349 0.093264822796177899 0 0.00066677255747012577 0.093175945980102801 0 0.00060741713349586894 0.093183305348224624 0 0.00073994910044709427 0.093330855058299411 0 0.00066069358831605349 0.093264822796177899 0 0.00074267865991253356 0.093189614964142339 0 0.00085038751186486384 0.093235933279434441 0 0.00073994910044709427 0.093330855058299411 0 0.00074267865991253356 0.093189614964142339 0 0.00089958187979264823 0.093088967617682233 0 0.00074267865991253356 0.093189614964142339 0 0.0006897194480674063 0.093114793319122591 0 0.00074267865991253356 0.093189614964142339 0 0.0006897194480674063 0.093114793319122591 0 0.00066677255747012577 0.093175945980102801 0 -6.4951672192774989e-05 0.08243838582135371 0 -0.00047775903391638903 0.083761982509674607 0 0.0006897194480674063 0.093114793319122591 0 0.00066677255747012577 0.093175945980102801 0 0.00063454759878186844 0.093112504632935994 0 -6.4951672192774989e-05 0.08243838582135371 0 7.197807222119595e-05 0.081278326901315881 0 5.146917438270083e-05 0.082058884175214772 0 0.0010721128090418355 0.082092969213105216 0 0.00040002455814775167 0.083474697200929981 0 5.146917438270083e-05 0.082058884175214772 0 -0.00012802546365777614 0.083857172992509818 0 0.00040002455814775167 0.083474697200929981 0 -0.00047775903391638903 0.083761982509674607 0 -0.00013985639938972412 0.082182749078120912 0 0.0018542179026429428 0.079177213724500164 0 0.0013686905646785421 0.079596020129935552 0 0.0017868978493546315 0.079857226504986348 0 -0.0012411260452261708 0.08459218109072833 0 -0.00076030135209050346 0.084598819727822322 0 -0.00081287633479197087 0.084557247973089805 0 -0.0012411260452261708 0.08459218109072833 0 -0.00075844139451675639 0.084438252629760832 0 -0.00081287633479197087 0.084557247973089805 0 0.00054866903142154863 0.093292243265266278 0 0.00060741713349586894 0.093183305348224624 0 0.00056296546484930587 0.093092410417188035 0 0.00066677255747012577 0.093175945980102801 0 0.00060741713349586894 0.093183305348224624 0 0.00063454759878186844 0.093112504632935994 0 0.00060741713349586894 0.093183305348224624 0 0.00056296546484930587 0.093092410417188035 0 0.00065272970387051201 0.09308988644236689 0 -0.00064862125345392576 0.084338677168989837 0 -0.00047775903391638903 0.083761982509674607 0 -0.00076030135209050346 0.084598819727822322 0 -0.0007575193057525484 0.084430210914276507 0 -0.00081287633479197087 0.084557247973089805 0 -0.00076030135209050346 0.084598819727822322 0 -0.0007575193057525484 0.084430210914276507 0 -0.0005018449497028437 0.084406564122895794 0 -0.0001568928284155146 0.084058133942017263 0 -0.00037199789136090121 0.084049234669478459 0 -0.00049401344288515429 0.084298908242944157 0 -0.00064717296387237287 0.085215583964401501 0 -0.00013985639938972412 0.082182749078120912 0 -0.00064717296387237287 0.085215583964401501 0 -0.00047775903391638903 0.083761982509674607 0 -0.00099194206473617367 0.083873483466609625 0 -0.00099681400056354135 0.083896883584160253 0 0.00067438301631034519 0.094764341191573856 0 0.00056527062567650441 0.094517638325610873 0 0.00031694182756835212 0.094619636132852278 0 0.00067438301631034519 0.094764341191573856 0 0.00083324491130737995 0.094423067526921742 0 0.00056527062567650441 0.094517638325610873 0 0.00022932969223461285 0.081004523648340071 0 -0.00019567019274603607 0.081928802943504922 0 -0.00066967150887526511 0.081270253006921464 0 -0.00099194206473617367 0.083873483466609625 0 0.00013092528104322241 0.082408385039852816 0 -0.00099194206473617367 0.083873483466609625 0 2.5119140103980651e-05 0.081537519179846418 0 -0.0010349419962537249 0.083708723251278039 0 -0.001161051312947885 0.083982241948268893 0 4.9406718176930544e-05 0.084340384570653126 0 0.00013092528104322241 0.082408385039852816 0 0.00032079030560532284 0.081146626652796219 0 0.00013092528104322241 0.082408385039852816 0 0.00046597358035302573 0.085287629613877258 0 0.00083324491130737995 0.094423067526921742 0 0.00056527062567650441 0.094517638325610873 0 0.00043189945709302507 0.094260364453801315 0 0.00056527062567650441 0.094517638325610873 0 0.00043189945709302507 0.094260364453801315 0 0.00031694182756835212 0.094619636132852278 0 0.00085287803319247747 0.078281983032224334 0 0.00065393423056874054 0.078944467630414183 0 0.00046600655340057947 0.077931364379460605 0 -0.00040195424263048449 0.078190783292102189 0 0.0022138810821463505 0.081032422990081426 0 -7.5714036360608928e-05 0.079021362134677864 0 0.0013597208451404225 0.079613322681155604 0 0.00066050550832793728 0.079822295644163502 0 0.00065393423056874054 0.078944467630414183 0 0.00076406886314882283 0.078266556188208658 0 0.0010667852753085264 0.079952420575142735 0 0.0013686905646785421 0.079596020129935552 0 0.0013313988177823261 0.080062671988199469 0 0.00065393423056874054 0.078944467630414183 0 7.197807222119595e-05 0.081278326901315881 0 0.0013686905646785421 0.079596020129935552 0 0.0013313988177823261 0.080062671988199469 0 0.0017868978493546315 0.079857226504986348 0 0.00065393423056874054 0.078944467630414183 0 0.00020133120862536781 0.080221337161765174 0 -0.0011075893589201037 0.079297381611137266 0 0.0015950163222060308 0.080116935784857998 0 0.001809379798419072 0.077974765696113377 0 -0.00019567019274603607 0.081928802943504922 0 -0.00083561004807694605 0.081611126653451146 0 -0.00066967150887526511 0.081270253006921464 0 -0.0007575193057525484 0.084430210914276507 0 -0.00046909007707160959 0.08433856514620526 0 -0.0005018449497028437 0.084406564122895794 0 0.00020133120862536781 0.080221337161765174 0 7.197807222119595e-05 0.081278326901315881 0 0.00020133120862536781 0.080221337161765174 0 2.5119140103980651e-05 0.081537519179846418 0 0.000134999786378874 0.082136598804213853 0 0.00026419156937888041 0.080842525433908741 0 0.0006944524676900395 0.080987090409265272 0 -0.00070103483690908827 0.081598737992667231 0 0.00022352656843395809 0.081909717526826076 0 0.00096091522879517216 0.080393731853197717 0 2.5119140103980651e-05 0.081537519179846418 0 -0.00013985639938972412 0.082182749078120912 0 7.197807222119595e-05 0.081278326901315881 0 -0.00013985639938972412 0.082182749078120912 0 7.197807222119595e-05 0.081278326901315881 0 2.5119140103980651e-05 0.081537519179846418 0 0.00013092528104322241 0.082408385039852816 0 0.00020133120862536781 0.080221337161765174 0 0.0016981105403581565 0.081146363143692765 0 -0.0011811535777467486 0.079721382355888548 0 -0.0013720738006431084 0.081629053418623657 0 0.0016981105403581565 0.081146363143692765 0 0.0011410182025542034 0.082356242470823279 0 -0.0013720738006431084 0.081629053418623657 0 0.0017034926727011888 0.080131816112081367 0 0.0010673672136525783 0.079946921563712386 0 0.0015078925176841282 0.08055731109358566 0 0.00032079030560532284 0.081146626652796219 0 0.0002962886234412322 0.079033216161744788 0 0.00020133120862536781 0.080221337161765174 0 0.0002962886234412322 0.079033216161744788 0 0.00046600655340057947 0.077931364379460605 0 0.0033068667728537032 0.078792289920514347 0 0.0022138810821463505 0.081032422990081426 0 -0.00018537231441829338 0.077764547105514448 0 -0.00035749051818587645 0.079489729888936669 0 -0.00094496069344551748 0.079321026277289139 0 0.00020133120862536781 0.080221337161765174 0 0.00051594871452117087 0.078411041539199866 0 0.0002962886234412322 0.079033216161744788 0 0.00051594871452117087 0.078411041539199866 0 0.00076406886314882283 0.078266556188208658 0 0.00051594871452117087 0.078411041539199866 0 0.00079172293507460902 0.074847215757472219 0 0.00074785132446764102 0.074833717037804406 0 0.00076832860049007225 0.074810732536802954 0 0.00091491829692872577 0.076205381712829118 0 0.00042493438448042717 0.080242228507862265 0 0.0014622597933056252 0.073265223192787943 0 0.00051594871452117087 0.078411041539199866 0 0.00033426230404234853 0.071755108546639843 0 0.0013195083449363935 0.070136580151253652 0 0.0011847313278942097 0.070098525370257056 0 0.00083869822171217696 0.077540244692611657 0 0.00060623172243777078 0.07979013245067354 0 0.00011504715352274413 0.079104969097967506 0 0.00091491829692872577 0.076205381712829118 0 0.0002962886234412322 0.079033216161744788 0 0.00033426230404234853 0.071755108546639843 0 0.0011630911695856042 0.071755332432556093 0 0.0013195083449363935 0.070136580151253652 0 0.0002962886234412322 0.079033216161744788 0 0.00042493438448042717 0.080242228507862265 0 0.00032079030560532284 0.081146626652796219 0 0.00042493438448042717 0.080242228507862265 0 -6.9632074267772975e-05 0.083440412613898021 0 -0.00015355682956308411 0.083623257868183545 0 0.00051123683174927176 0.083614156005295773 0 0.00017043034308601048 0.085723553992997401 0 0.00042493438448042717 0.080242228507862265 0 0.00060704590490169694 0.084457172196619149 0 -0.00015355682956308411 0.083623257868183545 0 0.00051123683174927176 0.083614156005295773 0 -0.0010349419962537249 0.083708723251278039 0 4.9406718176930544e-05 0.084340384570653126 0 0.00011994218821093807 0.084193466004653439 0 0.00032079030560532284 0.081146626652796219 0 0.00020770936445936729 0.084061728796678628 0 0.00060704590490169694 0.084457172196619149 0 0.00051123683174927176 0.083614156005295773 0 0.0010905701361083088 0.083787086079213688 0 0.00046597358035302573 0.085287629613877258 0 4.6128100595181324e-05 0.086984860793235474 0 0.00020770936445936729 0.084061728796678628 0 4.6128100595181324e-05 0.086984860793235474 0 4.9406718176930544e-05 0.084340384570653126 0 0.00011994218821093807 0.084193466004653439 0 0.001244553544047466 0.084700816515293334 0 1.9151269885414832e-05 0.094058731226152992 0 -0.0001393650405444931 0.094258310447078525 0 8.1430031885523652e-05 0.094303666094813027 0 0.00043189945709302507 0.094260364453801315 0 1.9151269885414832e-05 0.094058731226152992 0 8.1430031885523652e-05 0.094303666094813027 0 0.00018073059984632489 0.088362231472435201 0 0.0001544858651231445 0.088458856532681887 0 0.00012789125932923648 0.088451515842676853 0 0.0003185728601099109 0.090784872250369256 0 8.5311164798148418e-05 0.087847031246450991 0 4.6128100595181324e-05 0.086984860793235474 0 8.5311164798148418e-05 0.087847031246450991 0 -0.00061362421832482882 0.094246955214920769 0 -5.7777518798835217e-05 0.093959856606671374 0 -0.0001393650405444931 0.094258310447078525 0 5.2695430373770926e-05 0.09398971589235372 0 -5.7777518798835217e-05 0.093959856606671374 0 -0.0001393650405444931 0.094258310447078525 0 4.6128100595181324e-05 0.086984860793235474 0 -0.000238920941434052 0.087584836571069455 0 -0.0001393650405444931 0.094258310447078525 0 -7.6901722639762633e-05 0.094458714788801315 0 8.1430031885523652e-05 0.094303666094813027 0 -0.00061362421832482882 0.094246955214920769 0 -7.6901722639762633e-05 0.094458714788801315 0 1.1731855412323683e-05 0.094781411407368857 0 -9.7491672034107405e-05 0.094853081510537965 0 -7.9984122415373952e-05 0.094846920444811147 0 1.1731855412323683e-05 0.094781411407368857 0 0.00027681814528383186 0.093488018739743425 0 0.00035410949805935777 0.093835219465088646 0 -0.00061362421832482882 0.094246955214920769 0 -0.0001393650405444931 0.094258310447078525 0 -7.6901722639762633e-05 0.094458714788801315 0 8.8886991123945274e-05 0.094918025404400558 0 1.1731855412323683e-05 0.094781411407368857 0 0.00031694182756835212 0.094619636132852278 0 -7.6901722639762633e-05 0.094458714788801315 0 1.1731855412323683e-05 0.094781411407368857 0 0.00015614193164399396 0.094482749591735374 0 1.1731855412323683e-05 0.094781411407368857 0 0.00031694182756835212 0.094619636132852278 0 0.00015614193164399396 0.094482749591735374 0 0.00043189945709302507 0.094260364453801315 0 0.00031694182756835212 0.094619636132852278 0 0.00015614193164399396 0.094482749591735374 0 0.00043189945709302507 0.094260364453801315 0 8.1430031885523652e-05 0.094303666094813027 0 0.00015614193164399396 0.094482749591735374 0 -7.6901722639762633e-05 0.094458714788801315 0 8.1430031885523652e-05 0.094303666094813027 0 0.00015614193164399396 0.094482749591735374 0 -0.0029707999643351505 -0.0013258165193960462 0 -0.0026775712871717483 -0.0010851849760751188 0 -0.0026914786501706042 -0.0012502837847703405 0 -0.0029707999643351505 -0.0013258165193960462 0 -0.0026914786501706042 -0.0012502837847703405 0 -0.0028204488926615819 -0.0013862306710967481 0 -0.0029707999643351505 -0.0013258165193960462 0 -0.0028204488926615819 -0.0013862306710967481 0 -0.0029758717586862095 -0.0014719822964597464 0 -0.0029707999643351505 -0.0013258165193960462 0 -0.003073148848716253 -0.0014986282911030595 0 -0.003152839214092902 -0.0014355747898263385 0 -0.0029707999643351505 -0.0013258165193960462 0 -0.003073148848716253 -0.0014986282911030595 0 -0.0029758717586862095 -0.0014719822964597464 0 -0.003073148848716253 -0.0014986282911030595 0 -0.0029758717586862095 -0.0014719822964597464 0 -0.0030274533478388287 -0.0015437824186561562 0 -0.003073148848716253 -0.0014986282911030595 0 -0.003152839214092902 -0.0014355747898263385 0 -0.0031128440653750461 -0.0015583280788515608 0 -0.0029707999643351505 -0.0013258165193960462 0 -0.003152839214092902 -0.0014355747898263385 0 -0.0031976016118107622 -0.0013093880304925485 0 -0.0031976016118107622 -0.0013093880304925485 0 -0.0032858456808251926 -0.0014972711424700196 0 -0.0033530242425623491 -0.0012601360102723138 0 -0.003152839214092902 -0.0014355747898263385 0 -0.0031976016118107622 -0.0013093880304925485 0 -0.0032858456808251926 -0.0014972711424700196 0 -0.0031976016118107622 -0.0013093880304925485 0 -0.0030577797130843798 -0.001149856483551872 0 -0.0033530242425623491 -0.0012601360102723138 0 -0.0029707999643351505 -0.0013258165193960462 0 -0.0030577797130843798 -0.001149856483551872 0 -0.0026775712871717483 -0.0010851849760751188 0 -0.0029707999643351505 -0.0013258165193960462 0 -0.0031976016118107622 -0.0013093880304925485 0 -0.0030577797130843798 -0.001149856483551872 0 -0.0030577797130843798 -0.001149856483551872 0 -0.0026775712871717483 -0.0010851849760751188 0 -0.0027269939393209596 -0.00081314124615820458 0 -0.0026775712871717483 -0.0010851849760751188 0 -0.0022648199856316171 -0.00080712227249956606 0 -0.0027269939393209596 -0.00081314124615820458 0 -0.0026775712871717483 -0.0010851849760751188 0 -0.0022648199856316171 -0.00080712227249956606 0 -0.0022375386612567081 -0.0010107742489282947 0 -0.0022648199856316171 -0.00080712227249956606 0 -0.0016443963011618843 -0.00056105567368112572 0 -0.0018508952996874252 -0.00085589014087632546 0 -0.0022375386612567081 -0.0010107742489282947 0 -0.0018854473572719669 -0.0010154988110006021 0 -0.0018508952996874252 -0.00085589014087632546 0 -0.0022648199856316171 -0.00080712227249956606 0 -0.0022375386612567081 -0.0010107742489282947 0 -0.0018508952996874252 -0.00085589014087632546 0 -0.0022375386612567081 -0.0010107742489282947 0 -0.0018854473572719669 -0.0010154988110006021 0 -0.0023723268941559916 -0.001162425972820216 0 -0.0018854473572719669 -0.0010154988110006021 0 -0.0023723268941559916 -0.001162425972820216 0 -0.0020664360124209619 -0.0011440747776436078 0 -0.0018854473572719669 -0.0010154988110006021 0 -0.0020664360124209619 -0.0011440747776436078 0 -0.0016406417153403418 -0.00096582293193467057 0 -0.0026914786501706042 -0.0012502837847703405 0 -0.0023723268941559916 -0.001162425972820216 0 -0.0025144329061277679 -0.0013743439013745142 0 -0.0026775712871717483 -0.0010851849760751188 0 -0.0026914786501706042 -0.0012502837847703405 0 -0.0023723268941559916 -0.001162425972820216 0 -0.0026775712871717483 -0.0010851849760751188 0 -0.0022375386612567081 -0.0010107742489282947 0 -0.0023723268941559916 -0.001162425972820216 0 -0.0026914786501706042 -0.0012502837847703405 0 -0.0025144329061277679 -0.0013743439013745142 0 -0.0028204488926615819 -0.0013862306710967481 0 -0.0023723268941559916 -0.001162425972820216 0 -0.0025144329061277679 -0.0013743439013745142 0 -0.0020664360124209619 -0.0011440747776436078 0 -0.0025144329061277679 -0.0013743439013745142 0 -0.0020664360124209619 -0.0011440747776436078 0 -0.0020608163906344966 -0.0013084345730557368 0 -0.0020664360124209619 -0.0011440747776436078 0 -0.0020608163906344966 -0.0013084345730557368 0 -0.0016406417153403418 -0.00096582293193467057 0 -0.0020608163906344966 -0.0013084345730557368 0 -0.0024409616386685327 -0.0016162030351776493 0 -0.0020585088012231418 -0.0017955104565602954 0 -0.0025144329061277679 -0.0013743439013745142 0 -0.0024409616386685327 -0.0016162030351776493 0 -0.0027728319087875412 -0.0016349487805654426 0 -0.0025144329061277679 -0.0013743439013745142 0 -0.0020608163906344966 -0.0013084345730557368 0 -0.0024409616386685327 -0.0016162030351776493 0 -0.0027728319087875412 -0.0016349487805654426 0 -0.0028787269087990918 -0.0015067814622759473 0 -0.0029644857371268021 -0.0015740817431506369 0 -0.0025144329061277679 -0.0013743439013745142 0 -0.0027728319087875412 -0.0016349487805654426 0 -0.0028787269087990918 -0.0015067814622759473 0 -0.0025144329061277679 -0.0013743439013745142 0 -0.0028787269087990918 -0.0015067814622759473 0 -0.0028204488926615819 -0.0013862306710967481 0 -0.0028787269087990918 -0.0015067814622759473 0 -0.0028204488926615819 -0.0013862306710967481 0 -0.0029758717586862095 -0.0014719822964597464 0 -0.0029758717586862095 -0.0014719822964597464 0 -0.0029836909959182149 -0.0015300031153485183 0 -0.0030274533478388287 -0.0015437824186561562 0 -0.0028787269087990918 -0.0015067814622759473 0 -0.0029836909959182149 -0.0015300031153485183 0 -0.0029644857371268021 -0.0015740817431506369 0 -0.0028787269087990918 -0.0015067814622759473 0 -0.0029758717586862095 -0.0014719822964597464 0 -0.0029836909959182149 -0.0015300031153485183 0 -0.0029836909959182149 -0.0015300031153485183 0 -0.0030274533478388287 -0.0015437824186561562 0 -0.0029933513268813098 -0.0015562105247351411 0 -0.0029836909959182149 -0.0015300031153485183 0 -0.0029644857371268021 -0.0015740817431506369 0 -0.0029933513268813098 -0.0015562105247351411 0 -0.0027728319087875412 -0.0016349487805654426 0 -0.0029644857371268021 -0.0015740817431506369 0 -0.0029724623552251734 -0.0017036394399568351 0 -0.0029644857371268021 -0.0015740817431506369 0 -0.0029783601385689118 -0.0015500734673099669 0 -0.0029724623552251734 -0.0017036394399568351 0 -0.0029783601385689118 -0.0015500734673099669 0 -0.0029409475953359123 -0.0014637853722278529 0 -0.0029724623552251734 -0.0017036394399568351 0 0.0070859593002919729 -0.010233368377401844 0 0.0070363996758007639 -0.0097108374791879445 0 0.0060495980691781942 -0.010897788920367035 0 -0.0029783601385689118 -0.0015500734673099669 0 -0.0029394976908214648 -0.0015612542433429786 0 -0.0029933513268813098 -0.0015562105247351411 0 -0.0029644857371268021 -0.0015740817431506369 0 -0.0029783601385689118 -0.0015500734673099669 0 -0.0029933513268813098 -0.0015562105247351411 0 -0.0029783601385689118 -0.0015500734673099669 0 -0.0029394976908214648 -0.0015612542433429786 0 -0.0029356852780122061 -0.0015261489514473464 0 -0.0029783601385689118 -0.0015500734673099669 0 -0.0029356852780122061 -0.0015261489514473464 0 -0.0029409475953359123 -0.0014637853722278529 0 0.0070859593002919729 -0.010233368377401844 0 0.0070363996758007639 -0.0097108374791879445 0 0.0041877665728252403 -0.0081923140633430366 0 -0.0028158032882650346 -0.0015485745032008814 0 -0.0026702244047039432 -0.0016040566756345769 0 -0.0023692778812468007 -0.0014985574248003637 0 0.001128496210389742 -0.0043966317176107007 0 5.4225925881332022e-05 -0.0037702583953230584 0 -0.0029409475953359123 -0.0014637853722278529 0 -0.0028158032882650346 -0.0015485745032008814 0 -0.0023692778812468007 -0.0014985574248003637 0 0.0073390452269542676 -0.011388783892488876 0 0.0067418586775736811 -0.011705254109377923 0 -0.0029356852780122061 -0.0015261489514473464 0 -0.0029409475953359123 -0.0014637853722278529 0 -0.0028158032882650346 -0.0015485745032008814 0 -0.0029394976908214648 -0.0015612542433429786 0 -0.0029356852780122061 -0.0015261489514473464 0 -0.0028158032882650346 -0.0015485745032008814 0 -0.0029394976908214648 -0.0015612542433429786 0 -0.0028158032882650346 -0.0015485745032008814 0 -0.002817126285714323 -0.0016278764958022828 0 -0.0029394976908214648 -0.0015612542433429786 0 -0.002817126285714323 -0.0016278764958022828 0 -0.0029513634645449852 -0.0016103954551210172 0 -0.002817126285714323 -0.0016278764958022828 0 -0.0026702244047039432 -0.0016040566756345769 0 -0.0025907281848112727 -0.0017686016573356829 0 -0.0028158032882650346 -0.0015485745032008814 0 -0.002817126285714323 -0.0016278764958022828 0 -0.0026702244047039432 -0.0016040566756345769 0 -0.0028093260633693619 -0.001703625541794943 0 -0.0025907281848112727 -0.0017686016573356829 0 -0.0026746232672713011 -0.0018168551824911388 0 -0.002817126285714323 -0.0016278764958022828 0 -0.0028093260633693619 -0.001703625541794943 0 -0.0025907281848112727 -0.0017686016573356829 0 -0.002817126285714323 -0.0016278764958022828 0 -0.0028093260633693619 -0.001703625541794943 0 -0.0029513634645449852 -0.0016103954551210172 0 -0.0028093260633693619 -0.001703625541794943 0 -0.0029513634645449852 -0.0016103954551210172 0 -0.0029139549625725415 -0.0017037323025753171 0 -0.0029513634645449852 -0.0016103954551210172 0 -0.0030274533478388287 -0.0015437824186561562 0 -0.0029933513268813098 -0.0015562105247351411 0 -0.0029513634645449852 -0.0016103954551210172 0 -0.0030274533478388287 -0.0015437824186561562 0 -0.0030292044041520549 -0.0015878279005285118 0 -0.0029394976908214648 -0.0015612542433429786 0 -0.0029513634645449852 -0.0016103954551210172 0 -0.0029933513268813098 -0.0015562105247351411 0 -0.00070875981901002928 -0.0068702180576693615 0 0.0036418836750235096 -0.0055291702425783081 0 -0.0013732207427240553 -0.00266806410677767 0 0.0060592846290340192 -0.012934908400166067 0 0.0067418586775736811 -0.011705254109377923 0 -0.00070875981901002928 -0.0068702180576693615 0 0.0036418836750235096 -0.0055291702425783081 0 0.0041877665728252403 -0.0081923140633430366 0 0.0070363996758007639 -0.0097108374791879445 0 0.0036418836750235096 -0.0055291702425783081 0 0.0041877665728252403 -0.0081923140633430366 0 -0.0026702244047039432 -0.0016040566756345769 0 -0.0023692778812468007 -0.0014985574248003637 0 -0.0025907281848112727 -0.0017686016573356829 0 -0.0025907281848112727 -0.0017686016573356829 0 -0.0023835910188172633 -0.0019808898874044529 0 -0.0026746232672713011 -0.0018168551824911388 0 -0.0025907281848112727 -0.0017686016573356829 0 -0.0021409179850957667 -0.0020315354383348984 0 -0.0023835910188172633 -0.0019808898874044529 0 -0.0021409179850957667 -0.0020315354383348984 0 -0.0019603666657132669 -0.0021942361731134303 0 -0.0023835910188172633 -0.0019808898874044529 0 -0.0023692778812468007 -0.0014985574248003637 0 -0.0025907281848112727 -0.0017686016573356829 0 -0.0021409179850957667 -0.0020315354383348984 0 -0.0021409179850957667 -0.0020315354383348984 0 -0.0019603666657132669 -0.0021942361731134303 0 -0.0013732207427240553 -0.00266806410677767 0 -0.0023692778812468007 -0.0014985574248003637 0 -0.0021409179850957667 -0.0020315354383348984 0 -0.0013732207427240553 -0.00266806410677767 0 -0.0019603666657132669 -0.0021942361731134303 0 -0.0013732207427240553 -0.00266806410677767 0 -0.0018648508523007011 -0.0022144849238187624 0 5.4225925881332022e-05 -0.0037702583953230584 0 -0.00073178764945168689 -0.0033710372191919683 0 -0.0019603666657132669 -0.0021942361731134303 0 -0.0021995917277103983 -0.0020913800502058606 0 -0.0018648508523007011 -0.0022144849238187624 0 -0.0019603666657132669 -0.0021942361731134303 0 -0.0023835910188172633 -0.0019808898874044529 0 -0.0021995917277103983 -0.0020913800502058606 0 -0.0023835910188172633 -0.0019808898874044529 0 -0.0025670587235689908 -0.0019539591138496679 0 -0.0021995917277103983 -0.0020913800502058606 0 -0.0023835910188172633 -0.0019808898874044529 0 -0.0025670587235689908 -0.0019539591138496679 0 -0.0027469607212538372 -0.0018305046831316907 0 -0.0023835910188172633 -0.0019808898874044529 0 -0.0026746232672713011 -0.0018168551824911388 0 -0.0027469607212538372 -0.0018305046831316907 0 -0.0025670587235689908 -0.0019539591138496679 0 -0.0021995917277103983 -0.0020913800502058606 0 -0.0023774715953377257 -0.0021399351219836453 0 -0.0025670587235689908 -0.0019539591138496679 0 -0.0023774715953377257 -0.0021399351219836453 0 -0.0028012078028857084 -0.0019366531996183507 0 -0.0021995917277103983 -0.0020913800502058606 0 -0.0018648508523007011 -0.0022144849238187624 0 -0.0020016516024619754 -0.0022255199152325898 0 -0.0021995917277103983 -0.0020913800502058606 0 -0.0023774715953377257 -0.0021399351219836453 0 -0.0020016516024619754 -0.0022255199152325898 0 -0.0031128440653750461 -0.0015583280788515608 0 -0.0029139549625725415 -0.0017037323025753171 0 -0.0030428671210843889 -0.0016727412488299236 0 -0.0031128440653750461 -0.0015583280788515608 0 -0.0030292044041520549 -0.0015878279005285118 0 -0.0029139549625725415 -0.0017037323025753171 0 -0.003073148848716253 -0.0014986282911030595 0 -0.0031128440653750461 -0.0015583280788515608 0 -0.0030292044041520549 -0.0015878279005285118 0 -0.003073148848716253 -0.0014986282911030595 0 -0.0030274533478388287 -0.0015437824186561562 0 -0.0030292044041520549 -0.0015878279005285118 0 -0.0029513634645449852 -0.0016103954551210172 0 -0.0030292044041520549 -0.0015878279005285118 0 -0.0029139549625725415 -0.0017037323025753171 0 -0.0028093260633693619 -0.001703625541794943 0 -0.0029139549625725415 -0.0017037323025753171 0 -0.0026746232672713011 -0.0018168551824911388 0 -0.0029139549625725415 -0.0017037323025753171 0 -0.0026746232672713011 -0.0018168551824911388 0 -0.0027469607212538372 -0.0018305046831316907 0 -0.0029139549625725415 -0.0017037323025753171 0 -0.0027469607212538372 -0.0018305046831316907 0 -0.0030428671210843889 -0.0016727412488299236 0 -0.0027469607212538372 -0.0018305046831316907 0 -0.0028711801178211011 -0.0018130147625248477 0 -0.0030428671210843889 -0.0016727412488299236 0 -0.0025670587235689908 -0.0019539591138496679 0 -0.0027469607212538372 -0.0018305046831316907 0 -0.0028711801178211011 -0.0018130147625248477 0 -0.0025670587235689908 -0.0019539591138496679 0 -0.0028711801178211011 -0.0018130147625248477 0 -0.0028012078028857084 -0.0019366531996183507 0 -0.0028711801178211011 -0.0018130147625248477 0 -0.0031151170728495521 -0.0017332538549059235 0 -0.0028012078028857084 -0.0019366531996183507 0 -0.0028711801178211011 -0.0018130147625248477 0 -0.0030428671210843889 -0.0016727412488299236 0 -0.0031151170728495521 -0.0017332538549059235 0 -0.0030428671210843889 -0.0016727412488299236 0 -0.0032858456808251926 -0.0014972711424700196 0 -0.0031151170728495521 -0.0017332538549059235 0 -0.0031128440653750461 -0.0015583280788515608 0 -0.0030428671210843889 -0.0016727412488299236 0 -0.0032858456808251926 -0.0014972711424700196 0 -0.003152839214092902 -0.0014355747898263385 0 -0.0031128440653750461 -0.0015583280788515608 0 -0.0032858456808251926 -0.0014972711424700196 0 -0.0032858456808251926 -0.0014972711424700196 0 -0.0034023541603912517 -0.0016467887816669618 0 -0.003447600837732163 -0.0014296353144077883 0 -0.0032858456808251926 -0.0014972711424700196 0 -0.0034023541603912517 -0.0016467887816669618 0 -0.0031151170728495521 -0.0017332538549059235 0 -0.0034023541603912517 -0.0016467887816669618 0 -0.0036683887992466362 -0.0013848831986075258 0 -0.003447600837732163 -0.0014296353144077883 0 -0.0031151170728495521 -0.0017332538549059235 0 -0.0031285728793972274 -0.0019197235642371695 0 -0.0028012078028857084 -0.0019366531996183507 0 -0.0034023541603912517 -0.0016467887816669618 0 -0.0031151170728495521 -0.0017332538549059235 0 -0.0031285728793972274 -0.0019197235642371695 0 -0.0031285728793972274 -0.0019197235642371695 0 -0.0036776561070718319 -0.0017229020460581502 0 -0.0030940984520606897 -0.0024988466971059753 0 -0.0036776561070718319 -0.0017229020460581502 0 -0.0038284002424180926 -0.0025625618300058675 0 -0.0030940984520606897 -0.0024988466971059753 0 -0.0031285728793972274 -0.0019197235642371695 0 -0.0025712956169771481 -0.0023446950613763861 0 -0.0030940984520606897 -0.0024988466971059753 0 -0.0036776561070718319 -0.0017229020460581502 0 -0.0041547685126747252 -0.0015946902556915189 0 -0.0038284002424180926 -0.0025625618300058675 0 -0.0036776561070718319 -0.0017229020460581502 0 -0.0041547685126747252 -0.0015946902556915189 0 -0.0036683887992466362 -0.0013848831986075258 0 -0.0034023541603912517 -0.0016467887816669618 0 -0.0036776561070718319 -0.0017229020460581502 0 -0.0036683887992466362 -0.0013848831986075258 0 -0.0034023541603912517 -0.0016467887816669618 0 -0.0031285728793972274 -0.0019197235642371695 0 -0.0036776561070718319 -0.0017229020460581502 0 -0.0023774715953377257 -0.0021399351219836453 0 -0.0025712956169771481 -0.0023446950613763861 0 -0.0020342576454938795 -0.0025319487785587201 0 -0.0023774715953377257 -0.0021399351219836453 0 -0.0020342576454938795 -0.0025319487785587201 0 -0.0020016516024619754 -0.0022255199152325898 0 -0.0031285728793972274 -0.0019197235642371695 0 -0.0028012078028857084 -0.0019366531996183507 0 -0.0025712956169771481 -0.0023446950613763861 0 -0.0023774715953377257 -0.0021399351219836453 0 -0.0028012078028857084 -0.0019366531996183507 0 -0.0025712956169771481 -0.0023446950613763861 0 -0.0025712956169771481 -0.0023446950613763861 0 -0.0022443814368456392 -0.0030249127842725408 0 -0.0030940984520606897 -0.0024988466971059753 0 -0.0025712956169771481 -0.0023446950613763861 0 -0.0020342576454938795 -0.0025319487785587201 0 -0.0022443814368456392 -0.0030249127842725408 0 -0.0022443814368456392 -0.0030249127842725408 0 -0.0027185136821130558 -0.0035967893229567069 0 -0.0020987057626717948 -0.0038090137016385554 0 -0.0022443814368456392 -0.0030249127842725408 0 -0.0020987057626717948 -0.0038090137016385554 0 -0.0016403361157552663 -0.0036266760595889493 0 -0.0022443814368456392 -0.0030249127842725408 0 -0.0027185136821130558 -0.0035967893229567069 0 -0.0030940984520606897 -0.0024988466971059753 0 -0.0023738651167204794 -0.0042278759803514648 0 -0.0027737661550527913 -0.0035975013648944696 0 -0.0022216364886236259 -0.0039890196378812876 0 -0.0009415105045155114 -0.0058964000204807165 0 -0.0029807756956757017 -0.0053371174084310552 0 -0.0022216364886236259 -0.0039890196378812876 0 -0.0035946214721502613 -0.0039848091451307674 0 -0.0029807756956757017 -0.0053371174084310552 0 -0.0027185136821130558 -0.0035967893229567069 0 -0.0020987057626717948 -0.0038090137016385554 0 -0.0021953333707317403 -0.0045074889284050269 0 -0.0023738651167204794 -0.0042278759803514648 0 -0.0014878004920226651 -0.0056411742874843849 0 -0.0038284002424180926 -0.0025625618300058675 0 -0.0035946214721502613 -0.0039848091451307674 0 -0.0049024107947739934 -0.0034526608610604649 0 -0.0054444497355920695 -0.0017958244726275902 0 -0.0055556835611221171 -0.0017391305642956024 0 -0.0041547685126747252 -0.0015946902556915189 0 -0.0038284002424180926 -0.0025625618300058675 0 -0.0049024107947739934 -0.0034526608610604649 0 -0.0038284002424180926 -0.0025625618300058675 0 -0.0030940984520606897 -0.0024988466971059753 0 -0.0035946214721502613 -0.0039848091451307674 0 -0.0022216364886236259 -0.0039890196378812876 0 -0.0030940984520606897 -0.0024988466971059753 0 -0.0035946214721502613 -0.0039848091451307674 0 -0.0035946214721502613 -0.0039848091451307674 0 -0.0040040561100315591 -0.0057711701836715328 0 -0.0051498962902135834 -0.0048113977280708868 0 -0.0035946214721502613 -0.0039848091451307674 0 -0.0049024107947739934 -0.0034526608610604649 0 -0.0051498962902135834 -0.0048113977280708868 0 -0.0055556835611221171 -0.0017391305642956024 0 -0.0058673298218765513 -0.0014065631734111645 0 -0.0061322083431879348 0.0024209111159857032 0 -0.0062684501659478146 0.0044192338408454877 0 -0.0084728211823173298 0.0037754266776672579 0 -0.005194535821097343 -0.0002963497171296507 0 -0.0058673298218765513 -0.0014065631734111645 0 -0.0041496477280123824 -0.00034844134950974857 0 -0.0033449931742616122 -0.0001216392290604186 0 -0.0041347424251302698 0.00020012077738508071 0 -0.0061322083431879348 0.0024209111159857032 0 -0.0045185531001494667 0.0040041589398101957 0 -0.0062684501659478146 0.0044192338408454877 0 -0.0033449931742616122 -0.0001216392290604186 0 -0.0033180997838181555 -0.00016716382677601889 0 -0.0032299825208491604 0.00080949603856539669 0 -0.0033449931742616122 -0.0001216392290604186 0 -0.0033180997838181555 -0.00016716382677601889 0 -0.0035347983948916025 -0.00065643232555901961 0 -0.0041496477280123824 -0.00034844134950974857 0 -0.0033449931742616122 -0.0001216392290604186 0 -0.0035347983948916025 -0.00065643232555901961 0 -0.0041547685126747252 -0.0015946902556915189 0 -0.0041496477280123824 -0.00034844134950974857 0 -0.0035347983948916025 -0.00065643232555901961 0 -0.0041547685126747252 -0.0015946902556915189 0 -0.0035347983948916025 -0.00065643232555901961 0 -0.0034549245153772438 -0.000922759681381524 0 -0.0041547685126747252 -0.0015946902556915189 0 -0.0036683887992466362 -0.0013848831986075258 0 -0.0034549245153772438 -0.000922759681381524 0 -0.0033180997838181555 -0.00016716382677601889 0 -0.0035347983948916025 -0.00065643232555901961 0 -0.0034549245153772438 -0.000922759681381524 0 -0.0033180997838181555 -0.00016716382677601889 0 -0.0034549245153772438 -0.000922759681381524 0 -0.003027405952652116 -0.00056867178659033158 0 -0.0034549245153772438 -0.000922759681381524 0 -0.0031909890298093698 -0.00094880667684264178 0 -0.0033530242425623491 -0.0012601360102723138 0 -0.0034549245153772438 -0.000922759681381524 0 -0.0031909890298093698 -0.00094880667684264178 0 -0.003027405952652116 -0.00056867178659033158 0 -0.0030577797130843798 -0.001149856483551872 0 -0.0031909890298093698 -0.00094880667684264178 0 -0.0027269939393209596 -0.00081314124615820458 0 -0.0030577797130843798 -0.001149856483551872 0 -0.0031909890298093698 -0.00094880667684264178 0 -0.0033530242425623491 -0.0012601360102723138 0 -0.0036683887992466362 -0.0013848831986075258 0 -0.0034549245153772438 -0.000922759681381524 0 -0.0033530242425623491 -0.0012601360102723138 0 -0.0032858456808251926 -0.0014972711424700196 0 -0.0033530242425623491 -0.0012601360102723138 0 -0.003447600837732163 -0.0014296353144077883 0 -0.0036683887992466362 -0.0013848831986075258 0 -0.0033530242425623491 -0.0012601360102723138 0 -0.003447600837732163 -0.0014296353144077883 0 -0.0022648199856316171 -0.00080712227249956606 0 -0.0023081272319051159 -0.00031509922095078778 0 -0.0027269939393209596 -0.00081314124615820458 0 -0.0022648199856316171 -0.00080712227249956606 0 -0.0023081272319051159 -0.00031509922095078778 0 -0.0016443963011618843 -0.00056105567368112572 0 -0.0023081272319051159 -0.00031509922095078778 0 -0.0027269939393209596 -0.00081314124615820458 0 -0.003027405952652116 -0.00056867178659033158 0 -0.0031909890298093698 -0.00094880667684264178 0 -0.0027269939393209596 -0.00081314124615820458 0 -0.003027405952652116 -0.00056867178659033158 0 -0.0023081272319051159 -0.00031509922095078778 0 -0.003027405952652116 -0.00056867178659033158 0 -0.0032299825208491604 0.00080949603856539669 0 -0.0033180997838181555 -0.00016716382677601889 0 -0.003027405952652116 -0.00056867178659033158 0 -0.0032299825208491604 0.00080949603856539669 0 -0.0023081272319051159 -0.00031509922095078778 0 -0.0032299825208491604 0.00080949603856539669 0 -0.0014259475813533074 0.00088152799563212872 0 -0.0032299825208491604 0.00080949603856539669 0 -0.0017142150415220877 0.0025154031660231482 0 -0.0014259475813533074 0.00088152799563212872 0 -0.005194535821097343 -0.0002963497171296507 0 -0.0044760249873267571 -0.00022508569348063905 0 -0.0032299825208491604 0.00080949603856539669 0 -0.0026725010439990543 0.0041434918129525673 0 -0.0045185531001494667 0.0040041589398101957 0 -0.0061322083431879348 0.0024209111159857032 0 -0.0032299825208491604 0.00080949603856539669 0 -0.0045185531001494667 0.0040041589398101957 0 -0.0032299825208491604 0.00080949603856539669 0 -0.0017142150415220877 0.0025154031660231482 0 -0.0026725010439990543 0.0041434918129525673 0 -0.0017142150415220877 0.0025154031660231482 0 6.1877566064172875e-05 0.0024364195051091988 0 -0.00075933653553948786 0.0058861097395540123 0 -0.0017142150415220877 0.0025154031660231482 0 -0.00075933653553948786 0.0058861097395540123 0 -0.0026725010439990543 0.0041434918129525673 0 -0.0017142150415220877 0.0025154031660231482 0 -0.0014259475813533074 0.00088152799563212872 0 6.1877566064172875e-05 0.0024364195051091988 0 -0.0019357116582340581 0.0074632925248953371 0 -0.0030280832350008989 0.0085258258356659625 0 -0.0014259475813533074 0.00088152799563212872 0 6.1877566064172875e-05 0.0024364195051091988 0 -9.7964373137234109e-05 0.0005876255110304154 0 -0.0019357116582340581 0.0074632925248953371 0 -0.0015980479328569466 0.0069914406122449603 0 -0.0011156516349093491 0.011583735254110002 0 -0.0027360430882555423 0.0079591843985834295 0 -0.00075933653553948786 0.0058861097395540123 0 -0.0011156516349093491 0.011583735254110002 0 -0.0072847826286246446 0.0091156081193613792 0 -0.0027360430882555423 0.0079591843985834295 0 -0.0011156516349093491 0.011583735254110002 0 -0.0072847826286246446 0.0091156081193613792 0 -0.0075142788685279988 0.016003621194265072 0 -0.016363419082847139 0.022426705816621706 0 -0.015608010640296703 0.021130062020014696 0 -0.0072847826286246446 0.0091156081193613792 0 -0.0075142788685279988 0.016003621194265072 0 -0.01193674055395743 0.014551518183739905 0 -0.0011156516349093491 0.011583735254110002 0 -0.0075142788685279988 0.016003621194265072 0 -0.002928445985284074 0.017052214131502718 0 -0.0030280832350008989 0.0085258258356659625 0 -0.0048588100220726188 0.0094445047390445958 0 -0.0075142788685279988 0.016003621194265072 0 -0.002928445985284074 0.017052214131502718 0 -0.0049182227248682217 0.021854226647249776 0 -0.0075142788685279988 0.016003621194265072 0 -0.0095229339803005915 0.020072800083939201 0 -0.010379737681620392 0.017257321712865602 0 -0.0075142788685279988 0.016003621194265072 0 -0.0095229339803005915 0.020072800083939201 0 -0.0049182227248682217 0.021854226647249776 0 -0.0095229339803005915 0.020072800083939201 0 -0.0049182227248682217 0.021854226647249776 0 -0.0081560588627564868 0.023040295020790049 0 -9.7964373137234109e-05 0.0005876255110304154 0 -0.00027924652483120609 -0.00030039061951351724 0 -0.00093529089572547673 -0.00047710272801807169 0 -9.7964373137234109e-05 0.0005876255110304154 0 -0.00093529089572547673 -0.00047710272801807169 0 -0.0012834225521274685 -1.2842082370980212e-05 0 -0.0023081272319051159 -0.00031509922095078778 0 -0.0012834225521274685 -1.2842082370980212e-05 0 -0.0016443963011618843 -0.00056105567368112572 0 -0.00093529089572547673 -0.00047710272801807169 0 -0.0012834225521274685 -1.2842082370980212e-05 0 -0.0016443963011618843 -0.00056105567368112572 0 -0.0023081272319051159 -0.00031509922095078778 0 -0.0014259475813533074 0.00088152799563212872 0 -0.0012834225521274685 -1.2842082370980212e-05 0 -0.0014259475813533074 0.00088152799563212872 0 -9.7964373137234109e-05 0.0005876255110304154 0 -0.0012834225521274685 -1.2842082370980212e-05 0 -0.0046560913539609476 0.024618881332621495 0 -0.0058983930123128287 0.026002108067011212 0 -0.0071570985032094738 0.023827947669722377 0 -0.0058983930123128287 0.026002108067011212 0 -0.0077085242809029671 0.026456293952383397 0 -0.0071570985032094738 0.023827947669722377 0 -0.0094957950792079419 0.024848294510271655 0 -0.0077085242809029671 0.026456293952383397 0 -0.010603848219784296 0.027679559225818436 0 -0.0094957950792079419 0.024848294510271655 0 -0.0077085242809029671 0.026456293952383397 0 -0.0071570985032094738 0.023827947669722377 0 -0.0077085242809029671 0.026456293952383397 0 -0.0082056555104678408 0.028941322960215822 0 -0.010603848219784296 0.027679559225818436 0 -0.0077085242809029671 0.026456293952383397 0 -0.0082056555104678408 0.028941322960215822 0 -0.0059206548050212051 0.028244803771730886 0 -0.0058983930123128287 0.026002108067011212 0 -0.0077085242809029671 0.026456293952383397 0 -0.0059206548050212051 0.028244803771730886 0 -0.0082056555104678408 0.028941322960215822 0 -0.0059206548050212051 0.028244803771730886 0 -0.0058863235895647466 0.031618266073602248 0 -0.0058863235895647466 0.031618266073602248 0 -0.0092578088439106299 0.031485962814980818 0 -0.0073156226394266227 0.035845293125920837 0 -0.0082056555104678408 0.028941322960215822 0 -0.0092578088439106299 0.031485962814980818 0 -0.010603848219784296 0.027679559225818436 0 -0.0082056555104678408 0.028941322960215822 0 -0.0058863235895647466 0.031618266073602248 0 -0.0092578088439106299 0.031485962814980818 0 -0.0092578088439106299 0.031485962814980818 0 -0.014527481371363749 0.03183911638477685 0 -0.011235268118959781 0.035134196725268609 0 -0.0092578088439106299 0.031485962814980818 0 -0.014527481371363749 0.03183911638477685 0 -0.010603848219784296 0.027679559225818436 0 -0.014527481371363749 0.03183911638477685 0 -0.010603848219784296 0.027679559225818436 0 -0.014499284244161153 0.026374342951430398 0 -0.0094957950792079419 0.024848294510271655 0 -0.010603848219784296 0.027679559225818436 0 -0.012166779633988939 0.02405878339249418 0 -0.010603848219784296 0.027679559225818436 0 -0.014499284244161153 0.026374342951430398 0 -0.012166779633988939 0.02405878339249418 0 -0.014527481371363749 0.03183911638477685 0 -0.014499284244161153 0.026374342951430398 0 -0.020988646091682737 0.027525137184399529 0 -0.014499284244161153 0.026374342951430398 0 -0.020988646091682737 0.027525137184399529 0 -0.014399371028286503 0.020385356304050816 0 -0.014527481371363749 0.03183911638477685 0 -0.020988646091682737 0.027525137184399529 0 -0.020348549532599083 0.035301442965325114 0 -0.02691230558240745 0.033914086760552555 0 -0.020988646091682737 0.027525137184399529 0 -0.020348549532599083 0.035301442965325114 0 -0.0075142788685279988 0.016003621194265072 0 -0.01193674055395743 0.014551518183739905 0 -0.010379737681620392 0.017257321712865602 0 -0.01193674055395743 0.014551518183739905 0 -0.010379737681620392 0.017257321712865602 0 -0.012340394585277192 0.019070234438012531 0 -0.0095229339803005915 0.020072800083939201 0 -0.010379737681620392 0.017257321712865602 0 -0.012340394585277192 0.019070234438012531 0 -0.0095229339803005915 0.020072800083939201 0 -0.012157549861631383 0.021944430762239911 0 -0.0081560588627564868 0.023040295020790049 0 -0.0095229339803005915 0.020072800083939201 0 -0.012340394585277192 0.019070234438012531 0 -0.012157549861631383 0.021944430762239911 0 -0.012157549861631383 0.021944430762239911 0 -0.014231932638689014 0.020020512688825882 0 -0.014835870007628349 0.023347695475766841 0 -0.012340394585277192 0.019070234438012531 0 -0.012157549861631383 0.021944430762239911 0 -0.014231932638689014 0.020020512688825882 0 -0.010681448043536396 0.017654790598342782 0 -0.0099879394142627208 0.016119592727857398 0 -0.014231932638689014 0.020020512688825882 0 -0.013223448257822904 0.019317759707953418 0 -0.014451135805069805 0.015764037604062416 0 -0.015608010640296703 0.021130062020014696 0 -0.014893371062614473 0.020433001317149237 0 -0.01193674055395743 0.014551518183739905 0 -0.012340394585277192 0.019070234438012531 0 -0.014399371028286503 0.020385356304050816 0 -0.012340394585277192 0.019070234438012531 0 -0.014231932638689014 0.020020512688825882 0 -0.014399371028286503 0.020385356304050816 0 -0.014231932638689014 0.020020512688825882 0 -0.014399371028286503 0.020385356304050816 0 -0.013223448257822904 0.019317759707953418 0 -0.014499284244161153 0.026374342951430398 0 -0.012166779633988939 0.02405878339249418 0 -0.014399371028286503 0.020385356304050816 0 -0.012166779633988939 0.02405878339249418 0 -0.014399371028286503 0.020385356304050816 0 -0.012160637545260537 0.021169366131020599 0 -0.012166779633988939 0.02405878339249418 0 -0.012160637545260537 0.021169366131020599 0 -0.0099026211356656024 0.022314820758845277 0 -0.0094957950792079419 0.024848294510271655 0 -0.012166779633988939 0.02405878339249418 0 -0.0099026211356656024 0.022314820758845277 0 -0.012160637545260537 0.021169366131020599 0 -0.01108944145424879 0.018806968091913567 0 -0.0099026211356656024 0.022314820758845277 0 -0.014399371028286503 0.020385356304050816 0 -0.012160637545260537 0.021169366131020599 0 -0.013223448257822904 0.019317759707953418 0 -0.012160637545260537 0.021169366131020599 0 -0.013223448257822904 0.019317759707953418 0 -0.01108944145424879 0.018806968091913567 0 -0.0096907744606485238 0.016433997409425839 0 -0.0099879394142627208 0.016119592727857398 0 -0.013223448257822904 0.019317759707953418 0 -0.01108944145424879 0.018806968091913567 0 -0.014451135805069805 0.015764037604062416 0 -0.01108944145424879 0.018806968091913567 0 -0.007468453655008654 0.017656723474740944 0 -0.014451135805069805 0.015764037604062416 0 -0.01108944145424879 0.018806968091913567 0 -0.007468453655008654 0.017656723474740944 0 -0.0077046895617119641 0.020624780309731 0 -0.0044948816309966447 0.020409212839669753 0 -0.007468453655008654 0.017656723474740944 0 -0.0077046895617119641 0.020624780309731 0 -0.0053515900054681527 0.022476843508423792 0 -0.0044948816309966447 0.020409212839669753 0 -0.0077046895617119641 0.020624780309731 0 -0.01108944145424879 0.018806968091913567 0 -0.0077046895617119641 0.020624780309731 0 -0.0099026211356656024 0.022314820758845277 0 -0.0094957950792079419 0.024848294510271655 0 -0.0099026211356656024 0.022314820758845277 0 -0.0071570985032094738 0.023827947669722377 0 -0.0077046895617119641 0.020624780309731 0 -0.0099026211356656024 0.022314820758845277 0 -0.0071570985032094738 0.023827947669722377 0 -0.0053515900054681527 0.022476843508423792 0 -0.0046560913539609476 0.024618881332621495 0 -0.0071570985032094738 0.023827947669722377 0 -0.0053515900054681527 0.022476843508423792 0 -0.0077046895617119641 0.020624780309731 0 -0.0071570985032094738 0.023827947669722377 0 -0.012912863471185268 0.038318840472922597 0 -0.014650346931922666 0.035232278496039403 0 -0.012674187467126653 0.034240817549021592 0 -0.0089931540078875601 0.036011934136764505 0 -0.012912863471185268 0.038318840472922597 0 -0.012674187467126653 0.034240817549021592 0 -0.0020957691844969953 0.016006111018763734 0 -0.007468453655008654 0.017656723474740944 0 -0.0080065559788196922 0.012722132433769623 0 -0.007468453655008654 0.017656723474740944 0 -0.0080065559788196922 0.012722132433769623 0 -0.011748834145851072 0.0127633699027966 0 -0.007468453655008654 0.017656723474740944 0 -0.011748834145851072 0.0127633699027966 0 -0.014461169750782571 0.015326981066894762 0 -0.011748834145851072 0.0127633699027966 0 -0.013631664215418416 0.0095675220102384769 0 -0.014461169750782571 0.015326981066894762 0 -0.0080065559788196922 0.012722132433769623 0 -0.011748834145851072 0.0127633699027966 0 -0.013631664215418416 0.0095675220102384769 0 -0.0091548551932994736 0.024584000784396376 0 -0.01019327213058391 0.020359570752899132 0 -0.012912863471185268 0.038318840472922597 0 -0.016665563566767891 0.036130430179784026 0 -0.014650346931922666 0.035232278496039403 0 -0.010336332870096908 0.011254783155352355 0 -0.01070947577318293 0.011263214277022773 0 -0.010411177613643498 0.011941796578825497 0 -0.010336332870096908 0.011254783155352355 0 -0.010472842673219742 0.011187248862303862 0 -0.01070947577318293 0.011263214277022773 0 -0.01019327213058391 0.020359570752899132 0 -0.010326621706968138 0.020184863148247773 0 -0.01019327213058391 0.020359570752899132 0 -0.0099879394142627208 0.016119592727857398 0 -0.012157549861631383 0.021944430762239911 0 -0.014835870007628349 0.023347695475766841 0 -0.01090901089007928 0.024773409620877099 0 -0.0099879394142627208 0.016119592727857398 0 -0.0092061603283814276 0.013459227162605012 0 -0.01070947577318293 0.011263214277022773 0 -0.010411177613643498 0.011941796578825497 0 -0.011052532663529088 0.011727749645119741 0 -0.012157549861631383 0.021944430762239911 0 -0.01090901089007928 0.024773409620877099 0 -0.0081560588627564868 0.023040295020790049 0 -0.01070947577318293 0.011263214277022773 0 -0.011052532663529088 0.011727749645119741 0 -0.011209391223745762 0.011284178341661155 0 -0.01070947577318293 0.011263214277022773 0 -0.011209391223745762 0.011284178341661155 0 -0.010989548524008963 0.011004315108606161 0 -0.011209391223745762 0.011284178341661155 0 -0.010989548524008963 0.011004315108606161 0 -0.011439413162953901 0.010880594865116906 0 -0.01070947577318293 0.011263214277022773 0 -0.010989548524008963 0.011004315108606161 0 -0.010708780876437594 0.010888334829782432 0 -0.010989548524008963 0.011004315108606161 0 -0.010931041197946847 0.010694768191167232 0 -0.010708780876437594 0.010888334829782432 0 -0.010989548524008963 0.011004315108606161 0 -0.010931041197946847 0.010694768191167232 0 -0.011439413162953901 0.010880594865116906 0 -0.008608186132749664 0.0077139724933621865 0 -0.0092621020170998002 0.00839878511238412 0 -0.010931041197946847 0.010694768191167232 0 -0.01093100351805364 0.010596794189393369 0 -0.010877185508654859 0.009689623349852787 0 -0.010931041197946847 0.010694768191167232 0 -0.011439413162953901 0.010880594865116906 0 -0.010877185508654859 0.009689623349852787 0 -0.010931041197946847 0.010694768191167232 0 -0.01062801361703493 0.011027591139589737 0 -0.01093100351805364 0.010596794189393369 0 -0.01093100351805364 0.010596794189393369 0 -0.01047178392606056 0.011535275258791859 0 -0.011448898343960904 0.010236955968623862 0 -0.010297244244878025 0.013227275368957606 0 -0.0099332218698816501 0.014292511592173898 0 -0.01047178392606056 0.011535275258791859 0 -0.011341117306977932 0.014439963410871731 0 -0.0081120888486631466 0.016490658324405882 0 -0.01062801361703493 0.011027591139589737 0 -0.01093100351805364 0.010596794189393369 0 -0.01047178392606056 0.011535275258791859 0 -0.01062801361703493 0.011027591139589737 0 -0.010718707681410235 0.010445762434068103 0 -0.01047178392606056 0.011535275258791859 0 -0.01062801361703493 0.011027591139589737 0 -0.010708780876437594 0.010888334829782432 0 -0.010718707681410235 0.010445762434068103 0 -0.010931041197946847 0.010694768191167232 0 -0.01062801361703493 0.011027591139589737 0 -0.010708780876437594 0.010888334829782432 0 -0.010472842673219742 0.011187248862303862 0 -0.01070947577318293 0.011263214277022773 0 -0.010298113914237175 0.010922212359053298 0 -0.01036200618354474 0.011255435705941928 0 -0.010472842673219742 0.011187248862303862 0 -0.010298113914237175 0.010922212359053298 0 -0.0098751386192288924 0.01666175388462755 0 -0.011482274542278424 0.019520082080512511 0 -0.01070947577318293 0.011263214277022773 0 -0.010708780876437594 0.010888334829782432 0 -0.010718707681410235 0.010445762434068103 0 -0.014650346931922666 0.035232278496039403 0 -0.016329138706342939 0.033773528126884472 0 -0.012674187467126653 0.034240817549021592 0 -0.01019327213058391 0.020359570752899132 0 -0.011482274542278424 0.019520082080512511 0 -0.016665563566767891 0.036130430179784026 0 -0.014650346931922666 0.035232278496039403 0 -0.016329138706342939 0.033773528126884472 0 -0.011482274542278424 0.019520082080512511 0 -0.016187338126476575 0.027355578388041125 0 -0.010831913783140143 0.011041505230993492 0 -0.011341117306977932 0.014439963410871731 0 -0.013212328345644618 0.014570658462688981 0 -0.010831913783140143 0.011041505230993492 0 -0.01406520948936852 0.014331523876322081 0 -0.013212328345644618 0.014570658462688981 0 -0.011482274542278424 0.019520082080512511 0 -0.011140993683277105 0.016497743300699579 0 -0.010718707681410235 0.010445762434068103 0 -0.01047178392606056 0.011535275258791859 0 -0.011341117306977932 0.014439963410871731 0 -0.010344131831655756 0.031391697099499995 0 -0.013125722449227271 0.030573908585002103 0 -0.012674187467126653 0.034240817549021592 0 -0.016320501478155575 0.035512976678736943 0 -0.016187338126476575 0.027355578388041125 0 -0.016187338126476575 0.027355578388041125 0 -0.01618457303896171 0.027207777116788807 0 -0.016329138706342939 0.033773528126884472 0 -0.013125722449227271 0.030573908585002103 0 -0.012674187467126653 0.034240817549021592 0 -0.0011597386357642485 -0.0011991862266050811 0 -0.0014354075407669597 -0.00098932815986617502 0 -0.0011362623815217795 -0.00091171552028741472 0 -0.0011597386357642485 -0.0011991862266050811 0 -0.0011362623815217795 -0.00091171552028741472 0 -0.00074626198112236512 -0.00079560372835775744 0 -0.0011597386357642485 -0.0011991862266050811 0 -0.003477751248196501 -0.00045294602314318574 0 -0.0012121029837435318 3.7246712763097698e-05 0 -0.0011597386357642485 -0.0011991862266050811 0 -0.0014354075407669597 -0.00098932815986617502 0 -0.001271798567932844 -0.00071317239934617449 0 -0.0014354075407669597 -0.00098932815986617502 0 -0.0016406417153403418 -0.00096582293193467057 0 -0.001271798567932844 -0.00071317239934617449 0 -0.0018854473572719669 -0.0010154988110006021 0 -0.0014354075407669597 -0.00098932815986617502 0 -0.0016406417153403418 -0.00096582293193467057 0 -0.0018854473572719669 -0.0010154988110006021 0 -0.0014354075407669597 -0.00098932815986617502 0 -0.0014388222083539476 -0.00084996120227519257 0 -0.0014354075407669597 -0.00098932815986617502 0 -0.0014388222083539476 -0.00084996120227519257 0 -0.0011362623815217795 -0.00091171552028741472 0 -0.00093529089572547673 -0.00047710272801807169 0 -0.0016443963011618843 -0.00056105567368112572 0 -0.0014388222083539476 -0.00084996120227519257 0 -0.0018854473572719669 -0.0010154988110006021 0 -0.0014388222083539476 -0.00084996120227519257 0 -0.0018508952996874252 -0.00085589014087632546 0 -0.0016443963011618843 -0.00056105567368112572 0 -0.0014388222083539476 -0.00084996120227519257 0 -0.0018508952996874252 -0.00085589014087632546 0 -0.00093529089572547673 -0.00047710272801807169 0 -0.0014388222083539476 -0.00084996120227519257 0 -0.0011362623815217795 -0.00091171552028741472 0 -0.00027924652483120609 -0.00030039061951351724 0 -0.00093529089572547673 -0.00047710272801807169 0 -0.00074626198112236512 -0.00079560372835775744 0 -0.00093529089572547673 -0.00047710272801807169 0 -0.0011362623815217795 -0.00091171552028741472 0 -0.00074626198112236512 -0.00079560372835775744 0 -0.0048588100220726188 0.0094445047390445958 0 -0.0074752960858067517 0.0088425690687300145 0 -0.00027924652483120609 -0.00030039061951351724 0 -0.00074626198112236512 -0.00079560372835775744 0 -0.00013666328392721808 -0.0010215275515146689 0 -0.0092061603283814276 0.013459227162605012 0 -0.0074752960858067517 0.0088425690687300145 0 -0.0049182227248682217 0.021854226647249776 0 -0.0081560588627564868 0.023040295020790049 0 -0.0067546634506515197 0.026210798814948394 0 -0.01090901089007928 0.024773409620877099 0 -0.0081560588627564868 0.023040295020790049 0 -0.0067546634506515197 0.026210798814948394 0 -0.011052532663529088 0.011727749645119741 0 -0.011209391223745762 0.011284178341661155 0 -0.011635742447171672 0.011523110217498574 0 -0.0074752960858067517 0.0088425690687300145 0 -0.008608186132749664 0.0077139724933621865 0 -0.011209391223745762 0.011284178341661155 0 -0.011635742447171672 0.011523110217498574 0 -0.011439413162953901 0.010880594865116906 0 -0.00533427545447758 0.0064839133725034786 0 -0.0074752960858067517 0.0088425690687300145 0 -0.0067185540660578968 -0.0035760171958563775 0 -0.003477751248196501 -0.00045294602314318574 0 -0.0052788083837218662 0.00070653675597655622 0 -0.0011597386357642485 -0.0011991862266050811 0 -0.0067185540660578968 -0.0035760171958563775 0 -0.003477751248196501 -0.00045294602314318574 0 -0.0011597386357642485 -0.0011991862266050811 0 -0.00074626198112236512 -0.00079560372835775744 0 -0.00013666328392721808 -0.0010215275515146689 0 -0.003477751248196501 -0.00045294602314318574 0 -0.0052788083837218662 0.00070653675597655622 0 -0.0034168549376911461 0.0015347163471459474 0 -0.0052788083837218662 0.00070653675597655622 0 -0.0092416561679728414 0.0023987552290255397 0 -0.0041622712812981527 0.0043831332954773579 0 -0.0052788083837218662 0.00070653675597655622 0 -0.0034168549376911461 0.0015347163471459474 0 -0.0041622712812981527 0.0043831332954773579 0 -0.0067185540660578968 -0.0035760171958563775 0 -0.0052788083837218662 0.00070653675597655622 0 -0.0092416561679728414 0.0023987552290255397 0 -0.0092416561679728414 0.0023987552290255397 0 -0.0072647014105052029 0.0064393271614544556 0 -0.0041622712812981527 0.0043831332954773579 0 -0.0092416561679728414 0.0023987552290255397 0 -0.0072647014105052029 0.0064393271614544556 0 -0.010877185508654859 0.009689623349852787 0 -0.0034168549376911461 0.0015347163471459474 0 -0.0041622712812981527 0.0043831332954773579 0 -0.00068086686215670673 0.0055368723609027391 0 -0.0072647014105052029 0.0064393271614544556 0 -0.0041622712812981527 0.0043831332954773579 0 -0.0042385494917894541 0.0080525374102265682 0 -0.0041622712812981527 0.0043831332954773579 0 -0.0010051965162749892 0.0058166023783027378 0 -0.0042385494917894541 0.0080525374102265682 0 -0.0022447836131599635 0.0021772503142104874 0 -0.0021658052577448791 0.0019649377664171519 0 -0.0034168549376911461 0.0015347163471459474 0 -0.00068086686215670673 0.0055368723609027391 0 -0.0012121029837435318 3.7246712763097698e-05 0 -0.0021658052577448791 0.0019649377664171519 0 -0.0020444276573007882 0.0015158366314606674 0 -0.0010382424597408413 -0.0013495814215802645 0 -0.0012121029837435318 3.7246712763097698e-05 0 -0.0015045334277795034 -0.00095172872807269165 0 -0.0011597386357642485 -0.0011991862266050811 0 -0.0012121029837435318 3.7246712763097698e-05 0 -0.001271798567932844 -0.00071317239934617449 0 -0.0012121029837435318 3.7246712763097698e-05 0 -0.001271798567932844 -0.00071317239934617449 0 -0.0015045334277795034 -0.00095172872807269165 0 -0.003477751248196501 -0.00045294602314318574 0 -0.0034168549376911461 0.0015347163471459474 0 -0.0012121029837435318 3.7246712763097698e-05 0 -0.0020608163906344966 -0.0013084345730557368 0 -0.0016406417153403418 -0.00096582293193467057 0 -0.0015045334277795034 -0.00095172872807269165 0 -0.0016406417153403418 -0.00096582293193467057 0 -0.001271798567932844 -0.00071317239934617449 0 -0.0015045334277795034 -0.00095172872807269165 0 -0.0020608163906344966 -0.0013084345730557368 0 -0.0015045334277795034 -0.00095172872807269165 0 -0.0020585088012231418 -0.0017955104565602954 0 -0.0010382424597408413 -0.0013495814215802645 0 -0.0015045334277795034 -0.00095172872807269165 0 -0.0020585088012231418 -0.0017955104565602954 0 -0.0021658052577448791 0.0019649377664171519 0 -0.0017152792649524277 -0.0004017477653019835 0 -0.0019182139253147998 0.00084934122105506931 0 -0.0016937010213911479 0.00067572058052454975 0 -0.0016848082646378061 0.0010126480082501314 0 -0.002157876573990059 0.00050989461216893793 0 -0.0019182139253147998 0.00084934122105506931 0 -0.0016937010213911479 0.00067572058052454975 0 -0.0036524867001814757 0.004589921496378345 0 -0.0014794888057385895 -0.0005887930849012283 0 -0.0019182139253147998 0.00084934122105506931 0 -0.0021477680100454501 0.0011849099710078109 0 -0.0016848082646378061 0.0010126480082501314 0 -0.0011728160378495969 0.010547046002040336 0 -0.0032381908775376785 0.013890691380283132 0 -0.00124422690562579 0.014814702957446507 0 -0.0019182139253147998 0.00084934122105506931 0 -0.002151879593820084 0.00084496763308843244 0 -0.0021477680100454501 0.0011849099710078109 0 -0.0027102715710140318 0.0043233539147851437 0 -0.0036524867001814757 0.004589921496378345 0 -0.0021658052577448791 0.0019649377664171519 0 -0.0027102715710140318 0.0043233539147851437 0 -0.0010051965162749892 0.0058166023783027378 0 -0.0011728160378495969 0.010547046002040336 0 -0.0042385494917894541 0.0080525374102265682 0 -0.002157876573990059 0.00050989461216893793 0 -0.0019182139253147998 0.00084934122105506931 0 -0.002151879593820084 0.00084496763308843244 0 -0.0072647014105052029 0.0064393271614544556 0 -0.0042385494917894541 0.0080525374102265682 0 -0.0071577098400165224 0.0095792286256143316 0 -0.0042385494917894541 0.0080525374102265682 0 -0.0071577098400165224 0.0095792286256143316 0 -0.0045689317029584788 0.011469906168960342 0 -0.0071577098400165224 0.0095792286256143316 0 -0.0066140840360411658 0.012349168728947686 0 -0.0045689317029584788 0.011469906168960342 0 -0.0011728160378495969 0.010547046002040336 0 -0.0042385494917894541 0.0080525374102265682 0 -0.0045689317029584788 0.011469906168960342 0 -0.0072647014105052029 0.0064393271614544556 0 -0.0071577098400165224 0.0095792286256143316 0 -0.010877185508654859 0.009689623349852787 0 -0.0071577098400165224 0.0095792286256143316 0 -0.0088744673983367287 0.011368101942092632 0 -0.010877185508654859 0.009689623349852787 0 -0.0071577098400165224 0.0095792286256143316 0 -0.0088744673983367287 0.011368101942092632 0 -0.0066140840360411658 0.012349168728947686 0 -0.0088744673983367287 0.011368101942092632 0 -0.0081225731245443689 0.012913248853868445 0 -0.0094660419218847817 0.01313735578523046 0 -0.0088744673983367287 0.011368101942092632 0 -0.0081225731245443689 0.012913248853868445 0 -0.0066140840360411658 0.012349168728947686 0 -0.0081225731245443689 0.012913248853868445 0 -0.0066140840360411658 0.012349168728947686 0 -0.0071098514618451771 0.014642974155189965 0 -0.0081225731245443689 0.012913248853868445 0 -0.0083685014003376367 0.014426573919060793 0 -0.0071098514618451771 0.014642974155189965 0 -0.0066140840360411658 0.012349168728947686 0 -0.0054664802314994777 0.013852124410735602 0 -0.0071098514618451771 0.014642974155189965 0 -0.0081225731245443689 0.012913248853868445 0 -0.0083685014003376367 0.014426573919060793 0 -0.0094660419218847817 0.01313735578523046 0 -0.0083685014003376367 0.014426573919060793 0 -0.0093223296990555052 0.015246996880631671 0 -0.0094660419218847817 0.01313735578523046 0 -0.0011728160378495969 0.010547046002040336 0 -0.0045689317029584788 0.011469906168960342 0 -0.0032381908775376785 0.013890691380283132 0 -0.0066140840360411658 0.012349168728947686 0 -0.0045689317029584788 0.011469906168960342 0 -0.0054664802314994777 0.013852124410735602 0 -0.0054664802314994777 0.013852124410735602 0 -0.0032381908775376785 0.013890691380283132 0 -0.0052514372249757553 0.015665444010861299 0 -0.0045689317029584788 0.011469906168960342 0 -0.0054664802314994777 0.013852124410735602 0 -0.0032381908775376785 0.013890691380283132 0 -0.0032381908775376785 0.013890691380283132 0 -0.0052514372249757553 0.015665444010861299 0 -0.0051025388742287001 0.016060490686039573 0 -0.004968042786502978 0.0089902722792807102 0 -0.0036524867001814757 0.004589921496378345 0 -0.0032381908775376785 0.013890691380283132 0 -0.0051025388742287001 0.016060490686039573 0 -0.00124422690562579 0.014814702957446507 0 -0.0062764845806103156 0.015204451382057385 0 -0.0052514372249757553 0.015665444010861299 0 -0.0073015695581761545 0.016675538311270076 0 -0.0054664802314994777 0.013852124410735602 0 -0.0062764845806103156 0.015204451382057385 0 -0.0052514372249757553 0.015665444010861299 0 -0.0052514372249757553 0.015665444010861299 0 -0.0051101528804318695 0.01605166183459689 0 -0.0073015695581761545 0.016675538311270076 0 -0.0054664802314994777 0.013852124410735602 0 -0.0062764845806103156 0.015204451382057385 0 -0.0071098514618451771 0.014642974155189965 0 -0.0049585145962285498 0.0090276086666114114 0 -0.004968042786502978 0.0089902722792807102 0 -0.0059447789072496387 0.016341531778366336 0 -0.0073015695581761545 0.016675538311270076 0 -0.0069965689137720822 0.018532872227402204 0 -0.004968042786502978 0.0089902722792807102 0 -0.0054944253142849035 0.0094736451756703092 0 -0.0083685014003376367 0.014426573919060793 0 -0.0093223296990555052 0.015246996880631671 0 -0.0073015695581761545 0.016675538311270076 0 -0.0083685014003376367 0.014426573919060793 0 -0.0071098514618451771 0.014642974155189965 0 -0.0073015695581761545 0.016675538311270076 0 -0.0062764845806103156 0.015204451382057385 0 -0.0071098514618451771 0.014642974155189965 0 -0.0073015695581761545 0.016675538311270076 0 -0.0093223296990555052 0.015246996880631671 0 -0.0073015695581761545 0.016675538311270076 0 -0.0094187567225206791 0.018107063938454113 0 -0.0084692521743869459 0.018585898401531922 0 -0.0080636450887794 0.019557129919481466 0 -0.0069965689137720822 0.018532872227402204 0 -0.0094187567225206791 0.018107063938454113 0 -0.0074848605284848248 0.021046417225284074 0 -0.0073015695581761545 0.016675538311270076 0 -0.0069965689137720822 0.018532872227402204 0 -0.0094187567225206791 0.018107063938454113 0 -0.004968042786502978 0.0089902722792807102 0 -0.0047671693256908215 0.013406142736148985 0 -0.0061131487197576499 0.0078799361647205364 0 -0.0046938455851507016 0.009660795650899244 0 -0.0053824201156452362 0.0099067087948469766 0 -0.0059447789072496387 0.016341531778366336 0 -0.0069965689137720822 0.018532872227402204 0 -0.0052218728317550344 0.020153459524040875 0 -0.0088145034564666956 -0.0020042966838196077 0 -0.0043956612667825678 -0.0061073799534464108 0 -0.0025663799869136642 -0.0023037205715816752 0 -0.0043956612667825678 -0.0061073799534464108 0 -0.0083620207828660371 -0.0080562812049337316 0 -0.0024596915206113574 -0.0096667810308102321 0 -0.0088145034564666956 -0.0020042966838196077 0 -0.0043956612667825678 -0.0061073799534464108 0 -0.0083620207828660371 -0.0080562812049337316 0 -0.0052064983973951068 0.0056616967687288557 0 -0.0036524867001814757 0.004589921496378345 0 -0.0061131487197576499 0.0078799361647205364 0 -0.0046938455851507016 0.009660795650899244 0 -0.0047405800552066937 0.0073910850367760461 0 -0.016603731418109058 0.017618776303774883 0 -0.014765981117988974 0.020038959761213507 0 -0.013881378991671951 0.016775314607798585 0 -0.014765981117988974 0.020038959761213507 0 -0.013881378991671951 0.016775314607798585 0 -0.012128876614951644 0.017780399137206516 0 -0.016603731418109058 0.017618776303774883 0 -0.014153966800117573 0.014392899568448733 0 -0.013881378991671951 0.016775314607798585 0 -0.017265891328301409 0.024911125143102439 0 -0.016187338126476575 0.027355578388041125 0 -0.013212328345644618 0.014570658462688981 0 -0.013881378991671951 0.016775314607798585 0 -0.01218364611270956 0.016013092436031367 0 -0.014153966800117573 0.014392899568448733 0 -0.013212328345644618 0.014570658462688981 0 -0.013881378991671951 0.016775314607798585 0 -0.013881378991671951 0.016775314607798585 0 -0.012128876614951644 0.017780399137206516 0 -0.01218364611270956 0.016013092436031367 0 -0.011341117306977932 0.014439963410871731 0 -0.013212328345644618 0.014570658462688981 0 -0.01218364611270956 0.016013092436031367 0 -0.011341117306977932 0.014439963410871731 0 -0.01218364611270956 0.016013092436031367 0 -0.010322473140350886 0.016676078425756136 0 -0.012128876614951644 0.017780399137206516 0 -0.01218364611270956 0.016013092436031367 0 -0.010322473140350886 0.016676078425756136 0 -0.012128876614951644 0.017780399137206516 0 -0.010322473140350886 0.016676078425756136 0 -0.0089115950992812651 0.019411410071978927 0 -0.011194665763920879 0.02608202402550417 0 -0.0099031888377956213 0.024106008897654338 0 -0.0094071713879088411 0.020061322398835561 0 -0.0089115950992812651 0.019411410071978927 0 -0.0090274230848891458 0.020412916102208148 0 -0.014765981117988974 0.020038959761213507 0 -0.012128876614951644 0.017780399137206516 0 -0.0089115950992812651 0.019411410071978927 0 -0.0089115950992812651 0.019411410071978927 0 -0.0081120888486631466 0.016490658324405882 0 -0.0076035272554514409 0.019802067004636575 0 -0.0099332218698816501 0.014292511592173898 0 -0.0092193606659611259 0.016514228210717675 0 -0.010322473140350886 0.016676078425756136 0 -0.0089115950992812651 0.019411410071978927 0 -0.0081120888486631466 0.016490658324405882 0 -0.011341117306977932 0.014439963410871731 0 -0.010322473140350886 0.016676078425756136 0 -0.0081120888486631466 0.016490658324405882 0 -0.01093100351805364 0.010596794189393369 0 -0.011448898343960904 0.010236955968623862 0 -0.010877185508654859 0.009689623349852787 0 -0.011448898343960904 0.010236955968623862 0 -0.010877185508654859 0.009689623349852787 0 -0.010597918213863021 0.011433073493195216 0 -0.0088744673983367287 0.011368101942092632 0 -0.010877185508654859 0.009689623349852787 0 -0.010597918213863021 0.011433073493195216 0 -0.011448898343960904 0.010236955968623862 0 -0.010597918213863021 0.011433073493195216 0 -0.011393453858730234 0.013695932904046334 0 -0.010597918213863021 0.011433073493195216 0 -0.011393453858730234 0.013695932904046334 0 -0.0094660419218847817 0.01313735578523046 0 -0.0088744673983367287 0.011368101942092632 0 -0.010597918213863021 0.011433073493195216 0 -0.0094660419218847817 0.01313735578523046 0 -0.0093223296990555052 0.015246996880631671 0 -0.011393453858730234 0.013695932904046334 0 -0.0094660419218847817 0.01313735578523046 0 -0.0093223296990555052 0.015246996880631671 0 -0.011393453858730234 0.013695932904046334 0 -0.0094187567225206791 0.018107063938454113 0 -0.0076035272554514409 0.019802067004636575 0 -0.0076711892702450738 0.020655311073043397 0 -0.0083471239218916391 0.020455422790516962 0 -0.0092193606659611259 0.016514228210717675 0 -0.0084692521743869459 0.018585898401531922 0 -0.0076711892702450738 0.020655311073043397 0 -0.0081570797054741299 0.02085678643909173 0 -0.0083471239218916391 0.020455422790516962 0 -0.0076711892702450738 0.020655311073043397 0 -0.0081570797054741299 0.02085678643909173 0 -0.0078453136974964005 0.020989601862795339 0 -0.0081570797054741299 0.02085678643909173 0 -0.0083471239218916391 0.020455422790516962 0 -0.0088955341115992091 0.021018654236230325 0 -0.0089115950992812651 0.019411410071978927 0 -0.0076035272554514409 0.019802067004636575 0 -0.0083471239218916391 0.020455422790516962 0 -0.0089115950992812651 0.019411410071978927 0 -0.0083471239218916391 0.020455422790516962 0 -0.0090274230848891458 0.020412916102208148 0 -0.0083471239218916391 0.020455422790516962 0 -0.0090274230848891458 0.020412916102208148 0 -0.0088955341115992091 0.021018654236230325 0 -0.0090274230848891458 0.020412916102208148 0 -0.0088955341115992091 0.021018654236230325 0 -0.0093469177810135869 0.02097493189361849 0 -0.007764680136157537 0.021913887864157974 0 -0.0093469177810135869 0.02097493189361849 0 -0.0088564392616035052 0.022773807413306372 0 -0.0083069825641679165 0.021533186518335263 0 -0.0087244655144200177 0.02129497777488229 0 -0.0094071713879088411 0.020061322398835561 0 -0.0090274230848891458 0.020412916102208148 0 -0.0093469177810135869 0.02097493189361849 0 -0.0098532324617610356 0.020802262053228233 0 -0.0094071713879088411 0.020061322398835561 0 -0.0093469177810135869 0.02097493189361849 0 -0.0095526997904031696 0.023809182626831338 0 -0.0088564392616035052 0.022773807413306372 0 -0.0074854161908235141 0.023610527616058866 0 -0.0095892026555293684 0.022265288406099541 0 -0.0093469177810135869 0.02097493189361849 0 -0.0088564392616035052 0.022773807413306372 0 -0.007764680136157537 0.021913887864157974 0 -0.0088564392616035052 0.022773807413306372 0 -0.0074854161908235141 0.023610527616058866 0 -0.0074854161908235141 0.023610527616058866 0 -0.0067035428000819649 0.022728969517237563 0 -0.0066316671402296933 0.023421221387430021 0 -0.0083069825641679165 0.021533186518335263 0 -0.007596036748784292 0.021954253127962255 0 -0.0081570797054741299 0.02085678643909173 0 -0.0088955341115992091 0.021018654236230325 0 -0.008248250730459197 0.021285760225594492 0 -0.007764680136157537 0.021913887864157974 0 -0.0074854161908235141 0.023610527616058866 0 -0.0067035428000819649 0.022728969517237563 0 -0.008248250730459197 0.021285760225594492 0 -0.0078453136974964005 0.020989601862795339 0 -0.0077031777764052164 0.021738711282852635 0 -0.0081570797054741299 0.02085678643909173 0 -0.008248250730459197 0.021285760225594492 0 -0.0078453136974964005 0.020989601862795339 0 -0.0066316671402296933 0.023421221387430021 0 -0.0062710004024783238 0.023141097499337862 0 -0.0062923654255773662 0.023438341915998646 0 -0.0067035428000819649 0.022728969517237563 0 -0.0066316671402296933 0.023421221387430021 0 -0.0062710004024783238 0.023141097499337862 0 -0.007596036748784292 0.021954253127962255 0 -0.0069515782187250198 0.022336654145742329 0 -0.0066316671402296933 0.023421221387430021 0 -0.0067041900171706465 0.024216221837212979 0 -0.0062923654255773662 0.023438341915998646 0 -0.0064790497682278387 0.02415053136260837 0 -0.0065882455625810724 0.024928149688750543 0 -0.0063789916115898106 0.023973169058359327 0 -0.0064790497682278387 0.02415053136260837 0 -0.0067041900171706465 0.024216221837212979 0 -0.0065882455625810724 0.024928149688750543 0 -0.0064790497682278387 0.02415053136260837 0 -0.0067041900171706465 0.024216221837212979 0 -0.0062923654255773662 0.023438341915998646 0 -0.0067041900171706465 0.024216221837212979 0 -0.0077287344875148411 0.025248939167691817 0 -0.00706800490215661 0.025623726826756985 0 -0.0067041900171706465 0.024216221837212979 0 -0.00706800490215661 0.025623726826756985 0 -0.0065882455625810724 0.024928149688750543 0 -0.0074854161908235141 0.023610527616058866 0 -0.0066316671402296933 0.023421221387430021 0 -0.0067041900171706465 0.024216221837212979 0 -0.0074854161908235141 0.023610527616058866 0 -0.0067041900171706465 0.024216221837212979 0 -0.0077287344875148411 0.025248939167691817 0 -0.0079381175853590544 0.026114474896014862 0 -0.0077287344875148411 0.025248939167691817 0 -0.0076097710201900523 0.026276556759684225 0 -0.0079381175853590544 0.026114474896014862 0 -0.0080077050580833198 0.026010525613040632 0 -0.0077287344875148411 0.025248939167691817 0 -0.0095526997904031696 0.023809182626831338 0 -0.0074854161908235141 0.023610527616058866 0 -0.0077287344875148411 0.025248939167691817 0 -0.01242218571765883 0.033980844342714651 0 -0.012074596485392976 0.030885057398705132 0 -0.0054700944484244018 0.022280359410402375 0 -0.0052218728317550344 0.020153459524040875 0 -0.0057643242969979023 0.021941061708382614 0 -0.0057643242969979023 0.021941061708382614 0 -0.0060798170602753727 0.022679217652590674 0 -0.0056467264789001343 0.022474545241220983 0 -0.0054700944484244018 0.022280359410402375 0 -0.0057643242969979023 0.021941061708382614 0 -0.0056467264789001343 0.022474545241220983 0 -0.0053357842592921586 0.013521073884988837 0 -0.0053329156989721316 0.01382881358380471 0 -0.0047180317651566968 0.0023032870376467514 0 -0.0044974680543398054 0.011544921222553978 0 -0.00057945277691240219 0.0051761633092844194 0 -0.010499972412951543 0.0073204303731796809 0 -0.0047180317651566968 0.0023032870376467514 0 -0.0044974680543398054 0.011544921222553978 0 -0.0088145034564666956 -0.0020042966838196077 0 -0.0047180317651566968 0.0023032870376467514 0 -0.0025663799869136642 -0.0023037205715816752 0 -0.0053357842592921586 0.013521073884988837 0 -0.0047671693256908215 0.013406142736148985 0 -0.0046938455851507016 0.009660795650899244 0 -0.0046600954452575352 0.01195334691455735 0 -0.0053824201156452362 0.0099067087948469766 0 -0.0052064983973951068 0.0056616967687288557 0 -0.0053357842592921586 0.013521073884988837 0 -0.0088145034564666956 -0.0020042966838196077 0 -0.010499972412951543 0.0073204303731796809 0 -0.0047180317651566968 0.0023032870376467514 0 -0.0069965689137720822 0.018532872227402204 0 -0.0052218728317550344 0.020153459524040875 0 -0.0074848605284848248 0.021046417225284074 0 -0.0052218728317550344 0.020153459524040875 0 -0.0074848605284848248 0.021046417225284074 0 -0.0065458168423215982 0.02160696539352791 0 -0.0052218728317550344 0.020153459524040875 0 -0.0065458168423215982 0.02160696539352791 0 -0.0057643242969979023 0.021941061708382614 0 -0.0078453136974964005 0.020989601862795339 0 -0.0074848605284848248 0.021046417225284074 0 -0.0077031777764052164 0.021738711282852635 0 -0.0076711892702450738 0.020655311073043397 0 -0.0078453136974964005 0.020989601862795339 0 -0.0074848605284848248 0.021046417225284074 0 -0.0069515782187250198 0.022336654145742329 0 -0.006579260220695886 0.022538064812657927 0 -0.0077031777764052164 0.021738711282852635 0 -0.0065458168423215982 0.02160696539352791 0 -0.0060798170602753727 0.022679217652590674 0 -0.0074848605284848248 0.021046417225284074 0 -0.0077031777764052164 0.021738711282852635 0 -0.0065458168423215982 0.02160696539352791 0 -0.0065458168423215982 0.02160696539352791 0 -0.0057643242969979023 0.021941061708382614 0 -0.0060798170602753727 0.022679217652590674 0 -0.0060798170602753727 0.022679217652590674 0 -0.0061729441226434601 0.023119924551466334 0 -0.0058347690790959885 0.022279314738425041 0 -0.0060798170602753727 0.022679217652590674 0 -0.0062923654255773662 0.023438341915998646 0 -0.0061729441226434601 0.023119924551466334 0 -0.0062710004024783238 0.023141097499337862 0 -0.0060798170602753727 0.022679217652590674 0 -0.0062923654255773662 0.023438341915998646 0 -0.0062923654255773662 0.023438341915998646 0 -0.0061729441226434601 0.023119924551466334 0 -0.0063789916115898106 0.023973169058359327 0 -0.0064790497682278387 0.02415053136260837 0 -0.0062923654255773662 0.023438341915998646 0 -0.0063789916115898106 0.023973169058359327 0 -0.0061729441226434601 0.023119924551466334 0 -0.0063789916115898106 0.023973169058359327 0 -0.0062805669034454257 0.023912503439240385 0 -0.0061729441226434601 0.023119924551466334 0 -0.0061174207607268341 0.022936171997387608 0 -0.0062805669034454257 0.023912503439240385 0 -0.0061729441226434601 0.023119924551466334 0 -0.0061174207607268341 0.022936171997387608 0 -0.0058347690790959885 0.022279314738425041 0 -0.0061174207607268341 0.022936171997387608 0 -0.00594455788567326 0.020455780336790439 0 -0.0059395430333803855 0.023511500536345598 0 -0.0061174207607268341 0.022936171997387608 0 -0.0058347690790959885 0.022279314738425041 0 -0.00594455788567326 0.020455780336790439 0 -0.005737537985641649 0.022944341812361557 0 -0.0056467264789001343 0.022474545241220983 0 -0.00594455788567326 0.020455780336790439 0 -0.0060798170602753727 0.022679217652590674 0 -0.0058347690790959885 0.022279314738425041 0 -0.0056467264789001343 0.022474545241220983 0 -0.0053357842592921586 0.013521073884988837 0 -0.0049907173488506294 0.016543319268868123 0 -0.0058347690790959885 0.022279314738425041 0 -0.0056467264789001343 0.022474545241220983 0 -0.00594455788567326 0.020455780336790439 0 -0.010499972412951543 0.0073204303731796809 0 -0.0044974680543398054 0.011544921222553978 0 -0.00594455788567326 0.020455780336790439 0 -0.0044974680543398054 0.011544921222553978 0 -0.00594455788567326 0.020455780336790439 0 0.00071958208186819546 0.017759727756357833 0 -0.00594455788567326 0.020455780336790439 0 0.00071958208186819546 0.017759727756357833 0 -0.0029829187377026336 0.022444103181563625 0 0.00016258488496346984 0.0063869204155698345 0 0.001250683402519542 0.0073528351565358809 0 0.00024474621755142192 0.0081952778889712412 0 -6.615893297046053e-05 0.012110023290892937 0 -0.00018000460827480823 0.015911891275940174 0 0.00071958208186819546 0.017759727756357833 0 -0.00057372069598671336 0.024937138086974717 0 -0.0029829187377026336 0.022444103181563625 0 0.00016258488496346984 0.0063869204155698345 0 0.001250683402519542 0.0073528351565358809 0 0.0012452818961391323 0.0064198031799600902 0 0.0023378954531529995 0.0066184326491867248 0 0.0012452818961391323 0.0064198031799600902 0 0.0012814521587523212 0.005521275322400261 0 0.001250683402519542 0.0073528351565358809 0 0.0023378954531529995 0.0066184326491867248 0 0.002401352145601836 0.0078897225367564345 0 0.001250683402519542 0.0073528351565358809 0 0.0023378954531529995 0.0066184326491867248 0 0.0012452818961391323 0.0064198031799600902 0 0.0012814521587523212 0.005521275322400261 0 0.0031437153947374125 0.005395256890204125 0 0.0027208232353586556 0.0028524782732616875 0 0.0023378954531529995 0.0066184326491867248 0 0.0012814521587523212 0.005521275322400261 0 0.0031437153947374125 0.005395256890204125 0 -0.0044974680543398054 0.011544921222553978 0 0.00071958208186819546 0.017759727756357833 0 -0.00057945277691240219 0.0051761633092844194 0 -6.615893297046053e-05 0.012110023290892937 0 -7.9783742480216027e-05 0.0096254056573611274 0 0.00016258488496346984 0.0063869204155698345 0 0.0012452818961391323 0.0064198031799600902 0 0.0012814521587523212 0.005521275322400261 0 0.00016258488496346984 0.0063869204155698345 0 0.0012814521587523212 0.005521275322400261 0 -0.00057945277691240219 0.0051761633092844194 0 0.0048001658868391606 0.0067557867048192791 0 0.0047024936590607429 0.0056041567964285688 0 0.005433825705684763 0.0061824028195033107 0 0.0048001658868391606 0.0067557867048192791 0 0.0036805618104655286 0.0062806563857266615 0 0.0034994260623978728 0.0073317892484482169 0 0.0048001658868391606 0.0067557867048192791 0 0.0036805618104655286 0.0062806563857266615 0 0.0047024936590607429 0.0056041567964285688 0 0.0023378954531529995 0.0066184326491867248 0 0.0034994260623978728 0.0073317892484482169 0 0.002401352145601836 0.0078897225367564345 0 0.0023378954531529995 0.0066184326491867248 0 0.0036805618104655286 0.0062806563857266615 0 0.0034994260623978728 0.0073317892484482169 0 0.0023378954531529995 0.0066184326491867248 0 0.0036805618104655286 0.0062806563857266615 0 0.0031437153947374125 0.005395256890204125 0 0.0039135750335622293 0.0044553249017216462 0 0.0031437153947374125 0.005395256890204125 0 0.0047024936590607429 0.0056041567964285688 0 0.0036805618104655286 0.0062806563857266615 0 0.0031437153947374125 0.005395256890204125 0 0.0047024936590607429 0.0056041567964285688 0 0.0039135750335622293 0.0044553249017216462 0 0.0031437153947374125 0.005395256890204125 0 0.0027208232353586556 0.0028524782732616875 0 0.0047024936590607429 0.0056041567964285688 0 0.0049296180268045579 0.0037862961482962999 0 0.0072894300809194183 0.0042739685603811464 0 0.0039135750335622293 0.0044553249017216462 0 0.0047024936590607429 0.0056041567964285688 0 0.0049296180268045579 0.0037862961482962999 0 0.0047024936590607429 0.0056041567964285688 0 0.0056097469960901284 0.0055682677865179107 0 0.005433825705684763 0.0061824028195033107 0 0.0095685905197751067 0.0011596250632203888 0 0.0077596670663115158 0.0036117855555271284 0 0.0062685137727128987 0.00090907688766800321 0 0.0077596670663115158 0.0036117855555271284 0 0.0027208232353586556 0.0028524782732616875 0 0.0062685137727128987 0.00090907688766800321 0 0.0063151476757064588 0.0028300510740483153 0 0.0049386107577275634 0.0026973998248965444 0 0.0039135750335622293 0.0044553249017216462 0 0.0049296180268045579 0.0037862961482962999 0 0.0027208232353586556 0.0028524782732616875 0 0.0027208232353586556 0.0028524782732616875 0 0.0051886935360735756 -0.0026913500354407561 0 0.0062685137727128987 0.00090907688766800321 0 0.0027208232353586556 0.0028524782732616875 0 0.0051886935360735756 -0.0026913500354407561 0 0.002058949102849933 -0.0025849140736911476 0 0.0095685905197751067 0.0011596250632203888 0 0.0051886935360735756 -0.0026913500354407561 0 0.0062685137727128987 0.00090907688766800321 0 0.006804760928890272 0.00060158910404313286 0 0.0059986610205588625 -0.00047187596907299575 0 0.0063614864484887838 -0.0028615839383180769 0 0.0051886935360735756 -0.0026913500354407561 0 0.0066101574824436521 -0.0042816121676143961 0 0.0012814521587523212 0.005521275322400261 0 -0.00057945277691240219 0.0051761633092844194 0 0.00065283548413813967 0.001412819054152803 0 -0.0047180317651566968 0.0023032870376467514 0 -0.00057945277691240219 0.0051761633092844194 0 0.00065283548413813967 0.001412819054152803 0 0.0012814521587523212 0.005521275322400261 0 0.0027208232353586556 0.0028524782732616875 0 0.00065283548413813967 0.001412819054152803 0 0.0027208232353586556 0.0028524782732616875 0 0.00065283548413813967 0.001412819054152803 0 0.002058949102849933 -0.0025849140736911476 0 -0.0047180317651566968 0.0023032870376467514 0 0.00065283548413813967 0.001412819054152803 0 -0.0025663799869136642 -0.0023037205715816752 0 0.00065283548413813967 0.001412819054152803 0 -0.0025663799869136642 -0.0023037205715816752 0 0.002058949102849933 -0.0025849140736911476 0 -0.0043956612667825678 -0.0061073799534464108 0 -0.0025663799869136642 -0.0023037205715816752 0 -0.00037362471667340993 -0.0059833253657078315 0 -0.0025663799869136642 -0.0023037205715816752 0 -0.00037362471667340993 -0.0059833253657078315 0 0.002058949102849933 -0.0025849140736911476 0 -0.0043956612667825678 -0.0061073799534464108 0 -0.00037362471667340993 -0.0059833253657078315 0 -0.0024596915206113574 -0.0096667810308102321 0 -0.00037362471667340993 -0.0059833253657078315 0 0.0025064909190805258 -0.006258058861387414 0 0.0020147671047804705 -0.0084965418939265593 0 -0.00037362471667340993 -0.0059833253657078315 0 0.0025064909190805258 -0.006258058861387414 0 0.002058949102849933 -0.0025849140736911476 0 0.0025064909190805258 -0.006258058861387414 0 0.002058949102849933 -0.0025849140736911476 0 0.0050705558716237905 -0.0054615261271548469 0 0.0051886935360735756 -0.0026913500354407561 0 0.002058949102849933 -0.0025849140736911476 0 0.0050705558716237905 -0.0054615261271548469 0 0.0051886935360735756 -0.0026913500354407561 0 0.0050705558716237905 -0.0054615261271548469 0 0.0066101574824436521 -0.0042816121676143961 0 0.0050705558716237905 -0.0054615261271548469 0 0.0069701008588020927 -0.0066384528888879151 0 0.0066101574824436521 -0.0042816121676143961 0 0.0050705558716237905 -0.0054615261271548469 0 0.0059197959224729126 -0.0079928171992892597 0 0.0069701008588020927 -0.0066384528888879151 0 0.0050705558716237905 -0.0054615261271548469 0 0.0040478586393037598 -0.0080260399196171797 0 0.0059197959224729126 -0.0079928171992892597 0 0.0025064909190805258 -0.006258058861387414 0 0.0050705558716237905 -0.0054615261271548469 0 0.0040478586393037598 -0.0080260399196171797 0 0.0025064909190805258 -0.006258058861387414 0 0.0040478586393037598 -0.0080260399196171797 0 0.0020147671047804705 -0.0084965418939265593 0 0.0040478586393037598 -0.0080260399196171797 0 0.0052145673107000671 -0.0094978135307110297 0 0.0031543623773623943 -0.010322130072074413 0 0.0040478586393037598 -0.0080260399196171797 0 0.0031543623773623943 -0.010322130072074413 0 0.0020147671047804705 -0.0084965418939265593 0 0.0025996677468582627 -0.010640180089961754 0 0.0031543623773623943 -0.010322130072074413 0 0.0020147671047804705 -0.0084965418939265593 0 0.0040478586393037598 -0.0080260399196171797 0 0.0059197959224729126 -0.0079928171992892597 0 0.0052145673107000671 -0.0094978135307110297 0 0.0059197959224729126 -0.0079928171992892597 0 0.0052145673107000671 -0.0094978135307110297 0 0.0066463580113936263 -0.0099575453630117699 0 0.0052145673107000671 -0.0094978135307110297 0 0.0060495980691781942 -0.010897788920367035 0 0.0066463580113936263 -0.0099575453630117699 0 0.001120539383954807 -0.0042162987418991769 0 -0.00049969528147647427 -0.0024125353225665012 0 0.0060495980691781942 -0.010897788920367035 0 0.0026957939516214324 -0.010550560142107561 0 0.0031543623773623943 -0.010322130072074413 0 -0.0027728319087875412 -0.0016349487805654426 0 -0.0029724623552251734 -0.0017036394399568351 0 -0.002654809064284492 -0.0019427550485206812 0 0.0052145673107000671 -0.0094978135307110297 0 0.0060495980691781942 -0.010897788920367035 0 0.0031543623773623943 -0.010322130072074413 0 -0.00049969528147647427 -0.0024125353225665012 0 -0.00047693460206467425 -0.0024520717235884159 0 -0.0024409616386685327 -0.0016162030351776493 0 -0.002654809064284492 -0.0019427550485206812 0 -0.0020585088012231418 -0.0017955104565602954 0 -0.00049969528147647427 -0.0024125353225665012 0 -0.0017152792649524277 -0.0004017477653019835 0 -0.0024409616386685327 -0.0016162030351776493 0 -0.0027728319087875412 -0.0016349487805654426 0 -0.002654809064284492 -0.0019427550485206812 0 -0.0012224597209531977 0.00084002800923739193 0 -0.0016937010213911479 0.00067572058052454975 0 -0.0016848082646378061 0.0010126480082501314 0 -0.00037362471667340993 -0.0059833253657078315 0 -0.0024596915206113574 -0.0096667810308102321 0 0.0020147671047804705 -0.0084965418939265593 0 0.0025996677468582627 -0.010640180089961754 0 -0.0024596915206113574 -0.0096667810308102321 0 0.0020147671047804705 -0.0084965418939265593 0 -0.00049969528147647427 -0.0024125353225665012 0 -0.0014794888057385895 -0.0005887930849012283 0 0.0089059312086867074 -0.010140507829426526 0 0.011729218830562807 -0.0085475687829630886 0 0.010153127405096513 -0.0078939481446575269 0 0.0091145830326862937 -0.010939166144256223 0 0.0099248482683231103 -0.010909567158616797 0 0.0089059312086867074 -0.010140507829426526 0 0.0086327734825701365 -0.011260342456514234 0 0.0080538336407683549 -0.01058692087410916 0 0.0086868506719662668 -0.012914910088105976 0 0.0086514912666595875 -0.012317811313348295 0 0.0087150323070917385 -0.01362844847210941 0 0.0089059312086867074 -0.010140507829426526 0 0.0086868506719662668 -0.012914910088105976 0 0.0086514912666595875 -0.012317811313348295 0 0.0083319851976741757 -0.012141251141792786 0 0.0087146440607565601 -0.011741001382768054 0 0.0086514912666595875 -0.012317811313348295 0 0.0085938011875578563 -0.014537607680064665 0 0.0086514912666595875 -0.012317811313348295 0 0.0087150323070917385 -0.01362844847210941 0 0.0060592846290340192 -0.012934908400166067 0 0.0068664239316505787 -0.013292990734174819 0 0.0087146440607565601 -0.011741001382768054 0 0.0086514912666595875 -0.012317811313348295 0 0.0086327734825701365 -0.011260342456514234 0 0.0089059312086867074 -0.010140507829426526 0 0.0086514912666595875 -0.012317811313348295 0 0.0086327734825701365 -0.011260342456514234 0 0.0087146440607565601 -0.011741001382768054 0 0.0086327734825701365 -0.011260342456514234 0 0.0080538336407683549 -0.01058692087410916 0 0.0070859593002919729 -0.010233368377401844 0 0.0087146440607565601 -0.011741001382768054 0 0.0077553929556517269 -0.01066891138334433 0 0.0087146440607565601 -0.011741001382768054 0 0.0077553929556517269 -0.01066891138334433 0 0.0080538336407683549 -0.01058692087410916 0 0.0070859593002919729 -0.010233368377401844 0 0.0077553929556517269 -0.01066891138334433 0 0.0072514535496217645 -0.010191108113569297 0 0.0077553929556517269 -0.01066891138334433 0 0.0080538336407683549 -0.01058692087410916 0 0.0072514535496217645 -0.010191108113569297 0 0.0080538336407683549 -0.01058692087410916 0 0.0072514535496217645 -0.010191108113569297 0 0.0072878225917747249 -0.0093011974291218359 0 0.0070859593002919729 -0.010233368377401844 0 0.0060495980691781942 -0.010897788920367035 0 0.0066463580113936263 -0.0099575453630117699 0 0.001128496210389742 -0.0043966317176107007 0 0.001120539383954807 -0.0042162987418991769 0 0.0070859593002919729 -0.010233368377401844 0 0.0072514535496217645 -0.010191108113569297 0 0.0066463580113936263 -0.0099575453630117699 0 0.0059197959224729126 -0.0079928171992892597 0 0.0066463580113936263 -0.0099575453630117699 0 0.0072878225917747249 -0.0093011974291218359 0 0.0072514535496217645 -0.010191108113569297 0 0.0066463580113936263 -0.0099575453630117699 0 0.0072878225917747249 -0.0093011974291218359 0 0.0089059312086867074 -0.010140507829426526 0 0.0072878225917747249 -0.0093011974291218359 0 0.0084535090403769272 -0.0076070575342328276 0 0.0089059312086867074 -0.010140507829426526 0 0.0080538336407683549 -0.01058692087410916 0 0.0072878225917747249 -0.0093011974291218359 0 0.0072878225917747249 -0.0093011974291218359 0 0.0084535090403769272 -0.0076070575342328276 0 0.0069701008588020927 -0.0066384528888879151 0 0.0084535090403769272 -0.0076070575342328276 0 0.0069701008588020927 -0.0066384528888879151 0 0.0080771153204547211 -0.0054725209643071183 0 0.0059197959224729126 -0.0079928171992892597 0 0.0072878225917747249 -0.0093011974291218359 0 0.0069701008588020927 -0.0066384528888879151 0 0.0069701008588020927 -0.0066384528888879151 0 0.0066101574824436521 -0.0042816121676143961 0 0.0080771153204547211 -0.0054725209643071183 0 0.0066101574824436521 -0.0042816121676143961 0 0.0080771153204547211 -0.0054725209643071183 0 0.0078962556003930994 -0.0036898485305049034 0 0.0084535090403769272 -0.0076070575342328276 0 0.0080771153204547211 -0.0054725209643071183 0 0.0099755745956615054 -0.0062337061371555424 0 0.0080771153204547211 -0.0054725209643071183 0 0.0099755745956615054 -0.0062337061371555424 0 0.0092741930994177952 -0.0046096602814189574 0 0.0099755745956615054 -0.0062337061371555424 0 0.010639152461802491 -0.0047989950876782591 0 0.0092741930994177952 -0.0046096602814189574 0 0.0089059312086867074 -0.010140507829426526 0 0.0084535090403769272 -0.0076070575342328276 0 0.010153127405096513 -0.0078939481446575269 0 0.0084535090403769272 -0.0076070575342328276 0 0.0099755745956615054 -0.0062337061371555424 0 0.010153127405096513 -0.0078939481446575269 0 0.0099755745956615054 -0.0062337061371555424 0 0.010153127405096513 -0.0078939481446575269 0 0.011374299046908927 -0.0071456176899442466 0 0.011729218830562807 -0.0085475687829630886 0 0.011374299046908927 -0.0071456176899442466 0 0.012528922106899482 -0.0069345151003987462 0 0.011729218830562807 -0.0085475687829630886 0 0.010153127405096513 -0.0078939481446575269 0 0.011374299046908927 -0.0071456176899442466 0 0.011374299046908927 -0.0071456176899442466 0 0.011452497704611301 -0.0058953989888804806 0 0.012528922106899482 -0.0069345151003987462 0 0.0099755745956615054 -0.0062337061371555424 0 0.011374299046908927 -0.0071456176899442466 0 0.011452497704611301 -0.0058953989888804806 0 0.0099755745956615054 -0.0062337061371555424 0 0.011452497704611301 -0.0058953989888804806 0 0.010639152461802491 -0.0047989950876782591 0 0.011452497704611301 -0.0058953989888804806 0 0.010639152461802491 -0.0047989950876782591 0 0.012225996291043336 -0.004367972766474053 0 0.009103028888850501 0.0004217257367564007 0 0.010011632523946372 0.00062441768564659348 0 0.010210165923219312 -0.00017412311123946695 0 0.010639152461802491 -0.0047989950876782591 0 0.0098360363142521948 -0.0029296518333874308 0 0.012225996291043336 -0.004367972766474053 0 0.0096408926906418248 -0.00047405909551134523 0 0.011259738177975173 -0.0024593041683403055 0 0.010363466778598574 -7.4348919087152952e-06 0 0.011259738177975173 -0.0024593041683403055 0 0.010639152461802491 -0.0047989950876782591 0 0.0092741930994177952 -0.0046096602814189574 0 0.0098360363142521948 -0.0029296518333874308 0 0.009103028888850501 0.0004217257367564007 0 0.0094645378911917492 0.00092523897595733263 0 0.0089304841130376528 0.00123568241595909 0 0.009211954896144044 -0.0010141345722144467 0 0.0085525455796436039 0.001695110620964364 0 0.011126108728735245 -7.5801223847887507e-05 0 0.010011632523946372 0.00062441768564659348 0 0.0094645378911917492 0.00092523897595733263 0 0.0098136818027359327 0.0014188306817909727 0 0.009103028888850501 0.0004217257367564007 0 0.010011632523946372 0.00062441768564659348 0 0.0094645378911917492 0.00092523897595733263 0 0.010363466778598574 -7.4348919087152952e-06 0 0.0096526116929731547 0.0025069419485523364 0 0.0063614864484887838 -0.0028615839383180769 0 0.0066101574824436521 -0.0042816121676143961 0 0.0078962556003930994 -0.0036898485305049034 0 0.0080771153204547211 -0.0054725209643071183 0 0.0092741930994177952 -0.0046096602814189574 0 0.0078962556003930994 -0.0036898485305049034 0 0.0092741930994177952 -0.0046096602814189574 0 0.0098360363142521948 -0.0029296518333874308 0 0.0078962556003930994 -0.0036898485305049034 0 0.0096408926906418248 -0.00047405909551134523 0 0.0073864902687770734 0.0024950296009553057 0 0.009103028888850501 0.0004217257367564007 0 0.0079558049767305926 0.0010373576145371113 0 0.0080469569779028863 0.0010558084520761249 0 0.0098360363142521948 -0.0029296518333874308 0 0.0078962556003930994 -0.0036898485305049034 0 0.0076129537101658484 -0.0016860615189835428 0 0.009103028888850501 0.0004217257367564007 0 0.0080469569779028863 0.0010558084520761249 0 0.0089304841130376528 0.00123568241595909 0 0.0063151476757064588 0.0028300510740483153 0 0.0073864902687770734 0.0024950296009553057 0 0.0095685905197751067 0.0011596250632203888 0 0.0077596670663115158 0.0036117855555271284 0 0.013266239015435275 0.0047651043780826078 0 0.0063614864484887838 -0.0028615839383180769 0 0.0078962556003930994 -0.0036898485305049034 0 0.0076129537101658484 -0.0016860615189835428 0 0.006804760928890272 0.00060158910404313286 0 0.0073864902687770734 0.0024950296009553057 0 0.0047024936590607429 0.0056041567964285688 0 0.0062152274298941578 0.0047949471192590036 0 0.0056097469960901284 0.0055682677865179107 0 0.0057623481830745742 0.0037818548594612039 0 0.0073864902687770734 0.0024950296009553057 0 0.0062152274298941578 0.0047949471192590036 0 0.0056097469960901284 0.0055682677865179107 0 0.0062410479344646571 0.0051637335348228225 0 0.0056097469960901284 0.0055682677865179107 0 0.0060615946585134911 0.0056184411129146135 0 0.0059994050569215232 0.0060440260750665806 0 0.0056097469960901284 0.0055682677865179107 0 0.0062410479344646571 0.0051637335348228225 0 0.0060615946585134911 0.0056184411129146135 0 0.0064554151165764247 0.0048812817315986795 0 0.007144435319845161 0.0054996770251915404 0 0.0074432420753209882 0.0050946438086913355 0 0.0074789677233206816 0.0026329423236592354 0 0.008442551566937637 0.0026354897484430341 0 0.0062410479344646571 0.0051637335348228225 0 0.0060615946585134911 0.0056184411129146135 0 0.0065849535508794672 0.0057896145982079383 0 0.0062410479344646571 0.0051637335348228225 0 0.0071067683724582451 0.0055108417592536858 0 0.0065849535508794672 0.0057896145982079383 0 0.0062410479344646571 0.0051637335348228225 0 0.0063308536040088429 0.0048239691420072887 0 0.0071067683724582451 0.0055108417592536858 0 0.0062152274298941578 0.0047949471192590036 0 0.0062410479344646571 0.0051637335348228225 0 0.0063308536040088429 0.0048239691420072887 0 0.0073864902687770734 0.0024950296009553057 0 0.0074789677233206816 0.0026329423236592354 0 0.0074789677233206816 0.0026329423236592354 0 0.0078678132271321199 0.0038411250142927392 0 0.0071067683724582451 0.0055108417592536858 0 0.0065849535508794672 0.0057896145982079383 0 0.0072320150666400351 0.0060970030886803141 0 0.0068979801435976951 0.0064618209034186464 0 0.0065849535508794672 0.0057896145982079383 0 0.0072320150666400351 0.0060970030886803141 0 0.0068979801435976951 0.0064618209034186464 0 0.0063826219471734775 0.0062687296940473203 0 0.0065849535508794672 0.0057896145982079383 0 0.0068979801435976951 0.0064618209034186464 0 0.0063826219471734775 0.0062687296940473203 0 0.0059553949272887268 0.0068165009995750179 0 0.0063826219471734775 0.0062687296940473203 0 0.0065849535508794672 0.0057896145982079383 0 0.0059994050569215232 0.0060440260750665806 0 0.0048001658868391606 0.0067557867048192791 0 0.005433825705684763 0.0061824028195033107 0 0.0059553949272887268 0.0068165009995750179 0 0.0060615946585134911 0.0056184411129146135 0 0.0065849535508794672 0.0057896145982079383 0 0.0059994050569215232 0.0060440260750665806 0 0.0059994050569215232 0.0060440260750665806 0 0.005433825705684763 0.0061824028195033107 0 0.0059553949272887268 0.0068165009995750179 0 0.0063826219471734775 0.0062687296940473203 0 0.0059994050569215232 0.0060440260750665806 0 0.0059553949272887268 0.0068165009995750179 0 0.0056097469960901284 0.0055682677865179107 0 0.0059994050569215232 0.0060440260750665806 0 0.005433825705684763 0.0061824028195033107 0 0.0094645378911917492 0.00092523897595733263 0 0.0098136818027359327 0.0014188306817909727 0 0.0089304841130376528 0.00123568241595909 0 0.0084353328752856151 0.005305587187212012 0 0.0074432420753209882 0.0050946438086913355 0 0.007685540574449745 0.0055897972329094336 0 0.0096526116929731547 0.0025069419485523364 0 0.008442551566937637 0.0026354897484430341 0 0.007144435319845161 0.0054996770251915404 0 0.0074432420753209882 0.0050946438086913355 0 0.007685540574449745 0.0055897972329094336 0 0.0084353328752856151 0.005305587187212012 0 0.007685540574449745 0.0055897972329094336 0 0.0078366088031913105 0.0061225323264359295 0 0.0071067683724582451 0.0055108417592536858 0 0.0072320150666400351 0.0060970030886803141 0 0.0078366088031913105 0.0061225323264359295 0 0.007144435319845161 0.0054996770251915404 0 0.007685540574449745 0.0055897972329094336 0 0.0078366088031913105 0.0061225323264359295 0 0.0078678132271321199 0.0038411250142927392 0 0.0080674834724496023 0.0042825263049882508 0 0.0068979801435976951 0.0064618209034186464 0 0.0072320150666400351 0.0060970030886803141 0 0.007596111942123885 0.0066988366289252275 0 0.0072320150666400351 0.0060970030886803141 0 0.0078366088031913105 0.0061225323264359295 0 0.007596111942123885 0.0066988366289252275 0 0.0078366088031913105 0.0061225323264359295 0 0.0081424899795588465 0.0064282416831843436 0 0.007596111942123885 0.0066988366289252275 0 0.0090901137859554539 0.0018654558874328703 0 0.0084867232693274283 0.0045729596863720084 0 0.01051030415088307 0.0042776097192967089 0 0.0084353328752856151 0.005305587187212012 0 0.0078366088031913105 0.0061225323264359295 0 0.0081424899795588465 0.0064282416831843436 0 0.0096526116929731547 0.0025069419485523364 0 0.0088707240408407891 0.00486905515521497 0 0.0084867232693274283 0.0045729596863720084 0 0.0096418579125978517 0.0060204085665955722 0 0.01051030415088307 0.0042776097192967089 0 0.0084867232693274283 0.0045729596863720084 0 0.0096418579125978517 0.0060204085665955722 0 0.0080733344344961488 0.0073576197054178996 0 0.0088707240408407891 0.00486905515521497 0 0.0085884175279572154 0.0058322834334273328 0 0.007596111942123885 0.0066988366289252275 0 0.0080733344344961488 0.0073576197054178996 0 0.0067657021297558937 0.0071879724697371432 0 0.0081424899795588465 0.0064282416831843436 0 0.007596111942123885 0.0066988366289252275 0 0.0080733344344961488 0.0073576197054178996 0 0.0080733344344961488 0.0073576197054178996 0 0.0070049522345702712 0.0090611625718276228 0 0.0067000841656796577 0.0080077269311413235 0 0.0096418579125978517 0.0060204085665955722 0 0.0080733344344961488 0.0073576197054178996 0 0.0099569677241281261 0.0075554627231428943 0 0.0080733344344961488 0.0073576197054178996 0 0.0099569677241281261 0.0075554627231428943 0 0.0093200528972978511 0.0087290577057034576 0 0.0093200528972978511 0.0087290577057034576 0 0.0081096175387633633 0.0096546695070964667 0 0.0097540508933161123 0.010168423905940796 0 0.0093200528972978511 0.0087290577057034576 0 0.0097540508933161123 0.010168423905940796 0 0.01076863630187406 0.0088341162621151572 0 0.0099569677241281261 0.0075554627231428943 0 0.0093200528972978511 0.0087290577057034576 0 0.01076863630187406 0.0088341162621151572 0 0.0080733344344961488 0.0073576197054178996 0 0.0093200528972978511 0.0087290577057034576 0 0.0081096175387633633 0.0096546695070964667 0 0.0080733344344961488 0.0073576197054178996 0 0.0081096175387633633 0.0096546695070964667 0 0.0070049522345702712 0.0090611625718276228 0 0.0081096175387633633 0.0096546695070964667 0 0.0070049522345702712 0.0090611625718276228 0 0.0066771130214038328 0.011550778403628132 0 0.0081096175387633633 0.0096546695070964667 0 0.0086292698994264831 0.011262401559647322 0 0.0066771130214038328 0.011550778403628132 0 0.0081096175387633633 0.0096546695070964667 0 0.0097540508933161123 0.010168423905940796 0 0.0086292698994264831 0.011262401559647322 0 0.0055875187610596212 0.010980279588066565 0 0.0056174480948046369 0.010830093462708875 0 0.0047893121989331716 0.011245818083137297 0 0.0055875187610596212 0.010980279588066565 0 0.0059988109431887444 0.01055476913640058 0 0.0058706902165561519 0.011474730639543169 0 0.0055875187610596212 0.010980279588066565 0 0.0056174480948046369 0.010830093462708875 0 0.0059988109431887444 0.01055476913640058 0 0.0035560044392316499 0.011520216221064833 0 0.003315924515504132 0.011783593650324482 0 0.0055875187610596212 0.010980279588066565 0 0.0052229248794352524 0.011387516147978017 0 0.0054090005376617378 0.011581439216179049 0 0.0055875187610596212 0.010980279588066565 0 0.0058706902165561519 0.011474730639543169 0 0.0053117410295649217 0.011637542790219842 0 0.005979554462581178 0.0098276727571736527 0 0.0063083138989988644 0.010611246984392501 0 0.0059988109431887444 0.01055476913640058 0 0.0066771130214038328 0.011550778403628132 0 0.0058706902165561519 0.011474730639543169 0 0.0070049522345702712 0.0090611625718276228 0 0.0059004939229884007 0.0093871727235960815 0 0.0066771130214038328 0.011550778403628132 0 0.0070049522345702712 0.0090611625718276228 0 0.0059004939229884007 0.0093871727235960815 0 0.0067000841656796577 0.0080077269311413235 0 0.005979554462581178 0.0098276727571736527 0 0.0054358217867789453 0.0084851449145705842 0 0.0059988109431887444 0.01055476913640058 0 0.0051458465994369124 0.010086967346977872 0 0.0054318940404565084 0.0089216824721557661 0 0.0056174480948046369 0.010830093462708875 0 0.0051458465994369124 0.010086967346977872 0 0.004568330356792649 0.010740725619294521 0 0.0056174480948046369 0.010830093462708875 0 0.0059988109431887444 0.01055476913640058 0 0.0051458465994369124 0.010086967346977872 0 0.0059004939229884007 0.0093871727235960815 0 0.0054401093638839692 0.0077567168307381097 0 0.0067000841656796577 0.0080077269311413235 0 0.0080733344344961488 0.0073576197054178996 0 0.0067000841656796577 0.0080077269311413235 0 0.0067657021297558937 0.0071879724697371432 0 0.0054401093638839692 0.0077567168307381097 0 0.0067000841656796577 0.0080077269311413235 0 0.0067657021297558937 0.0071879724697371432 0 0.0068979801435976951 0.0064618209034186464 0 0.0067657021297558937 0.0071879724697371432 0 0.0059553949272887268 0.0068165009995750179 0 0.0068979801435976951 0.0064618209034186464 0 0.007596111942123885 0.0066988366289252275 0 0.0067657021297558937 0.0071879724697371432 0 0.0054401093638839692 0.0077567168307381097 0 0.0067657021297558937 0.0071879724697371432 0 0.0059553949272887268 0.0068165009995750179 0 0.0048001658868391606 0.0067557867048192791 0 0.0054401093638839692 0.0077567168307381097 0 0.0059553949272887268 0.0068165009995750179 0 0.0048001658868391606 0.0067557867048192791 0 0.0054318940404565084 0.0089216824721557661 0 0.0042948975623928291 0.0081301117372113551 0 0.0051095207810415164 0.0076900239434569712 0 0.0054358217867789453 0.0084851449145705842 0 0.0048001658868391606 0.0067557867048192791 0 0.0042948975623928291 0.0081301117372113551 0 0.0034994260623978728 0.0073317892484482169 0 0.0034994260623978728 0.0073317892484482169 0 0.0034018199760700693 0.0084435892293852882 0 0.002401352145601836 0.0078897225367564345 0 0.0034018199760700693 0.0084435892293852882 0 0.002401352145601836 0.0078897225367564345 0 0.0025110409167749853 0.008871477862519064 0 0.0042948975623928291 0.0081301117372113551 0 0.0034994260623978728 0.0073317892484482169 0 0.0034018199760700693 0.0084435892293852882 0 0.0034018199760700693 0.0084435892293852882 0 0.0032643213296508727 0.0093815720250802967 0 0.0042847901777422447 0.0091998740668874628 0 0.0034018199760700693 0.0084435892293852882 0 0.0032643213296508727 0.0093815720250802967 0 0.0025110409167749853 0.008871477862519064 0 0.0032643213296508727 0.0093815720250802967 0 0.0025110409167749853 0.008871477862519064 0 0.0021734589560038564 0.009845286196737614 0 0.0032643213296508727 0.0093815720250802967 0 0.0042847901777422447 0.0091998740668874628 0 0.0040707091628347791 0.010103251884857552 0 0.0051458465994369124 0.010086967346977872 0 0.0054318940404565084 0.0089216824721557661 0 0.0042847901777422447 0.0091998740668874628 0 0.0054318940404565084 0.0089216824721557661 0 0.0042948975623928291 0.0081301117372113551 0 0.0042847901777422447 0.0091998740668874628 0 0.0042948975623928291 0.0081301117372113551 0 0.0034018199760700693 0.0084435892293852882 0 0.0042847901777422447 0.0091998740668874628 0 0.001250683402519542 0.0073528351565358809 0 0.00024474621755142192 0.0081952778889712412 0 0.0014345414631063507 0.0086075902851905708 0 0.001250683402519542 0.0073528351565358809 0 0.0014345414631063507 0.0086075902851905708 0 0.002401352145601836 0.0078897225367564345 0 0.0014345414631063507 0.0086075902851905708 0 0.002401352145601836 0.0078897225367564345 0 0.0025110409167749853 0.008871477862519064 0 0.0014345414631063507 0.0086075902851905708 0 0.0011070507001097092 0.0097043073518142554 0 0.0021380292775414257 0.010207701780270036 0 0.0014345414631063507 0.0086075902851905708 0 0.0025110409167749853 0.008871477862519064 0 0.0021734589560038564 0.009845286196737614 0 0.0012821854438006108 0.010612432593680823 0 0.0015034907784411428 0.01147259626607377 0 -0.00057372069598671336 0.024937138086974717 0 -0.00070252424373799772 0.030217555310705486 0 -0.0030192598397745197 0.026325724115059547 0 0.00024474621755142192 0.0081952778889712412 0 0.0011070507001097092 0.0097043073518142554 0 0.00018248160231744363 0.010350635704556492 0 -0.00018000460827480823 0.015911891275940174 0 -0.0003343104673827042 0.018834843758850996 0 0.00024474621755142192 0.0081952778889712412 0 0.0014345414631063507 0.0086075902851905708 0 0.0011070507001097092 0.0097043073518142554 0 -0.0003343104673827042 0.018834843758850996 0 0.00060769037281598298 0.020369976004438805 0 0.00072651416338105873 0.017101876065042078 0 0.00083623096144715625 0.017157764773475442 0 0.00072296731691500577 0.017290055149683081 0 0.0011070507001097092 0.0097043073518142554 0 0.00018248160231744363 0.010350635704556492 0 0.0014955637254115833 0.011081562533334425 0 -0.0003343104673827042 0.018834843758850996 0 0.00071897036928237365 0.016037928227281957 0 0.0014955637254115833 0.011081562533334425 0 0.0021380292775414257 0.010207701780270036 0 0.0028287891858336705 0.011813302000267343 0 0.0015034907784411428 0.01147259626607377 0 0.0020135296589966667 0.013838511729520645 0 0.0011070507001097092 0.0097043073518142554 0 0.0014955637254115833 0.011081562533334425 0 0.0021380292775414257 0.010207701780270036 0 0.00071897036928237365 0.016037928227281957 0 0.0020135296589966667 0.013838511729520645 0 0.0008541670781041414 0.017277344290484938 0 0.0009475217975744416 0.017213253758372151 0 0.00099985476815546859 0.017328379772004739 0 0.00083623096144715625 0.017157764773475442 0 0.0008541670781041414 0.017277344290484938 0 0.0009475217975744416 0.017213253758372151 0 0.0033147887817224736 0.022706268865062433 0 0.0032935882257757467 0.024946845334476307 0 0.002527046125656789 0.024334853091896192 0 0.00083623096144715625 0.017157764773475442 0 0.0008541670781041414 0.017277344290484938 0 0.00072296731691500577 0.017290055149683081 0 0.004568330356792649 0.010740725619294521 0 0.0040707091628347791 0.010103251884857552 0 0.003747477462000198 0.010767679873211412 0 0.0051458465994369124 0.010086967346977872 0 0.004568330356792649 0.010740725619294521 0 0.0040707091628347791 0.010103251884857552 0 0.0051458465994369124 0.010086967346977872 0 0.0042847901777422447 0.0091998740668874628 0 0.0040707091628347791 0.010103251884857552 0 0.0032643213296508727 0.0093815720250802967 0 0.0040707091628347791 0.010103251884857552 0 0.0031452870673348726 0.010176180178995737 0 0.0021734589560038564 0.009845286196737614 0 0.0031452870673348726 0.010176180178995737 0 0.0028014159270190156 0.011079062354968966 0 0.0032643213296508727 0.0093815720250802967 0 0.0021734589560038564 0.009845286196737614 0 0.0031452870673348726 0.010176180178995737 0 0.0031452870673348726 0.010176180178995737 0 0.003747477462000198 0.010767679873211412 0 0.0028014159270190156 0.011079062354968966 0 0.0040707091628347791 0.010103251884857552 0 0.0031452870673348726 0.010176180178995737 0 0.003747477462000198 0.010767679873211412 0 0.003747477462000198 0.010767679873211412 0 0.0028014159270190156 0.011079062354968966 0 0.0041556124864957945 0.011757726719391992 0 0.0020135296589966667 0.013838511729520645 0 0.0031213244986235526 0.01305717029390845 0 0.0027478969770309745 0.013752046386567544 0 0.0019836337991659828 0.013336298933710605 0 0.0024614705355777635 0.013089671880869902 0 0.0020135296589966667 0.013838511729520645 0 0.0023401745230322967 0.014185817471870029 0 0.0031213244986235526 0.01305717029390845 0 0.0023401745230322967 0.014185817471870029 0 0.0055875187610596212 0.010980279588066565 0 0.0047893121989331716 0.011245818083137297 0 0.0052229248794352524 0.011387516147978017 0 0.0056174480948046369 0.010830093462708875 0 0.004568330356792649 0.010740725619294521 0 0.0041556124864957945 0.011757726719391992 0 0.0031213244986235526 0.01305717029390845 0 0.0031022753944711726 0.012371532585023154 0 0.0042894263816901888 0.0123004892157581 0 0.0031213244986235526 0.01305717029390845 0 0.004568330356792649 0.010740725619294521 0 0.003747477462000198 0.010767679873211412 0 0.0041556124864957945 0.011757726719391992 0 0.0047893121989331716 0.011245818083137297 0 0.0052229248794352524 0.011387516147978017 0 0.005133025865843301 0.011433610431769135 0 0.0031204710415779755 0.012362430832618258 0 0.0031022753944711726 0.012371532585023154 0 0.0031022753944711726 0.012371532585023154 0 0.0020260123292993844 0.012762526076030309 0 0.0026239028428139393 0.011803395912559916 0 0.003225437488884788 0.011494546918154346 0 0.0024593304784888241 0.011398414751467988 0 0.0052229248794352524 0.011387516147978017 0 0.005132380764745279 0.011433900352063984 0 0.0054090005376617378 0.011581439216179049 0 0.0024799436993298233 0.012699514552422917 0 0.003093331244752372 0.01303054773889689 0 0.0018786561841752124 0.013654437853479622 0 0.0031022753944711726 0.012371532585023154 0 0.003315924515504132 0.011783593650324482 0 0.0026239028428139393 0.011803395912559916 0 0.0023797931598965724 0.011672753176674842 0 0.0024593304784888241 0.011398414751467988 0 0.0020260123292993844 0.012762526076030309 0 0.0015778376164143927 0.01435401167862059 0 0.0024799436993298233 0.012699514552422917 0 0.0016506602575954361 0.01312865941513083 0 0.0018786561841752124 0.013654437853479622 0 0.003226134810469827 0.014514312958386531 0 0.0035426208847007179 0.015243809543540873 0 0.0013497955871694203 0.015487806390026662 0 0.0023401745230322967 0.014185817471870029 0 0.0020260123292993844 0.012762526076030309 0 0.0005822801675487827 0.0043051621599418327 0 7.1706858910571702e-05 0.0054487680997587834 0 -0.00083147128539839412 0.0050079734249042383 0 0.0005822801675487827 0.0043051621599418327 0 7.1706858910571702e-05 0.0054487680997587834 0 0.0013491065436424942 0.0060657107518182251 0 0.003225437488884788 0.011494546918154346 0 0.0028264640651886859 0.01056559704603241 0 0.0024593304784888241 0.011398414751467988 0 0.0026935765821481123 0.010588166528603267 0 0.0028264640651886859 0.01056559704603241 0 0.0024593304784888241 0.011398414751467988 0 0.0031931142959188957 0.0082939745842834159 0 0.0032573290306089271 0.011196375885239441 0 0.0020260123292993844 0.012762526076030309 0 0.0026916345415778616 0.0081799434789796722 0 0.00072296731691500577 0.017290055149683081 0 0.00086014298151850183 0.017406255498105795 0 0.00071823012342429307 0.017484599525553056 0 0.00060769037281598298 0.020369976004438805 0 0.00084665182522174979 0.019869086860114418 0 0.0032935882257757467 0.024946845334476307 0 0.0029321879030011636 0.02602329881377052 0 0.0032628867943406215 0.027119692264136869 0 0.0008541670781041414 0.017277344290484938 0 0.00072296731691500577 0.017290055149683081 0 0.00086014298151850183 0.017406255498105795 0 0.0014772210903589913 0.016967135714461075 0 0.00084665182522174979 0.019869086860114418 0 0.0012205267704134598 0.022291462017611657 0 0.0010758322742090781 0.020748308095601135 0 0.0008541670781041414 0.017277344290484938 0 0.00099985476815546859 0.017328379772004739 0 0.00086014298151850183 0.017406255498105795 0 0.0035426208847007179 0.015243809543540873 0 0.0013497955871694203 0.015487806390026662 0 0.0015024187826078619 0.016295002069030205 0 0.0023401745230322967 0.014185817471870029 0 0.0014772210903589913 0.016967135714461075 0 0.0013497955871694203 0.015487806390026662 0 0.0015024187826078619 0.016295002069030205 0 -0.00052953333973814875 0.016461428994827089 0 7.1706858910571702e-05 0.0054487680997587834 0 -0.00083147128539839412 0.0050079734249042383 0 -0.00081493885832598198 0.0064154980338338901 0 -0.00083147128539839412 0.0050079734249042383 0 -0.0016107311519680749 0.0062336876341309239 0 -0.00081493885832598198 0.0064154980338338901 0 0.0015778376164143927 0.01435401167862059 0 0.0008145618036279617 0.017852924413706422 0 0.0015024187826078619 0.016295002069030205 0 -0.0005411637803764374 0.017346205774415292 0 -0.00052953333973814875 0.016461428994827089 0 -0.00083147128539839412 0.0050079734249042383 0 -0.0022963257251056115 0.0057270435751514553 0 -0.0016107311519680749 0.0062336876341309239 0 0.0010253940829777076 0.019558655572647576 0 0.0012441379437227223 0.019447203648905571 0 0.0010266968723382276 0.019066282197306519 0 0.0008145618036279617 0.017852924413706422 0 0.00084665182522174979 0.019869086860114418 0 0.00084315694122419696 0.019251800266614921 0 0.0010758322742090781 0.020748308095601135 0 0.00084315694122419696 0.019251800266614921 0 0.0008145618036279617 0.017852924413706422 0 0.0029321879030011636 0.02602329881377052 0 0.0029288948169314331 0.027289189119138337 0 0.0032628867943406215 0.027119692264136869 0 0.0012441379437227223 0.019447203648905571 0 0.0010266968723382276 0.019066282197306519 0 0.001251569080098752 0.018950906481730929 0 0.0010758322742090781 0.020748308095601135 0 0.00084665182522174979 0.019869086860114418 0 -0.0025495765613251999 0.0059122513618755897 0 -0.0023393640860841273 0.0067482545931487328 0 -0.0026715741755360947 0.0078231151527701145 0 0.00084315694122419696 0.019251800266614921 0 -0.00035709899473879077 0.019600373408802461 0 0.0008145618036279617 0.017852924413706422 0 0.00062165615685113858 0.01506978214652579 0 -0.0022963257251056115 0.0057270435751514553 0 -0.0023393640860841273 0.0067482545931487328 0 -0.0016107311519680749 0.0062336876341309239 0 -0.0025495765613251999 0.0059122513618755897 0 -0.0022855670557469778 0.0057830255639017445 0 -0.0023393640860841273 0.0067482545931487328 0 -0.0023393640860841273 0.0067482545931487328 0 -0.0016107311519680749 0.0062336876341309239 0 -0.0016644269561256516 0.0073175636741489025 0 -0.0016107311519680749 0.0062336876341309239 0 -0.00081493885832598198 0.0064154980338338901 0 -0.0016644269561256516 0.0073175636741489025 0 -0.00068334557135522336 0.0081652519883582131 0 -0.0016644269561256516 0.0073175636741489025 0 -0.0017184359851151446 0.0086324683383357317 0 -0.00081493885832598198 0.0064154980338338901 0 -0.00068334557135522336 0.0081652519883582131 0 0.00026002028928614546 0.0076699868746191611 0 -0.00081493885832598198 0.0064154980338338901 0 -0.00068334557135522336 0.0081652519883582131 0 -0.0016644269561256516 0.0073175636741489025 0 -0.0016644269561256516 0.0073175636741489025 0 -0.0026715741755360947 0.0078231151527701145 0 -0.0017184359851151446 0.0086324683383357317 0 -0.0023393640860841273 0.0067482545931487328 0 -0.0016644269561256516 0.0073175636741489025 0 -0.0026715741755360947 0.0078231151527701145 0 0.0016048780979037727 0.0063670202432864233 0 0.00073535199708510293 0.0068569237716662864 0 0.0011829794422190025 0.0077330601518495468 0 0.00081512834706974852 0.0020155377858242884 0 0.0019687999765592556 0.0047608724607992609 0 0.0021883785966621432 0.0028557667725692022 0 0.002817767256085259 0.0076362094483578341 0 0.0023149071815330071 0.0076719538534962836 0 0.002817767256085259 0.0076362094483578341 0 0.0025202674944610867 0.0066576236347926374 0 0.00081512834706974852 0.0020155377858242884 0 0.0010753494525686615 0.0011469362854058182 0 0.0021883785966621432 0.0028557667725692022 0 0.002817767256085259 0.0076362094483578341 0 0.0031931142959188957 0.0082939745842834159 0 0.0031276588979638354 0.0087009673311339193 0 0.0030663050611441532 0.0089123259648665604 0 0.0032084863163170147 0.0088881076882830028 0 0.002817767256085259 0.0076362094483578341 0 0.0026916345415778616 0.0081799434789796722 0 0.0016048780979037727 0.0063670202432864233 0 0.00145854490261716 0.0060166820061003943 0 0.00073535199708510293 0.0068569237716662864 0 0.0031931142959188957 0.0082939745842834159 0 0.0026916345415778616 0.0081799434789796722 0 -0.00081493885832598198 0.0064154980338338901 0 0.00073535199708510293 0.0068569237716662864 0 0.00026002028928614546 0.0076699868746191611 0 -0.00081493885832598198 0.0064154980338338901 0 0.00145854490261716 0.0060166820061003943 0 0.00073535199708510293 0.0068569237716662864 0 7.1706858910571702e-05 0.0054487680997587834 0 -0.00081493885832598198 0.0064154980338338901 0 0.0013491065436424942 0.0060657107518182251 0 0.00082918106126831075 0.007807170859180328 0 0.0026916345415778616 0.0081799434789796722 0 0.00026002028928614546 0.0076699868746191611 0 0.0011829794422190025 0.0077330601518495468 0 0.00090386570719490789 0.0089697778560444991 0 0.00073535199708510293 0.0068569237716662864 0 0.00026002028928614546 0.0076699868746191611 0 0.0011829794422190025 0.0077330601518495468 0 0.0020279947506879042 0.0047427540726866294 0 0.0014557229325905374 0.0066399714009846471 0 0.0027550327973811803 0.0064182769416593127 0 0.0014557229325905374 0.0066399714009846471 0 0.0027550327973811803 0.0064182769416593127 0 0.0022721737006371791 0.0078476476786645717 0 0.0019687999765592556 0.0047608724607992609 0 0.004228143488486936 0.0056100586531855024 0 0.0034295739340837305 0.0078075480931450482 0 0.0025202674944610867 0.0066576236347926374 0 0.0026414445702639339 0.0068381677143601535 0 0.004228143488486936 0.0056100586531855024 0 0.0034272825194009257 0.0040131767772256886 0 0.0056656150482239332 0.004251160120363957 0 0.0019687999765592556 0.0047608724607992609 0 0.0034272825194009257 0.0040131767772256886 0 0.0021883785966621432 0.0028557667725692022 0 0.0019687999765592556 0.0047608724607992609 0 0.004228143488486936 0.0056100586531855024 0 0.0034272825194009257 0.0040131767772256886 0 0.0034272825194009257 0.0040131767772256886 0 0.0021883785966621432 0.0028557667725692022 0 0.0036693346040794512 0.0023791288531388203 0 0.0010753494525686615 0.0011469362854058182 0 0.0036693346040794512 0.0023791288531388203 0 0.0056779934763963435 0.00033347216549191235 0 0.0034272825194009257 0.0040131767772256886 0 0.0036693346040794512 0.0023791288531388203 0 0.0056656150482239332 0.004251160120363957 0 0.0010753494525686615 0.0011469362854058182 0 0.0021883785966621432 0.0028557667725692022 0 0.0036693346040794512 0.0023791288531388203 0 0.0036693346040794512 0.0023791288531388203 0 0.0067345504804199804 0.0023532865267917973 0 0.0056656150482239332 0.004251160120363957 0 0.0036693346040794512 0.0023791288531388203 0 0.0067345504804199804 0.0023532865267917973 0 0.0056779934763963435 0.00033347216549191235 0 0.0067345504804199804 0.0023532865267917973 0 0.0087029400587281015 0.0013183277867191115 0 0.0056779934763963435 0.00033347216549191235 0 0.0067345504804199804 0.0023532865267917973 0 0.0056656150482239332 0.004251160120363957 0 0.0074175168263141845 0.0038579720477004923 0 0.0056656150482239332 0.004251160120363957 0 0.0073971253809400729 0.0053518734950608032 0 0.0074175168263141845 0.0038579720477004923 0 0.004228143488486936 0.0056100586531855024 0 0.0056656150482239332 0.004251160120363957 0 0.0060500078419180609 0.0060849523957370068 0 0.0056656150482239332 0.004251160120363957 0 0.0060500078419180609 0.0060849523957370068 0 0.0073971253809400729 0.0053518734950608032 0 0.0060500078419180609 0.0060849523957370068 0 0.0073971253809400729 0.0053518734950608032 0 0.0075902459318894985 0.0065717882087571611 0 0.0073971253809400729 0.0053518734950608032 0 0.0083985159493163795 0.0059915098925936326 0 0.0075902459318894985 0.0065717882087571611 0 0.0073971253809400729 0.0053518734950608032 0 0.0083985159493163795 0.0059915098925936326 0 0.0084965284228669894 0.0047864815174092174 0 0.0083985159493163795 0.0059915098925936326 0 0.0092579540759142424 0.0064365220031215673 0 0.0084965284228669894 0.0047864815174092174 0 0.0092579540759142424 0.0064365220031215673 0 0.0084965284228669894 0.0047864815174092174 0 0.0093325799441693752 0.0034721641282930362 0 0.0084965284228669894 0.0047864815174092174 0 0.0093325799441693752 0.0034721641282930362 0 0.0085537497134890901 0.0029592517987612759 0 0.0084965284228669894 0.0047864815174092174 0 0.0074175168263141845 0.0038579720477004923 0 0.0085537497134890901 0.0029592517987612759 0 0.0073971253809400729 0.0053518734950608032 0 0.0084965284228669894 0.0047864815174092174 0 0.0074175168263141845 0.0038579720477004923 0 0.0092579540759142424 0.0064365220031215673 0 0.0093325799441693752 0.0034721641282930362 0 0.010945754952301885 0.0011564382282246381 0 0.011130978854657463 0.00090277333041494285 0 0.011040615582836607 0.0010598959989804105 0 0.010945754952301885 0.0011564382282246381 0 0.010062860533018017 0.0028906914790986339 0 0.010364350409244456 0.0022496238835877473 0 0.011031692298047137 0.00090692496769673083 0 0.011055331159448773 0.00095203794892555768 0 0.011031536407103224 0.00096397692160210828 0 0.011031692298047137 0.00090692496769673083 0 0.011061569575019511 0.00090181832606100836 0 0.011033641260152232 0.00087144486187473952 0 0.011031692298047137 0.00090692496769673083 0 0.011061569575019511 0.00090181832606100836 0 0.011055331159448773 0.00095203794892555768 0 0.011130978854657463 0.00090277333041494285 0 0.011055331159448773 0.00095203794892555768 0 0.011040615582836607 0.0010598959989804105 0 0.011130978854657463 0.00090277333041494285 0 0.011061569575019511 0.00090181832606100836 0 0.011055331159448773 0.00095203794892555768 0 0.011055331159448773 0.00095203794892555768 0 0.011040615582836607 0.0010598959989804105 0 0.011031536407103224 0.00096397692160210828 0 0.011040615582836607 0.0010598959989804105 0 0.011031536407103224 0.00096397692160210828 0 0.011027580454391527 0.00099701949587274762 0 0.011040615582836607 0.0010598959989804105 0 0.011060495427072792 0.0011995163619227609 0 0.010945754952301885 0.0011564382282246381 0 0.011040615582836607 0.0010598959989804105 0 0.011036122471729777 0.0010689220147335633 0 0.011027580454391527 0.00099701949587274762 0 0.011040615582836607 0.0010598959989804105 0 0.011036122471729777 0.0010689220147335633 0 0.011060495427072792 0.0011995163619227609 0 0.0093325799441693752 0.0034721641282930362 0 0.010945754952301885 0.0011564382282246381 0 0.0095291089664524438 0.0020597160049624806 0 0.010945754952301885 0.0011564382282246381 0 0.0098888895444572428 0.0010731993643485513 0 0.0095291089664524438 0.0020597160049624806 0 0.0067345504804199804 0.0023532865267917973 0 0.0074175168263141845 0.0038579720477004923 0 0.0085537497134890901 0.0029592517987612759 0 0.0067345504804199804 0.0023532865267917973 0 0.0085537497134890901 0.0029592517987612759 0 0.0087029400587281015 0.0013183277867191115 0 0.0085537497134890901 0.0029592517987612759 0 0.0095291089664524438 0.0020597160049624806 0 0.0087029400587281015 0.0013183277867191115 0 0.0093325799441693752 0.0034721641282930362 0 0.0085537497134890901 0.0029592517987612759 0 0.0095291089664524438 0.0020597160049624806 0 0.0098888895444572428 0.0010731993643485513 0 0.0095291089664524438 0.0020597160049624806 0 0.0087029400587281015 0.0013183277867191115 0 0.0087712446187633523 0.013032132238520353 0 0.0066771130214038328 0.011550778403628132 0 0.0065332437179018666 0.013273438975004132 0 0.0092655059808253552 0.0066695186976931829 0 0.0062218297333241131 0.0073053243921031236 0 0.0087029400587281015 0.0013183277867191115 0 0.010181203481273207 -0.00034259318288919449 0 0.0056779934763963435 0.00033347216549191235 0 0.0098888895444572428 0.0010731993643485513 0 0.0087029400587281015 0.0013183277867191115 0 0.010181203481273207 -0.00034259318288919449 0 0.0087712446187633523 0.013032132238520353 0 0.0098717887676035652 0.011755803350666028 0 0.01130230331711311 0.012703726913388939 0 0.010945754952301885 0.0011564382282246381 0 0.010181203481273207 -0.00034259318288919449 0 0.012939566423935144 -0.0005372339799423184 0 0.010945754952301885 0.0011564382282246381 0 0.0098888895444572428 0.0010731993643485513 0 0.010181203481273207 -0.00034259318288919449 0 0.0097540508933161123 0.010168423905940796 0 0.0086292698994264831 0.011262401559647322 0 0.0098717887676035652 0.011755803350666028 0 0.0087712446187633523 0.013032132238520353 0 0.0086292698994264831 0.011262401559647322 0 0.0098717887676035652 0.011755803350666028 0 0.0087712446187633523 0.013032132238520353 0 0.0086292698994264831 0.011262401559647322 0 0.0066771130214038328 0.011550778403628132 0 0.0066771130214038328 0.011550778403628132 0 0.0058977845273331473 0.012296205718977903 0 0.0065332437179018666 0.013273438975004132 0 0.0066771130214038328 0.011550778403628132 0 0.0058706902165561519 0.011474730639543169 0 0.0058977845273331473 0.012296205718977903 0 0.0058706902165561519 0.011474730639543169 0 0.0053117410295649217 0.011637542790219842 0 0.0051354919105892202 0.012089303362459317 0 0.003315924515504132 0.011783593650324482 0 0.0032573290306089271 0.011196375885239441 0 0.0051354919105892202 0.012089303362459317 0 0.0058977845273331473 0.012296205718977903 0 0.0055490601398084007 0.012779268392677456 0 0.0058706902165561519 0.011474730639543169 0 0.0051354919105892202 0.012089303362459317 0 0.0058977845273331473 0.012296205718977903 0 0.0046684734692563233 0.013491323457828578 0 0.0051354919105892202 0.012089303362459317 0 0.0055490601398084007 0.012779268392677456 0 0.0046684734692563233 0.013491323457828578 0 0.0055490601398084007 0.012779268392677456 0 0.0065332437179018666 0.013273438975004132 0 0.0058977845273331473 0.012296205718977903 0 0.0055490601398084007 0.012779268392677456 0 0.0065332437179018666 0.013273438975004132 0 0.0031931142959188957 0.0082939745842834159 0 0.0062218297333241131 0.0073053243921031236 0 -0.0078609777367895962 0.02802181350965173 0 -0.0074150754358737513 0.028642084623296531 0 -0.0073008822212675536 0.027817495236894103 0 -0.0074150754358737513 0.028642084623296531 0 -0.0068081026565869149 0.028581214495503562 0 -0.0073008822212675536 0.027817495236894103 0 -0.0068081026565869149 0.028581214495503562 0 -0.0065325087297934473 0.027657735983306769 0 -0.005760516709148439 0.028801297302677397 0 -0.0068081026565869149 0.028581214495503562 0 -0.0065325087297934473 0.027657735983306769 0 -0.0073008822212675536 0.027817495236894103 0 -0.0065325087297934473 0.027657735983306769 0 -0.0073008822212675536 0.027817495236894103 0 -0.0072054035472991313 0.026883283283766872 0 -0.0065325087297934473 0.027657735983306769 0 -0.0072054035472991313 0.026883283283766872 0 -0.0066180565815162238 0.02624864726399655 0 -0.0078609777367895962 0.02802181350965173 0 -0.0073008822212675536 0.027817495236894103 0 -0.0076986254959091529 0.027216507968838309 0 -0.0073008822212675536 0.027817495236894103 0 -0.0076986254959091529 0.027216507968838309 0 -0.0072054035472991313 0.026883283283766872 0 -0.0076986254959091529 0.027216507968838309 0 -0.0076097710201900523 0.026276556759684225 0 -0.0072054035472991313 0.026883283283766872 0 -0.0079226037445884363 0.02683536328745164 0 -0.0076986254959091529 0.027216507968838309 0 -0.0076097710201900523 0.026276556759684225 0 -0.0076097710201900523 0.026276556759684225 0 -0.00706800490215661 0.025623726826756985 0 -0.0072054035472991313 0.026883283283766872 0 -0.0077287344875148411 0.025248939167691817 0 -0.0076097710201900523 0.026276556759684225 0 -0.00706800490215661 0.025623726826756985 0 -0.00706800490215661 0.025623726826756985 0 -0.0072054035472991313 0.026883283283766872 0 -0.0066180565815162238 0.02624864726399655 0 -0.0066180565815162238 0.02624864726399655 0 -0.0065882455625810724 0.024928149688750543 0 -0.0065534856866648061 0.025161613353040926 0 -0.0061128107650493925 0.025628580737799167 0 -0.0055931182557488173 0.02559051914229107 0 -0.00706800490215661 0.025623726826756985 0 -0.0066180565815162238 0.02624864726399655 0 -0.0065882455625810724 0.024928149688750543 0 -0.0065882455625810724 0.024928149688750543 0 -0.0065534856866648061 0.025161613353040926 0 -0.0064436495712081694 0.024580711665446779 0 -0.0048288858549392286 0.026595630114713501 0 -0.0053944148187128676 0.0276714475634381 0 -0.0042410580832304492 0.027627599031618263 0 -0.0066180565815162238 0.02624864726399655 0 -0.0048288858549392286 0.026595630114713501 0 -0.0053944148187128676 0.0276714475634381 0 -0.0065325087297934473 0.027657735983306769 0 -0.0066180565815162238 0.02624864726399655 0 -0.0053944148187128676 0.0276714475634381 0 -0.0065325087297934473 0.027657735983306769 0 -0.0053944148187128676 0.0276714475634381 0 -0.005760516709148439 0.028801297302677397 0 -0.0053944148187128676 0.0276714475634381 0 -0.0046805981842586971 0.02844136468108583 0 -0.0042410580832304492 0.027627599031618263 0 -0.0053944148187128676 0.0276714475634381 0 -0.0046805981842586971 0.02844136468108583 0 -0.005760516709148439 0.028801297302677397 0 -0.0039294443330639356 0.02832270863450502 0 -0.0032299307426287369 0.027792750653543634 0 -0.0042410580832304492 0.027627599031618263 0 -0.0046805981842586971 0.02844136468108583 0 -0.0039294443330639356 0.02832270863450502 0 -0.0042410580832304492 0.027627599031618263 0 -0.0046805981842586971 0.02844136468108583 0 -0.0039294443330639356 0.02832270863450502 0 -0.0041732412904335586 0.02886618650644044 0 -0.0039294443330639356 0.02832270863450502 0 -0.0032882933354754559 0.028717743900553507 0 -0.0032299307426287369 0.027792750653543634 0 -0.0039294443330639356 0.02832270863450502 0 -0.0032882933354754559 0.028717743900553507 0 -0.0041732412904335586 0.02886618650644044 0 -0.0025762474230994741 0.027916937551856178 0 -0.0015400847923911077 0.026800084700288287 0 -0.0020215626906148424 0.028095424552775514 0 -0.0030070986166103992 0.027923573115747457 0 -0.0018083632934759732 0.026206407526604938 0 -0.0032882933354754559 0.028717743900553507 0 -0.0032299307426287369 0.027792750653543634 0 -0.0023067241046260032 0.027679361853658289 0 -0.0043660661394033405 0.025500629749536784 0 -0.0018692620641175127 0.025415447404685813 0 -0.0032299307426287369 0.027792750653543634 0 -0.0034564609813862758 0.02689011212775216 0 -0.0023067241046260032 0.027679361853658289 0 -0.0034564609813862758 0.02689011212775216 0 -0.0020984225608883561 0.027116049033554405 0 -0.0023067241046260032 0.027679361853658289 0 -0.0048288858549392286 0.026595630114713501 0 -0.0034564609813862758 0.02689011212775216 0 -0.0042410580832304492 0.027627599031618263 0 -0.0032299307426287369 0.027792750653543634 0 -0.0034564609813862758 0.02689011212775216 0 -0.0042410580832304492 0.027627599031618263 0 -0.0055931182557488173 0.02559051914229107 0 -0.0043660661394033405 0.025500629749536784 0 -0.0065534856866648061 0.025161613353040926 0 -0.0063414089273352431 0.02475228460714466 0 -0.0064436495712081694 0.024580711665446779 0 -0.0064436495712081694 0.024580711665446779 0 -0.0063789916115898106 0.023973169058359327 0 -0.0062805669034454257 0.023912503439240385 0 -0.0065882455625810724 0.024928149688750543 0 -0.0064436495712081694 0.024580711665446779 0 -0.0063789916115898106 0.023973169058359327 0 -0.0064436495712081694 0.024580711665446779 0 -0.0062805669034454257 0.023912503439240385 0 -0.0061970426563731553 0.024378109109230477 0 -0.0061174207607268341 0.022936171997387608 0 -0.0062805669034454257 0.023912503439240385 0 -0.0061024724529595755 0.023939099533191042 0 -0.0062805669034454257 0.023912503439240385 0 -0.0061024724529595755 0.023939099533191042 0 -0.0061970426563731553 0.024378109109230477 0 -0.0063414089273352431 0.02475228460714466 0 -0.005935955413656149 0.024554144999318826 0 -0.005828750578130459 0.024782564781734892 0 -0.0063414089273352431 0.02475228460714466 0 -0.0064436495712081694 0.024580711665446779 0 -0.0061970426563731553 0.024378109109230477 0 -0.0061024724529595755 0.023939099533191042 0 -0.0061970426563731553 0.024378109109230477 0 -0.0058802616431287702 0.024302197470183987 0 -0.0063414089273352431 0.02475228460714466 0 -0.0061970426563731553 0.024378109109230477 0 -0.005935955413656149 0.024554144999318826 0 -0.005935955413656149 0.024554144999318826 0 -0.0056807548295328379 0.024421365399586684 0 -0.005828750578130459 0.024782564781734892 0 0.0012019750559915656 0.021569040105021087 0 0.0013389088482516883 0.022982966804289674 0 0.00071547097008379742 0.022884673760817761 0 -0.00091316914410280046 0.023078028026088913 0 -0.0018692620641175127 0.025415447404685813 0 -0.0054675021526622933 0.024554389571996012 0 -0.0058802616431287702 0.024302197470183987 0 -0.0051312301934924118 0.024068368164772362 0 -0.00091316914410280046 0.023078028026088913 0 -0.0012807800779091807 0.022982996894450609 0 -0.005935955413656149 0.024554144999318826 0 -0.0056807548295328379 0.024421365399586684 0 -0.0058802616431287702 0.024302197470183987 0 -0.0061970426563731553 0.024378109109230477 0 -0.005935955413656149 0.024554144999318826 0 -0.0058802616431287702 0.024302197470183987 0 -0.00594455788567326 0.020455780336790439 0 -0.0059395430333803855 0.023511500536345598 0 -0.0051312301934924118 0.024068368164772362 0 -0.0061024724529595755 0.023939099533191042 0 -0.0058802616431287702 0.024302197470183987 0 -0.0059395430333803855 0.023511500536345598 0 -0.00091316914410280046 0.023078028026088913 0 -0.0013716577685116268 0.023634084788029076 0 -0.0058802616431287702 0.024302197470183987 0 -0.0059395430333803855 0.023511500536345598 0 -0.0051312301934924118 0.024068368164772362 0 -0.0061174207607268341 0.022936171997387608 0 -0.0061024724529595755 0.023939099533191042 0 -0.0059395430333803855 0.023511500536345598 0 -0.00057372069598671336 0.024937138086974717 0 -0.0029829187377026336 0.022444103181563625 0 -0.0030192598397745197 0.026325724115059547 0 -0.0029829187377026336 0.022444103181563625 0 -0.0051312301934924118 0.024068368164772362 0 -0.0030192598397745197 0.026325724115059547 0 -0.00594455788567326 0.020455780336790439 0 -0.0029829187377026336 0.022444103181563625 0 -0.0051312301934924118 0.024068368164772362 0 -0.00070252424373799772 0.030217555310705486 0 -0.00622551967623719 0.027310433060406543 0 -0.0030192598397745197 0.026325724115059547 0 0.0033147887817224736 0.022706268865062433 0 0.0012019750559915656 0.021569040105021087 0 0.0020326277156508194 0.022845042766203139 0 -0.0003343104673827042 0.018834843758850996 0 -0.00091316914410280046 0.023078028026088913 0 -0.00622551967623719 0.027310433060406543 0 -0.0051312301934924118 0.024068368164772362 0 -0.0030192598397745197 0.026325724115059547 0 0.0012019750559915656 0.021569040105021087 0 0.0020326277156508194 0.022845042766203139 0 0.0013389088482516883 0.022982966804289674 0 0.0033147887817224736 0.022706268865062433 0 0.0020406367020173372 0.023741423828019456 0 0.0020326277156508194 0.022845042766203139 0 0.0033147887817224736 0.022706268865062433 0 0.0020406367020173372 0.023741423828019456 0 0.002527046125656789 0.024334853091896192 0 0.0020406367020173372 0.023741423828019456 0 0.0016319704082919193 0.023407770279679132 0 0.0020326277156508194 0.022845042766203139 0 0.0015402226534991636 0.02389272756535657 0 0.0020406367020173372 0.023741423828019456 0 0.0016319704082919193 0.023407770279679132 0 0.0016319704082919193 0.023407770279679132 0 0.0020326277156508194 0.022845042766203139 0 0.0013389088482516883 0.022982966804289674 0 -0.0016774272989344505 0.025391137813343231 0 -0.0018692620641175127 0.025415447404685813 0 0.0013389088482516883 0.022982966804289674 0 0.00071744865460084616 0.022884446335545074 0 0.00096922171530354798 0.023234877655298324 0 0.00071744865460084616 0.022884446335545074 0 0.00062795647103406379 0.023500104602458383 0 0.00096922171530354798 0.023234877655298324 0 0.00071744865460084616 0.022884446335545074 0 0.00062795647103406379 0.023500104602458383 0 0.00039808158357403144 0.023748251072818128 0 -0.0018692620641175127 0.025415447404685813 0 -0.0018083632934759732 0.026206407526604938 0 0.00062795647103406379 0.023500104602458383 0 0.0004007773410619969 0.023744083997435592 0 0.00080569732403839862 0.023856778130099326 0 -0.0017572367514868631 0.026150886904343737 0 -0.0018083632934759732 0.026206407526604938 0 0.0016319704082919193 0.023407770279679132 0 0.0013389088482516883 0.022982966804289674 0 0.0012082787127541735 0.023575925995955607 0 0.0013389088482516883 0.022982966804289674 0 0.00096922171530354798 0.023234877655298324 0 0.0012082787127541735 0.023575925995955607 0 0.00062795647103406379 0.023500104602458383 0 0.00096922171530354798 0.023234877655298324 0 0.0012082787127541735 0.023575925995955607 0 0.00080569732403839862 0.023856778130099326 0 0.0012082787127541735 0.023575925995955607 0 0.0011095934900794103 0.024165996776550795 0 0.00062795647103406379 0.023500104602458383 0 0.00080569732403839862 0.023856778130099326 0 0.0012082787127541735 0.023575925995955607 0 0.0015402226534991636 0.02389272756535657 0 0.0016319704082919193 0.023407770279679132 0 0.0012082787127541735 0.023575925995955607 0 0.0015402226534991636 0.02389272756535657 0 0.0012082787127541735 0.023575925995955607 0 0.0011095934900794103 0.024165996776550795 0 0.0011095934900794103 0.024165996776550795 0 0.00090964669201746033 0.024714764331660841 0 0.0016481396449228732 0.024623461869694139 0 0.0004007773410619969 0.023744083997435592 0 0.0003618037703753185 0.024776631707317035 0 -0.00029179597527752873 0.025583922701230614 0 -0.0018083632934759732 0.026206407526604938 0 -0.0015723688875288236 0.026945733352253167 0 0.0015402226534991636 0.02389272756535657 0 0.0011095934900794103 0.024165996776550795 0 0.0016481396449228732 0.024623461869694139 0 0.00080569732403839862 0.023856778130099326 0 0.0011095934900794103 0.024165996776550795 0 0.00070955162029842558 0.024254813164187441 0 0.0011095934900794103 0.024165996776550795 0 0.00070955162029842558 0.024254813164187441 0 0.00090964669201746033 0.024714764331660841 0 0.0004007773410619969 0.023744083997435592 0 0.00070955162029842558 0.024254813164187441 0 0.0003618037703753185 0.024776631707317035 0 0.0004007773410619969 0.023744083997435592 0 0.00080569732403839862 0.023856778130099326 0 0.00070955162029842558 0.024254813164187441 0 0.00070955162029842558 0.024254813164187441 0 0.0003618037703753185 0.024776631707317035 0 0.00090964669201746033 0.024714764331660841 0 0.0003618037703753185 0.024776631707317035 0 0.00026748909394632819 0.025320148606500247 0 -0.00029179597527752873 0.025583922701230614 0 0.0003618037703753185 0.024776631707317035 0 0.00060630759543203955 0.02519017466737155 0 0.00090964669201746033 0.024714764331660841 0 0.0003618037703753185 0.024776631707317035 0 0.00060630759543203955 0.02519017466737155 0 0.00026748909394632819 0.025320148606500247 0 0.0010918926965029247 0.025350445849274698 0 0.0016672259050933785 0.025348035939168571 0 0.0016481396449228732 0.024623461869694139 0 0.00090964669201746033 0.024714764331660841 0 0.0010918926965029247 0.025350445849274698 0 0.0016481396449228732 0.024623461869694139 0 0.00060630759543203955 0.02519017466737155 0 0.00090964669201746033 0.024714764331660841 0 0.0010918926965029247 0.025350445849274698 0 0.002527046125656789 0.024334853091896192 0 0.0016481396449228732 0.024623461869694139 0 0.0023020741060167894 0.025375194522994499 0 0.0016672259050933785 0.025348035939168571 0 0.0016481396449228732 0.024623461869694139 0 0.0023020741060167894 0.025375194522994499 0 0.0032935882257757467 0.024946845334476307 0 0.002527046125656789 0.024334853091896192 0 0.0023020741060167894 0.025375194522994499 0 0.0015402226534991636 0.02389272756535657 0 0.0020406367020173372 0.023741423828019456 0 0.0016481396449228732 0.024623461869694139 0 0.0020406367020173372 0.023741423828019456 0 0.002527046125656789 0.024334853091896192 0 0.0016481396449228732 0.024623461869694139 0 0.0021104082759557633 0.026283800480314656 0 0.0016140651329590587 0.025908797745818654 0 0.0014975518321482687 0.026513416038800662 0 0.0021104082759557633 0.026283800480314656 0 0.0014975518321482687 0.026513416038800662 0 0.0018415197224452605 0.027013631283356425 0 0.0021104082759557633 0.026283800480314656 0 0.0024890320039203471 0.026779787874602536 0 0.0018415197224452605 0.027013631283356425 0 0.0029321879030011636 0.02602329881377052 0 0.0029504264833671726 0.027369415212718691 0 0.0024890320039203471 0.026779787874602536 0 0.0029321879030011636 0.02602329881377052 0 0.0021104082759557633 0.026283800480314656 0 0.0024890320039203471 0.026779787874602536 0 0.0029321879030011636 0.02602329881377052 0 0.0021104082759557633 0.026283800480314656 0 0.0023020741060167894 0.025375194522994499 0 0.0032935882257757467 0.024946845334476307 0 0.0029321879030011636 0.02602329881377052 0 0.0023020741060167894 0.025375194522994499 0 0.0021104082759557633 0.026283800480314656 0 0.0023020741060167894 0.025375194522994499 0 0.0016140651329590587 0.025908797745818654 0 0.0016672259050933785 0.025348035939168571 0 0.0023020741060167894 0.025375194522994499 0 0.0016140651329590587 0.025908797745818654 0 0.0010918926965029247 0.025350445849274698 0 0.0016672259050933785 0.025348035939168571 0 0.0016140651329590587 0.025908797745818654 0 0.0010918926965029247 0.025350445849274698 0 0.0016140651329590587 0.025908797745818654 0 0.0010906684800697385 0.026136267967451006 0 0.0010918926965029247 0.025350445849274698 0 0.0004004436692950172 0.025791773708169052 0 0.0010906684800697385 0.026136267967451006 0 0.00026748909394632819 0.025320148606500247 0 0.0004004436692950172 0.025791773708169052 0 -0.00029179597527752873 0.025583922701230614 0 0.00060630759543203955 0.02519017466737155 0 0.0010918926965029247 0.025350445849274698 0 0.0004004436692950172 0.025791773708169052 0 0.00060630759543203955 0.02519017466737155 0 0.00026748909394632819 0.025320148606500247 0 0.0004004436692950172 0.025791773708169052 0 0.0010906684800697385 0.026136267967451006 0 0.0014975518321482687 0.026513416038800662 0 0.00086291528800766276 0.027019243543234157 0 0.0004004436692950172 0.025791773708169052 0 0.0010906684800697385 0.026136267967451006 0 0.00086291528800766276 0.027019243543234157 0 0.0016140651329590587 0.025908797745818654 0 0.0010906684800697385 0.026136267967451006 0 0.0014975518321482687 0.026513416038800662 0 0.00086291528800766276 0.027019243543234157 0 7.2630422059456897e-05 0.027754133967253226 0 0.0016034359493762595 0.02809089558805496 0 0.0014975518321482687 0.026513416038800662 0 0.00086291528800766276 0.027019243543234157 0 0.0018415197224452605 0.027013631283356425 0 0.0004004436692950172 0.025791773708169052 0 0.00086291528800766276 0.027019243543234157 0 7.2630422059456897e-05 0.027754133967253226 0 0.00086291528800766276 0.027019243543234157 0 0.0016034359493762595 0.02809089558805496 0 0.0018415197224452605 0.027013631283356425 0 7.2630422059456897e-05 0.027754133967253226 0 0.0016034359493762595 0.02809089558805496 0 0.00026760879042093125 0.028833450170720139 0 0.0016034359493762595 0.02809089558805496 0 0.0022209935897094658 0.027313479710553628 0 0.0018415197224452605 0.027013631283356425 0 0.0024890320039203471 0.026779787874602536 0 0.0022209935897094658 0.027313479710553628 0 0.0018415197224452605 0.027013631283356425 0 0.0029504264833671726 0.027369415212718691 0 0.0024890320039203471 0.026779787874602536 0 0.0022209935897094658 0.027313479710553628 0 0.0010758322742090781 0.020748308095601135 0 0.00027651176049542234 0.023040437785598829 0 0.0033385869862876242 0.028043203356915163 0 0.0033393889965075401 0.027153481787160538 0 0.0017829037362183079 0.027982813715747724 0 0.0029504264833671726 0.027369415212718691 0 0.0016034359493762595 0.02809089558805496 0 0.0022209935897094658 0.027313479710553628 0 0.00084315694122419696 0.019251800266614921 0 -0.0012495129939123347 0.024748032586268016 0 6.8375848303760064e-05 0.030086760527969627 0 -0.00015601680085448083 0.030463928169762615 0 -0.00051272240922314752 0.030405977161693621 0 0.0033385869862876242 0.028043203356915163 0 0.0017829037362183079 0.027982813715747724 0 0.00098211040943733561 0.029287302448882276 0 6.8375848303760064e-05 0.030086760527969627 0 2.9181588072041303e-05 0.030838722060256497 0 -0.00015601680085448083 0.030463928169762615 0 -0.00015601680085448083 0.030463928169762615 0 -0.00037782137616060291 0.030705911975725045 0 -0.00051272240922314752 0.030405977161693621 0 2.9181588072041303e-05 0.030838722060256497 0 -0.00015601680085448083 0.030463928169762615 0 -0.00037782137616060291 0.030705911975725045 0 2.9181588072041303e-05 0.030838722060256497 0 -0.00037782137616060291 0.030705911975725045 0 -0.00057538667894608154 0.031110025935063183 0 -0.00069203006993383807 0.030754866119353769 0 -0.00086288899526093673 0.031127487827638838 0 -0.00057538667894608154 0.031110025935063183 0 -0.00069203006993383807 0.030754866119353769 0 -0.00037782137616060291 0.030705911975725045 0 -0.00057538667894608154 0.031110025935063183 0 -0.00069203006993383807 0.030754866119353769 0 -0.00037782137616060291 0.030705911975725045 0 -0.00051272240922314752 0.030405977161693621 0 0.00098211040943733561 0.029287302448882276 0 0.00026760879042093125 0.028833450170720139 0 -0.00047381294531324933 0.029341315101453453 0 0.00027651176049542234 0.023040437785598829 0 -0.00011941412689583244 0.0238299451921462 0 0.0017829037362183079 0.027982813715747724 0 0.00098211040943733561 0.029287302448882276 0 0.00026760879042093125 0.028833450170720139 0 7.2630422059456897e-05 0.027754133967253226 0 0.00026760879042093125 0.028833450170720139 0 -0.0005785590480185997 0.02856877664744974 0 -0.0005785590480185997 0.02856877664744974 0 -0.0017479860407664648 0.029706813769724283 0 -0.00098395609154163736 0.027461983488886049 0 0.00026760879042093125 0.028833450170720139 0 -0.0005785590480185997 0.02856877664744974 0 -0.00047381294531324933 0.029341315101453453 0 0.00098211040943733561 0.029287302448882276 0 -0.00047381294531324933 0.029341315101453453 0 -0.0012078598582165962 0.03046132406190552 0 -0.001712569135031337 0.028567026224867287 0 -0.0016251441059530105 0.028068956802317517 0 -0.0005785590480185997 0.02856877664744974 0 -0.00047381294531324933 0.029341315101453453 0 -0.0017479860407664648 0.029706813769724283 0 -0.00047381294531324933 0.029341315101453453 0 -0.0012078598582165962 0.03046132406190552 0 -0.0017479860407664648 0.029706813769724283 0 -0.0012495129939123347 0.024748032586268016 0 -0.0018826580721152952 0.026311217582352112 0 -0.00069203006993383807 0.030754866119353769 0 -0.00051272240922314752 0.030405977161693621 0 -0.0012078598582165962 0.03046132406190552 0 -0.00069203006993383807 0.030754866119353769 0 -0.0012078598582165962 0.03046132406190552 0 -0.00086288899526093673 0.031127487827638838 0 -0.0021091967081948077 0.030665667766152278 0 -0.0022792545572240036 0.029368166882373408 0 -0.0036332887396645611 0.030814177713385724 0 -0.0012078598582165962 0.03046132406190552 0 -0.0021091967081948077 0.030665667766152278 0 -0.0012064241400920124 0.03159785486997789 0 -0.0021091967081948077 0.030665667766152278 0 -0.0022792545572240036 0.029368166882373408 0 -0.0017479860407664648 0.029706813769724283 0 -0.0012078598582165962 0.03046132406190552 0 -0.0021091967081948077 0.030665667766152278 0 -0.0017479860407664648 0.029706813769724283 0 -0.0029026337003098968 0.029769845939520274 0 -0.0016251441059530105 0.028068956802317517 0 -0.0022792545572240036 0.029368166882373408 0 -0.0017479860407664648 0.029706813769724283 0 -0.0010955194605354827 0.027953580569918864 0 -0.0035067176338864766 0.030585459794779373 0 -0.0036081326314331727 0.029033039563482802 0 -0.0025030538910203017 0.029387439709838561 0 0.0004004436692950172 0.025791773708169052 0 7.2630422059456897e-05 0.027754133967253226 0 -0.00098395609154163736 0.027461983488886049 0 7.2630422059456897e-05 0.027754133967253226 0 -0.0005785590480185997 0.02856877664744974 0 -0.00098395609154163736 0.027461983488886049 0 -0.00080029522758544335 0.027107906975798738 0 -0.0016251441059530105 0.028068956802317517 0 0.0004004436692950172 0.025791773708169052 0 -0.00099568735286289069 0.027474829023213587 0 -0.00029179597527752873 0.025583922701230614 0 -0.0025762474230994741 0.027916937551856178 0 -0.0025030538910203017 0.029387439709838561 0 -0.0020215626906148424 0.028095424552775514 0 -0.0016251441059530105 0.028068956802317517 0 -0.0015723688875288236 0.026945733352253167 0 -0.0032882933354754559 0.028717743900553507 0 -0.0042691167298831044 0.029662099109339791 0 -0.0041732412904335586 0.02886618650644044 0 -0.0030070986166103992 0.027923573115747457 0 -0.0039417796704434979 0.029132786101502179 0 -0.0025762474230994741 0.027916937551856178 0 -0.0036081326314331727 0.029033039563482802 0 -0.0025030538910203017 0.029387439709838561 0 -0.0042691167298831044 0.029662099109339791 0 -0.0041732412904335586 0.02886618650644044 0 -0.0046835406731113539 0.029160311969851565 0 -0.0046805981842586971 0.02844136468108583 0 -0.0046835406731113539 0.029160311969851565 0 -0.005760516709148439 0.028801297302677397 0 -0.0042691167298831044 0.029662099109339791 0 -0.0046835406731113539 0.029160311969851565 0 -0.0052615770486804745 0.029452884664107379 0 -0.0046835406731113539 0.029160311969851565 0 -0.005760516709148439 0.028801297302677397 0 -0.0052615770486804745 0.029452884664107379 0 -0.0046805981842586971 0.02844136468108583 0 -0.0041732412904335586 0.02886618650644044 0 -0.0046835406731113539 0.029160311969851565 0 -0.005760516709148439 0.028801297302677397 0 -0.0052615770486804745 0.029452884664107379 0 -0.005998008745052328 0.02976573492314237 0 -0.005998008745052328 0.02976573492314237 0 -0.0050746948183446119 0.030470817149325147 0 -0.0061375110527840445 0.030541414582897233 0 -0.0052615770486804745 0.029452884664107379 0 -0.005998008745052328 0.02976573492314237 0 -0.0050746948183446119 0.030470817149325147 0 -0.0035067176338864766 0.030585459794779373 0 -0.0036081326314331727 0.029033039563482802 0 -0.0046255728255235754 0.030142800262137066 0 -0.0042691167298831044 0.029662099109339791 0 -0.0052615770486804745 0.029452884664107379 0 -0.0050746948183446119 0.030470817149325147 0 -0.0039417796704434979 0.029132786101502179 0 -0.0047264837520623638 0.030073512958662788 0 -0.0035067176338864766 0.030585459794779373 0 -0.0045631434714426171 0.030931423891869265 0 -0.0046255728255235754 0.030142800262137066 0 -0.0029026337003098968 0.029769845939520274 0 -0.0039269829401684889 0.031063246003508769 0 -0.0035067176338864766 0.030585459794779373 0 -0.0045631434714426171 0.030931423891869265 0 -0.0044960882714249976 0.031739990641161231 0 -0.0044960882714249976 0.031739990641161231 0 -0.0056125869582099213 0.031254415094127644 0 -0.0057831113565920741 0.032027232341770635 0 -0.0045631434714426171 0.030931423891869265 0 -0.0044960882714249976 0.031739990641161231 0 -0.0056125869582099213 0.031254415094127644 0 -0.0050746948183446119 0.030470817149325147 0 -0.0056125869582099213 0.031254415094127644 0 -0.0061375110527840445 0.030541414582897233 0 -0.0047264837520623638 0.030073512958662788 0 -0.0051227288655697478 0.030535964912864585 0 -0.0045631434714426171 0.030931423891869265 0 -0.0046255728255235754 0.030142800262137066 0 -0.0056125869582099213 0.031254415094127644 0 -0.0061375110527840445 0.030541414582897233 0 -0.0064781321604071322 0.031453259221966033 0 -0.0071433103569311287 0.030720367802699225 0 -0.0056125869582099213 0.031254415094127644 0 -0.0064781321604071322 0.031453259221966033 0 -0.0057831113565920741 0.032027232341770635 0 -0.0056125869582099213 0.031254415094127644 0 -0.0061375110527840445 0.030541414582897233 0 -0.0064781321604071322 0.031453259221966033 0 -0.0076245713063937664 0.031810630727978448 0 -0.0064781321604071322 0.031453259221966033 0 -0.0071433103569311287 0.030720367802699225 0 -0.0061375110527840445 0.030541414582897233 0 -0.0071433103569311287 0.030720367802699225 0 -0.0068108788477288214 0.029919766335280099 0 -0.0075868009499056484 0.029960468550333654 0 -0.0068108788477288214 0.029919766335280099 0 -0.0072601428729231129 0.029311398557321993 0 -0.0075868009499056484 0.029960468550333654 0 -0.0071433103569311287 0.030720367802699225 0 -0.0068108788477288214 0.029919766335280099 0 -0.005998008745052328 0.02976573492314237 0 -0.0068108788477288214 0.029919766335280099 0 -0.0065735728066763609 0.029282410734803633 0 -0.005998008745052328 0.02976573492314237 0 -0.0061375110527840445 0.030541414582897233 0 -0.0068108788477288214 0.029919766335280099 0 -0.0068081026565869149 0.028581214495503562 0 -0.005760516709148439 0.028801297302677397 0 -0.0065735728066763609 0.029282410734803633 0 -0.005760516709148439 0.028801297302677397 0 -0.005998008745052328 0.02976573492314237 0 -0.0065735728066763609 0.029282410734803633 0 -0.0074150754358737513 0.028642084623296531 0 -0.0068081026565869149 0.028581214495503562 0 -0.0072601428729231129 0.029311398557321993 0 -0.0068081026565869149 0.028581214495503562 0 -0.0065735728066763609 0.029282410734803633 0 -0.0072601428729231129 0.029311398557321993 0 -0.0078128133924522166 0.029266508118742936 0 -0.0074150754358737513 0.028642084623296531 0 -0.0072601428729231129 0.029311398557321993 0 -0.0068108788477288214 0.029919766335280099 0 -0.0065735728066763609 0.029282410734803633 0 -0.0072601428729231129 0.029311398557321993 0 -0.0065371888802315519 0.038484665418038397 0 -0.0044512594158481284 0.036985621721622328 0 -0.0065381628793445253 0.036068500818598165 0 -0.0065371888802315519 0.038484665418038397 0 -0.0044512594158481284 0.036985621721622328 0 -0.0041275991595313283 0.038898626418080118 0 -0.0044512594158481284 0.036985621721622328 0 -0.0020816241233057066 0.036100832076301437 0 -0.0030362496662711671 0.037812260838061988 0 -0.0044512594158481284 0.036985621721622328 0 -0.0030362496662711671 0.037812260838061988 0 -0.0041275991595313283 0.038898626418080118 0 -0.0030362496662711671 0.037812260838061988 0 -0.002801975193511554 0.038962728443655718 0 -0.0041275991595313283 0.038898626418080118 0 -0.0050397613369430189 0.03406255406071422 0 -0.003123604732887413 0.034405467900626617 0 -0.0044512594158481284 0.036985621721622328 0 -0.0045773256983421976 0.034887105951213734 0 -0.0020816241233057066 0.036100832076301437 0 -0.0075725588088721985 0.033650361673316281 0 -0.0065381628793445253 0.036068500818598165 0 -0.0045773256983421976 0.034887105951213734 0 -0.0044512594158481284 0.036985621721622328 0 -0.0065381628793445253 0.036068500818598165 0 -0.0045773256983421976 0.034887105951213734 0 -0.0075725588088721985 0.033650361673316281 0 -0.0065725276008089424 0.032608114297806384 0 -0.0063154545387088153 0.033891131300261411 0 -0.0060529881705114977 0.033795349756700427 0 -0.0050397613369430189 0.03406255406071422 0 -0.0076245713063937664 0.031810630727978448 0 -0.0064781321604071322 0.031453259221966033 0 -0.0065725276008089424 0.032608114297806384 0 -0.0076245713063937664 0.031810630727978448 0 -0.0075725588088721985 0.033650361673316281 0 -0.0065725276008089424 0.032608114297806384 0 -0.0064781321604071322 0.031453259221966033 0 -0.0065725276008089424 0.032608114297806384 0 -0.0057831113565920741 0.032027232341770635 0 -0.0065725276008089424 0.032608114297806384 0 -0.0057831113565920741 0.032027232341770635 0 -0.0051888804838073404 0.032714347070452385 0 -0.0065725276008089424 0.032608114297806384 0 -0.0063154545387088153 0.033891131300261411 0 -0.0051888804838073404 0.032714347070452385 0 -0.0051888804838073404 0.032714347070452385 0 -0.0034875591211509902 0.033678766528266499 0 -0.0047006958533529737 0.034582561234445058 0 -0.0063154545387088153 0.033891131300261411 0 -0.0051888804838073404 0.032714347070452385 0 -0.0047006958533529737 0.034582561234445058 0 -0.0039269829401684889 0.031063246003508769 0 -0.0044673959458705172 0.031734023848820271 0 -0.0044960882714249976 0.031739990641161231 0 -0.0057831113565920741 0.032027232341770635 0 -0.0051888804838073404 0.032714347070452385 0 -0.0021091967081948077 0.030665667766152278 0 -0.0036332887396645611 0.030814177713385724 0 -0.0028297262509904635 0.032108265344288976 0 -0.0036332887396645611 0.030814177713385724 0 -0.0051888804838073404 0.032714347070452385 0 -0.0028297262509904635 0.032108265344288976 0 -0.0028297262509904635 0.032108265344288976 0 -0.0034875591211509902 0.033678766528266499 0 -0.0019273135506252452 0.033618098846458506 0 -0.0051888804838073404 0.032714347070452385 0 -0.0028297262509904635 0.032108265344288976 0 -0.0034875591211509902 0.033678766528266499 0 -0.003123604732887413 0.034405467900626617 0 -0.0011318231162506468 0.034287406301161436 0 -0.0034875591211509902 0.033678766528266499 0 -0.0047006958533529737 0.034582561234445058 0 -0.0026665085835538274 0.03536902818333891 0 -0.0020816241233057066 0.036100832076301437 0 -0.0030362496662711671 0.037812260838061988 0 -0.0018161321598630113 0.038086998435595869 0 -0.0030362496662711671 0.037812260838061988 0 -0.0018161321598630113 0.038086998435595869 0 -0.002801975193511554 0.038962728443655718 0 -0.0011318231162506468 0.034287406301161436 0 -0.0013227856130476592 0.036197502540584618 0 -0.0020816241233057066 0.036100832076301437 0 -0.0018161321598630113 0.038086998435595869 0 0.00017097770395709601 0.037069240272047992 0 -0.0018161321598630113 0.038086998435595869 0 0.00017097770395709601 0.037069240272047992 0 -0.0010233311444657509 0.039507778310121908 0 0.00097574552116161395 0.031334263072498092 0 0.0014729768032029494 0.03238210864916756 0 -0.00055032598849696283 0.033416092553346183 0 -0.0011318231162506468 0.034287406301161436 0 -0.00073447461952996145 0.033516778150389497 0 0.00097574552116161395 0.031334263072498092 0 0.0011473775088808921 0.032188805443444088 0 0.0014729768032029494 0.03238210864916756 0 0.0011473775088808921 0.032188805443444088 0 -0.00021059596266546253 0.031817302399637065 0 0.00065014094796510833 0.031423361642250153 0 -0.00073447461952996145 0.033516778150389497 0 -0.00066564873662664881 0.033269539088393127 0 -0.00071334678259668668 0.031956632845140533 0 -0.00074541153833475153 0.031773562758999029 0 -0.00042259600786088281 0.031827821604354455 0 -0.0010184743110342107 0.031902793300270481 0 -0.00071334678259668668 0.031956632845140533 0 -0.00074541153833475153 0.031773562758999029 0 -0.0034875591211509902 0.033678766528266499 0 -0.0026665085835538274 0.03536902818333891 0 -0.0019273135506252452 0.033618098846458506 0 -0.0011318231162506468 0.034287406301161436 0 -0.0010255106322916852 0.033159348534623656 0 -0.0010184743110342107 0.031902793300270481 0 -0.00074541153833475153 0.031773562758999029 0 -0.00098954063933628109 0.031694630368035048 0 -0.0028297262509904635 0.032108265344288976 0 -0.0019273135506252452 0.033618098846458506 0 -0.0012064241400920124 0.03159785486997789 0 -0.0010255106322916852 0.033159348534623656 0 -0.00093924672038327443 0.032662884357596539 0 -0.0021091967081948077 0.030665667766152278 0 -0.0028297262509904635 0.032108265344288976 0 -0.0012064241400920124 0.03159785486997789 0 -0.0012078598582165962 0.03046132406190552 0 -0.0012064241400920124 0.03159785486997789 0 -0.00086288899526093673 0.031127487827638838 0 -0.0012064241400920124 0.03159785486997789 0 -0.00086288899526093673 0.031127487827638838 0 -0.00080190996577998816 0.031581781358451716 0 -0.00098954063933628109 0.031694630368035048 0 -0.0012064241400920124 0.03159785486997789 0 -0.00080190996577998816 0.031581781358451716 0 -0.00074541153833475153 0.031773562758999029 0 -0.00080190996577998816 0.031581781358451716 0 -0.00049531451038393039 0.031747609409838694 0 -0.00074541153833475153 0.031773562758999029 0 -0.00098954063933628109 0.031694630368035048 0 -0.00080190996577998816 0.031581781358451716 0 -0.00080190996577998816 0.031581781358451716 0 -0.00042801987781630437 0.031487887131656372 0 -0.00049531451038393039 0.031747609409838694 0 -0.00080190996577998816 0.031581781358451716 0 -0.00042801987781630437 0.031487887131656372 0 -0.00057538667894608154 0.031110025935063183 0 -0.00086288899526093673 0.031127487827638838 0 -0.00080190996577998816 0.031581781358451716 0 -0.00057538667894608154 0.031110025935063183 0 2.9181588072041303e-05 0.030838722060256497 0 -0.00042801987781630437 0.031487887131656372 0 -0.00057538667894608154 0.031110025935063183 0 2.9181588072041303e-05 0.030838722060256497 0 -0.00042801987781630437 0.031487887131656372 0 -0.00018031214935612886 0.031555005158882897 0 -0.00042801987781630437 0.031487887131656372 0 -0.00049531451038393039 0.031747609409838694 0 -0.00018031214935612886 0.031555005158882897 0 -0.00049531451038393039 0.031747609409838694 0 -0.00018031214935612886 0.031555005158882897 0 -0.0005752477749047752 0.031888466934852484 0 -0.00049531451038393039 0.031747609409838694 0 -0.00042259600786088281 0.031827821604354455 0 -0.0005752477749047752 0.031888466934852484 0 -0.00074541153833475153 0.031773562758999029 0 -0.00049531451038393039 0.031747609409838694 0 -0.00042259600786088281 0.031827821604354455 0 -0.00042259600786088281 0.031827821604354455 0 -0.00021059596266546253 0.031817302399637065 0 -0.0005752477749047752 0.031888466934852484 0 -0.00071334678259668668 0.031956632845140533 0 -0.00042259600786088281 0.031827821604354455 0 -0.00021059596266546253 0.031817302399637065 0 -0.00021059596266546253 0.031817302399637065 0 -0.0005752477749047752 0.031888466934852484 0 -0.0010891682573887791 0.031209102359502049 0 -0.00021059596266546253 0.031817302399637065 0 -0.0001712923757711042 0.030726397457844029 0 -0.0010891682573887791 0.031209102359502049 0 -0.00021059596266546253 0.031817302399637065 0 -0.0001712923757711042 0.030726397457844029 0 0.00065014094796510833 0.031423361642250153 0 -0.0001712923757711042 0.030726397457844029 0 0.00060077716945020933 0.030322901871484041 0 0.00065014094796510833 0.031423361642250153 0 -0.0001712923757711042 0.030726397457844029 0 0.00051900601167697018 0.028877620973338097 0 0.00060077716945020933 0.030322901871484041 0 -0.0001712923757711042 0.030726397457844029 0 -0.0010891682573887791 0.031209102359502049 0 -0.0014164854712486684 0.029314851837696113 0 4.4565778758490709e-05 0.027091450903602564 0 0.00051900601167697018 0.028877620973338097 0 -0.0014164854712486684 0.029314851837696113 0 -0.0001712923757711042 0.030726397457844029 0 0.00051900601167697018 0.028877620973338097 0 -0.0014164854712486684 0.029314851837696113 0 4.4565778758490709e-05 0.027091450903602564 0 1.4798846888996169e-06 0.027219338493785678 0 -4.1504193593796611e-06 0.02375241350352561 0 4.4565778758490709e-05 0.027091450903602564 0 -0.0014164854712486684 0.029314851837696113 0 -4.1504193593796611e-06 0.02375241350352561 0 1.4798846888996169e-06 0.027219338493785678 0 0.00051900601167697018 0.028877620973338097 0 1.4979796990714085e-06 0.03067904848527965 0 4.4565778758490709e-05 0.027091450903602564 0 1.4798846888996169e-06 0.027219338493785678 0 0.00051900601167697018 0.028877620973338097 0 0.00051900601167697018 0.028877620973338097 0 0.00056907790159719098 0.029742414410334293 0 0.00060077716945020933 0.030322901871484041 0 0.00056907790159719098 0.029742414410334293 0 1.4979796990714085e-06 0.03067904848527965 0 0.00077825639912192134 0.029769460606381137 0 7.4567605306692425e-08 0.030694237096426411 0 0.00035669608005591929 0.033778588111076625 0 0.00051900601167697018 0.028877620973338097 0 0.00056907790159719098 0.029742414410334293 0 1.4979796990714085e-06 0.03067904848527965 0 -2.0187389397969298e-06 0.030690714575659143 0 2.0213019584214571e-06 0.035377731867064069 0 0.00011721171795399431 0.035741191096432617 0 2.0213019584214571e-06 0.035377731867064069 0 0.00011721171795399431 0.035741191096432617 0 0.00014579475050992491 0.036676443062181686 0 0.00056907790159719098 0.029742414410334293 0 0.00077825639912192134 0.029769460606381137 0 0.0012365243374123887 0.030104129959496181 0 0.00056907790159719098 0.029742414410334293 0 0.0012365243374123887 0.030104129959496181 0 0.0010398103452576655 0.030771095459786027 0 0.0012365243374123887 0.030104129959496181 0 0.0010398103452576655 0.030771095459786027 0 0.0017776150509451359 0.030804982109076458 0 0.00056907790159719098 0.029742414410334293 0 0.0010398103452576655 0.030771095459786027 0 0.00060077716945020933 0.030322901871484041 0 0.0010398103452576655 0.030771095459786027 0 0.00060077716945020933 0.030322901871484041 0 0.00065014094796510833 0.031423361642250153 0 0.0011473775088808921 0.032188805443444088 0 0.00065014094796510833 0.031423361642250153 0 0.0014729768032029494 0.03238210864916756 0 0.0010398103452576655 0.030771095459786027 0 0.00065014094796510833 0.031423361642250153 0 0.0014729768032029494 0.03238210864916756 0 0.0010398103452576655 0.030771095459786027 0 0.0014729768032029494 0.03238210864916756 0 0.0017776150509451359 0.030804982109076458 0 0.0010583997322874533 0.034614228247443625 0 0.000797597291347759 0.035276401266085493 0 0.0014729768032029494 0.03238210864916756 0 -0.00055032598849696283 0.033416092553346183 0 0.0010483897098969919 0.037549592184191766 0 -0.0018161321598630113 0.038086998435595869 0 -0.0010233311444657509 0.039507778310121908 0 -0.0019785182072992956 0.039320472099477574 0 -0.0018161321598630113 0.038086998435595869 0 -0.0019785182072992956 0.039320472099477574 0 -0.002801975193511554 0.038962728443655718 0 -0.0019785182072992956 0.039320472099477574 0 -0.002801975193511554 0.038962728443655718 0 -0.0024990175009448755 0.039931589855627822 0 -0.0024990175009448755 0.039931589855627822 0 -0.0028720112279343886 0.040664641659352664 0 -0.0032712934876650826 0.04008995918937415 0 -0.002801975193511554 0.038962728443655718 0 -0.0024990175009448755 0.039931589855627822 0 -0.0032712934876650826 0.04008995918937415 0 -0.0010233311444657509 0.039507778310121908 0 -0.0019785182072992956 0.039320472099477574 0 -0.0019928147092939065 0.039989394289207947 0 -0.0019785182072992956 0.039320472099477574 0 -0.0024990175009448755 0.039931589855627822 0 -0.0019928147092939065 0.039989394289207947 0 -0.0019928147092939065 0.039989394289207947 0 -0.0024504934921257202 0.040380113605990753 0 -0.0021340717259506242 0.040505248318896826 0 -0.0024990175009448755 0.039931589855627822 0 -0.0019928147092939065 0.039989394289207947 0 -0.0024504934921257202 0.040380113605990753 0 -0.0024990175009448755 0.039931589855627822 0 -0.0024504934921257202 0.040380113605990753 0 -0.0028720112279343886 0.040664641659352664 0 -0.0024504934921257202 0.040380113605990753 0 -0.0028720112279343886 0.040664641659352664 0 -0.0028730106342757292 0.040615443522080082 0 -0.0024504934921257202 0.040380113605990753 0 -0.0028730106342757292 0.040615443522080082 0 -0.0021340717259506242 0.040505248318896826 0 -0.00055032598849696283 0.033416092553346183 0 -0.0021340717259506242 0.040505248318896826 0 0.0010483897098969919 0.037549592184191766 0 -0.0010233311444657509 0.039507778310121908 0 -0.0019928147092939065 0.039989394289207947 0 -0.0021340717259506242 0.040505248318896826 0 0.000797597291347759 0.035276401266085493 0 2.6280419054909014e-05 0.037026063157023323 0 -0.0013227856130476592 0.036197502540584618 0 -0.0017017337174522113 0.037577122891308476 0 -0.0021340717259506242 0.040505248318896826 0 0.0010483897098969919 0.037549592184191766 0 -0.0012162980037323092 0.042103216821916312 0 0.0012365243374123887 0.030104129959496181 0 0.0017776150509451359 0.030804982109076458 0 0.0018903235723808508 0.029968225975695702 0 0.00077825639912192134 0.029769460606381137 0 0.0012365243374123887 0.030104129959496181 0 0.0018903235723808508 0.029968225975695702 0 0.00035669608005591929 0.033778588111076625 0 2.6280419054909014e-05 0.037026063157023323 0 -0.00014017415906855863 0.035901394875202719 0 0.00014579475050992491 0.036676443062181686 0 -2.0158629482827725e-06 0.040056539318011265 0 0.00011721171795399431 0.035741191096432617 0 -0.00014017415906855863 0.035901394875202719 0 0.00014579475050992491 0.036676443062181686 0 2.0213019584214571e-06 0.035377731867064069 0 0.00014579475050992491 0.036676443062181686 0 -2.0158629482827725e-06 0.040056539318011265 0 -7.0735273663634937e-06 0.040074758225079422 0 -0.0011641620144186987 0.044908779578709181 0 -0.0014689380423425278 0.046917057575475006 0 2.6280419054909014e-05 0.037026063157023323 0 -1.5923648676804558e-06 0.040060944855986172 0 -0.0033951450187479962 0.045627627352879271 0 -7.0735273663634937e-06 0.040074758225079422 0 -0.0011641620144186987 0.044908779578709181 0 -0.00055156119803581832 0.045379809207138168 0 -0.0033951450187479962 0.045627627352879271 0 -0.0011641620144186987 0.044908779578709181 0 -0.00072066716970851398 0.038488141010691007 0 2.6280419054909014e-05 0.037026063157023323 0 -0.0028730106342757292 0.040615443522080082 0 -0.0021340717259506242 0.040505248318896826 0 -0.0012162980037323092 0.042103216821916312 0 -0.00055156119803581832 0.045379809207138168 0 -0.0011641620144186987 0.044908779578709181 0 -0.0014689380423425278 0.046917057575475006 0 -0.00055156119803581832 0.045379809207138168 0 -0.0014689380423425278 0.046917057575475006 0 -0.0024429387229426489 0.043992652859149883 0 -0.0014689380423425278 0.046917057575475006 0 -0.0004425257074915954 0.04976890065373013 0 -0.0015328148683754828 0.052970450305693119 0 -7.0735273663634937e-06 0.040074758225079422 0 -0.0014689380423425278 0.046917057575475006 0 -0.00036630259929707121 0.047237250246909029 0 -7.0735273663634937e-06 0.040074758225079422 0 1.1405068284252054e-06 0.045628913462912847 0 -0.00036630259929707121 0.047237250246909029 0 0.00036757580636700548 0.050563629288960264 0 1.1405068284252054e-06 0.045628913462912847 0 -0.00036630259929707121 0.047237250246909029 0 0.00036757580636700548 0.050563629288960264 0 -0.0004425257074915954 0.04976890065373013 0 -1.0324178032598675e-05 0.052248938988743665 0 0.00036757580636700548 0.050563629288960264 0 -0.00036630259929707121 0.047237250246909029 0 -0.0004425257074915954 0.04976890065373013 0 -0.0014689380423425278 0.046917057575475006 0 -0.00036630259929707121 0.047237250246909029 0 -0.0004425257074915954 0.04976890065373013 0 -0.0004425257074915954 0.04976890065373013 0 -1.0324178032598675e-05 0.052248938988743665 0 -0.0015328148683754828 0.052970450305693119 0 -1.0324178032598675e-05 0.052248938988743665 0 -0.0015328148683754828 0.052970450305693119 0 -0.00036408919332115856 0.05381875812697879 0 -0.0014689380423425278 0.046917057575475006 0 -0.0052310329165210674 0.041362255068032719 0 -0.0024429387229426489 0.043992652859149883 0 -0.0032929443971702515 0.047970993087620505 0 -0.0037607949328413658 0.047849580061883987 0 -0.00072066716970851398 0.038488141010691007 0 -0.0012725841289770448 0.038708532874057414 0 -0.0028720112279343886 0.040664641659352664 0 -0.0028730106342757292 0.040615443522080082 0 -0.0034235863348181113 0.041601449008165384 0 -0.00055156119803581832 0.045379809207138168 0 -0.0024429387229426489 0.043992652859149883 0 -0.0034235863348181113 0.041601449008165384 0 -0.0028720112279343886 0.040664641659352664 0 -0.0034235863348181113 0.041601449008165384 0 -0.0032712934876650826 0.04008995918937415 0 -0.0052310329165210674 0.041362255068032719 0 -0.0024429387229426489 0.043992652859149883 0 -0.0034235863348181113 0.041601449008165384 0 -0.0052310329165210674 0.041362255068032719 0 -0.0034235863348181113 0.041601449008165384 0 -0.0045904506692558897 0.039994513784355874 0 -0.0034235863348181113 0.041601449008165384 0 -0.0045904506692558897 0.039994513784355874 0 -0.0032712934876650826 0.04008995918937415 0 -0.0045904506692558897 0.039994513784355874 0 -0.0032712934876650826 0.04008995918937415 0 -0.0041275991595313283 0.038898626418080118 0 -0.002801975193511554 0.038962728443655718 0 -0.0032712934876650826 0.04008995918937415 0 -0.0041275991595313283 0.038898626418080118 0 -0.0065371888802315519 0.038484665418038397 0 -0.0045904506692558897 0.039994513784355874 0 -0.0041275991595313283 0.038898626418080118 0 -0.00031632797630554594 0.055434594297943049 0 -0.0015328148683754828 0.052970450305693119 0 -0.00036408919332115856 0.05381875812697879 0 -0.0065371888802315519 0.038484665418038397 0 -0.0052310329165210674 0.041362255068032719 0 -0.0045904506692558897 0.039994513784355874 0 -0.0045963600212782785 0.048015339122044219 0 -0.0037607949328413658 0.047849580061883987 0 0.0084290861677266144 0.0045873387103717829 0 0.0082177984974000362 0.0034709834935882302 0 0.0082910425440236978 0.00601189531333245 0 0.0084290861677266144 0.0045873387103717829 0 0.0087357105839342176 0.003557320706304554 0 0.0084263730078166857 0.0058933139542288165 0 0.0063491840449412008 0.0083385678020764208 0 0.0071881381029675444 0.0078068485756929498 0 0.0055203025078279493 0.011490105736079661 0 0.0053225391399439291 0.013095152344192435 0 0.0071258122953777583 0.010482782590924642 0 0.0047568458518159797 0.012302657476987493 0 0.0055203025078279493 0.011490105736079661 0 0.0053225391399439291 0.013095152344192435 0 0.0084290861677266144 0.0045873387103717829 0 0.0087357105839342176 0.003557320706304554 0 0.00850844717082367 0.0036690336265995621 0 0.0055203025078279493 0.011490105736079661 0 0.0049057228767238874 0.01073065949203102 0 0.0058693641646297796 0.010479732943022473 0 0.0047568458518159797 0.012302657476987493 0 0.0055203025078279493 0.011490105736079661 0 0.0046122063075233252 0.011563498855803173 0 0.0055203025078279493 0.011490105736079661 0 0.0046122063075233252 0.011563498855803173 0 0.0049057228767238874 0.01073065949203102 0 0.0046122063075233252 0.011563498855803173 0 0.0049057228767238874 0.01073065949203102 0 0.0037816775527996964 0.010877492052269132 0 0.0046122063075233252 0.011563498855803173 0 0.0038542278052838487 0.012385799046339708 0 0.0037816775527996964 0.010877492052269132 0 0.0038542278052838487 0.012385799046339708 0 0.0037816775527996964 0.010877492052269132 0 0.0027522424125701675 0.011708570558234625 0 0.0038542278052838487 0.012385799046339708 0 0.0027522424125701675 0.011708570558234625 0 0.0024610708200859537 0.013321141833624282 0 0.0047568458518159797 0.012302657476987493 0 0.0046122063075233252 0.011563498855803173 0 0.0038542278052838487 0.012385799046339708 0 0.0047568458518159797 0.012302657476987493 0 0.0038542278052838487 0.012385799046339708 0 0.0044508505269649857 0.012889160874408121 0 0.0044508505269649857 0.012889160874408121 0 0.0038826143346526718 0.01375759422009069 0 0.0053225391399439291 0.013095152344192435 0 0.0038542278052838487 0.012385799046339708 0 0.0044508505269649857 0.012889160874408121 0 0.0038826143346526718 0.01375759422009069 0 0.0038826143346526718 0.01375759422009069 0 0.0053225391399439291 0.013095152344192435 0 0.0038064138085977246 0.015295600911027087 0 0.0038542278052838487 0.012385799046339708 0 0.0038826143346526718 0.01375759422009069 0 0.0024610708200859537 0.013321141833624282 0 0.0038826143346526718 0.01375759422009069 0 0.0024610708200859537 0.013321141833624282 0 0.0026448271821669866 0.014560699750555572 0 0.0086139026683154998 0.0034289309498591286 0 0.008578400865547977 0.0033384413388390646 0 0.0085368830224532653 0.0033281787434361644 0 0.0087357105839342176 0.003557320706304554 0 0.0086139026683154998 0.0034289309498591286 0 0.0085368830224532653 0.0033281787434361644 0 0.0063491840449412008 0.0083385678020764208 0 0.0050052806692084204 0.0091423638916005197 0 0.0047568458518159797 0.012302657476987493 0 0.0044508505269649857 0.012889160874408121 0 0.0053225391399439291 0.013095152344192435 0 0.0084290861677266144 0.0045873387103717829 0 0.00850844717082367 0.0036690336265995621 0 0.0082177984974000362 0.0034709834935882302 0 0.0087357105839342176 0.003557320706304554 0 0.00850844717082367 0.0036690336265995621 0 0.0086139026683154998 0.0034289309498591286 0 0.0095229921624170304 0.0026376735260627221 0 0.0095489681561923608 0.0026253990975310718 0 0.00850844717082367 0.0036690336265995621 0 0.0086139026683154998 0.0034289309498591286 0 0.0082177984974000362 0.0034709834935882302 0 0.0086139026683154998 0.0034289309498591286 0 0.0085492026516402354 0.003308958891296425 0 0.0085683833573676534 0.003313320328828329 0 0.0086139026683154998 0.0034289309498591286 0 0.0085683833573676534 0.003313320328828329 0 0.008578400865547977 0.0033384413388390646 0 0.0085683833573676534 0.003313320328828329 0 0.008578400865547977 0.0033384413388390646 0 0.0086000954994928866 0.003278155301716931 0 0.0085492026516402354 0.003308958891296425 0 0.0086374824712920524 0.0031703240625273231 0 0.0088032835009070765 0.0026482951479192356 0 0.0095489681561923608 0.0026253990975310718 0 0.010123676445751269 0.0019944759324622267 0 0.008578400865547977 0.0033384413388390646 0 0.0086000954994928866 0.003278155301716931 0 0.0086260638481985372 0.0032948432186534747 0 0.0085683833573676534 0.003313320328828329 0 0.0086000954994928866 0.003278155301716931 0 0.0086374824712920524 0.0031703240625273231 0 0.0086394394503479972 0.0032260235845674745 0 0.0086260638481985372 0.0032948432186534747 0 0.0087024651401711329 0.0031607619556189431 0 0.0086000954994928866 0.003278155301716931 0 0.0086394394503479972 0.0032260235845674745 0 0.0086374824712920524 0.0031703240625273231 0 0.0086000954994928866 0.003278155301716931 0 0.0086394394503479972 0.0032260235845674745 0 0.0086260638481985372 0.0032948432186534747 0 0.0087024651401711329 0.0031607619556189431 0 0.0087856292918202447 0.0031864884363511678 0 0.008730712902210485 0.0032917775122044621 0 0.0086260638481985372 0.0032948432186534747 0 0.0087024651401711329 0.0031607619556189431 0 0.008730712902210485 0.0032917775122044621 0 0.0086394394503479972 0.0032260235845674745 0 0.0087024651401711329 0.0031607619556189431 0 0.0086374824712920524 0.0031703240625273231 0 0.0087024651401711329 0.0031607619556189431 0 0.0086374824712920524 0.0031703240625273231 0 0.0088032835009070765 0.0026482951479192356 0 0.0085492026516402354 0.003308958891296425 0 0.0085683833573676534 0.003313320328828329 0 0.0086374824712920524 0.0031703240625273231 0 0.0089050966399996066 0.0032352190877665997 0 0.0088540580272407181 0.0030250590164781072 0 0.0092291048502184409 0.0028327520389413064 0 0.0087024651401711329 0.0031607619556189431 0 0.0087856292918202447 0.0031864884363511678 0 0.0088540580272407181 0.0030250590164781072 0 0.0089050966399996066 0.0032352190877665997 0 0.0087856292918202447 0.0031864884363511678 0 0.008730712902210485 0.0032917775122044621 0 0.0089050966399996066 0.0032352190877665997 0 0.0087856292918202447 0.0031864884363511678 0 0.0088540580272407181 0.0030250590164781072 0 0.0087024651401711329 0.0031607619556189431 0 0.0088540580272407181 0.0030250590164781072 0 0.0088032835009070765 0.0026482951479192356 0 0.0088540580272407181 0.0030250590164781072 0 0.0088032835009070765 0.0026482951479192356 0 0.0092291048502184409 0.0028327520389413064 0 0.011048178624945578 0.00081455014265217386 0 0.011059535775366764 0.00082457765931837101 0 0.011057362691420457 0.00083644340456458081 0 0.011048178624945578 0.00081455014265217386 0 0.011024289439352106 0.00083946855745355706 0 0.011057362691420457 0.00083644340456458081 0 0.01106447713075868 0.00081750442486186003 0 0.011048178624945578 0.00081455014265217386 0 0.011059535775366764 0.00082457765931837101 0 0.01106447713075868 0.00081750442486186003 0 0.011059535775366764 0.00082457765931837101 0 0.011068447090922711 0.00083148296097088623 0 0.0095489681561923608 0.0026253990975310718 0 0.0097746064751410046 0.0029393368770295079 0 0.0084290861677266144 0.0045873387103717829 0 0.0082910425440236978 0.00601189531333245 0 0.0084263730078166857 0.0058933139542288165 0 0.0082910425440236978 0.00601189531333245 0 0.0084263730078166857 0.0058933139542288165 0 0.0089989522163209171 0.0064249131575789152 0 0.0071881381029675444 0.0078068485756929498 0 0.007641821523073601 0.0072933775942956034 0 0.011059535775366764 0.00082457765931837101 0 0.011068447090922711 0.00083148296097088623 0 0.011057362691420457 0.00083644340456458081 0 0.011068447090922711 0.00083148296097088623 0 0.011057362691420457 0.00083644340456458081 0 0.01108036046187864 0.00085988066188154419 0 0.011024289439352106 0.00083946855745355706 0 0.011057362691420457 0.00083644340456458081 0 0.011029591042155009 0.00084346269692199701 0 0.011057362691420457 0.00083644340456458081 0 0.011029591042155009 0.00084346269692199701 0 0.011053407161421348 0.00085097171958611699 0 0.011057362691420457 0.00083644340456458081 0 0.011053407161421348 0.00085097171958611699 0 0.01108036046187864 0.00085988066188154419 0 0.011029591042155009 0.00084346269692199701 0 0.011036274229796618 0.00085346581546799334 0 0.011053407161421348 0.00085097171958611699 0 0.011036274229796618 0.00085346581546799334 0 0.011064752034586619 0.00086437114592492217 0 0.011053407161421348 0.00085097171958611699 0 0.011064752034586619 0.00086437114592492217 0 0.01108036046187864 0.00085988066188154419 0 0.011083853161669498 0.00088135305804195587 0 0.011064752034586619 0.00086437114592492217 0 0.011053407161421348 0.00085097171958611699 0 0.01108036046187864 0.00085988066188154419 0 0.011130978854657463 0.00090277333041494285 0 0.011061569575019511 0.00090181832606100836 0 0.011083853161669498 0.00088135305804195587 0 0.011130978854657463 0.00090277333041494285 0 0.01108036046187864 0.00085988066188154419 0 0.011083853161669498 0.00088135305804195587 0 0.011061569575019511 0.00090181832606100836 0 0.011083853161669498 0.00088135305804195587 0 0.011054452951624197 0.0008743025615015643 0 0.011064752034586619 0.00086437114592492217 0 0.011083853161669498 0.00088135305804195587 0 0.011054452951624197 0.0008743025615015643 0 0.011036274229796618 0.00085346581546799334 0 0.011064752034586619 0.00086437114592492217 0 0.011054452951624197 0.0008743025615015643 0 0.011061569575019511 0.00090181832606100836 0 0.011054452951624197 0.0008743025615015643 0 0.011033641260152232 0.00087144486187473952 0 0.011036274229796618 0.00085346581546799334 0 0.011054452951624197 0.0008743025615015643 0 0.011033641260152232 0.00087144486187473952 0 0.011130978854657463 0.00090277333041494285 0 0.011068447090922711 0.00083148296097088623 0 0.01108036046187864 0.00085988066188154419 0 0.0071258122953777583 0.010482782590924642 0 0.0073589509390205032 0.0079792505135724712 0 0.0089989522163209171 0.0064249131575789152 0 0.0092579540759142424 0.0064365220031215673 0 0.0082910425440236978 0.00601189531333245 0 0.0089989522163209171 0.0064249131575789152 0 0.010062860533018017 0.0028906914790986339 0 0.0097746064751410046 0.0029393368770295079 0 0.0083985159493163795 0.0059915098925936326 0 0.0092579540759142424 0.0064365220031215673 0 0.0089989522163209171 0.0064249131575789152 0 0.0083985159493163795 0.0059915098925936326 0 0.0089989522163209171 0.0064249131575789152 0 0.0075902459318894985 0.0065717882087571611 0 0.0073589509390205032 0.0079792505135724712 0 0.0089989522163209171 0.0064249131575789152 0 0.0075902459318894985 0.0065717882087571611 0 0.0060500078419180609 0.0060849523957370068 0 0.0075902459318894985 0.0065717882087571611 0 0.0063701670602812101 0.0075426378953244045 0 0.0060500078419180609 0.0060849523957370068 0 0.0050227659714522531 0.0071166707620862581 0 0.0063701670602812101 0.0075426378953244045 0 0.004228143488486936 0.0056100586531855024 0 0.0060500078419180609 0.0060849523957370068 0 0.0050227659714522531 0.0071166707620862581 0 0.0050227659714522531 0.0071166707620862581 0 0.0050132250393577181 0.0085017563099506581 0 0.0063701670602812101 0.0075426378953244045 0 0.0050132250393577181 0.0085017563099506581 0 0.0063701670602812101 0.0075426378953244045 0 0.0065938139590389416 0.0090786225127842367 0 0.0073589509390205032 0.0079792505135724712 0 0.0063701670602812101 0.0075426378953244045 0 0.0065938139590389416 0.0090786225127842367 0 0.0073589509390205032 0.0079792505135724712 0 0.0075902459318894985 0.0065717882087571611 0 0.0063701670602812101 0.0075426378953244045 0 0.0071258122953777583 0.010482782590924642 0 0.0073589509390205032 0.0079792505135724712 0 0.0065938139590389416 0.0090786225127842367 0 0.0065938139590389416 0.0090786225127842367 0 0.0054190512038106787 0.0097050104798973753 0 0.0063427520156462839 0.0099476954362035363 0 0.0050132250393577181 0.0085017563099506581 0 0.0065938139590389416 0.0090786225127842367 0 0.0054190512038106787 0.0097050104798973753 0 0.0054190512038106787 0.0097050104798973753 0 0.0049057228767238874 0.01073065949203102 0 0.0058693641646297796 0.010479732943022473 0 0.0054190512038106787 0.0097050104798973753 0 0.0058693641646297796 0.010479732943022473 0 0.0063427520156462839 0.0099476954362035363 0 0.0071258122953777583 0.010482782590924642 0 0.0065938139590389416 0.0090786225127842367 0 0.0063427520156462839 0.0099476954362035363 0 0.0055203025078279493 0.011490105736079661 0 0.0071258122953777583 0.010482782590924642 0 0.0058693641646297796 0.010479732943022473 0 0.0071258122953777583 0.010482782590924642 0 0.0058693641646297796 0.010479732943022473 0 0.0063427520156462839 0.0099476954362035363 0 0.0037816775527996964 0.010877492052269132 0 0.0026448867853926003 0.0096309221763186455 0 0.0027522424125701675 0.011708570558234625 0 0.0037816775527996964 0.010877492052269132 0 0.0039657146630423081 0.0093868091023375441 0 0.0026448867853926003 0.0096309221763186455 0 0.0049057228767238874 0.01073065949203102 0 0.0037816775527996964 0.010877492052269132 0 0.0039657146630423081 0.0093868091023375441 0 0.0054190512038106787 0.0097050104798973753 0 0.0049057228767238874 0.01073065949203102 0 0.0039657146630423081 0.0093868091023375441 0 0.0050132250393577181 0.0085017563099506581 0 0.0054190512038106787 0.0097050104798973753 0 0.0039657146630423081 0.0093868091023375441 0 0.0039657146630423081 0.0093868091023375441 0 0.0034295739340837305 0.0078075480931450482 0 0.0026448867853926003 0.0096309221763186455 0 0.0027550327973811803 0.0064182769416593127 0 0.0034295739340837305 0.0078075480931450482 0 0.0022721737006371791 0.0078476476786645717 0 0.0050132250393577181 0.0085017563099506581 0 0.0039657146630423081 0.0093868091023375441 0 0.0034295739340837305 0.0078075480931450482 0 0.0050227659714522531 0.0071166707620862581 0 0.0050132250393577181 0.0085017563099506581 0 0.0034295739340837305 0.0078075480931450482 0 0.004228143488486936 0.0056100586531855024 0 0.0050227659714522531 0.0071166707620862581 0 0.0034295739340837305 0.0078075480931450482 0 0.0014557229325905374 0.0066399714009846471 0 0.0022721737006371791 0.0078476476786645717 0 0.00090386570719490789 0.0089697778560444991 0 0.0022721737006371791 0.0078476476786645717 0 0.00090386570719490789 0.0089697778560444991 0 0.0026448867853926003 0.0096309221763186455 0 0.0034295739340837305 0.0078075480931450482 0 0.0022721737006371791 0.0078476476786645717 0 0.0026448867853926003 0.0096309221763186455 0 -0.00068334557135522336 0.0081652519883582131 0 0.00026002028928614546 0.0076699868746191611 0 0.00090386570719490789 0.0089697778560444991 0 0.0023149071815330071 0.0076719538534962836 0 0.0020607271351882491 0.0080484126128507333 0 0.00047324792028175623 0.010406786713969279 0 -0.00071928784238394926 0.0099391712238426216 0 0.00016764370462253182 0.011843726082679199 0 0.00090386570719490789 0.0089697778560444991 0 0.00047324792028175623 0.010406786713969279 0 0.0016491294018283473 0.011147544689470787 0 0.00090386570719490789 0.0089697778560444991 0 0.00047324792028175623 0.010406786713969279 0 -0.00071928784238394926 0.0099391712238426216 0 0.00090386570719490789 0.0089697778560444991 0 0.0026448867853926003 0.0096309221763186455 0 0.0016491294018283473 0.011147544689470787 0 0.0026448867853926003 0.0096309221763186455 0 0.0027522424125701675 0.011708570558234625 0 0.0016491294018283473 0.011147544689470787 0 -0.0026715741755360947 0.0078231151527701145 0 -0.0017184359851151446 0.0086324683383357317 0 -0.0028581781383295213 0.010066594975633055 0 -0.00035709899473879077 0.019600373408802461 0 -0.00096224136936456722 0.020773097608463461 0 -0.0017184359851151446 0.0086324683383357317 0 -0.00071928784238394926 0.0099391712238426216 0 -0.0028581781383295213 0.010066594975633055 0 -0.00068334557135522336 0.0081652519883582131 0 0.00090386570719490789 0.0089697778560444991 0 -0.00071928784238394926 0.0099391712238426216 0 -0.00068334557135522336 0.0081652519883582131 0 -0.0017184359851151446 0.0086324683383357317 0 -0.00071928784238394926 0.0099391712238426216 0 -0.00071928784238394926 0.0099391712238426216 0 -0.0028581781383295213 0.010066594975633055 0 -0.0014436805381716636 0.011663882794088309 0 -0.0028810242162528692 0.012699123940954503 0 -0.0014436805381716636 0.011663882794088309 0 -0.00092815626578159603 0.013867076963829635 0 -0.00096224136936456722 0.020773097608463461 0 -0.0012292354125253038 0.02197658942751023 0 -0.0028581781383295213 0.010066594975633055 0 -0.0028810242162528692 0.012699123940954503 0 -0.0014436805381716636 0.011663882794088309 0 -0.00071928784238394926 0.0099391712238426216 0 -0.0014436805381716636 0.011663882794088309 0 0.00016764370462253182 0.011843726082679199 0 -0.0014436805381716636 0.011663882794088309 0 -0.00092815626578159603 0.013867076963829635 0 0.00016764370462253182 0.011843726082679199 0 -0.0028810242162528692 0.012699123940954503 0 -0.00092815626578159603 0.013867076963829635 0 -0.002585109613744605 0.015302865892660783 0 -0.0012292354125253038 0.02197658942751023 0 -0.0012043602654420416 0.022869651860928378 0 0.0015160048541592928 0.012542245645941551 0 0.0027522424125701675 0.011708570558234625 0 0.0024610708200859537 0.013321141833624282 0 0.0015160048541592928 0.012542245645941551 0 0.0027522424125701675 0.011708570558234625 0 0.0016491294018283473 0.011147544689470787 0 0.0015160048541592928 0.012542245645941551 0 0.0016491294018283473 0.011147544689470787 0 0.00016764370462253182 0.011843726082679199 0 0.00047324792028175623 0.010406786713969279 0 0.0016491294018283473 0.011147544689470787 0 0.00016764370462253182 0.011843726082679199 0 0.0015160048541592928 0.012542245645941551 0 0.00016764370462253182 0.011843726082679199 0 0.00084257304484082615 0.013647045987186263 0 -0.00092815626578159603 0.013867076963829635 0 0.00016764370462253182 0.011843726082679199 0 0.00084257304484082615 0.013647045987186263 0 -0.00092815626578159603 0.013867076963829635 0 0.00084257304484082615 0.013647045987186263 0 0.00037107424808843954 0.015500282002649229 0 0.00084257304484082615 0.013647045987186263 0 0.0024610708200859537 0.013321141833624282 0 0.0015571052075888728 0.014562813702448864 0 0.0015160048541592928 0.012542245645941551 0 0.00084257304484082615 0.013647045987186263 0 0.0024610708200859537 0.013321141833624282 0 0.0024610708200859537 0.013321141833624282 0 0.0026448271821669866 0.014560699750555572 0 0.0015571052075888728 0.014562813702448864 0 0.0026448271821669866 0.014560699750555572 0 0.0016892005139994724 0.015649899195505912 0 0.0015571052075888728 0.014562813702448864 0 0.00084257304484082615 0.013647045987186263 0 0.0015571052075888728 0.014562813702448864 0 0.00037107424808843954 0.015500282002649229 0 0.0016892005139994724 0.015649899195505912 0 0.0015571052075888728 0.014562813702448864 0 0.00037107424808843954 0.015500282002649229 0 0.0016892005139994724 0.015649899195505912 0 0.00037107424808843954 0.015500282002649229 0 0.00095486159688570828 0.016909796249053855 0 0.00037107424808843954 0.015500282002649229 0 0.00095486159688570828 0.016909796249053855 0 0.0003769126846884796 0.017726749997157436 0 0.00095486159688570828 0.016909796249053855 0 0.0016326032381327159 0.0166702602003585 0 0.0010639474482178723 0.017389412931035502 0 0.0016892005139994724 0.015649899195505912 0 0.0016326032381327159 0.0166702602003585 0 0.0038064138085977246 0.015295600911027087 0 0.0016326032381327159 0.0166702602003585 0 0.0010639474482178723 0.017389412931035502 0 0.0022566776540493393 0.01723804077762945 0 0.0016892005139994724 0.015649899195505912 0 0.00095486159688570828 0.016909796249053855 0 0.0016326032381327159 0.0166702602003585 0 -0.00092815626578159603 0.013867076963829635 0 -0.002585109613744605 0.015302865892660783 0 -0.00079430688765852388 0.016552931741962859 0 -0.00092815626578159603 0.013867076963829635 0 0.00037107424808843954 0.015500282002649229 0 -0.00079430688765852388 0.016552931741962859 0 0.00037107424808843954 0.015500282002649229 0 -0.00079430688765852388 0.016552931741962859 0 0.0003769126846884796 0.017726749997157436 0 -0.0012043602654420416 0.022869651860928378 0 -0.00081195459139628409 0.023385677746599293 0 -0.002585109613744605 0.015302865892660783 0 -0.00079430688765852388 0.016552931741962859 0 -0.002169729421449826 0.018011297792281708 0 -0.00079430688765852388 0.016552931741962859 0 -0.002169729421449826 0.018011297792281708 0 1.2916569010065212e-05 0.019171868865813672 0 -0.00079430688765852388 0.016552931741962859 0 1.2916569010065212e-05 0.019171868865813672 0 0.0003769126846884796 0.017726749997157436 0 1.2916569010065212e-05 0.019171868865813672 0 0.0003769126846884796 0.017726749997157436 0 0.00053876203600828493 0.017947963824546116 0 1.2916569010065212e-05 0.019171868865813672 0 3.1461334353237916e-06 0.019105612387472968 0 0.00053876203600828493 0.017947963824546116 0 -0.002169729421449826 0.018011297792281708 0 1.2916569010065212e-05 0.019171868865813672 0 -5.6786995216813472e-06 0.023738566968674161 0 1.2916569010065212e-05 0.019171868865813672 0 3.1461334353237916e-06 0.019105612387472968 0 -5.6786995216813472e-06 0.023738566968674161 0 -0.00081195459139628409 0.023385677746599293 0 -1.7181022263004067e-06 0.023746089617417514 0 0.0010639474482178723 0.017389412931035502 0 0.00069364194927746842 0.017487684745113335 0 0.00026208485740694275 0.017238894663474155 0 0.00069364194927746842 0.017487684745113335 0 0.00045612471703950083 0.016894033529857893 0 0.00026208485740694275 0.017238894663474155 0 0.001110115424787004 0.012950060597980493 0 0.0026131048970959463 0.01078335458590382 0 6.7141397140656193e-06 0.01080577091116495 0 0.000206697657401959 0.010177468456458534 0 0.00044347066991955566 0.010122918899027781 0 0.0010639474482178723 0.017389412931035502 0 0.00026208485740694275 0.017238894663474155 0 0.0011503400343332601 0.017425760247818577 0 0.0023193055400657059 0.011080395491215811 0 0.0026131048970959463 0.01078335458590382 0 0.00095486159688570828 0.016909796249053855 0 0.0010639474482178723 0.017389412931035502 0 0.00069364194927746842 0.017487684745113335 0 0.00095486159688570828 0.016909796249053855 0 0.0003769126846884796 0.017726749997157436 0 0.00069364194927746842 0.017487684745113335 0 0.0003769126846884796 0.017726749997157436 0 0.00069364194927746842 0.017487684745113335 0 0.00053876203600828493 0.017947963824546116 0 3.1461334353237916e-06 0.019105612387472968 0 0.00053876203600828493 0.017947963824546116 0 -6.5262970425560784e-07 0.014470395837000565 0 0.00045612471703950083 0.016894033529857893 0 0.00053876203600828493 0.017947963824546116 0 -6.5262970425560784e-07 0.014470395837000565 0 0.00069364194927746842 0.017487684745113335 0 0.00045612471703950083 0.016894033529857893 0 0.00053876203600828493 0.017947963824546116 0 2.2486877461733245e-06 0.014461545923080245 0 0.001110115424787004 0.012950060597980493 0 -3.2859506734643601e-06 0.014458610008716517 0 6.7141397140656193e-06 0.01080577091116495 0 3.1710946063283419e-06 0.010464198305323828 0 0.00045612471703950083 0.016894033529857893 0 -6.5262970425560784e-07 0.014470395837000565 0 0.00026208485740694275 0.017238894663474155 0 6.7141397140656193e-06 0.01080577091116495 0 3.1710946063283419e-06 0.010464198305323828 0 0.000206697657401959 0.010177468456458534 0 3.1710946063283419e-06 0.010464198305323828 0 0.00024867447373357559 0.0095380913707073748 0 0.000206697657401959 0.010177468456458534 0 3.1710946063283419e-06 0.010464198305323828 0 -2.9725917594790759e-06 0.0064744998501778932 0 0.00024867447373357559 0.0095380913707073748 0 -2.9725917594790759e-06 0.0064744998501778932 0 0.00024867447373357559 0.0095380913707073748 0 -0.00086478643781913716 0.0091626283002752603 0 0.00024867447373357559 0.0095380913707073748 0 -0.00038717283244021759 0.010852433674639559 0 -0.00086478643781913716 0.0091626283002752603 0 0.00024867447373357559 0.0095380913707073748 0 0.00044347066991955566 0.010122918899027781 0 -0.00038717283244021759 0.010852433674639559 0 0.00024867447373357559 0.0095380913707073748 0 0.000206697657401959 0.010177468456458534 0 0.00044347066991955566 0.010122918899027781 0 0.0084310741955679995 0.0035070294392693501 0 0.0085875289509517259 0.0034178908816715186 0 0.0085368830224532653 0.0033281787434361644 0 0.0026131048970959463 0.01078335458590382 0 0.0039436558787375895 0.0071456205418398014 0 0.0016326032381327159 0.0166702602003585 0 0.0022566776540493393 0.01723804077762945 0 0.0038064138085977246 0.015295600911027087 0 0.0026131048970959463 0.01078335458590382 0 0.0050052806692084204 0.0091423638916005197 0 0.008578400865547977 0.0033384413388390646 0 0.0085888942426937901 0.0033432185567664643 0 0.0085368830224532653 0.0033281787434361644 0 0.0085875289509517259 0.0034178908816715186 0 0.0085888942426937901 0.0033432185567664643 0 0.0085368830224532653 0.0033281787434361644 0 0.0085875289509517259 0.0034178908816715186 0 0.0085888942426937901 0.0033432185567664643 0 0.0086598232881887408 0.0033359513243742785 0 0.008578400865547977 0.0033384413388390646 0 0.0086260638481985372 0.0032948432186534747 0 0.0085888942426937901 0.0033432185567664643 0 0.0026448271821669866 0.014560699750555572 0 0.0016892005139994724 0.015649899195505912 0 0.0038064138085977246 0.015295600911027087 0 0.0038826143346526718 0.01375759422009069 0 0.0026448271821669866 0.014560699750555572 0 0.0038064138085977246 0.015295600911027087 0 0.0089050966399996066 0.0032352190877665997 0 0.0088261931414076004 0.0036468357889921487 0 0.0096309891202915904 0.0033023060458445132 0 0.0089050966399996066 0.0032352190877665997 0 0.0088111008608242197 0.0033794244161278195 0 0.008730712902210485 0.0032917775122044621 0 0.0053679403329482513 0.003407898107503823 0 0.0051923991792923365 0.0035165651166058193 0 0.0086260638481985372 0.0032948432186534747 0 0.008730712902210485 0.0032917775122044621 0 0.0086598232881887408 0.0033359513243742785 0 0.0085875289509517259 0.0034178908816715186 0 0.0088111008608242197 0.0033794244161278195 0 0.0086598232881887408 0.0033359513243742785 0 0.0039436558787375895 0.0071456205418398014 0 0.0051923991792923365 0.0035165651166058193 0 0.0088111008608242197 0.0033794244161278195 0 0.008730712902210485 0.0032917775122044621 0 0.0086598232881887408 0.0033359513243742785 0 0.0086260638481985372 0.0032948432186534747 0 0.0085888942426937901 0.0033432185567664643 0 0.0086598232881887408 0.0033359513243742785 0 -0.00038717283244021759 0.010852433674639559 0 -0.0024057634376003253 0.011780427637757517 0 -0.002134662869650447 0.0099492378417255986 0 0.0051923991792923365 0.0035165651166058193 0 0.0023213208829765989 0.0042714155358988199 0 0.0044313401600026368 -0.0015455448302585943 0 0.0042933661261271841 -0.0008630959083954792 0 0.0048159647447698073 -0.0011676831592316585 0 0.0042933661261271841 -0.0008630959083954792 0 0.0046403621186683862 -0.00066673888752545195 0 0.0048159647447698073 -0.0011676831592316585 0 0.0042933661261271841 -0.0008630959083954792 0 0.0046403621186683862 -0.00066673888752545195 0 0.0041528513462568634 -0.0001624199175692827 0 0.0023213208829765989 0.0042714155358988199 0 0.00034304255852608898 0.0039827584079992389 0 -0.002134662869650447 0.0099492378417255986 0 -0.00086478643781913716 0.0091626283002752603 0 -0.0020605245384610876 0.007232828593342738 0 -0.00038717283244021759 0.010852433674639559 0 -0.002134662869650447 0.0099492378417255986 0 -0.00086478643781913716 0.0091626283002752603 0 -2.9725917594790759e-06 0.0064744998501778932 0 -0.00086478643781913716 0.0091626283002752603 0 -0.0020605245384610876 0.007232828593342738 0 0.00034304255852608898 0.0039827584079992389 0 5.2668673413062671e-06 0.0037327727399260736 0 1.8406893439852324e-07 0.0064591055707670011 0 0.00034304255852608898 0.0039827584079992389 0 4.3663326614734478e-10 0.0064649585691375086 0 1.4775690118330566e-07 0.0036194797975605732 0 7.0902214700178457e-10 0.0037323611477872299 0 0.0046403621186683862 -0.00066673888752545195 0 0.0041528513462568634 -0.0001624199175692827 0 0.0047986040070540871 -0.00031584872836584472 0 0.00034304255852608898 0.0039827584079992389 0 0.0028340631657007846 6.0794376585724363e-05 0 -6.6584251781553016e-05 0.0032043760244032699 0 -1.0677510523487153e-06 0.0037254527314420955 0 -4.0671577651982529e-06 -0.0013277066818248525 0 -1.0677510523487153e-06 0.0037254527314420955 0 -4.0671577651982529e-06 -0.0013277066818248525 0 7.218205843437582e-07 -0.0017645247196602229 0 0.0028340631657007846 6.0794376585724363e-05 0 0.0036021231109479215 -0.0030624602735059743 0 -4.0671577651982529e-06 -0.0013277066818248525 0 7.218205843437582e-07 -0.0017645247196602229 0 1.7832638156434988e-05 -0.0045509385341793111 0 -1.1052314345908876e-06 -0.0017698391445273511 0 3.6007320479238831e-07 -0.0068625413160497833 0 -0.00011026824397081109 -0.0070759572843336095 0 4.0698639680440159e-07 -0.0017723132609219255 0 0.00053997016974172021 -0.0039228585214168476 0 7.218205843437582e-07 -0.0017645247196602229 0 1.7832638156434988e-05 -0.0045509385341793111 0 0.00019840238628558908 -0.0046498287047670684 0 0.0054319981640924041 -0.00047433907240981886 0 0.005132634693012234 -0.00081388916549656289 0 0.0055545632365141158 -0.00098427914097933217 0 0.0047986040070540871 -0.00031584872836584472 0 0.0054319981640924041 -0.00047433907240981886 0 0.005132634693012234 -0.00081388916549656289 0 0.0046403621186683862 -0.00066673888752545195 0 0.0047986040070540871 -0.00031584872836584472 0 0.005132634693012234 -0.00081388916549656289 0 0.0046403621186683862 -0.00066673888752545195 0 0.005132634693012234 -0.00081388916549656289 0 0.0048159647447698073 -0.0011676831592316585 0 0.00025917036278777018 -0.0088160386628586603 0 3.6007320479238831e-07 -0.0068625413160497833 0 1.9812104997283415e-06 -0.011953759128122002 0 0.00025917036278777018 -0.0088160386628586603 0 0.00058126850096258209 -0.010093879059248537 0 1.9812104997283415e-06 -0.011953759128122002 0 0.00019840238628558908 -0.0046498287047670684 0 0.00061590866847628157 -0.0096692045625820025 0 0.00058126850096258209 -0.010093879059248537 0 1.7832638156434988e-05 -0.0045509385341793111 0 0.00019840238628558908 -0.0046498287047670684 0 0.00061590866847628157 -0.0096692045625820025 0 0.00053997016974172021 -0.0039228585214168476 0 0.00070755152787005838 -0.0049175046839633925 0 0.00025917036278777018 -0.0088160386628586603 0 -0.00011026824397081109 -0.0070759572843336095 0 0.00058126850096258209 -0.010093879059248537 0 0.00025917036278777018 -0.0088160386628586603 0 3.6007320479238831e-07 -0.0068625413160497833 0 -0.00011026824397081109 -0.0070759572843336095 0 0.0060737663128690028 -0.00063743647629586377 0 0.0058920468936840302 -0.0011154490361333018 0 0.0055545632365141158 -0.00098427914097933217 0 0.0036021231109479215 -0.0030624602735059743 0 0.003945891612476402 -0.0061923479954315314 0 0.0054319981640924041 -0.00047433907240981886 0 0.0060737663128690028 -0.00063743647629586377 0 0.0055545632365141158 -0.00098427914097933217 0 0.0060737663128690028 -0.00063743647629586377 0 0.0062368469271553801 -0.0013140480839906599 0 0.0067078902177893094 -0.0008011018491772059 0 0.00061590866847628157 -0.0096692045625820025 0 0.00058126850096258209 -0.010093879059248537 0 -0.00023067423180458718 -0.01128950051821808 0 0.003945891612476402 -0.0061923479954315314 0 0.0044637461806854278 -0.0099232248301671395 0 0.0060737663128690028 -0.00063743647629586377 0 0.0062368469271553801 -0.0013140480839906599 0 0.0058920468936840302 -0.0011154490361333018 0 0.0062368469271553801 -0.0013140480839906599 0 0.0058920468936840302 -0.0011154490361333018 0 0.0056566273964695855 -0.0014258145296766435 0 0.0058920468936840302 -0.0011154490361333018 0 0.0055545632365141158 -0.00098427914097933217 0 0.0056566273964695855 -0.0014258145296766435 0 0.0074032990098676565 -0.0010324923407244388 0 0.007609054111777252 -0.0011294965085704054 0 0.0062368469271553801 -0.0013140480839906599 0 0.0056566273964695855 -0.0014258145296766435 0 0.005757720878405705 -0.0018500436020075627 0 0.007609054111777252 -0.0011294965085704054 0 0.0082325803625767809 -0.001287782203286336 0 0.0056435433922303437 -0.0013744374183170772 0 0.0057395985038458082 -0.0017753519399608952 0 0.0054368787109711951 -0.0016390140692455479 0 0.01148867257535267 -0.0039187271438607153 0 0.012475205091074129 -0.0028488468637505736 0 0.011519874832393126 -0.0025229937427664298 0 0.0079728407633425855 -0.0037556340865115513 0 0.0082325803625767809 -0.001287782203286336 0 0.01148867257535267 -0.0039187271438607153 0 0.011519874832393126 -0.0025229937427664298 0 0.010646280471493181 -0.0028920975243981769 0 0.005132634693012234 -0.00081388916549656289 0 0.0048159647447698073 -0.0011676831592316585 0 0.0052628102398776019 -0.0012946500433723398 0 0.005132634693012234 -0.00081388916549656289 0 0.0055545632365141158 -0.00098427914097933217 0 0.0052628102398776019 -0.0012946500433723398 0 0.0055545632365141158 -0.00098427914097933217 0 0.0056435433922303437 -0.0013744374183170772 0 0.0052628102398776019 -0.0012946500433723398 0 0.0052628102398776019 -0.0012946500433723398 0 0.0054368787109711951 -0.0016390140692455479 0 0.0049790461028666813 -0.001786340261346838 0 0.0056435433922303437 -0.0013744374183170772 0 0.0052628102398776019 -0.0012946500433723398 0 0.0054368787109711951 -0.0016390140692455479 0 0.0048159647447698073 -0.0011676831592316585 0 0.0052628102398776019 -0.0012946500433723398 0 0.0049790461028666813 -0.001786340261346838 0 0.0044313401600026368 -0.0015455448302585943 0 0.0048159647447698073 -0.0011676831592316585 0 0.0049790461028666813 -0.001786340261346838 0 0.0051923991792923365 0.0035165651166058193 0 0.0071385777207811172 0.001366299320859486 0 0.0089050966399996066 0.0032352190877665997 0 0.0096309891202915904 0.0033023060458445132 0 0.0092291048502184409 0.0028327520389413064 0 0.0096309891202915904 0.0033023060458445132 0 0.0098012971521856951 0.0026019856154589223 0 0.0092291048502184409 0.0028327520389413064 0 0.010123676445751269 0.0019944759324622267 0 0.010545950869552408 0.0016014411054842157 0 0.011048178624945578 0.00081455014265217386 0 0.011024289439352106 0.00083946855745355706 0 0.010989893461563245 0.0008497041473926923 0 0.0098012971521856951 0.0026019856154589223 0 0.0092291048502184409 0.0028327520389413064 0 0.0097217970935980745 0.0018775101906425347 0 0.0088032835009070765 0.0026482951479192356 0 0.0092291048502184409 0.0028327520389413064 0 0.0097217970935980745 0.0018775101906425347 0 0.0097217970935980745 0.0018775101906425347 0 0.010296945526320942 0.002112146495136082 0 0.011072217569360639 0.0010359877750270308 0 0.010296945526320942 0.002112146495136082 0 0.010886024864849353 0.0019856273675235444 0 0.011072217569360639 0.0010359877750270308 0 0.0098012971521856951 0.0026019856154589223 0 0.010296945526320942 0.002112146495136082 0 0.010477758596830615 0.0026647391735426813 0 0.0098012971521856951 0.0026019856154589223 0 0.0097217970935980745 0.0018775101906425347 0 0.010296945526320942 0.002112146495136082 0 0.010296945526320942 0.002112146495136082 0 0.010624101701305155 0.0023032627637116581 0 0.010886024864849353 0.0019856273675235444 0 0.010296945526320942 0.002112146495136082 0 0.010624101701305155 0.0023032627637116581 0 0.010477758596830615 0.0026647391735426813 0 0.010624101701305155 0.0023032627637116581 0 0.010477758596830615 0.0026647391735426813 0 0.010850462912952198 0.002446624678359776 0 0.010477758596830615 0.0026647391735426813 0 0.01067225703404978 0.0028826048085746204 0 0.010850462912952198 0.002446624678359776 0 0.0054368787109711951 -0.0016390140692455479 0 0.0049790461028666813 -0.001786340261346838 0 0.0055194174592567017 -0.0020210926667603639 0 0.0096309891202915904 0.0033023060458445132 0 0.0098012971521856951 0.0026019856154589223 0 0.010477758596830615 0.0026647391735426813 0 0.0071385777207811172 0.001366299320859486 0 0.008386016278218264 -0.00025662513646017835 0 0.0096309891202915904 0.0033023060458445132 0 0.010477758596830615 0.0026647391735426813 0 0.010641170896603816 0.0028459754089936594 0 0.0084735919043866931 -0.00015375174683619162 0 0.008386016278218264 -0.00025662513646017835 0 0.0057395985038458082 -0.0017753519399608952 0 0.0054368787109711951 -0.0016390140692455479 0 0.0055194174592567017 -0.0020210926667603639 0 0.0086291754142190386 -0.00028459617733175629 0 0.0086292470180588075 -0.00028393934801880023 0 0.0086307685098277603 -0.00028459678251741818 0 0.012475205091074129 -0.0028488468637505736 0 0.012303949481494467 -0.0020252367081847172 0 0.011519874832393126 -0.0025229937427664298 0 0.0082325803625767809 -0.001287782203286336 0 0.008386016278218264 -0.00025662513646017835 0 0.0082325803625767809 -0.001287782203286336 0 0.0092284323127829852 -0.00083390457684937914 0 0.01067225703404978 0.0028826048085746204 0 0.011398576168638382 0.0025441867250772699 0 0.010850462912952198 0.002446624678359776 0 0.008386016278218264 -0.00025662513646017835 0 0.0092284323127829852 -0.00083390457684937914 0 0.012303949481494467 -0.0020252367081847172 0 0.011519874832393126 -0.0025229937427664298 0 0.011536452811724661 -0.0016662582261299426 0 0.011519874832393126 -0.0025229937427664298 0 0.011536452811724661 -0.0016662582261299426 0 0.010872538593874543 -0.0016605137115721328 0 0.01223867439105884 -0.0019757569713440117 0 0.011536452811724661 -0.0016662582261299426 0 0.01192434867705551 -0.00079701665737001888 0 0.011536452811724661 -0.0016662582261299426 0 0.011339558102715818 -0.0010696422007579914 0 0.010872538593874543 -0.0016605137115721328 0 0.0092284323127829852 -0.00083390457684937914 0 0.0098838753042235893 -0.0011096078514129242 0 0.011536452811724661 -0.0016662582261299426 0 0.011339558102715818 -0.0010696422007579914 0 0.01192434867705551 -0.00079701665737001888 0 0.0092284323127829852 -0.00083390457684937914 0 0.010022282517757591 -0.00026146983200762774 0 0.011398576168638382 0.0025441867250772699 0 0.011216878671418557 0.001680388996928462 0 0.011525536376209169 0.0011728798468529182 0 0.011398576168638382 0.0025441867250772699 0 0.010886024864849353 0.0019856273675235444 0 0.010850462912952198 0.002446624678359776 0 0.011398576168638382 0.0025441867250772699 0 0.010886024864849353 0.0019856273675235444 0 0.011216878671418557 0.001680388996928462 0 0.010624101701305155 0.0023032627637116581 0 0.010886024864849353 0.0019856273675235444 0 0.010850462912952198 0.002446624678359776 0 0.010886024864849353 0.0019856273675235444 0 0.011216878671418557 0.001680388996928462 0 0.011072217569360639 0.0010359877750270308 0 0.011525536376209169 0.0011728798468529182 0 0.011307958676622421 0.0003442489208200127 0 0.011159410785165599 0.00063545393559434279 0 0.011216878671418557 0.001680388996928462 0 0.011072217569360639 0.0010359877750270308 0 0.011525536376209169 0.0011728798468529182 0 0.011072217569360639 0.0010359877750270308 0 0.011525536376209169 0.0011728798468529182 0 0.011159410785165599 0.00063545393559434279 0 0.011072217569360639 0.0010359877750270308 0 0.011159410785165599 0.00063545393559434279 0 0.011049138187186142 0.00076332586219713934 0 0.010022282517757591 -0.00026146983200762774 0 0.010233676120177287 -9.4638222680801571e-05 0 0.01192434867705551 -0.00079701665737001888 0 0.011257962860084542 -0.00045934855520131487 0 0.011307958676622421 0.0003442489208200127 0 0.011339558102715818 -0.0010696422007579914 0 0.011257962860084542 -0.00045934855520131487 0 0.010885439084901831 -0.00075543771125642601 0 0.011339558102715818 -0.0010696422007579914 0 0.01192434867705551 -0.00079701665737001888 0 0.011257962860084542 -0.00045934855520131487 0 0.011307958676622421 0.0003442489208200127 0 0.010895168127428146 -5.4957100195796005e-05 0 0.010970532604707454 0.00037039842087001833 0 0.011257962860084542 -0.00045934855520131487 0 0.011307958676622421 0.0003442489208200127 0 0.010895168127428146 -5.4957100195796005e-05 0 0.011159410785165599 0.00063545393559434279 0 0.011078465381704207 0.00065897223401207758 0 0.011049138187186142 0.00076332586219713934 0 0.011307958676622421 0.0003442489208200127 0 0.011159410785165599 0.00063545393559434279 0 0.011160572250623321 0.00048587038551138492 0 0.011159410785165599 0.00063545393559434279 0 0.011078465381704207 0.00065897223401207758 0 0.011160572250623321 0.00048587038551138492 0 0.011078465381704207 0.00065897223401207758 0 0.011023739004932302 0.00076391418298935032 0 0.01104315876173801 0.00073653240864307394 0 0.011078465381704207 0.00065897223401207758 0 0.011049138187186142 0.00076332586219713934 0 0.011023739004932302 0.00076391418298935032 0 0.011049138187186142 0.00076332586219713934 0 0.011023739004932302 0.00076391418298935032 0 0.010998175959960834 0.00085565877963853833 0 0.011023739004932302 0.00076391418298935032 0 0.011003214392253914 0.00081901078091622525 0 0.010998175959960834 0.00085565877963853833 0 0.011023739004932302 0.00076391418298935032 0 0.011017427226041057 0.00079814548794254064 0 0.011003214392253914 0.00081901078091622525 0 0.011023739004932302 0.00076391418298935032 0 0.011017427226041057 0.00079814548794254064 0 0.01104315876173801 0.00073653240864307394 0 0.011017427226041057 0.00079814548794254064 0 0.011014254606476979 0.00084129424442084839 0 0.011003214392253914 0.00081901078091622525 0 0.011017427226041057 0.00079814548794254064 0 0.011014254606476979 0.00084129424442084839 0 0.011017457143416591 0.00085273239695812862 0 0.011033641260152232 0.00087144486187473952 0 0.011014254606476979 0.00084129424442084839 0 0.011017457143416591 0.00085273239695812862 0 0.011036274229796618 0.00085346581546799334 0 0.011033641260152232 0.00087144486187473952 0 0.011014254606476979 0.00084129424442084839 0 0.011036274229796618 0.00085346581546799334 0 0.011014254606476979 0.00084129424442084839 0 0.011011951939392625 0.00083805794930893996 0 0.011029591042155009 0.00084346269692199701 0 0.011036274229796618 0.00085346581546799334 0 0.011011951939392625 0.00083805794930893996 0 0.011011951939392625 0.00083805794930893996 0 0.011003214392253914 0.00081901078091622525 0 0.011003953153768189 0.00084546065962829212 0 0.011014254606476979 0.00084129424442084839 0 0.011011951939392625 0.00083805794930893996 0 0.011003214392253914 0.00081901078091622525 0 0.011003214392253914 0.00081901078091622525 0 0.011003953153768189 0.00084546065962829212 0 0.010998175959960834 0.00085565877963853833 0 0.011029591042155009 0.00084346269692199701 0 0.011011951939392625 0.00083805794930893996 0 0.011003953153768189 0.00084546065962829212 0 0.011024289439352106 0.00083946855745355706 0 0.011029591042155009 0.00084346269692199701 0 0.011003953153768189 0.00084546065962829212 0 0.011024289439352106 0.00083946855745355706 0 0.010989893461563245 0.0008497041473926923 0 0.011003953153768189 0.00084546065962829212 0 0.010989893461563245 0.0008497041473926923 0 0.011003953153768189 0.00084546065962829212 0 0.010998175959960834 0.00085565877963853833 0 0.010989893461563245 0.0008497041473926923 0 0.011072217569360639 0.0010359877750270308 0 0.010998175959960834 0.00085565877963853833 0 0.010545950869552408 0.0016014411054842157 0 0.010838256469437918 0.0014159346634239863 0 0.011072217569360639 0.0010359877750270308 0 0.011049138187186142 0.00076332586219713934 0 0.010998175959960834 0.00085565877963853833 0 0.0097067215491199229 -0.0013641982795803719 0 0.010388282515339005 -0.0019412003512974177 0 0.0092832479199183859 -0.0022348405669545858 0 0.0090484004740353178 -0.0014245609000327801 0 0.0092832479199183859 -0.0022348405669545858 0 0.0083693185329825198 -0.0017134245409745922 0 0.0090484004740353178 -0.0014245609000327801 0 0.0097067215491199229 -0.0013641982795803719 0 0.0092832479199183859 -0.0022348405669545858 0 0.0090484004740353178 -0.0014245609000327801 0 0.0097067215491199229 -0.0013641982795803719 0 0.0091776342565307537 -0.00066997016847650335 0 0.0097067215491199229 -0.0013641982795803719 0 0.00979173055463947 -0.00069884754353436091 0 0.0091776342565307537 -0.00066997016847650335 0 0.01046191072001108 -0.00069660297786054899 0 0.010296979442779245 -0.0014128986371857344 0 0.0097067215491199229 -0.0013641982795803719 0 0.010598631467351122 -0.0010422733117357137 0 0.010388282515339005 -0.0019412003512974177 0 0.0097067215491199229 -0.0013641982795803719 0 0.010598631467351122 -0.0010422733117357137 0 0.00979173055463947 -0.00069884754353436091 0 0.010573873378119977 0.00020026436683288204 0 0.010895168127428146 -5.4957100195796005e-05 0 0.010970532604707454 0.00037039842087001833 0 0.010573873378119977 0.00020026436683288204 0 0.010895168127428146 -5.4957100195796005e-05 0 0.010141347748969666 -0.00071332710896994324 0 0.010895168127428146 -5.4957100195796005e-05 0 0.010885439084901831 -0.00075543771125642601 0 0.010141347748969666 -0.00071332710896994324 0 0.011257962860084542 -0.00045934855520131487 0 0.010895168127428146 -5.4957100195796005e-05 0 0.010885439084901831 -0.00075543771125642601 0 0.010296979442779245 -0.0014128986371857344 0 0.010131654703602676 -0.0022056368723273245 0 0.010388282515339005 -0.0019412003512974177 0 0.010142463363324456 -0.0027686367122751825 0 0.0092832479199183859 -0.0022348405669545858 0 0.010885439084901831 -0.00075543771125642601 0 0.010141347748969666 -0.00071332710896994324 0 0.010872538593874543 -0.0016605137115721328 0 0.010141347748969666 -0.00071332710896994324 0 0.010872538593874543 -0.0016605137115721328 0 0.0099011193549152134 -0.0020762042902101401 0 0.011339558102715818 -0.0010696422007579914 0 0.010885439084901831 -0.00075543771125642601 0 0.010872538593874543 -0.0016605137115721328 0 0.010872538593874543 -0.0016605137115721328 0 0.0099011193549152134 -0.0020762042902101401 0 0.010646280471493181 -0.0028920975243981769 0 0.011519874832393126 -0.0025229937427664298 0 0.010872538593874543 -0.0016605137115721328 0 0.010646280471493181 -0.0028920975243981769 0 0.010131654703602676 -0.0022056368723273245 0 0.010050301534369414 -0.0026447191085574003 0 0.0099011193549152134 -0.0020762042902101401 0 0.010646280471493181 -0.0028920975243981769 0 0.0098915175068027706 -0.0034748447201300939 0 0.010142463363324456 -0.0027686367122751825 0 0.0094068668959944746 -0.0029557626294686194 0 0.0098915175068027706 -0.0034748447201300939 0 0.010142463363324456 -0.0027686367122751825 0 0.0094068668959944746 -0.0029557626294686194 0 0.0092832479199183859 -0.0022348405669545858 0 0.010927277295642678 -0.0086901427405603453 0 0.007423580949011817 -0.017613979035331361 0 0.0094068668959944746 -0.0029557626294686194 0 0.0092832479199183859 -0.0022348405669545858 0 0.0086581484980060922 -0.0031099507709963425 0 0.0094068668959944746 -0.0029557626294686194 0 0.0091098433966696011 -0.0036768670378224898 0 0.0086581484980060922 -0.0031099507709963425 0 0.0091098433966696011 -0.0036768670378224898 0 0.0085771737679435078 -0.0038673881192145747 0 0.0085216232910017408 -0.0031090280862206329 0 0.0055551608301810679 -0.012853516023515379 0 0.007423580949011817 -0.017613979035331361 0 0.0094068668959944746 -0.0029557626294686194 0 0.0091098433966696011 -0.0036768670378224898 0 0.0098915175068027706 -0.0034748447201300939 0 0.0091098433966696011 -0.0036768670378224898 0 0.0098915175068027706 -0.0034748447201300939 0 0.0096070050119263194 -0.0045443493673792881 0 0.0031559781318948152 -0.019209737424354764 0 0.0040825444777879165 -0.014509885294305171 0 0.0091098433966696011 -0.0036768670378224898 0 0.008747501529649971 -0.0043828595185598541 0 0.0096070050119263194 -0.0045443493673792881 0 0.0091098433966696011 -0.0036768670378224898 0 0.0085771737679435078 -0.0038673881192145747 0 0.008747501529649971 -0.0043828595185598541 0 0.01148867257535267 -0.0039187271438607153 0 0.010646280471493181 -0.0028920975243981769 0 0.010593966838548347 -0.0038419370382764178 0 0.010646280471493181 -0.0028920975243981769 0 0.0098915175068027706 -0.0034748447201300939 0 0.010593966838548347 -0.0038419370382764178 0 0.0098915175068027706 -0.0034748447201300939 0 0.010593966838548347 -0.0038419370382764178 0 0.0096070050119263194 -0.0045443493673792881 0 0.010593966838548347 -0.0038419370382764178 0 0.010614376110369927 -0.0048043208496381566 0 0.0096070050119263194 -0.0045443493673792881 0 0.0079728407633425855 -0.0037556340865115513 0 0.0044637461806854278 -0.0099232248301671395 0 0.01148867257535267 -0.0039187271438607153 0 0.010593966838548347 -0.0038419370382764178 0 0.010614376110369927 -0.0048043208496381566 0 0.00058126850096258209 -0.010093879059248537 0 -0.00023067423180458718 -0.01128950051821808 0 -9.5774326618499609e-06 -0.013508883178861527 0 -0.0053152466341136809 -0.023026093443996084 0 -0.00098139723395584315 -0.021504465011268965 0 -0.00036101459510456507 -0.02350806682136938 0 0.0044637461806854278 -0.0099232248301671395 0 0.0040825444777879165 -0.014509885294305171 0 0.0044637461806854278 -0.0099232248301671395 0 0.00080420748102515193 -0.014335121210667571 0 -3.9328666901893442e-06 -0.017048713595038574 0 -0.00025203142634470878 -0.017576680802148772 0 -9.5774326618499609e-06 -0.013508883178861527 0 -0.0053152466341136809 -0.023026093443996084 0 -0.00098139723395584315 -0.021504465011268965 0 -0.00025203142634470878 -0.017576680802148772 0 -0.00023067423180458718 -0.01128950051821808 0 -0.00025203142634470878 -0.017576680802148772 0 -9.5774326618499609e-06 -0.013508883178861527 0 -3.9328666901893442e-06 -0.017048713595038574 0 1.9812104997283415e-06 -0.011953759128122002 0 -9.5774326618499609e-06 -0.013508883178861527 0 0.00058126850096258209 -0.010093879059248537 0 1.9812104997283415e-06 -0.011953759128122002 0 -9.5774326618499609e-06 -0.013508883178861527 0 0.00098534457465668029 -0.024696260294901139 0 0.00031423018145032209 -0.022005422497362641 0 0.00054384955527640353 -0.024273333541645393 0 0.00098534457465668029 -0.024696260294901139 0 -0.00036101459510456507 -0.02350806682136938 0 0.00031423018145032209 -0.022005422497362641 0 -0.00098139723395584315 -0.021504465011268965 0 -0.00036101459510456507 -0.02350806682136938 0 0.00031423018145032209 -0.022005422497362641 0 -3.9328666901893442e-06 -0.017048713595038574 0 -0.00025203142634470878 -0.017576680802148772 0 2.4109847988105686e-06 -0.022143121222944585 0 -0.00025203142634470878 -0.017576680802148772 0 0.00031423018145032209 -0.022005422497362641 0 2.4109847988105686e-06 -0.022143121222944585 0 -0.00098139723395584315 -0.021504465011268965 0 -0.00025203142634470878 -0.017576680802148772 0 0.00031423018145032209 -0.022005422497362641 0 0.00031423018145032209 -0.022005422497362641 0 2.4109847988105686e-06 -0.022143121222944585 0 0.00054384955527640353 -0.024273333541645393 0 2.4109847988105686e-06 -0.022143121222944585 0 0.00054384955527640353 -0.024273333541645393 0 2.1363548214690854e-07 -0.027235423077557816 0 0.00054384955527640353 -0.024273333541645393 0 0.00044109337756015538 -0.026321382986677296 0 2.1363548214690854e-07 -0.027235423077557816 0 0.00098534457465668029 -0.024696260294901139 0 0.00054384955527640353 -0.024273333541645393 0 0.00044109337756015538 -0.026321382986677296 0 0.00098534457465668029 -0.024696260294901139 0 0.00044109337756015538 -0.026321382986677296 0 4.052755774071879e-05 -0.024998402581403248 0 -0.0002294386655023111 -0.029600630041672852 0 0.00040265210035770205 -0.031967757915022509 0 -0.0021535656697968444 -0.032748913436792454 0 -0.00059215037426258712 -0.027699190175155135 0 0.00010277701960286867 -0.025950744707208494 0 0.00044109337756015538 -0.026321382986677296 0 -0.0002294386655023111 -0.029600630041672852 0 4.052755774071879e-05 -0.024998402581403248 0 0.00044109337756015538 -0.026321382986677296 0 2.1363548214690854e-07 -0.027235423077557816 0 -0.0002294386655023111 -0.029600630041672852 0 -0.0002294386655023111 -0.029600630041672852 0 2.7441265387278965e-07 -0.032327483361644926 0 0.00031208977854247288 -0.033307355474917595 0 2.1363548214690854e-07 -0.027235423077557816 0 -0.0002294386655023111 -0.029600630041672852 0 2.7441265387278965e-07 -0.032327483361644926 0 -0.0002294386655023111 -0.029600630041672852 0 0.00031208977854247288 -0.033307355474917595 0 0.00059139381068842314 -0.032819912778543597 0 2.7441265387278965e-07 -0.032327483361644926 0 0.00031208977854247288 -0.033307355474917595 0 1.2379662526099493e-06 -0.037421263422572376 0 0.00031208977854247288 -0.033307355474917595 0 0.00059139381068842314 -0.032819912778543597 0 0.0001459691113535102 -0.034866745823960321 0 -0.00088288655180603851 -0.04210574295614973 0 -0.0005148997708996671 -0.043364357782679025 0 0.00059139381068842314 -0.032819912778543597 0 0.00038791848733999199 -0.032410829364737319 0 0.00015740578625478481 -0.03263268573279697 0 0.00059139381068842314 -0.032819912778543597 0 0.00057665110194154263 -0.032353901077016682 0 0.00040265210035770205 -0.031967757915022509 0 0.00059139381068842314 -0.032819912778543597 0 0.00057665110194154263 -0.032353901077016682 0 0.00061897198193757515 -0.032380638827199611 0 0.00059139381068842314 -0.032819912778543597 0 0.00038791848733999199 -0.032410829364737319 0 0.00061897198193757515 -0.032380638827199611 0 -0.0002294386655023111 -0.029600630041672852 0 0.00059139381068842314 -0.032819912778543597 0 0.00040265210035770205 -0.031967757915022509 0 0.00063577403775208171 -0.034657950478237005 0 0.00095162431904107707 -0.042245739809237792 0 0.00040265210035770205 -0.031967757915022509 0 -0.00043818195775955938 -0.033042726248507744 0 -0.0021535656697968444 -0.032748913436792454 0 -0.00043818195775955938 -0.033042726248507744 0 0.00052742917552422639 -0.03248878308147575 0 0.00060326853926025907 -0.032927454266885717 0 0.00057665110194154263 -0.032353901077016682 0 0.00040265210035770205 -0.031967757915022509 0 0.00052742917552422639 -0.03248878308147575 0 0.00040265210035770205 -0.031967757915022509 0 -0.00043818195775955938 -0.033042726248507744 0 0.00052742917552422639 -0.03248878308147575 0 0.00078681696446543966 -0.032343871060456421 0 0.00061897198193757515 -0.032380638827199611 0 0.00060326853926025907 -0.032927454266885717 0 -0.00038114282893866435 -0.043822273838002447 0 -0.00029342472143955401 -0.043645771526677632 0 0.00057665110194154263 -0.032353901077016682 0 0.00061897198193757515 -0.032380638827199611 0 0.00052742917552422639 -0.03248878308147575 0 0.00061897198193757515 -0.032380638827199611 0 0.00052742917552422639 -0.03248878308147575 0 0.00060326853926025907 -0.032927454266885717 0 -0.00038114282893866435 -0.043822273838002447 0 0.00095162431904107707 -0.042245739809237792 0 -0.00028860176069062094 -0.045805163662652006 0 -0.00084047776850081036 -0.044959223374382511 0 -0.0018628457641068289 -0.045377675946636713 0 -0.00028860176069062094 -0.045805163662652006 0 -0.00084047776850081036 -0.044959223374382511 0 0.00061617494658677949 -0.044996084709091548 0 0.0008124066473459273 -0.045966322801810684 0 0.00061617494658677949 -0.044996084709091548 0 0.0014349755015143897 -0.04524541819767694 0 0.0008124066473459273 -0.045966322801810684 0 -0.00017539130258402603 -0.045744841981087685 0 0.00061617494658677949 -0.044996084709091548 0 0.00095162431904107707 -0.042245739809237792 0 0.00040237979460388184 -0.043045857716168208 0 0.00061617494658677949 -0.044996084709091548 0 0.0014349755015143897 -0.04524541819767694 0 0.00092042894071945897 -0.044344014847436899 0 0.0014349755015143897 -0.04524541819767694 0 0.00191235297395934 -0.044636024474945558 0 0.00092042894071945897 -0.044344014847436899 0 0.0014349755015143897 -0.04524541819767694 0 0.0024396416557766303 -0.045254972301369566 0 0.0018493992805591831 -0.046175698999037458 0 0.0014349755015143897 -0.04524541819767694 0 0.0024396416557766303 -0.045254972301369566 0 0.00191235297395934 -0.044636024474945558 0 0.0085771737679435078 -0.0038673881192145747 0 0.0081710448201350976 -0.0036513296210382257 0 0.0085216232910017408 -0.0031090280862206329 0 0.0024396416557766303 -0.045254972301369566 0 0.0030224718675738713 -0.044316782282587883 0 0.00191235297395934 -0.044636024474945558 0 0.003738301252724111 -0.022352939242355988 0 0.007423580949011817 -0.017613979035331361 0 0.0085771737679435078 -0.0038673881192145747 0 0.0081710448201350976 -0.0036513296210382257 0 0.0078062813152145957 -0.0042354937360619075 0 0.0031559781318948152 -0.019209737424354764 0 0.00010277701960286867 -0.025950744707208494 0 0.0085771737679435078 -0.0038673881192145747 0 0.008747501529649971 -0.0043828595185598541 0 0.0078062813152145957 -0.0042354937360619075 0 0.003738301252724111 -0.022352939242355988 0 0.00010277701960286867 -0.025950744707208494 0 0.00063577403775208171 -0.034657950478237005 0 0.00010277701960286867 -0.025950744707208494 0 0.0008124066473459273 -0.045966322801810684 0 0.0014349755015143897 -0.04524541819767694 0 0.0018493992805591831 -0.046175698999037458 0 -0.0012351026910311196 -0.050205169283930581 0 -0.00059609396861993872 -0.050825439660436629 0 -0.00095695884260962253 -0.051241973500735165 0 -0.0028557211927196049 -0.053390858594731763 0 0.00060743178164506396 -0.053039406188749895 0 -0.00095695884260962253 -0.051241973500735165 0 -0.0044578035438950234 -0.050706074246325075 0 -0.0028557211927196049 -0.053390858594731763 0 -0.00095695884260962253 -0.051241973500735165 0 -5.3054295626647823e-06 -0.046774110186836221 0 -0.0044578035438950234 -0.050706074246325075 0 -9.0516395337300761e-07 -0.046765847903923366 0 -0.00098106408114919568 -0.047358459856019261 0 -1.631316120025858e-08 -0.042524874767449289 0 6.7154752882367277e-05 -0.043222572685300747 0 -0.00065387902174869747 -0.043112662226336022 0 1.4917885513347062e-08 -0.046756597286863905 0 -1.631316120025858e-08 -0.042524874767449289 0 6.7154752882367277e-05 -0.043222572685300747 0 -0.0056390090048664783 -0.052835694875741364 0 -0.0075247103730377235 -0.05365811739888119 0 -0.0028557211927196049 -0.053390858594731763 0 -0.0044578035438950234 -0.050706074246325075 0 -0.0056390090048664783 -0.052835694875741364 0 -0.0077976458096486873 -0.053671537927496807 0 -0.0044578035438950234 -0.050706074246325075 0 -0.0056390090048664783 -0.052835694875741364 0 -0.0028557211927196049 -0.053390858594731763 0 -0.00098106408114919568 -0.047358459856019261 0 -0.00054978688104797397 -0.047358884502192805 0 -0.00065387902174869747 -0.043112662226336022 0 -0.0012246592756240764 -0.043654369267959361 0 -0.00068648063156636675 -0.04388370393258758 0 6.7154752882367277e-05 -0.043222572685300747 0 -0.00065387902174869747 -0.043112662226336022 0 -0.00068648063156636675 -0.04388370393258758 0 -3.524771081791112e-06 -0.042510231712440082 0 -0.00054623423677608511 -0.036871967930835477 0 1.2379662526099493e-06 -0.037421263422572376 0 1.0867222050288178e-06 -0.042513626535448656 0 0.00039569494564674324 -0.041903415119528054 0 -0.00054623423677608511 -0.036871967930835477 0 1.2379662526099493e-06 -0.037421263422572376 0 0.0001459691113535102 -0.034866745823960321 0 0.00031208977854247288 -0.033307355474917595 0 1.2379662526099493e-06 -0.037421263422572376 0 0.0001459691113535102 -0.034866745823960321 0 -0.00054623423677608511 -0.036871967930835477 0 0.0001459691113535102 -0.034866745823960321 0 -7.124791458605384e-05 -0.033965042552222754 0 0.00059139381068842314 -0.032819912778543597 0 0.0001459691113535102 -0.034866745823960321 0 -7.124791458605384e-05 -0.033965042552222754 0 0.00039569494564674324 -0.041903415119528054 0 -0.0005148997708996671 -0.043364357782679025 0 -0.0005148997708996671 -0.043364357782679025 0 -0.00054978688104797397 -0.047358884502192805 0 -0.00038114282893866435 -0.043822273838002447 0 -0.0005148997708996671 -0.043364357782679025 0 -0.00057271858263848157 -0.052845281469469978 0 -0.00031424086567573029 -0.052969185953808701 0 -0.00016079826809253428 -0.052828666988062836 0 -0.00057271858263848157 -0.052845281469469978 0 -0.00081369393572767762 -0.053058527007098136 0 -0.00031694761749704068 -0.053203474536509643 0 -0.00057271858263848157 -0.052845281469469978 0 -0.00031424086567573029 -0.052969185953808701 0 -0.00031694761749704068 -0.053203474536509643 0 -3.4028451096671512e-05 -0.045786597968408761 0 -0.00036533276898400246 -0.046099504142499165 0 -0.00097938984639737298 -0.045844682597127158 0 -0.00038114282893866435 -0.043822273838002447 0 -0.00054978688104797397 -0.047358884502192805 0 0.00095162431904107707 -0.042245739809237792 0 -0.00030096911901834444 -0.046052243261088352 0 -0.00031694761749704068 -0.053203474536509643 0 -9.676156428147039e-05 -0.053110986708020315 0 0.00015701155958850577 -0.053349021052249673 0 -0.00030096911901834444 -0.046052243261088352 0 -0.0010587467523085112 -0.047832027457915476 0 -0.0018628457641068289 -0.045377675946636713 0 -0.0029792781072615218 -0.045097868375323681 0 -0.0025581510192956747 -0.044270568916119683 0 1.0682209755863041e-05 -0.05304028003832139 0 -9.676156428147039e-05 -0.053110986708020315 0 -0.00014455995910156872 -0.052961549111149343 0 1.0682209755863041e-05 -0.05304028003832139 0 -9.676156428147039e-05 -0.053110986708020315 0 0.00010041951647414626 -0.05314759054863593 0 -0.00031424086567573029 -0.052969185953808701 0 -9.676156428147039e-05 -0.053110986708020315 0 -0.00014455995910156872 -0.052961549111149343 0 -0.00031424086567573029 -0.052969185953808701 0 -0.00031694761749704068 -0.053203474536509643 0 -9.676156428147039e-05 -0.053110986708020315 0 -0.00031424086567573029 -0.052969185953808701 0 -0.00014455995910156872 -0.052961549111149343 0 -0.00017332070961063994 -0.052862228624546814 0 -0.0008242057573577677 -0.047834973159914564 0 -0.00054978688104797397 -0.047358884502192805 0 -0.00014455995910156872 -0.052961549111149343 0 -0.00017332070961063994 -0.052862228624546814 0 -0.00014354661309901913 -0.052860116690499399 0 -0.00054978688104797397 -0.047358884502192805 0 -0.00067343645667513068 -0.047817382071844682 0 -0.0056390090048664783 -0.052835694875741364 0 -0.0077976458096486873 -0.053671537927496807 0 -0.0075247103730377235 -0.05365811739888119 0 1.0682209755863041e-05 -0.05304028003832139 0 -0.00014455995910156872 -0.052961549111149343 0 -0.00014354661309901913 -0.052860116690499399 0 -0.00067343645667513068 -0.047817382071844682 0 0.00067563460356083894 -0.050849888170408933 0 -0.00030691000598936604 -0.053028343534811118 0 0.00019025350151014787 -0.053238683749034739 0 0.0001625700784598553 -0.053031133104975259 0 1.0682209755863041e-05 -0.05304028003832139 0 -0.00014354661309901913 -0.052860116690499399 0 0.00033295835431980403 -0.053124431885740744 0 1.0682209755863041e-05 -0.05304028003832139 0 0.00010041951647414626 -0.05314759054863593 0 0.00033295835431980403 -0.053124431885740744 0 -0.00067343645667513068 -0.047817382071844682 0 -0.0012351026910311196 -0.050205169283930581 0 -9.676156428147039e-05 -0.053110986708020315 0 0.00010041951647414626 -0.05314759054863593 0 0.00015701155958850577 -0.053349021052249673 0 0.00010041951647414626 -0.05314759054863593 0 0.00015701155958850577 -0.053349021052249673 0 0.00033295835431980403 -0.053124431885740744 0 -0.0010587467523085112 -0.047832027457915476 0 -0.0015377008005758642 -0.048751389425509932 0 0.00015701155958850577 -0.053349021052249673 0 0.00033295835431980403 -0.053124431885740744 0 0.00056194677771062584 -0.053480699994660451 0 0.00019025350151014787 -0.053238683749034739 0 0.0001625700784598553 -0.053031133104975259 0 0.00060743178164506396 -0.053039406188749895 0 -0.00335489870841434 -0.044276593790209422 0 -0.0034675204360341658 -0.04378554653886077 0 -0.0039390871560793959 -0.04415368204929563 0 -0.00335489870841434 -0.044276593790209422 0 -0.0029996249676709644 -0.043833105557566088 0 -0.0034675204360341658 -0.04378554653886077 0 -0.00335489870841434 -0.044276593790209422 0 -0.0039143668033987736 -0.044924505983928872 0 -0.0039390871560793959 -0.04415368204929563 0 -0.0029792781072615218 -0.045097868375323681 0 -0.00335489870841434 -0.044276593790209422 0 -0.0039143668033987736 -0.044924505983928872 0 -0.0029792781072615218 -0.045097868375323681 0 -0.00335489870841434 -0.044276593790209422 0 -0.0025581510192956747 -0.044270568916119683 0 -0.00335489870841434 -0.044276593790209422 0 -0.0029996249676709644 -0.043833105557566088 0 -0.0025581510192956747 -0.044270568916119683 0 -0.0029996249676709644 -0.043833105557566088 0 -0.0025581510192956747 -0.044270568916119683 0 -0.0024251861894513949 -0.043642124403061186 0 -0.0025581510192956747 -0.044270568916119683 0 -0.0014646701399983898 -0.043874941047910634 0 -0.0024251861894513949 -0.043642124403061186 0 -0.0018628457641068289 -0.045377675946636713 0 -0.0025581510192956747 -0.044270568916119683 0 -0.0014646701399983898 -0.043874941047910634 0 -0.00084047776850081036 -0.044959223374382511 0 -0.0018628457641068289 -0.045377675946636713 0 -0.0014646701399983898 -0.043874941047910634 0 -0.0011763773130786168 -0.041905377112934114 0 -0.0015815947715322911 -0.040957745739438313 0 -0.0014646701399983898 -0.043874941047910634 0 -0.0018952382340586874 -0.042364386458729544 0 -0.0009850656452745749 -0.04240736630818915 0 -0.0014646701399983898 -0.043874941047910634 0 -0.0018952382340586874 -0.042364386458729544 0 -0.0030973792009030918 -0.042602302281043468 0 -0.0018952382340586874 -0.042364386458729544 0 -0.0015168811437430596 -0.041637981066838053 0 -0.0009850656452745749 -0.04240736630818915 0 -0.0018952382340586874 -0.042364386458729544 0 -0.0015168811437430596 -0.041637981066838053 0 -0.0026242884954869646 -0.041702814174486146 0 0.00044679956013514194 -0.029190303270715777 0 0.0030982670534400189 -0.023023690668684659 0 0.0027308751171442763 -0.02448691776883663 0 0.0034500412430196587 -0.024348365751481409 0 0.0028836560035372123 -0.023841907001966135 0 0.0027308751171442763 -0.02448691776883663 0 0.0024004561402515322 -0.024069345473933346 0 0.0028836560035372123 -0.023841907001966135 0 -0.0015168811437430596 -0.041637981066838053 0 -0.0021846584877378314 -0.040968638299354598 0 -0.00080056934401901531 -0.040739393995942993 0 -0.0015168811437430596 -0.041637981066838053 0 -0.0021846584877378314 -0.040968638299354598 0 -0.0026242884954869646 -0.041702814174486146 0 0.00044679956013514194 -0.029190303270715777 0 -0.001287100378753225 -0.034169977333228303 0 0.0020029979515165186 -0.024634112184937475 0 0.0019160666954828639 -0.023842553311069863 0 0.0024004561402515322 -0.024069345473933346 0 -0.0021846584877378314 -0.040968638299354598 0 -0.0026242884954869646 -0.041702814174486146 0 -0.0036036835172646065 -0.04121382775607537 0 0.0027308751171442763 -0.02448691776883663 0 0.0020029979515165186 -0.024634112184937475 0 0.0024004561402515322 -0.024069345473933346 0 -0.0035698901308423383 -0.041512573061135011 0 -0.0026242884954869646 -0.041702814174486146 0 -0.0036036835172646065 -0.04121382775607537 0 -0.0035698901308423383 -0.041512573061135011 0 -0.0026242884954869646 -0.041702814174486146 0 -0.0030973792009030918 -0.042602302281043468 0 -0.0018952382340586874 -0.042364386458729544 0 -0.0026242884954869646 -0.041702814174486146 0 -0.0030973792009030918 -0.042602302281043468 0 -0.0029996249676709644 -0.043833105557566088 0 -0.0031745719790338199 -0.04329081155279426 0 -0.0034675204360341658 -0.04378554653886077 0 -0.0035698901308423383 -0.041512573061135011 0 -0.0030973792009030918 -0.042602302281043468 0 -0.0046423625557186722 -0.041399121714858274 0 -0.0029996249676709644 -0.043833105557566088 0 -0.0024251861894513949 -0.043642124403061186 0 -0.0031745719790338199 -0.04329081155279426 0 -0.0015815947715322911 -0.040957745739438313 0 -0.0023127078140800432 -0.03804339122423013 0 -0.001287100378753225 -0.034169977333228303 0 -0.0023127078140800432 -0.03804339122423013 0 -0.001287100378753225 -0.034169977333228303 0 0.0008392237328792402 -0.028500874753236555 0 -0.0035698901308423383 -0.041512573061135011 0 -0.0036038026932190127 -0.041216233592931958 0 -0.0046423625557186722 -0.041399121714858274 0 -0.0026837391799462459 -0.037909095908140227 0 -0.002548230321938834 -0.03812557966129957 0 -0.0026177312876589955 -0.0384144455026105 0 -0.0026837391799462459 -0.037909095908140227 0 -0.002548230321938834 -0.03812557966129957 0 -0.0023215366243918411 -0.037840451799624711 0 -0.0012863487842813633 -0.034334123872872664 0 -0.001287100378753225 -0.034169977333228303 0 -0.0021807102057313653 -0.03830209505250446 0 -0.0018110141025496839 -0.038402896963586515 0 -0.0019150000146595455 -0.038429850803029054 0 -0.0016219594552769221 -0.038378542908333112 0 -0.0016277128699492644 -0.038644980708328946 0 -0.002548230321938834 -0.03812557966129957 0 -0.0023215366243918411 -0.037840451799624711 0 -0.0017792289093474499 -0.038250309553788102 0 -0.0023127078140800432 -0.03804339122423013 0 -0.0018110141025496839 -0.038402896963586515 0 -0.0034675204360341658 -0.04378554653886077 0 -0.0039390871560793959 -0.04415368204929563 0 -0.003872777020457515 -0.043534280022537952 0 -0.0023127078140800432 -0.03804339122423013 0 -0.002713131210941612 -0.040208760322928576 0 -0.0031745719790338199 -0.04329081155279426 0 -0.0034675204360341658 -0.04378554653886077 0 -0.003872777020457515 -0.043534280022537952 0 0.0020310372783615394 -0.043184982894574273 0 0.0012169569717344324 -0.043220890755005729 0 0.0016929664511990904 -0.043909288699234633 0 0.0012169569717344324 -0.043220890755005729 0 0.0016929664511990904 -0.043909288699234633 0 0.00090145404468626672 -0.043629156049594824 0 0.0020310372783615394 -0.043184982894574273 0 0.0012169569717344324 -0.043220890755005729 0 0.0010210620232322808 -0.042375075229844877 0 0.0092832479199183859 -0.0022348405669545858 0 0.0081559717979379099 -0.0025138667221494019 0 0.0087390588541382767 -0.0032041397931300113 0 0.0020310372783615394 -0.043184982894574273 0 0.0030224718675738713 -0.044316782282587883 0 0.0016929664511990904 -0.043909288699234633 0 0.0030224718675738713 -0.044316782282587883 0 0.00191235297395934 -0.044636024474945558 0 0.0016929664511990904 -0.043909288699234633 0 0.0070798119011151166 -0.01977196795122493 0 0.007423580949011817 -0.017613979035331361 0 0.0016929664511990904 -0.043909288699234633 0 0.00092042894071945897 -0.044344014847436899 0 0.00090145404468626672 -0.043629156049594824 0 0.00191235297395934 -0.044636024474945558 0 0.0016929664511990904 -0.043909288699234633 0 0.00092042894071945897 -0.044344014847436899 0 0.00092042894071945897 -0.044344014847436899 0 -0.00029344968033461567 -0.044261922485569143 0 0.00028891034945845894 -0.043684222178860574 0 0.00061617494658677949 -0.044996084709091548 0 0.00092042894071945897 -0.044344014847436899 0 -0.00029344968033461567 -0.044261922485569143 0 0.00092042894071945897 -0.044344014847436899 0 0.00090145404468626672 -0.043629156049594824 0 0.00028891034945845894 -0.043684222178860574 0 -0.00084047776850081036 -0.044959223374382511 0 0.00061617494658677949 -0.044996084709091548 0 -0.00029344968033461567 -0.044261922485569143 0 -0.00084047776850081036 -0.044959223374382511 0 -0.0014646701399983898 -0.043874941047910634 0 -0.00029344968033461567 -0.044261922485569143 0 -0.0014646701399983898 -0.043874941047910634 0 -0.00029344968033461567 -0.044261922485569143 0 -0.00030076835946458546 -0.043086288189186174 0 -0.0014646701399983898 -0.043874941047910634 0 -0.00030076835946458546 -0.043086288189186174 0 -0.0009850656452745749 -0.04240736630818915 0 -0.00029344968033461567 -0.044261922485569143 0 -0.00030076835946458546 -0.043086288189186174 0 0.00028891034945845894 -0.043684222178860574 0 0.0012169569717344324 -0.043220890755005729 0 0.00090145404468626672 -0.043629156049594824 0 0.00053361173457479544 -0.043059566726178368 0 0.00090145404468626672 -0.043629156049594824 0 0.00028891034945845894 -0.043684222178860574 0 0.00053361173457479544 -0.043059566726178368 0 -0.00030076835946458546 -0.043086288189186174 0 0.00028891034945845894 -0.043684222178860574 0 0.00053361173457479544 -0.043059566726178368 0 -0.00030076835946458546 -0.043086288189186174 0 0.00053361173457479544 -0.043059566726178368 0 0.0002155508287516893 -0.042457326473566918 0 0.00053361173457479544 -0.043059566726178368 0 0.0002155508287516893 -0.042457326473566918 0 0.0010210620232322808 -0.042375075229844877 0 0.0012169569717344324 -0.043220890755005729 0 0.00053361173457479544 -0.043059566726178368 0 0.0010210620232322808 -0.042375075229844877 0 0.0048566004275126624 -0.030415050452782279 0 0.0052800739184319569 -0.032579279412529694 0 0.0002155508287516893 -0.042457326473566918 0 0.00014263434712650028 -0.041638707871772672 0 -0.00031677673532320267 -0.04222011393834392 0 0.0002155508287516893 -0.042457326473566918 0 0.00014263434712650028 -0.041638707871772672 0 0.0010210620232322808 -0.042375075229844877 0 -0.00015639382302354692 -0.04124925968467006 0 0.00092177379217300674 -0.04172106771228308 0 0.0010210620232322808 -0.042375075229844877 0 -0.0009850656452745749 -0.04240736630818915 0 -0.00031677673532320267 -0.04222011393834392 0 -0.00065448343101706479 -0.04165301657093038 0 -0.00030076835946458546 -0.043086288189186174 0 -0.0009850656452745749 -0.04240736630818915 0 -0.00031677673532320267 -0.04222011393834392 0 -0.00030076835946458546 -0.043086288189186174 0 0.0002155508287516893 -0.042457326473566918 0 -0.00031677673532320267 -0.04222011393834392 0 0.00014263434712650028 -0.041638707871772672 0 -0.00031677673532320267 -0.04222011393834392 0 -0.00065448343101706479 -0.04165301657093038 0 -0.0015168811437430596 -0.041637981066838053 0 -0.0009850656452745749 -0.04240736630818915 0 -0.00065448343101706479 -0.04165301657093038 0 -0.0015168811437430596 -0.041637981066838053 0 -0.00065448343101706479 -0.04165301657093038 0 -0.00080056934401901531 -0.040739393995942993 0 0.0048566004275126624 -0.030415050452782279 0 0.0030982670534400189 -0.023023690668684659 0 0.00014263434712650028 -0.041638707871772672 0 -0.00065448343101706479 -0.04165301657093038 0 -0.00080056934401901531 -0.040739393995942993 0 -0.00015639382302354692 -0.04124925968467006 0 -0.00053517073602070636 -0.039881894136517937 0 -0.001429909393979113 -0.040030559251599651 0 0.0059930609425804969 -0.015806137937650042 0 0.0030982670534400189 -0.023023690668684659 0 0.0041989936026593112 -0.015694224736560208 0 0.0042367973261397433 -0.015690206883398523 0 0.0042235674111493222 -0.015720591210079262 0 0.0063180878346780532 -0.013780417752313374 0 0.0052447269204642082 -0.013151979525135808 0 0.0065620342486977772 -0.012317943732195998 0 0.0058283239221679052 -0.012452945653067087 0 0.0074978003667924885 -0.01336252462542244 0 0.0059930609425804969 -0.015806137937650042 0 0.0052447269204642082 -0.013151979525135808 0 0.0075722800960602204 -0.0018505874785160142 0 0.0070045062356089071 -0.0012280532996360157 0 0.0073912987164524305 -0.0013092867305406629 0 0.0071514903741381562 -0.001196429832228644 0 0.0073912987164524305 -0.0013092867305406629 0 0.0080986402647499223 -0.0009420893149183889 0 0.0064104874298097358 -0.018949937266630631 0 0.0059930609425804969 -0.015806137937650042 0 -0.00015639382302354692 -0.04124925968467006 0 0.00092177379217300674 -0.04172106771228308 0 -0.00053517073602070636 -0.039881894136517937 0 0.0075722800960602204 -0.0018505874785160142 0 0.0073912987164524305 -0.0013092867305406629 0 0.0078715076809909787 -0.0014272700220368535 0 0.0070045062356089071 -0.0012280532996360157 0 0.0071625009762282038 -0.0011965907488586873 0 0.0073912987164524305 -0.0013092867305406629 0 0.0063180878346780532 -0.013780417752313374 0 0.006066642144772507 -0.013364264986533245 0 0.0059930609425804969 -0.015806137937650042 0 0.0063180878346780532 -0.013780417752313374 0 0.0078715076809909787 -0.0014272700220368535 0 0.0083693185329825198 -0.0017134245409745922 0 0.0080986402647499223 -0.0009420893149183889 0 0.0073912987164524305 -0.0013092867305406629 0 0.0078715076809909787 -0.0014272700220368535 0 0.0080986402647499223 -0.0009420893149183889 0 0.0063180878346780532 -0.013780417752313374 0 0.0088789226885237597 -0.0076380299579432917 0 0.0075722800960602204 -0.0018505874785160142 0 0.0078715076809909787 -0.0014272700220368535 0 0.0083693185329825198 -0.0017134245409745922 0 0.0081559717979379099 -0.0025138667221494019 0 0.0075722800960602204 -0.0018505874785160142 0 0.0083693185329825198 -0.0017134245409745922 0 0.0020310372783615394 -0.043184982894574273 0 0.00092177379217300674 -0.04172106771228308 0 0.0010210620232322808 -0.042375075229844877 0 0.0070798119011151166 -0.01977196795122493 0 0.0064104874298097358 -0.018949937266630631 0 0.0092832479199183859 -0.0022348405669545858 0 0.0081559717979379099 -0.0025138667221494019 0 0.0083693185329825198 -0.0017134245409745922 0 0.0090484004740353178 -0.0014245609000327801 0 0.0080986402647499223 -0.0009420893149183889 0 0.0091776342565307537 -0.00066997016847650335 0 0.0090484004740353178 -0.0014245609000327801 0 0.0083693185329825198 -0.0017134245409745922 0 0.0080986402647499223 -0.0009420893149183889 0 0.0089217026193494659 -0.00047857001951218938 0 0.0088000954284513551 -0.00074703797066791062 0 0.0091776342565307537 -0.00066997016847650335 0 0.0088789226885237597 -0.0076380299579432917 0 0.009411525414299694 -0.0059575786470725993 0 0.0089217026193494659 -0.00047857001951218938 0 0.0089991347191010328 -0.0002075356324998435 0 0.009307554262607853 -0.00023851529347280952 0 0.0089217026193494659 -0.00047857001951218938 0 0.0089991347191010328 -0.0002075356324998435 0 0.0086973764255069783 -0.00036296193423274777 0 0.0089217026193494659 -0.00047857001951218938 0 0.0086973764255069783 -0.00036296193423274777 0 0.008659017987813971 -0.00057693647686655775 0 0.0086973764255069783 -0.00036296193423274777 0 0.0085345338110085749 -0.00038548395565689975 0 0.00873390375440284 -0.00015731559150027047 0 0.0086973764255069783 -0.00036296193423274777 0 0.008659017987813971 -0.00057693647686655775 0 0.0085561770339123953 -0.00050030382422821271 0 0.0089217026193494659 -0.00047857001951218938 0 0.008659017987813971 -0.00057693647686655775 0 0.0088000954284513551 -0.00074703797066791062 0 0.0084336166160157867 -0.00084194308555368897 0 0.008659017987813971 -0.00057693647686655775 0 0.0088000954284513551 -0.00074703797066791062 0 0.0084336166160157867 -0.00084194308555368897 0 0.008659017987813971 -0.00057693647686655775 0 0.008462808480742429 -0.00061931075663576314 0 0.0084336166160157867 -0.00084194308555368897 0 0.008462808480742429 -0.00061931075663576314 0 0.0083751790101070436 -0.0007236146084248536 0 0.008659017987813971 -0.00057693647686655775 0 0.008462808480742429 -0.00061931075663576314 0 0.0085561770339123953 -0.00050030382422821271 0 0.0042367973261397433 -0.015690206883398523 0 0.0042235674111493222 -0.015720591210079262 0 0.004291327122838918 -0.01573750055773342 0 0.0052447269204642082 -0.013151979525135808 0 0.0041902279632382395 -0.013554683624524442 0 0.0052447269204642082 -0.013151979525135808 0 0.0045906699544350808 -0.011290889318327276 0 0.0084336166160157867 -0.00084194308555368897 0 0.0083751790101070436 -0.0007236146084248536 0 0.008311108683557146 -0.00076666551609899333 0 0.0083751790101070436 -0.0007236146084248536 0 0.008311108683557146 -0.00076666551609899333 0 0.0083105956607825264 -0.00066817040078846692 0 0.008462808480742429 -0.00061931075663576314 0 0.0083751790101070436 -0.0007236146084248536 0 0.0083105956607825264 -0.00066817040078846692 0 0.008462808480742429 -0.00061931075663576314 0 0.0083105956607825264 -0.00066817040078846692 0 0.0083331001070670527 -0.0005610016320206796 0 0.0083105956607825264 -0.00066817040078846692 0 0.0082568326049698524 -0.00060377028063544641 0 0.0083331001070670527 -0.0005610016320206796 0 0.0083105956607825264 -0.00066817040078846692 0 0.0082568326049698524 -0.00060377028063544641 0 0.0082119170623270663 -0.00067679490871879096 0 0.008311108683557146 -0.00076666551609899333 0 0.0083105956607825264 -0.00066817040078846692 0 0.0082119170623270663 -0.00067679490871879096 0 0.0082568326049698524 -0.00060377028063544641 0 0.0083331001070670527 -0.0005610016320206796 0 0.008232501331337622 -0.00051659303901191954 0 0.0082568326049698524 -0.00060377028063544641 0 0.008232501331337622 -0.00051659303901191954 0 0.0081556599161557285 -0.00060143566753873966 0 0.0083331001070670527 -0.0005610016320206796 0 0.0083738573388566166 -0.00044665895992959903 0 0.0084486732580105108 -0.00050898631660263648 0 0.0083331001070670527 -0.0005610016320206796 0 0.0083738573388566166 -0.00044665895992959903 0 0.008232501331337622 -0.00051659303901191954 0 0.008232501331337622 -0.00051659303901191954 0 0.0082931492735960673 -0.00040052858541049307 0 0.0081810452100387777 -0.00041241036195737042 0 0.0083738573388566166 -0.00044665895992959903 0 0.008232501331337622 -0.00051659303901191954 0 0.0082931492735960673 -0.00040052858541049307 0 0.0085561770339123953 -0.00050030382422821271 0 0.0084486732580105108 -0.00050898631660263648 0 0.0085345338110085749 -0.00038548395565689975 0 0.008462808480742429 -0.00061931075663576314 0 0.0083331001070670527 -0.0005610016320206796 0 0.0084486732580105108 -0.00050898631660263648 0 0.008462808480742429 -0.00061931075663576314 0 0.0085561770339123953 -0.00050030382422821271 0 0.0084486732580105108 -0.00050898631660263648 0 0.0083738573388566166 -0.00044665895992959903 0 0.0085345338110085749 -0.00038548395565689975 0 0.0084129409158798258 -0.00030400706479459522 0 0.0083738573388566166 -0.00044665895992959903 0 0.0084486732580105108 -0.00050898631660263648 0 0.0085345338110085749 -0.00038548395565689975 0 0.0086973764255069783 -0.00036296193423274777 0 0.0085561770339123953 -0.00050030382422821271 0 0.0085345338110085749 -0.00038548395565689975 0 0.0085345338110085749 -0.00038548395565689975 0 0.0084129409158798258 -0.00030400706479459522 0 0.0085449841074018828 -0.00015287045401681285 0 0.0085345338110085749 -0.00038548395565689975 0 0.0085449841074018828 -0.00015287045401681285 0 0.00873390375440284 -0.00015731559150027047 0 0.0084129409158798258 -0.00030400706479459522 0 0.0085449841074018828 -0.00015287045401681285 0 0.0084149965067138489 -0.00017461895177449101 0 0.0082931492735960673 -0.00040052858541049307 0 0.0082762715130621223 -0.00029201822026328912 0 0.0081810452100387777 -0.00041241036195737042 0 0.0083738573388566166 -0.00044665895992959903 0 0.0084129409158798258 -0.00030400706479459522 0 0.0082931492735960673 -0.00040052858541049307 0 0.0084129409158798258 -0.00030400706479459522 0 0.0082931492735960673 -0.00040052858541049307 0 0.0082762715130621223 -0.00029201822026328912 0 0.0084129409158798258 -0.00030400706479459522 0 0.0082762715130621223 -0.00029201822026328912 0 0.0084149965067138489 -0.00017461895177449101 0 0.0084149965067138489 -0.00017461895177449101 0 0.0082646091246531706 -0.00015020465032087452 0 0.0085217867527350912 -2.6332323239371848e-05 0 0.0082762715130621223 -0.00029201822026328912 0 0.0084149965067138489 -0.00017461895177449101 0 0.0082646091246531706 -0.00015020465032087452 0 0.0085449841074018828 -0.00015287045401681285 0 0.0085217867527350912 -2.6332323239371848e-05 0 0.0086933007650244389 7.9460333939350254e-05 0 0.0085449841074018828 -0.00015287045401681285 0 0.0084149965067138489 -0.00017461895177449101 0 0.0085217867527350912 -2.6332323239371848e-05 0 0.0086933007650244389 7.9460333939350254e-05 0 0.0086323476579585577 0.00038365492653270444 0 0.0092422459881984047 0.00045815481005989634 0 0.0085217867527350912 -2.6332323239371848e-05 0 0.0086933007650244389 7.9460333939350254e-05 0 0.0086383503853648212 7.444021966744569e-05 0 0.012128318242273865 -0.0071948310745873992 0 0.012788355744965375 -0.0096129547719071944 0 0.0089988865480185483 5.8276360542234816e-05 0 0.0092422459881984047 0.00045815481005989634 0 0.0093710615795316622 0.00013961446609793088 0 0.0086933007650244389 7.9460333939350254e-05 0 0.0089988865480185483 5.8276360542234816e-05 0 0.0092422459881984047 0.00045815481005989634 0 0.0089991347191010328 -0.0002075356324998435 0 0.0089988865480185483 5.8276360542234816e-05 0 0.0093710615795316622 0.00013961446609793088 0 0.0089991347191010328 -0.0002075356324998435 0 0.0089988865480185483 5.8276360542234816e-05 0 0.00873390375440284 -0.00015731559150027047 0 0.0086933007650244389 7.9460333939350254e-05 0 0.0089988865480185483 5.8276360542234816e-05 0 0.00873390375440284 -0.00015731559150027047 0 0.0085449841074018828 -0.00015287045401681285 0 0.0086933007650244389 7.9460333939350254e-05 0 0.00873390375440284 -0.00015731559150027047 0 0.0089991347191010328 -0.0002075356324998435 0 0.0086973764255069783 -0.00036296193423274777 0 0.00873390375440284 -0.00015731559150027047 0 -0.0021898295132386056 -0.038756909700144053 0 -0.0025479034721013882 -0.038870537895931062 0 -0.0021054922437600179 -0.039114252448763917 0 -0.0021898295132386056 -0.038756909700144053 0 -0.0021054922437600179 -0.039114252448763917 0 -0.0018151949849707486 -0.038773148227672603 0 -0.002548230321938834 -0.03812557966129957 0 -0.0022269550419074056 -0.038377379348691266 0 -0.0018565315452907674 -0.038289853716465164 0 -0.0022269550419074056 -0.038377379348691266 0 -0.0018151949849707486 -0.038773148227672603 0 -0.0018565315452907674 -0.038289853716465164 0 -0.0021898295132386056 -0.038756909700144053 0 -0.0022269550419074056 -0.038377379348691266 0 -0.0018151949849707486 -0.038773148227672603 0 -0.0021898295132386056 -0.038756909700144053 0 -0.0022269550419074056 -0.038377379348691266 0 -0.0023941184229619183 -0.038575009071501389 0 -0.0023941184229619183 -0.038575009071501389 0 -0.0024459815425226703 -0.038374896594063068 0 -0.0026177312876589955 -0.0384144455026105 0 -0.0022269550419074056 -0.038377379348691266 0 -0.0023941184229619183 -0.038575009071501389 0 -0.0024459815425226703 -0.038374896594063068 0 -0.002548230321938834 -0.03812557966129957 0 -0.0022269550419074056 -0.038377379348691266 0 -0.0024459815425226703 -0.038374896594063068 0 -0.002548230321938834 -0.03812557966129957 0 -0.0024459815425226703 -0.038374896594063068 0 -0.0026177312876589955 -0.0384144455026105 0 0.0019160666954828639 -0.023842553311069863 0 0.0018295358633138835 -0.023045485597223404 0 0.0023157793688100121 -0.023321341414788269 0 -0.0023941184229619183 -0.038575009071501389 0 -0.0026177312876589955 -0.0384144455026105 0 -0.0025479034721013882 -0.038870537895931062 0 0.0008392237328792402 -0.028500874753236555 0 0.0029938319827863165 -0.018940070215963525 0 -0.0021898295132386056 -0.038756909700144053 0 -0.0023941184229619183 -0.038575009071501389 0 -0.0025479034721013882 -0.038870537895931062 0 0.0078285276426675633 -0.00058554458120015475 0 0.0078816817644582898 -0.00058614042389257661 0 0.0079008090828910742 -0.00049652541468657213 0 0.0078816817644582898 -0.00058614042389257661 0 0.0079805318934380014 -0.00053243732735186173 0 0.0079008090828910742 -0.00049652541468657213 0 0.0078816817644582898 -0.00058614042389257661 0 0.0079805318934380014 -0.00053243732735186173 0 0.0079527438270604548 -0.00062194037918977688 0 0.0078285276426675633 -0.00058554458120015475 0 0.0078816817644582898 -0.00058614042389257661 0 0.0079807890571253915 -0.00075634478163583445 0 0.0079805318934380014 -0.00053243732735186173 0 0.0079527438270604548 -0.00062194037918977688 0 0.0080563817712747728 -0.00059292362405002246 0 0.0028816363382552701 -0.014644664844001603 0 0.0032753537646543433 -0.015861842539293975 0 0.0029938319827863165 -0.018940070215963525 0 0.0032753537646543433 -0.015861842539293975 0 0.0019160666954828639 -0.023842553311069863 0 0.0023157793688100121 -0.023321341414788269 0 0.0024004561402515322 -0.024069345473933346 0 0.0023157793688100121 -0.023321341414788269 0 0.0024004561402515322 -0.024069345473933346 0 0.0028836560035372123 -0.023841907001966135 0 0.0032753537646543433 -0.015861842539293975 0 0.0041902279632382395 -0.013554683624524442 0 0.0032753537646543433 -0.015861842539293975 0 0.0033560098852553608 -0.01959155888095607 0 0.0083556123423349643 -0.00089675783142012955 0 0.0081048478380741449 -0.00069712991646686182 0 0.0082119170623270663 -0.00067679490871879096 0 0.0042235674111493222 -0.015720591210079262 0 0.0042858583816155352 -0.015749079717060868 0 0.004291327122838918 -0.01573750055773342 0 0.0043299078998851144 -0.015765747172335302 0 0.0042858583816155352 -0.015749079717060868 0 0.004291327122838918 -0.01573750055773342 0 0.0030982670534400189 -0.023023690668684659 0 0.0033560098852553608 -0.01959155888095607 0 0.0081048478380741449 -0.00069712991646686182 0 0.0082119170623270663 -0.00067679490871879096 0 0.0081556599161557285 -0.00060143566753873966 0 0.0082568326049698524 -0.00060377028063544641 0 0.0082119170623270663 -0.00067679490871879096 0 0.0081556599161557285 -0.00060143566753873966 0 0.008232501331337622 -0.00051659303901191954 0 0.0081556599161557285 -0.00060143566753873966 0 0.0081015339537130367 -0.00052123167017843145 0 0.0079527438270604548 -0.00062194037918977688 0 0.0081048478380741449 -0.00069712991646686182 0 0.0080563817712747728 -0.00059292362405002246 0 0.0081556599161557285 -0.00060143566753873966 0 0.0080563817712747728 -0.00059292362405002246 0 0.0081015339537130367 -0.00052123167017843145 0 0.0081048478380741449 -0.00069712991646686182 0 0.0081556599161557285 -0.00060143566753873966 0 0.0080563817712747728 -0.00059292362405002246 0 0.0079805318934380014 -0.00053243732735186173 0 0.0080563817712747728 -0.00059292362405002246 0 0.0081015339537130367 -0.00052123167017843145 0 0.0079805318934380014 -0.00053243732735186173 0 0.0081015339537130367 -0.00052123167017843145 0 0.0080766028034897457 -0.0004412830284640415 0 0.008232501331337622 -0.00051659303901191954 0 0.0081015339537130367 -0.00052123167017843145 0 0.0081810452100387777 -0.00041241036195737042 0 0.0081810452100387777 -0.00041241036195737042 0 0.0080766028034897457 -0.0004412830284640415 0 0.008118737317444575 -0.000345314028096997 0 0.0081015339537130367 -0.00052123167017843145 0 0.0081810452100387777 -0.00041241036195737042 0 0.0080766028034897457 -0.0004412830284640415 0 0.0080766028034897457 -0.0004412830284640415 0 0.008118737317444575 -0.000345314028096997 0 0.0079845021603359243 -0.00042109390968523273 0 0.0082762715130621223 -0.00029201822026328912 0 0.0081810452100387777 -0.00041241036195737042 0 0.008118737317444575 -0.000345314028096997 0 0.0082646091246531706 -0.00015020465032087452 0 0.008118737317444575 -0.000345314028096997 0 0.0079594162351640779 -0.0003218517454978412 0 0.0082762715130621223 -0.00029201822026328912 0 0.0082646091246531706 -0.00015020465032087452 0 0.008118737317444575 -0.000345314028096997 0 0.0079594162351640779 -0.0003218517454978412 0 0.0077973433901269758 -0.00038938513261311766 0 0.0078027079519284058 -0.00028629476605117972 0 0.0079594162351640779 -0.0003218517454978412 0 0.007909830966135227 -0.0004028750711921942 0 0.0077973433901269758 -0.00038938513261311766 0 0.0079594162351640779 -0.0003218517454978412 0 0.007909830966135227 -0.0004028750711921942 0 0.0079845021603359243 -0.00042109390968523273 0 0.007909830966135227 -0.0004028750711921942 0 0.0079845021603359243 -0.00042109390968523273 0 0.0079008090828910742 -0.00049652541468657213 0 0.008118737317444575 -0.000345314028096997 0 0.0079594162351640779 -0.0003218517454978412 0 0.0079845021603359243 -0.00042109390968523273 0 0.0079805318934380014 -0.00053243732735186173 0 0.0080766028034897457 -0.0004412830284640415 0 0.0079845021603359243 -0.00042109390968523273 0 0.0079805318934380014 -0.00053243732735186173 0 0.0079845021603359243 -0.00042109390968523273 0 0.0079008090828910742 -0.00049652541468657213 0 0.0078285276426675633 -0.00058554458120015475 0 0.0079008090828910742 -0.00049652541468657213 0 0.0077973433901269758 -0.00038938513261311766 0 0.0029938319827863165 -0.018940070215963525 0 0.0044149857084120701 -0.007092951256452271 0 0.0091194038149667051 -0.012664662361070778 0 0.0083955122043981659 -0.0064832968091312363 0 0.0044320757391640223 -0.010079219769414919 0 0.0029938319827863165 -0.018940070215963525 0 0.0015853132774441676 -0.024708029746280322 0 0.007909830966135227 -0.0004028750711921942 0 0.0079008090828910742 -0.00049652541468657213 0 0.0077973433901269758 -0.00038938513261311766 0 0.0044149857084120701 -0.007092951256452271 0 0.0048369690388691397 -0.0039724968854764117 0 0.0083955122043981659 -0.0064832968091312363 0 0.004059843813353752 -0.0064856581335826025 0 0.0056842940160345794 -0.0030267597058599503 0 0.004059843813353752 -0.0064856581335826025 0 0.002772732719399085 -0.0031533073112996902 0 0.0056842940160345794 -0.0030267597058599503 0 0.0083955122043981659 -0.0064832968091312363 0 0.004059843813353752 -0.0064856581335826025 0 0.0044320757391640223 -0.010079219769414919 0 0.004059843813353752 -0.0064856581335826025 0 0.0044320757391640223 -0.010079219769414919 0 -0.00025518746778998419 -0.0075313017709450819 0 0.0073694516867025758 -0.047061738582131918 0 0.0071661934834570422 -0.047358960590660942 0 0.0037282660701564259 -0.046457765691323025 0 0.0086088473338285891 -0.079271697960295276 0 0.008726589180765373 -0.079118348730864096 0 0.0085637625017627034 -0.079153901146117214 0 0.005736091538594475 -0.042362879233378378 0 0.004273381215521805 -0.056986241992587505 0 0.0086088473338285891 -0.079271697960295276 0 0.0085637625017627034 -0.079153901146117214 0 0.0084312948922590156 -0.079187527764051788 0 0.0025593989528173832 -0.064313406115305921 0 0.004273381215521805 -0.056986241992587505 0 0.005736091538594475 -0.042362879233378378 0 0.0063725293592608112 -0.040990086479656164 0 0.0058785378478687861 0.00081174564614559374 0 0.0056842940160345794 -0.0030267597058599503 0 0.0075056226935249085 -0.00032335470105888058 0 0.0058785378478687861 0.00081174564614559374 0 0.002772732719399085 -0.0031533073112996902 0 0.0056842940160345794 -0.0030267597058599503 0 0.0063725293592608112 -0.040990086479656164 0 0.0054488131804789836 -0.031257712918212326 0 0.0047800205564347631 -0.041996055913091308 0 0.0041837076854138299 -0.042846608363074995 0 0.0034466732544720753 -0.042031429474442904 0 0.0077973433901269758 -0.00038938513261311766 0 0.0075056226935249085 -0.00032335470105888058 0 0.0078027079519284058 -0.00028629476605117972 0 0.0083955122043981659 -0.0064832968091312363 0 0.0056842940160345794 -0.0030267597058599503 0 0.0075056226935249085 -0.00032335470105888058 0 0.0075056226935249085 -0.00032335470105888058 0 0.0078027079519284058 -0.00028629476605117972 0 0.0075975897712774682 0.00019559468326394184 0 0.0086010445501190046 -0.029834137974443418 0 0.0090701430434284788 -0.029903184816443093 0 0.009378171484517717 -0.028723145648981603 0 0.0090701430434284788 -0.029903184816443093 0 0.0098312331821504145 -0.0292804168534859 0 0.009378171484517717 -0.028723145648981603 0 0.0068598071829034752 -0.0378470961877206 0 0.0087471105978691992 -0.035918525925439732 0 0.005736091538594475 -0.042362879233378378 0 0.007356518977775315 -0.048343991370665564 0 0.0058785378478687861 0.00081174564614559374 0 0.0075056226935249085 -0.00032335470105888058 0 0.0075975897712774682 0.00019559468326394184 0 0.0037293563786569856 -0.038145451582338438 0 0.0031689040958936404 -0.03896385149909172 0 0.0079540125196622749 -0.038861858438125764 0 0.0063725293592608112 -0.040990086479656164 0 0.0068598071829034752 -0.0378470961877206 0 0.005736091538594475 -0.042362879233378378 0 0.0068598071829034752 -0.0378470961877206 0 0.0099556952182219306 -0.029818280903792488 0 0.010502236347425685 -0.030061358453843837 0 0.010882415932103979 -0.029772359284814622 0 0.0090077086219334437 -0.029886576297333076 0 0.0099556952182219306 -0.029818280903792488 0 0.010502236347425685 -0.030061358453843837 0 0.0068598071829034752 -0.0378470961877206 0 0.00816379424149021 -0.024354889637167247 0 0.0087471105978691992 -0.035918525925439732 0 0.0093670173241632917 -0.035315963966920175 0 0.010407568102962648 -0.029334293760223465 0 0.0099906436471200784 -0.029851700112757069 0 0.010882415932103979 -0.029772359284814622 0 0.0090701430434284788 -0.029903184816443093 0 0.0098312331821504145 -0.0292804168534859 0 0.0099906436471200784 -0.029851700112757069 0 0.0098312331821504145 -0.0292804168534859 0 0.010407568102962648 -0.029334293760223465 0 0.0099906436471200784 -0.029851700112757069 0 0.0079594162351640779 -0.0003218517454978412 0 0.0078027079519284058 -0.00028629476605117972 0 0.0081043745488904497 -6.6388111880502748e-05 0 0.0078027079519284058 -0.00028629476605117972 0 0.0075975897712774682 0.00019559468326394184 0 0.0081043745488904497 -6.6388111880502748e-05 0 0.010502236347425685 -0.030061358453843837 0 0.010882415932103979 -0.029772359284814622 0 0.011898502291176713 -0.030199797878774637 0 0.0082646091246531706 -0.00015020465032087452 0 0.0081043745488904497 -6.6388111880502748e-05 0 0.0083687437341553265 4.3806045975685976e-06 0 0.0082646091246531706 -0.00015020465032087452 0 0.0079594162351640779 -0.0003218517454978412 0 0.0081043745488904497 -6.6388111880502748e-05 0 0.00816379424149021 -0.024354889637167247 0 0.010144872538807892 -0.016516071426576004 0 0.010407568102962648 -0.029334293760223465 0 0.010882415932103979 -0.029772359284814622 0 0.011011997861731361 -0.02909606294559889 0 0.010882415932103979 -0.029772359284814622 0 0.011011997861731361 -0.02909606294559889 0 0.011573598386184734 -0.02940880579554388 0 0.011011997861731361 -0.02909606294559889 0 0.011080079076022877 -0.028273340680062667 0 0.011788894402740753 -0.028737698462861453 0 0.010407568102962648 -0.029334293760223465 0 0.011011997861731361 -0.02909606294559889 0 0.010314963028243767 -0.028740312662175038 0 0.011011997861731361 -0.02909606294559889 0 0.011080079076022877 -0.028273340680062667 0 0.010314963028243767 -0.028740312662175038 0 0.011889507582818516 -0.046096967792979941 0 0.016587985484461734 -0.033126570125773254 0 0.011080079076022877 -0.028273340680062667 0 0.010136409466044063 -0.027658060150555299 0 0.011356322241106501 -0.027377761888342587 0 0.011080079076022877 -0.028273340680062667 0 0.010136409466044063 -0.027658060150555299 0 0.010314963028243767 -0.028740312662175038 0 0.011889507582818516 -0.046096967792979941 0 0.007356518977775315 -0.048343991370665564 0 0.010665850250180103 -0.077606675264001362 0 0.0096562333931013902 -0.078066503377731758 0 0.0089592316865866467 -0.079207155782895569 0 0.010665850250180103 -0.077606675264001362 0 0.010023673332260799 -0.077706556199142643 0 0.0096562333931013902 -0.078066503377731758 0 0.01089800174281866 -0.077612032967293312 0 0.010023673332260799 -0.077706556199142643 0 0.010636422430790968 -0.076299553701725017 0 0.011889507582818516 -0.046096967792979941 0 0.011498960797084942 -0.046675633317489723 0 0.010136409466044063 -0.027658060150555299 0 0.010314963028243767 -0.028740312662175038 0 0.009378171484517717 -0.028723145648981603 0 0.0098312331821504145 -0.0292804168534859 0 0.010314963028243767 -0.028740312662175038 0 0.009378171484517717 -0.028723145648981603 0 0.0098312331821504145 -0.0292804168534859 0 0.010407568102962648 -0.029334293760223465 0 0.010314963028243767 -0.028740312662175038 0 0.0086088473338285891 -0.079271697960295276 0 0.0089592316865866467 -0.079207155782895569 0 0.008726589180765373 -0.079118348730864096 0 0.008726589180765373 -0.079118348730864096 0 0.0085623745868910958 -0.078473822834406418 0 0.007902496219270385 -0.078837479335310559 0 0.008726589180765373 -0.079118348730864096 0 0.0088895024554702367 -0.078698719729041897 0 0.0085623745868910958 -0.078473822834406418 0 0.0089592316865866467 -0.079207155782895569 0 0.0088895024554702367 -0.078698719729041897 0 0.0091679706961109927 -0.078416206744468669 0 0.0096562333931013902 -0.078066503377731758 0 0.0089592316865866467 -0.079207155782895569 0 0.0091679706961109927 -0.078416206744468669 0 0.0089592316865866467 -0.079207155782895569 0 0.008726589180765373 -0.079118348730864096 0 0.0088895024554702367 -0.078698719729041897 0 0.0088895024554702367 -0.078698719729041897 0 0.0091679706961109927 -0.078416206744468669 0 0.0089178095676355866 -0.078130040719978908 0 0.0089178095676355866 -0.078130040719978908 0 0.0092400906446598787 -0.077768006772247683 0 0.0084564271512043952 -0.077793591799939416 0 0.0091679706961109927 -0.078416206744468669 0 0.0089178095676355866 -0.078130040719978908 0 0.0092400906446598787 -0.077768006772247683 0 0.0096562333931013902 -0.078066503377731758 0 0.0091679706961109927 -0.078416206744468669 0 0.0092400906446598787 -0.077768006772247683 0 0.010023673332260799 -0.077706556199142643 0 0.0096562333931013902 -0.078066503377731758 0 0.0092400906446598787 -0.077768006772247683 0 0.0092400906446598787 -0.077768006772247683 0 0.0087071032660416929 -0.077012893497547752 0 0.0095237746010542051 -0.076950901837032876 0 0.010023673332260799 -0.077706556199142643 0 0.0092400906446598787 -0.077768006772247683 0 0.0095237746010542051 -0.076950901837032876 0 0.0079107094226433545 -0.077124072414752998 0 0.0084564271512043952 -0.077793591799939416 0 0.0087071032660416929 -0.077012893497547752 0 0.0092400906446598787 -0.077768006772247683 0 0.0084564271512043952 -0.077793591799939416 0 0.0087071032660416929 -0.077012893497547752 0 0.0084564271512043952 -0.077793591799939416 0 0.0085623745868910958 -0.078473822834406418 0 0.007947686556905335 -0.078225772521095235 0 0.0089178095676355866 -0.078130040719978908 0 0.0084564271512043952 -0.077793591799939416 0 0.0085623745868910958 -0.078473822834406418 0 0.0088895024554702367 -0.078698719729041897 0 0.0089178095676355866 -0.078130040719978908 0 0.0085623745868910958 -0.078473822834406418 0 0.0085623745868910958 -0.078473822834406418 0 0.007947686556905335 -0.078225772521095235 0 0.007902496219270385 -0.078837479335310559 0 0.007947686556905335 -0.078225772521095235 0 0.0069909420911811269 -0.078647078752702798 0 0.007902496219270385 -0.078837479335310559 0 0.0084564271512043952 -0.077793591799939416 0 0.007947686556905335 -0.078225772521095235 0 0.0074002063609257479 -0.077719615795261876 0 0.007947686556905335 -0.078225772521095235 0 0.0074002063609257479 -0.077719615795261876 0 0.0069909420911811269 -0.078647078752702798 0 0.0079107094226433545 -0.077124072414752998 0 0.0074002063609257479 -0.077719615795261876 0 0.0069942683824197249 -0.076682988361784263 0 0.0079107094226433545 -0.077124072414752998 0 0.0084564271512043952 -0.077793591799939416 0 0.0074002063609257479 -0.077719615795261876 0 0.0074002063609257479 -0.077719615795261876 0 0.005863184838803881 -0.077693151852816777 0 0.0069942683824197249 -0.076682988361784263 0 0.0074002063609257479 -0.077719615795261876 0 0.0069909420911811269 -0.078647078752702798 0 0.005863184838803881 -0.077693151852816777 0 0.0069909420911811269 -0.078647078752702798 0 0.0059677227415883176 -0.079313453288453101 0 0.005863184838803881 -0.077693151852816777 0 0.0069909420911811269 -0.078647078752702798 0 0.0071018154842969151 -0.080196540979322092 0 0.0059677227415883176 -0.079313453288453101 0 0.0071018154842969151 -0.080196540979322092 0 0.0056275799840504823 -0.08112969621675703 0 0.0059677227415883176 -0.079313453288453101 0 0.0069909420911811269 -0.078647078752702798 0 0.007902496219270385 -0.078837479335310559 0 0.0071018154842969151 -0.080196540979322092 0 0.008726589180765373 -0.079118348730864096 0 0.007902496219270385 -0.078837479335310559 0 0.0071018154842969151 -0.080196540979322092 0 0.002446565020244402 -0.066302573759597361 0 0.0025593989528173832 -0.064313406115305921 0 0.029200519442716847 0.0043242458342057531 0 0.031119991539352541 0.0037165571929836968 0 0.030080748561927065 0.0023871015197670636 0 0.029200519442716847 0.0043242458342057531 0 0.030679026697913871 0.0055730185527591899 0 0.031119991539352541 0.0037165571929836968 0 0.012788355744965375 -0.0096129547719071944 0 0.017064191035722615 -0.0017448285179387196 0 0.029200519442716847 0.0043242458342057531 0 0.030679026697913871 0.0055730185527591899 0 0.028172242219238749 0.0060224692849811089 0 0.012788355744965375 -0.0096129547719071944 0 0.017758118538518108 -0.012900279026442139 0 0.012788355744965375 -0.0096129547719071944 0 0.010144872538807892 -0.016516071426576004 0 0.0085217867527350912 -2.6332323239371848e-05 0 0.0086383503853648212 7.444021966744569e-05 0 0.0083687437341553265 4.3806045975685976e-06 0 0.013212444407895397 -0.030355421569451459 0 0.011898502291176713 -0.030199797878774637 0 0.012991975945720333 -0.029309568359852177 0 0.0082646091246531706 -0.00015020465032087452 0 0.0085217867527350912 -2.6332323239371848e-05 0 0.0083687437341553265 4.3806045975685976e-06 0 0.011898502291176713 -0.030199797878774637 0 0.011573598386184734 -0.02940880579554388 0 0.012224468024933054 -0.029193962918970362 0 0.010882415932103979 -0.029772359284814622 0 0.011898502291176713 -0.030199797878774637 0 0.011573598386184734 -0.02940880579554388 0 0.011573598386184734 -0.02940880579554388 0 0.012224468024933054 -0.029193962918970362 0 0.011788894402740753 -0.028737698462861453 0 0.011898502291176713 -0.030199797878774637 0 0.012991975945720333 -0.029309568359852177 0 0.012224468024933054 -0.029193962918970362 0 0.012991975945720333 -0.029309568359852177 0 0.012224468024933054 -0.029193962918970362 0 0.012784121207298342 -0.028220696944506712 0 0.012224468024933054 -0.029193962918970362 0 0.011788894402740753 -0.028737698462861453 0 0.012784121207298342 -0.028220696944506712 0 0.017758118538518108 -0.012900279026442139 0 0.020780532813505042 -0.014980266778977463 0 0.011788894402740753 -0.028737698462861453 0 0.011965017623005669 -0.027981167256186188 0 0.012784121207298342 -0.028220696944506712 0 0.011080079076022877 -0.028273340680062667 0 0.011788894402740753 -0.028737698462861453 0 0.011965017623005669 -0.027981167256186188 0 0.011011997861731361 -0.02909606294559889 0 0.011573598386184734 -0.02940880579554388 0 0.011788894402740753 -0.028737698462861453 0 0.011080079076022877 -0.028273340680062667 0 0.011965017623005669 -0.027981167256186188 0 0.011356322241106501 -0.027377761888342587 0 0.011965017623005669 -0.027981167256186188 0 0.012566718006435171 -0.027100084002295962 0 0.011356322241106501 -0.027377761888342587 0 0.020780532813505042 -0.014980266778977463 0 0.023703118171856916 -0.019877519026537584 0 0.031634854410096336 0.0018414512382659602 0 0.030675023162776201 0.00081332138586990535 0 0.032197940840264075 -0.00020074074771417135 0 0.011965017623005669 -0.027981167256186188 0 0.012784121207298342 -0.028220696944506712 0 0.012566718006435171 -0.027100084002295962 0 0.031634854410096336 0.0018414512382659602 0 0.030675023162776201 0.00081332138586990535 0 0.030080748561927065 0.0023871015197670636 0 0.030675023162776201 0.00081332138586990535 0 0.030080748561927065 0.0023871015197670636 0 0.029487713576437976 0.00094939314732339294 0 0.031119991539352541 0.0037165571929836968 0 0.031634854410096336 0.0018414512382659602 0 0.030080748561927065 0.0023871015197670636 0 0.029200519442716847 0.0043242458342057531 0 0.030080748561927065 0.0023871015197670636 0 0.028216815707055642 0.0027350732924085017 0 0.030080748561927065 0.0023871015197670636 0 0.029487713576437976 0.00094939314732339294 0 0.028216815707055642 0.0027350732924085017 0 0.026668568931871268 0.0015418946560693013 0 0.025407533025981182 0.0024205688005948744 0 0.029487713576437976 0.00094939314732339294 0 0.027567626332839369 0.0043419694144907388 0 0.027260034835652033 0.0003557477121527831 0 0.024570944197162208 0.0014711210398517859 0 0.027567626332839369 0.0043419694144907388 0 0.027260034835652033 0.0003557477121527831 0 0.024570944197162208 0.0014711210398517859 0 0.022119914427164399 0.0012366875271135188 0 0.022348518018502708 -0.00063244976544165406 0 0.024570944197162208 0.0014711210398517859 0 0.022497394126027293 0.0028786856215337331 0 0.022119914427164399 0.0012366875271135188 0 0.024570944197162208 0.0014711210398517859 0 0.024751648194326143 0.0045693530919219405 0 0.022497394126027293 0.0028786856215337331 0 0.024751648194326143 0.0045693530919219405 0 0.022443337927501049 0.0049009418074371491 0 0.022497394126027293 0.0028786856215337331 0 0.024751648194326143 0.0045693530919219405 0 0.023306755741446476 0.0063590627214345878 0 0.022443337927501049 0.0049009418074371491 0 0.024570944197162208 0.0014711210398517859 0 0.024751648194326143 0.0045693530919219405 0 0.027567626332839369 0.0043419694144907388 0 0.025407533025981182 0.0024205688005948744 0 0.022287884191053483 0.0034783287066168099 0 0.029200519442716847 0.0043242458342057531 0 0.028216815707055642 0.0027350732924085017 0 0.026912225998730582 0.0045769199983673788 0 0.024751648194326143 0.0045693530919219405 0 0.027567626332839369 0.0043419694144907388 0 0.025324381192376167 0.007626391274822915 0 0.024751648194326143 0.0045693530919219405 0 0.025324381192376167 0.007626391274822915 0 0.023306755741446476 0.0063590627214345878 0 0.025324381192376167 0.007626391274822915 0 0.023306755741446476 0.0063590627214345878 0 0.022243681946816331 0.0080455103932282612 0 0.025324381192376167 0.007626391274822915 0 0.022243681946816331 0.0080455103932282612 0 0.023137351139252433 0.010718340400457164 0 0.022287884191053483 0.0034783287066168099 0 0.017115307144906791 0.0030796071299131348 0 0.026912225998730582 0.0045769199983673788 0 0.028172242219238749 0.0060224692849811089 0 0.025607760569416396 0.0064571984218597441 0 0.029200519442716847 0.0043242458342057531 0 0.026912225998730582 0.0045769199983673788 0 0.028172242219238749 0.0060224692849811089 0 0.020344433454625829 0.0091259182950323928 0 0.01780067180374845 0.0084497111552806273 0 0.019020570104640158 0.011348556906128585 0 0.020344433454625829 0.0091259182950323928 0 0.019555090445742201 0.0070684726310641195 0 0.01780067180374845 0.0084497111552806273 0 0.020344433454625829 0.0091259182950323928 0 0.022243681946816331 0.0080455103932282612 0 0.019555090445742201 0.0070684726310641195 0 0.020344433454625829 0.0091259182950323928 0 0.022243681946816331 0.0080455103932282612 0 0.023137351139252433 0.010718340400457164 0 0.022243681946816331 0.0080455103932282612 0 0.021204748235121518 0.0060479599353447343 0 0.019555090445742201 0.0070684726310641195 0 0.023306755741446476 0.0063590627214345878 0 0.022243681946816331 0.0080455103932282612 0 0.021204748235121518 0.0060479599353447343 0 0.023306755741446476 0.0063590627214345878 0 0.021204748235121518 0.0060479599353447343 0 0.022443337927501049 0.0049009418074371491 0 0.021204748235121518 0.0060479599353447343 0 0.019555090445742201 0.0070684726310641195 0 0.019727797719267304 0.0052829944923343322 0 0.019555090445742201 0.0070684726310641195 0 0.018113040925146165 0.0068184363025507672 0 0.01780067180374845 0.0084497111552806273 0 0.019555090445742201 0.0070684726310641195 0 0.018113040925146165 0.0068184363025507672 0 0.01834847797078628 0.0055878134137704594 0 0.019555090445742201 0.0070684726310641195 0 0.01834847797078628 0.0055878134137704594 0 0.019727797719267304 0.0052829944923343322 0 0.01834847797078628 0.0055878134137704594 0 0.019122828623935575 0.0047169023428479517 0 0.01865257152553873 0.0040066813551309791 0 0.017680315821897809 0.0037844094622440276 0 0.018163917964551291 0.0043701768580954098 0 0.020393925810150832 0.001859445684582856 0 0.01834847797078628 0.0055878134137704594 0 0.019122828623935575 0.0047169023428479517 0 0.019727797719267304 0.0052829944923343322 0 0.019122828623935575 0.0047169023428479517 0 0.019756216543852522 0.0039999909720144847 0 0.01865257152553873 0.0040066813551309791 0 0.019122828623935575 0.0047169023428479517 0 0.019727797719267304 0.0052829944923343322 0 0.019756216543852522 0.0039999909720144847 0 0.019727797719267304 0.0052829944923343322 0 0.019756216543852522 0.0039999909720144847 0 0.020937280018599957 0.0041552719769127021 0 0.019756216543852522 0.0039999909720144847 0 0.01865257152553873 0.0040066813551309791 0 0.020393925810150832 0.001859445684582856 0 0.021204748235121518 0.0060479599353447343 0 0.022443337927501049 0.0049009418074371491 0 0.020937280018599957 0.0041552719769127021 0 0.021204748235121518 0.0060479599353447343 0 0.019727797719267304 0.0052829944923343322 0 0.020937280018599957 0.0041552719769127021 0 0.019756216543852522 0.0039999909720144847 0 0.020937280018599957 0.0041552719769127021 0 0.020393925810150832 0.001859445684582856 0 0.022443337927501049 0.0049009418074371491 0 0.020937280018599957 0.0041552719769127021 0 0.022497394126027293 0.0028786856215337331 0 0.022497394126027293 0.0028786856215337331 0 0.020393925810150832 0.001859445684582856 0 0.022119914427164399 0.0012366875271135188 0 0.020937280018599957 0.0041552719769127021 0 0.022497394126027293 0.0028786856215337331 0 0.020393925810150832 0.001859445684582856 0 0.020393925810150832 0.001859445684582856 0 0.019342369289830436 0.00076870030674947357 0 0.020740998860742935 0.00036917662474020941 0 0.020393925810150832 0.001859445684582856 0 0.022119914427164399 0.0012366875271135188 0 0.020740998860742935 0.00036917662474020941 0 0.017680315821897809 0.0037844094622440276 0 0.020393925810150832 0.001859445684582856 0 0.019342369289830436 0.00076870030674947357 0 0.01753473494021093 0.0045823961798098457 0 0.019342369289830436 0.00076870030674947357 0 0.017142225142469731 0.0020253619392239302 0 0.017178810629335448 0.0045461426223008137 0 0.017875291922588001 0.0033355353939790895 0 0.017723501789575821 0.0046617649409285552 0 0.018564252947816513 0.0037472132297456709 0 0.019342369289830436 0.00076870030674947357 0 0.017142225142469731 0.0020253619392239302 0 0.017683306127807972 0.00038851154619907248 0 0.015575981651884166 0.0033180313369791572 0 0.015594852317757996 0.0010140912709923828 0 0.012139410476140299 0.0031760402101215991 0 0.017142225142469731 0.0020253619392239302 0 0.015575981651884166 0.0033180313369791572 0 0.015594852317757996 0.0010140912709923828 0 0.017142225142469731 0.0020253619392239302 0 0.015594852317757996 0.0010140912709923828 0 0.017683306127807972 0.00038851154619907248 0 0.01753473494021093 0.0045823961798098457 0 0.017142225142469731 0.0020253619392239302 0 0.015575981651884166 0.0033180313369791572 0 0.015594852317757996 0.0010140912709923828 0 0.012139410476140299 0.0031760402101215991 0 0.014249802632913016 -0.0013447538329617891 0 0.015575981651884166 0.0033180313369791572 0 0.012139410476140299 0.0031760402101215991 0 0.014930801057539638 0.0055863631338490651 0 0.013238012165871661 0.0037879694679999317 0 0.013517611202620987 0.0056822553704296381 0 0.013978007843218239 0.0061155726073105999 0 0.013023934368523497 0.0080527870432384793 0 0.013848646969023269 0.0083388872085634631 0 0.012139410476140299 0.0031760402101215991 0 0.014930801057539638 0.0055863631338490651 0 0.013848646969023269 0.0083388872085634631 0 0.017680315821897809 0.0037844094622440276 0 0.018163917964551291 0.0043701768580954098 0 0.015943787872155103 0.00686757848031845 0 0.017178810629335448 0.0045461426223008137 0 0.016013587866477361 0.0064651040783082411 0 0.01753473494021093 0.0045823961798098457 0 0.014930801057539638 0.0055863631338490651 0 0.015557957720439075 0.0081462953790677386 0 0.017723501789575821 0.0046617649409285552 0 0.016013587866477361 0.0064651040783082411 0 0.01834847797078628 0.0055878134137704594 0 0.01865257152553873 0.0040066813551309791 0 0.01675314138798956 0.006166643578710081 0 0.01753473494021093 0.0045823961798098457 0 0.015575981651884166 0.0033180313369791572 0 0.014930801057539638 0.0055863631338490651 0 0.011168759549179371 0.0061443996706499636 0 0.012497729152176522 0.0046026765248042825 0 0.01051030415088307 0.0042776097192967089 0 0.0096418579125978517 0.0060204085665955722 0 0.011168759549179371 0.0061443996706499636 0 0.01051030415088307 0.0042776097192967089 0 0.0096418579125978517 0.0060204085665955722 0 0.0099569677241281261 0.0075554627231428943 0 0.011168759549179371 0.0061443996706499636 0 0.013978007843218239 0.0061155726073105999 0 0.011168759549179371 0.0061443996706499636 0 0.012497729152176522 0.0046026765248042825 0 0.013978007843218239 0.0061155726073105999 0 0.011168759549179371 0.0061443996706499636 0 0.011842854059245718 0.0076454313075218789 0 0.013978007843218239 0.0061155726073105999 0 0.011842854059245718 0.0076454313075218789 0 0.013023934368523497 0.0080527870432384793 0 0.0099569677241281261 0.0075554627231428943 0 0.011168759549179371 0.0061443996706499636 0 0.011842854059245718 0.0076454313075218789 0 0.0099569677241281261 0.0075554627231428943 0 0.011842854059245718 0.0076454313075218789 0 0.01076863630187406 0.0088341162621151572 0 0.01076863630187406 0.0088341162621151572 0 0.012156388096699607 0.0089884050517265428 0 0.011098132726621072 0.0098782071519890862 0 0.011842854059245718 0.0076454313075218789 0 0.012156388096699607 0.0089884050517265428 0 0.013023934368523497 0.0080527870432384793 0 0.011842854059245718 0.0076454313075218789 0 0.01076863630187406 0.0088341162621151572 0 0.012156388096699607 0.0089884050517265428 0 0.012156388096699607 0.0089884050517265428 0 0.013023934368523497 0.0080527870432384793 0 0.013266175412773194 0.0092792015043704889 0 0.012156388096699607 0.0089884050517265428 0 0.012005485789283945 0.010426770631730737 0 0.013266175412773194 0.0092792015043704889 0 0.012005485789283945 0.010426770631730737 0 0.013266175412773194 0.0092792015043704889 0 0.013170690600840742 0.010720445479698981 0 0.012156388096699607 0.0089884050517265428 0 0.012005485789283945 0.010426770631730737 0 0.011098132726621072 0.0098782071519890862 0 0.0097540508933161123 0.010168423905940796 0 0.0098717887676035652 0.011755803350666028 0 0.010858370257064641 0.010930907964314193 0 0.012005485789283945 0.010426770631730737 0 0.011098132726621072 0.0098782071519890862 0 0.010858370257064641 0.010930907964314193 0 0.0097540508933161123 0.010168423905940796 0 0.011098132726621072 0.0098782071519890862 0 0.010858370257064641 0.010930907964314193 0 0.0097540508933161123 0.010168423905940796 0 0.01076863630187406 0.0088341162621151572 0 0.011098132726621072 0.0098782071519890862 0 0.016013587866477361 0.0064651040783082411 0 0.015238277613017669 0.0081956229675292577 0 0.018113040925146165 0.0068184363025507672 0 0.01675314138798956 0.006166643578710081 0 0.01780067180374845 0.0084497111552806273 0 0.018113040925146165 0.0068184363025507672 0 0.01834847797078628 0.0055878134137704594 0 0.01675314138798956 0.006166643578710081 0 0.014930801057539638 0.0055863631338490651 0 0.015557957720439075 0.0081462953790677386 0 0.013848646969023269 0.0083388872085634631 0 0.015557957720439075 0.0081462953790677386 0 0.013266175412773194 0.0092792015043704889 0 0.013170690600840742 0.010720445479698981 0 0.015557957720439075 0.0081462953790677386 0 0.013848646969023269 0.0083388872085634631 0 0.013266175412773194 0.0092792015043704889 0 0.013023934368523497 0.0080527870432384793 0 0.013848646969023269 0.0083388872085634631 0 0.013266175412773194 0.0092792015043704889 0 0.016013587866477361 0.0064651040783082411 0 0.012964493333038328 0.0083937293551574529 0 0.016668195461949354 0.0063834013238107832 0 0.015288862938356637 0.0088364305291644286 0 0.013922188998446525 0.0094793861172907997 0 0.015288862938356637 0.0088364305291644286 0 0.013922188998446525 0.0094793861172907997 0 0.013908754353352409 0.011297117351012147 0 0.015314459671493393 0.0087637930662058348 0 0.016469709609755318 0.010190520057637245 0 0.015225715994113398 0.010427021198350313 0 0.01675314138798956 0.006166643578710081 0 0.015314459671493393 0.0087637930662058348 0 0.01780067180374845 0.0084497111552806273 0 0.01780067180374845 0.0084497111552806273 0 0.016469709609755318 0.010190520057637245 0 0.019020570104640158 0.011348556906128585 0 0.015314459671493393 0.0087637930662058348 0 0.01780067180374845 0.0084497111552806273 0 0.016469709609755318 0.010190520057637245 0 0.016469709609755318 0.010190520057637245 0 0.015009445408320565 0.011951092280010362 0 0.019020570104640158 0.011348556906128585 0 0.013093288206593424 0.0058280573489275693 0 0.014864766060878828 0.0049033051312898134 0 0.016469709609755318 0.010190520057637245 0 0.015225715994113398 0.010427021198350313 0 0.015009445408320565 0.011951092280010362 0 0.015314459671493393 0.0087637930662058348 0 0.015225715994113398 0.010427021198350313 0 0.013908754353352409 0.011297117351012147 0 0.015238277613017669 0.0081956229675292577 0 0.014751671932481602 0.0091673330197594508 0 0.015225715994113398 0.010427021198350313 0 0.013908754353352409 0.011297117351012147 0 0.015009445408320565 0.011951092280010362 0 0.011092350856245051 0.00075192463085851024 0 0.011096757579530861 0.00071856146407334111 0 0.01106124832223135 0.00056500846078619672 0 0.011092350856245051 0.00075192463085851024 0 0.010917158713657409 0.00060807042199833487 0 0.01079427181695345 0.00083592802393959477 0 0.011092350856245051 0.00075192463085851024 0 0.010917158713657409 0.00060807042199833487 0 0.01106124832223135 0.00056500846078619672 0 0.0098717887676035652 0.011755803350666028 0 0.010858370257064641 0.010930907964314193 0 0.01130230331711311 0.012703726913388939 0 0.012005485789283945 0.010426770631730737 0 0.010858370257064641 0.010930907964314193 0 0.01130230331711311 0.012703726913388939 0 0.012964493333038328 0.0083937293551574529 0 0.011815761557169891 0.0063108197366213434 0 0.012005485789283945 0.010426770631730737 0 0.013170690600840742 0.010720445479698981 0 0.01130230331711311 0.012703726913388939 0 0.013908754353352409 0.011297117351012147 0 0.015009445408320565 0.011951092280010362 0 0.011154269011415282 0.01256699460166762 0 0.013922188998446525 0.0094793861172907997 0 0.013908754353352409 0.011297117351012147 0 0.011154269011415282 0.01256699460166762 0 0.013093288206593424 0.0058280573489275693 0 0.011815761557169891 0.0063108197366213434 0 0.011066103057806698 0.0007652253689510646 0 0.011096757579530861 0.00071856146407334111 0 0.011067492008992574 0.00083141522214614583 0 0.011092350856245051 0.00075192463085851024 0 0.011066103057806698 0.0007652253689510646 0 0.011096757579530861 0.00071856146407334111 0 0.0092655059808253552 0.0066695186976931829 0 0.011815761557169891 0.0063108197366213434 0 0.012839918823657672 0.0035419104080532137 0 0.011815761557169891 0.0063108197366213434 0 0.011060495427072792 0.0011995163619227609 0 0.010945754952301885 0.0011564382282246381 0 0.012939566423935144 -0.0005372339799423184 0 0.011060495427072792 0.0011995163619227609 0 0.011066103057806698 0.0007652253689510646 0 0.011044926314546857 0.00097103361918270061 0 0.011066103057806698 0.0007652253689510646 0 0.011044926314546857 0.00097103361918270061 0 0.011067492008992574 0.00083141522214614583 0 0.011027580454391527 0.00099701949587274762 0 0.011044926314546857 0.00097103361918270061 0 0.011038132876648713 0.00091008575512521294 0 0.011036122471729777 0.0010689220147335633 0 0.011027580454391527 0.00099701949587274762 0 0.011044926314546857 0.00097103361918270061 0 0.011036122471729777 0.0010689220147335633 0 0.011060495427072792 0.0011995163619227609 0 0.011044926314546857 0.00097103361918270061 0 0.011044926314546857 0.00097103361918270061 0 0.011038132876648713 0.00091008575512521294 0 0.011067492008992574 0.00083141522214614583 0 0.011096757579530861 0.00071856146407334111 0 0.011067492008992574 0.00083141522214614583 0 0.011082010637105332 0.00067563815094954355 0 0.011078465381704207 0.00065897223401207758 0 0.011082010637105332 0.00067563815094954355 0 0.01104315876173801 0.00073653240864307394 0 0.011082010637105332 0.00067563815094954355 0 0.01104315876173801 0.00073653240864307394 0 0.01103363222206109 0.00081239168392778049 0 0.011017427226041057 0.00079814548794254064 0 0.01104315876173801 0.00073653240864307394 0 0.01103363222206109 0.00081239168392778049 0 0.011067492008992574 0.00083141522214614583 0 0.011082010637105332 0.00067563815094954355 0 0.01103363222206109 0.00081239168392778049 0 0.011038132876648713 0.00091008575512521294 0 0.01103363222206109 0.00081239168392778049 0 0.011023428501492943 0.00090671208251972169 0 0.011038132876648713 0.00091008575512521294 0 0.011067492008992574 0.00083141522214614583 0 0.01103363222206109 0.00081239168392778049 0 0.01103363222206109 0.00081239168392778049 0 0.011017457143416591 0.00085273239695812862 0 0.011023428501492943 0.00090671208251972169 0 0.011017427226041057 0.00079814548794254064 0 0.01103363222206109 0.00081239168392778049 0 0.011017457143416591 0.00085273239695812862 0 0.011031692298047137 0.00090692496769673083 0 0.011033641260152232 0.00087144486187473952 0 0.011017457143416591 0.00085273239695812862 0 0.011031692298047137 0.00090692496769673083 0 0.011017457143416591 0.00085273239695812862 0 0.011023428501492943 0.00090671208251972169 0 0.011031692298047137 0.00090692496769673083 0 0.011031536407103224 0.00096397692160210828 0 0.011023428501492943 0.00090671208251972169 0 0.011031536407103224 0.00096397692160210828 0 0.011027580454391527 0.00099701949587274762 0 0.011023428501492943 0.00090671208251972169 0 0.011027580454391527 0.00099701949587274762 0 0.011038132876648713 0.00091008575512521294 0 0.011023428501492943 0.00090671208251972169 0 0.01106124832223135 0.00056500846078619672 0 0.010970532604707454 0.00037039842087001833 0 0.010889934906533151 0.00038151565267010592 0 0.010917158713657409 0.00060807042199833487 0 0.01106124832223135 0.00056500846078619672 0 0.010889934906533151 0.00038151565267010592 0 0.011096757579530861 0.00071856146407334111 0 0.011082010637105332 0.00067563815094954355 0 0.01106124832223135 0.00056500846078619672 0 0.011082010637105332 0.00067563815094954355 0 0.01106124832223135 0.00056500846078619672 0 0.011160572250623321 0.00048587038551138492 0 0.011078465381704207 0.00065897223401207758 0 0.011082010637105332 0.00067563815094954355 0 0.011160572250623321 0.00048587038551138492 0 0.01106124832223135 0.00056500846078619672 0 0.011160572250623321 0.00048587038551138492 0 0.010970532604707454 0.00037039842087001833 0 0.011307958676622421 0.0003442489208200127 0 0.011160572250623321 0.00048587038551138492 0 0.010970532604707454 0.00037039842087001833 0 0.01046191072001108 -0.00069660297786054899 0 0.010536783222148715 -0.00036649020346580445 0 0.010573873378119977 0.00020026436683288204 0 0.010970532604707454 0.00037039842087001833 0 0.01073093915448192 0.00017473584101518897 0 0.010970532604707454 0.00037039842087001833 0 0.010889934906533151 0.00038151565267010592 0 0.01073093915448192 0.00017473584101518897 0 0.010889934906533151 0.00038151565267010592 0 0.01073093915448192 0.00017473584101518897 0 0.01065736755956494 0.00030661848068617103 0 0.01073093915448192 0.00017473584101518897 0 0.01065736755956494 0.00030661848068617103 0 0.010252057007658667 3.1708474979456064e-05 0 0.010917158713657409 0.00060807042199833487 0 0.010889934906533151 0.00038151565267010592 0 0.01065736755956494 0.00030661848068617103 0 0.01065736755956494 0.00030661848068617103 0 0.010252057007658667 3.1708474979456064e-05 0 0.010164529144074898 0.0003670938132206593 0 0.01073093915448192 0.00017473584101518897 0 0.010252057007658667 3.1708474979456064e-05 0 0.010249283052714555 -0.00035343312045732137 0 0.010252057007658667 3.1708474979456064e-05 0 0.010249283052714555 -0.00035343312045732137 0 0.0098128242638044448 -0.00018955215304064917 0 0.010598631467351122 -0.0010422733117357137 0 0.01073093915448192 0.00017473584101518897 0 0.010249283052714555 -0.00035343312045732137 0 0.010598631467351122 -0.0010422733117357137 0 0.010249283052714555 -0.00035343312045732137 0 0.00979173055463947 -0.00069884754353436091 0 0.00979173055463947 -0.00069884754353436091 0 0.0091776342565307537 -0.00066997016847650335 0 0.0098128242638044448 -0.00018955215304064917 0 0.010249283052714555 -0.00035343312045732137 0 0.00979173055463947 -0.00069884754353436091 0 0.0098128242638044448 -0.00018955215304064917 0 0.0089217026193494659 -0.00047857001951218938 0 0.0091776342565307537 -0.00066997016847650335 0 0.009307554262607853 -0.00023851529347280952 0 0.0091776342565307537 -0.00066997016847650335 0 0.009307554262607853 -0.00023851529347280952 0 0.0098128242638044448 -0.00018955215304064917 0 0.009307554262607853 -0.00023851529347280952 0 0.0098128242638044448 -0.00018955215304064917 0 0.0098104632304410952 0.00013686075173789124 0 0.010252057007658667 3.1708474979456064e-05 0 0.0098128242638044448 -0.00018955215304064917 0 0.0098104632304410952 0.00013686075173789124 0 0.0098104632304410952 0.00013686075173789124 0 0.0093710615795316622 0.00013961446609793088 0 0.0098682923143777832 0.0005618924538542834 0 0.0089991347191010328 -0.0002075356324998435 0 0.009307554262607853 -0.00023851529347280952 0 0.0093710615795316622 0.00013961446609793088 0 0.009307554262607853 -0.00023851529347280952 0 0.0098104632304410952 0.00013686075173789124 0 0.0093710615795316622 0.00013961446609793088 0 0.017064191035722615 -0.0017448285179387196 0 0.017115307144906791 0.0030796071299131348 0 0.0092422459881984047 0.00045815481005989634 0 0.0093710615795316622 0.00013961446609793088 0 0.0098682923143777832 0.0005618924538542834 0 0.020344433454625829 0.0091259182950323928 0 0.023137351139252433 0.010718340400457164 0 0.019020570104640158 0.011348556906128585 0 0.010347530051661591 0.0009288051336993914 0 0.01079427181695345 0.00083592802393959477 0 0.010508550480316813 0.00066000806274994805 0 0.017115307144906791 0.0030796071299131348 0 0.014864766060878828 0.0049033051312898134 0 0.017115307144906791 0.0030796071299131348 0 0.014737394453909985 0.0026695833141701856 0 0.010917158713657409 0.00060807042199833487 0 0.01079427181695345 0.00083592802393959477 0 0.010718766855511271 0.0006116358744369325 0 0.01079427181695345 0.00083592802393959477 0 0.010718766855511271 0.0006116358744369325 0 0.010508550480316813 0.00066000806274994805 0 0.01065736755956494 0.00030661848068617103 0 0.010718766855511271 0.0006116358744369325 0 0.010508550480316813 0.00066000806274994805 0 0.010917158713657409 0.00060807042199833487 0 0.01065736755956494 0.00030661848068617103 0 0.010718766855511271 0.0006116358744369325 0 0.010252057007658667 3.1708474979456064e-05 0 0.0098104632304410952 0.00013686075173789124 0 0.010164529144074898 0.0003670938132206593 0 0.014123905400458528 0.0024079697512828834 0 0.014737394453909985 0.0026695833141701856 0 0.0098104632304410952 0.00013686075173789124 0 0.0098682923143777832 0.0005618924538542834 0 0.010164529144074898 0.0003670938132206593 0 -3.0286119638194328e-05 -0.094960609936907442 0 -3.0726791615100209e-05 -0.094291220903319095 0 8.6812471645438289e-05 -0.09468062587432137 0 2.1944157174414236e-05 -0.094243407399572418 0 1.065128586543155e-05 -0.094240713487409436 0 -3.0726791615100209e-05 -0.094291220903319095 0 -2.831394273202044e-05 -0.094653009431259497 0 -4.1185531937273634e-05 -0.094571459256989232 0 2.1944157174414236e-05 -0.094243407399572418 0 1.065128586543155e-05 -0.094240713487409436 0 -8.881900789712236e-05 -0.094297782726184221 0 -3.0286119638194328e-05 -0.094960609936907442 0 3.7311457894389312e-05 -0.094955955631497946 0 8.6812471645438289e-05 -0.09468062587432137 0 1.3236511602679428e-07 -0.094999574853623245 0 3.7311457894389312e-05 -0.094955955631497946 0 4.6753082182801798e-09 -0.095000065203398279 0 1.3236511602679428e-07 -0.094999574853623245 0 3.7311457894389312e-05 -0.094955955631497946 0 8.6812471645438289e-05 -0.09468062587432137 0 -3.0286119638194328e-05 -0.094960609936907442 0 3.7311457894389312e-05 -0.094955955631497946 0 8.4004128529245082e-06 -0.094982154006024708 0 -2.831394273202044e-05 -0.094653009431259497 0 -1.8009227220802876e-05 -0.094793503873370724 0 3.7311457894389312e-05 -0.094955955631497946 0 8.4004128529245082e-06 -0.094982154006024708 0 4.6753082182801798e-09 -0.095000065203398279 0 -3.0286119638194328e-05 -0.094960609936907442 0 8.4004128529245082e-06 -0.094982154006024708 0 4.5451101476922592e-06 -0.095003605144147019 0 8.4004128529245082e-06 -0.094982154006024708 0 4.6753082182801798e-09 -0.095000065203398279 0 4.5451101476922592e-06 -0.095003605144147019 0 2.1944157174414236e-05 -0.094243407399572418 0 -1.6447303051838107e-05 -0.094475514976469263 0 -4.4423006495009247e-05 -0.094377727309622794 0 2.1944157174414236e-05 -0.094243407399572418 0 -1.6447303051838107e-05 -0.094475514976469263 0 8.4256261491707927e-05 -0.094582008887779651 0 -4.4423006495009247e-05 -0.094377727309622794 0 -0.00011037315353652514 -0.094473127553154845 0 -8.881900789712236e-05 -0.094297782726184221 0 2.1944157174414236e-05 -0.094243407399572418 0 -4.4423006495009247e-05 -0.094377727309622794 0 -8.881900789712236e-05 -0.094297782726184221 0 -1.6447303051838107e-05 -0.094475514976469263 0 -4.4423006495009247e-05 -0.094377727309622794 0 -0.00011037315353652514 -0.094473127553154845 0 -0.00011037315353652514 -0.094473127553154845 0 -0.00021140414897873305 -0.094308072231989337 0 -0.0002802105358299205 -0.094484703073412127 0 -0.00011037315353652514 -0.094473127553154845 0 -0.00021140414897873305 -0.094308072231989337 0 -8.881900789712236e-05 -0.094297782726184221 0 -0.00040731089563250731 -0.09429280782568128 0 -0.00056362617330711683 -0.094541419575017743 0 -0.0002802105358299205 -0.094484703073412127 0 -0.00021140414897873305 -0.094308072231989337 0 -0.00040731089563250731 -0.09429280782568128 0 -0.0002802105358299205 -0.094484703073412127 0 -0.00021140414897873305 -0.094308072231989337 0 -0.00040731089563250731 -0.09429280782568128 0 -0.00027265595568531448 -0.094106233061463707 0 -0.00027265595568531448 -0.094106233061463707 0 -0.00038628412681131311 -0.093887914406114312 0 -0.00052953502900891293 -0.094019203977001184 0 -0.00040731089563250731 -0.09429280782568128 0 -0.00027265595568531448 -0.094106233061463707 0 -0.00052953502900891293 -0.094019203977001184 0 -0.00027265595568531448 -0.094106233061463707 0 -0.00013369128871777657 -0.094168107047115049 0 -0.00019733698531893454 -0.093715705542414221 0 1.065128586543155e-05 -0.094240713487409436 0 -0.00013369128871777657 -0.094168107047115049 0 -0.00019733698531893454 -0.093715705542414221 0 -0.00021140414897873305 -0.094308072231989337 0 -8.881900789712236e-05 -0.094297782726184221 0 -0.00013369128871777657 -0.094168107047115049 0 1.065128586543155e-05 -0.094240713487409436 0 -8.881900789712236e-05 -0.094297782726184221 0 -0.00013369128871777657 -0.094168107047115049 0 -0.00021140414897873305 -0.094308072231989337 0 -0.00027265595568531448 -0.094106233061463707 0 -0.00013369128871777657 -0.094168107047115049 0 1.065128586543155e-05 -0.094240713487409436 0 -0.00024921139454488715 -0.094166627906672948 0 -3.0726791615100209e-05 -0.094291220903319095 0 0.00053103324231910682 -0.092993582756729046 0 0.00053560770619762892 -0.092558920077777884 0 -0.00024921139454488715 -0.094166627906672948 0 -3.8370856299780486e-05 -0.093843795155708523 0 -3.0726791615100209e-05 -0.094291220903319095 0 -0.00019733698531893454 -0.093715705542414221 0 -0.00050675286543276003 -0.093266976592907433 0 -0.00053102397603057704 -0.093694988514477801 0 -0.00027265595568531448 -0.094106233061463707 0 -0.00019733698531893454 -0.093715705542414221 0 -0.00038628412681131311 -0.093887914406114312 0 -0.00038628412681131311 -0.093887914406114312 0 -0.00053102397603057704 -0.093694988514477801 0 -0.00052953502900891293 -0.094019203977001184 0 -0.00019733698531893454 -0.093715705542414221 0 -0.00038628412681131311 -0.093887914406114312 0 -0.00053102397603057704 -0.093694988514477801 0 -0.00024921139454488715 -0.094166627906672948 0 -0.00033320153519061999 -0.093210748938708565 0 -0.0010286154765171949 -0.092737111260916411 0 0.00053560770619762892 -0.092558920077777884 0 0.00057438935033815423 -0.091112585344805666 0 -0.00033320153519061999 -0.093210748938708565 0 -0.00060617559655697041 -0.092212520109353963 0 -0.0010286154765171949 -0.092737111260916411 0 -0.00033320153519061999 -0.093210748938708565 0 -3.8370856299780486e-05 -0.093843795155708523 0 -1.2564134373399874e-05 -0.093085812342628527 0 -3.8370856299780486e-05 -0.093843795155708523 0 0.00016565878680732421 -0.094237702110610472 0 -1.2564134373399874e-05 -0.093085812342628527 0 -0.00024921139454488715 -0.094166627906672948 0 -0.00033320153519061999 -0.093210748938708565 0 -3.8370856299780486e-05 -0.093843795155708523 0 -3.8370856299780486e-05 -0.093843795155708523 0 0.00016565878680732421 -0.094237702110610472 0 -3.0726791615100209e-05 -0.094291220903319095 0 0.00016565878680732421 -0.094237702110610472 0 -3.0726791615100209e-05 -0.094291220903319095 0 8.6812471645438289e-05 -0.09468062587432137 0 1.3236511602679428e-07 -0.094999574853623245 0 8.6812471645438289e-05 -0.09468062587432137 0 1.0023417079352734e-07 -0.094999284687781987 0 0.00016565878680732421 -0.094237702110610472 0 8.6812471645438289e-05 -0.09468062587432137 0 1.0023417079352734e-07 -0.094999284687781987 0 0.00016565878680732421 -0.094237702110610472 0 1.0023417079352734e-07 -0.094999284687781987 0 0.00034419287657898903 -0.093754604805792882 0 1.0023417079352734e-07 -0.094999284687781987 0 0.00034419287657898903 -0.093754604805792882 0 1.4525546153069432e-06 -0.094996149436614719 0 0.00016565878680732421 -0.094237702110610472 0 0.00034419287657898903 -0.093754604805792882 0 -1.2564134373399874e-05 -0.093085812342628527 0 0.00034419287657898903 -0.093754604805792882 0 0.00069316512096418087 -0.091863878094129686 0 5.6858217645465252e-05 -0.092296223948502704 0 5.0716859025145769e-07 -0.094996822232439715 0 -0.00015125958706554041 -0.093031170560311197 0 0.00034419287657898903 -0.093754604805792882 0 1.4525546153069432e-06 -0.094996149436614719 0 0.00069316512096418087 -0.091863878094129686 0 2.6786693433347887e-06 -0.094992022282801458 0 0.00044304399203298018 -0.092803365310162186 0 -3.9209221996317635e-06 -0.0848799224610607 0 -9.8889175679110244e-07 -0.095000256143439862 0 2.6786693433347887e-06 -0.094992022282801458 0 0.00044304399203298018 -0.092803365310162186 0 -0.00040862744997028315 -0.088174108653296432 0 -3.9209221996317635e-06 -0.0848799224610607 0 -0.0019860150498769232 -0.089876740001252148 0 1.5953855507198076e-08 -0.084863306971846686 0 -0.00046084921301137085 -0.086234100193259139 0 0.00044304399203298018 -0.092803365310162186 0 -0.00040862744997028315 -0.088174108653296432 0 -3.9209221996317635e-06 -0.0848799224610607 0 -0.00015125958706554041 -0.093031170560311197 0 -0.00059253300470234324 -0.091830287995078766 0 0.00069316512096418087 -0.091863878094129686 0 -0.00040862744997028315 -0.088174108653296432 0 -0.00052361629405919179 -0.090760084869727406 0 -0.00052361629405919179 -0.090760084869727406 0 -0.0011852095934729086 -0.090396712955148881 0 -0.0019860150498769232 -0.089876740001252148 0 -0.00040862744997028315 -0.088174108653296432 0 -0.00052361629405919179 -0.090760084869727406 0 -0.0019860150498769232 -0.089876740001252148 0 -0.00052361629405919179 -0.090760084869727406 0 -0.00063360978832299188 -0.091428322924032385 0 -0.0011852095934729086 -0.090396712955148881 0 -0.00052361629405919179 -0.090760084869727406 0 -0.00063360978832299188 -0.091428322924032385 0 5.6858217645465252e-05 -0.092296223948502704 0 -0.00063360978832299188 -0.091428322924032385 0 -0.00088206362247697262 -0.091077535402734375 0 -0.0011852095934729086 -0.090396712955148881 0 0.00069316512096418087 -0.091863878094129686 0 -0.00052361629405919179 -0.090760084869727406 0 5.6858217645465252e-05 -0.092296223948502704 0 -0.00063360978832299188 -0.091428322924032385 0 5.6858217645465252e-05 -0.092296223948502704 0 -1.2564134373399874e-05 -0.093085812342628527 0 0.00034419287657898903 -0.093754604805792882 0 5.6858217645465252e-05 -0.092296223948502704 0 -1.2564134373399874e-05 -0.093085812342628527 0 -0.00033320153519061999 -0.093210748938708565 0 -1.2564134373399874e-05 -0.093085812342628527 0 -0.00060617559655697041 -0.092212520109353963 0 -0.00063360978832299188 -0.091428322924032385 0 -1.2564134373399874e-05 -0.093085812342628527 0 -0.00060617559655697041 -0.092212520109353963 0 -0.00060617559655697041 -0.092212520109353963 0 -0.00088206362247697262 -0.091077535402734375 0 -0.0010286154765171949 -0.092737111260916411 0 -0.00063360978832299188 -0.091428322924032385 0 -0.00060617559655697041 -0.092212520109353963 0 -0.00088206362247697262 -0.091077535402734375 0 0.00050933927130669557 -0.088015655304088447 0 0.00057438935033815423 -0.091112585344805666 0 -0.00088206362247697262 -0.091077535402734375 0 -0.001348501362017848 -0.09067279944029781 0 -0.0010286154765171949 -0.092737111260916411 0 -0.00088206362247697262 -0.091077535402734375 0 -0.001348501362017848 -0.09067279944029781 0 -0.00068688935464203339 -0.089274702092579664 0 -0.00097400815343734503 -0.092726316699808034 0 -0.0011402357748791208 -0.093110131120335254 0 -0.00050675286543276003 -0.093266976592907433 0 -0.00097400815343734503 -0.092726316699808034 0 -0.0013030822799104682 -0.092699755703206141 0 -0.0011402357748791208 -0.093110131120335254 0 -0.001348501362017848 -0.09067279944029781 0 -0.0016948966856106141 -0.087245504903860016 0 -0.0045795126980751229 -0.086307877592123244 0 0.00050933927130669557 -0.088015655304088447 0 -0.00064118522467153871 -0.081278725937903931 0 -0.00097400815343734503 -0.092726316699808034 0 -0.0013030822799104682 -0.092699755703206141 0 -0.0015690330984717935 -0.092148907625098836 0 -0.001348501362017848 -0.09067279944029781 0 -0.00068688935464203339 -0.089274702092579664 0 -0.0016948966856106141 -0.087245504903860016 0 -0.00068688935464203339 -0.089274702092579664 0 -0.0016948966856106141 -0.087245504903860016 0 -0.00050504907902560359 -0.085516505363082654 0 -0.0016948966856106141 -0.087245504903860016 0 -0.0010346225146023848 -0.083413430539092046 0 -0.0045795126980751229 -0.086307877592123244 0 -0.00068688935464203339 -0.089274702092579664 0 0.0014310048885285188 -0.082299955162053726 0 -0.00050504907902560359 -0.085516505363082654 0 -0.00068688935464203339 -0.089274702092579664 0 -0.0011852095934729086 -0.090396712955148881 0 -0.0019860150498769232 -0.089876740001252148 0 -0.00091798996173700169 -0.087360083114750339 0 -0.00046084921301137085 -0.086234100193259139 0 -0.00088206362247697262 -0.091077535402734375 0 -0.00068688935464203339 -0.089274702092579664 0 -0.0011852095934729086 -0.090396712955148881 0 0.0014310048885285188 -0.082299955162053726 0 -0.0010346225146023848 -0.083413430539092046 0 0.00062350054005461911 -0.081382933757038797 0 0.0014310048885285188 -0.082299955162053726 0 -0.00050504907902560359 -0.085516505363082654 0 -0.0010346225146023848 -0.083413430539092046 0 -0.0016948966856106141 -0.087245504903860016 0 -0.00050504907902560359 -0.085516505363082654 0 -0.0010346225146023848 -0.083413430539092046 0 -0.0010346225146023848 -0.083413430539092046 0 -0.00049705961330572077 -0.079978665221273268 0 -0.0035584011314764214 -0.081499815125258904 0 -0.0010346225146023848 -0.083413430539092046 0 -0.00049705961330572077 -0.079978665221273268 0 0.00062350054005461911 -0.081382933757038797 0 -0.00049705961330572077 -0.079978665221273268 0 3.4724194050335874e-06 -0.080068572877179542 0 -9.1902394038947425e-06 -0.075278171842852348 0 -0.00049705961330572077 -0.079978665221273268 0 3.4724194050335874e-06 -0.080068572877179542 0 0.00062350054005461911 -0.081382933757038797 0 -1.0083945014555e-07 -0.084855616941417869 0 0.0014310048885285188 -0.082299955162053726 0 0.00062350054005461911 -0.081382933757038797 0 -1.0083945014555e-07 -0.084855616941417869 0 3.4724194050335874e-06 -0.080068572877179542 0 0.00062350054005461911 -0.081382933757038797 0 0.00038737656211297437 -0.072675468102063906 0 -4.2138184296654505e-07 -0.075262162531262694 0 3.838060683532422e-07 -0.070034258501153052 0 0.00038737656211297437 -0.072675468102063906 0 0.00017536906220035935 -0.072422289578274249 0 8.884285168793139e-05 -0.072280498539023408 0 -1.748376377796153e-06 -0.07527646307987032 0 -0.00048183639031365951 -0.078161997173109163 0 -0.00049705961330572077 -0.079978665221273268 0 -9.1902394038947425e-06 -0.075278171842852348 0 -0.0035584011314764214 -0.081499815125258904 0 0.00038737656211297437 -0.072675468102063906 0 -4.2138184296654505e-07 -0.075262162531262694 0 -0.00042066964333813134 -0.072710892302124588 0 -0.00048183639031365951 -0.078161997173109163 0 -0.00064118522467153871 -0.081278725937903931 0 -0.0010346225146023848 -0.083413430539092046 0 -0.0035584011314764214 -0.081499815125258904 0 -0.0045795126980751229 -0.086307877592123244 0 -0.00042066964333813134 -0.072710892302124588 0 0.00017536906220035935 -0.072422289578274249 0 -0.00045506878083034899 -0.071905606832942809 0 -0.0016324259047469601 -0.077986673816698257 0 -0.00064118522467153871 -0.081278725937903931 0 0.00038737656211297437 -0.072675468102063906 0 -0.00042066964333813134 -0.072710892302124588 0 0.00017536906220035935 -0.072422289578274249 0 0.00076017088122774757 -0.073164945759765607 0 0.00017203559434956318 -0.073278349905894713 0 8.884285168793139e-05 -0.072280498539023408 0 -0.0016324259047469601 -0.077986673816698257 0 -0.0018617132760537828 -0.07702836197749241 0 0.00038974720849026945 -0.073559388772652626 0 1.1995121000419792e-05 -0.073841195171331475 0 0.00017203559434956318 -0.073278349905894713 0 0.00076017088122774757 -0.073164945759765607 0 0.00038974720849026945 -0.073559388772652626 0 0.00017203559434956318 -0.073278349905894713 0 0.00038974720849026945 -0.073559388772652626 0 0.00061319490477828534 -0.073947383281309648 0 1.1995121000419792e-05 -0.073841195171331475 0 0.00076017088122774757 -0.073164945759765607 0 0.00038974720849026945 -0.073559388772652626 0 0.00061319490477828534 -0.073947383281309648 0 0.00076017088122774757 -0.073164945759765607 0 0.00061319490477828534 -0.073947383281309648 0 0.0013494859089947442 -0.073749163600029366 0 0.00061319490477828534 -0.073947383281309648 0 0.00096483112612612385 -0.074295990138901744 0 0.00061668019117406972 -0.074432330827000015 0 0.00061319490477828534 -0.073947383281309648 0 0.00061668019117406972 -0.074432330827000015 0 8.634023892310888e-05 -0.074562821568147405 0 0.00061319490477828534 -0.073947383281309648 0 8.634023892310888e-05 -0.074562821568147405 0 1.1995121000419792e-05 -0.073841195171331475 0 -0.0013030822799104682 -0.092699755703206141 0 -0.0015690330984717935 -0.092148907625098836 0 -0.0015295975097636559 -0.092787261368698082 0 0.0013494859089947442 -0.073749163600029366 0 0.00096483112612612385 -0.074295990138901744 0 0.0013894135215568007 -0.074682019763080115 0 -0.00064118522467153871 -0.081278725937903931 0 0.00030616304057445686 -0.082288396045628362 0 0.00061319490477828534 -0.073947383281309648 0 0.0013494859089947442 -0.073749163600029366 0 0.00096483112612612385 -0.074295990138901744 0 0.00096483112612612385 -0.074295990138901744 0 0.0013894135215568007 -0.074682019763080115 0 0.00082097891202620899 -0.074729629540031789 0 0.0013894135215568007 -0.074682019763080115 0 0.00082097891202620899 -0.074729629540031789 0 0.0010960456380359682 -0.075147314124498349 0 -0.0013030822799104682 -0.092699755703206141 0 -0.0015295975097636559 -0.092787261368698082 0 -0.0011402357748791208 -0.093110131120335254 0 0.00061668019117406972 -0.074432330827000015 0 0.00050542663208840723 -0.074733341454153432 0 8.634023892310888e-05 -0.074562821568147405 0 0.00096483112612612385 -0.074295990138901744 0 0.00061668019117406972 -0.074432330827000015 0 0.00082097891202620899 -0.074729629540031789 0 0.00061668019117406972 -0.074432330827000015 0 0.00082097891202620899 -0.074729629540031789 0 0.00050542663208840723 -0.074733341454153432 0 0.00082097891202620899 -0.074729629540031789 0 0.00064900687871091755 -0.074995222901494199 0 0.00071193405196407194 -0.075391987216838152 0 -0.0015393262865034062 -0.074484300555042987 0 -0.0017556249802719787 -0.074376541202955254 0 0.00082097891202620899 -0.074729629540031789 0 0.00064900687871091755 -0.074995222901494199 0 0.00050542663208840723 -0.074733341454153432 0 0.00050542663208840723 -0.074733341454153432 0 0.00029613305424822925 -0.074986265387733037 0 8.634023892310888e-05 -0.074562821568147405 0 0.00064900687871091755 -0.074995222901494199 0 0.00050542663208840723 -0.074733341454153432 0 0.00029613305424822925 -0.074986265387733037 0 -0.0016138438584909175 -0.069046693082802202 0 -0.0014269081510277144 -0.068480443831282087 0 0.00064900687871091755 -0.074995222901494199 0 0.00028261700534551779 -0.075310241242860634 0 0.00071193405196407194 -0.075391987216838152 0 0.00064900687871091755 -0.074995222901494199 0 0.00029613305424822925 -0.074986265387733037 0 0.00024469440242508739 -0.075348100704272267 0 0.00029613305424822925 -0.074986265387733037 0 0.00024469440242508739 -0.075348100704272267 0 1.6017380274116872e-05 -0.075307708934844869 0 -0.0014269081510277144 -0.068480443831282087 0 -0.0017556249802719787 -0.074376541202955254 0 0.00082097891202620899 -0.074729629540031789 0 0.00071571999324093836 -0.07552572081904374 0 0.0010960456380359682 -0.075147314124498349 0 -0.0011377435862745221 -0.093513716100217303 0 -0.0011212828053764751 -0.093617086394526539 0 -0.0011019556577368163 -0.093579312247848018 0 -0.0017556249802719787 -0.074376541202955254 0 -0.0011981815380146677 -0.075484546250484549 0 9.4801935672142172e-05 -0.069116518885827705 0 -1.0446906050664623e-05 -0.069229996417387543 0 6.9552375112988469e-05 -0.069379602904569654 0 -7.6779106370784839e-05 -0.069081143794945968 0 9.4801935672142172e-05 -0.069116518885827705 0 -1.0446906050664623e-05 -0.069229996417387543 0 -7.6779106370784839e-05 -0.069081143794945968 0 -1.0446906050664623e-05 -0.069229996417387543 0 -0.00017247452690048235 -0.069164079469044626 0 -0.0011838981733551964 -0.064442347398730032 0 -0.0007417180396271498 -0.065296559076690436 0 -1.0446906050664623e-05 -0.069229996417387543 0 -1.966972741145363e-05 -0.069479280204439636 0 -0.00017247452690048235 -0.069164079469044626 0 -1.0446906050664623e-05 -0.069229996417387543 0 6.9552375112988469e-05 -0.069379602904569654 0 -1.966972741145363e-05 -0.069479280204439636 0 -0.0011212828053764751 -0.093617086394526539 0 -0.0010875170347998285 -0.093670680526986336 0 -0.0011019556577368163 -0.093579312247848018 0 6.9552375112988469e-05 -0.069379602904569654 0 2.8346802398532481e-05 -0.069489682096257097 0 5.7318446962464126e-05 -0.069641390945603648 0 -0.0011212828053764751 -0.093617086394526539 0 -0.0010875170347998285 -0.093670680526986336 0 -0.0010421596138346497 -0.093641998532954143 0 -0.0011981815380146677 -0.075484546250484549 0 -0.00028377892626153242 -0.071492177130490886 0 0.0018626383713893383 -0.052294182517784824 0 0.0018062325787544821 -0.05209457274528289 0 0.0020539952661503256 -0.05233540842952724 0 -0.0011635866162623891 -0.064459369884461937 0 -0.0011838981733551964 -0.064442347398730032 0 6.9552375112988469e-05 -0.069379602904569654 0 2.8346802398532481e-05 -0.069489682096257097 0 -1.966972741145363e-05 -0.069479280204439636 0 -0.0010875170347998285 -0.093670680526986336 0 -0.0010841209789790654 -0.093612923070560253 0 -0.001090973684521131 -0.093769308832059389 0 -0.0011019556577368163 -0.093579312247848018 0 -0.0010841209789790654 -0.093612923070560253 0 -0.0010631994279147439 -0.0935380422846874 0 -0.0010875170347998285 -0.093670680526986336 0 -0.0011019556577368163 -0.093579312247848018 0 -0.0010841209789790654 -0.093612923070560253 0 0.0012460529271055747 -0.083689419202685342 0 0.0012703402120117918 -0.081327127061065083 0 0.00030616304057445686 -0.082288396045628362 0 0.0012703402120117918 -0.081327127061065083 0 0.0013894135215568007 -0.074682019763080115 0 0.0014536472793042065 -0.075654933343125674 0 0.0010960456380359682 -0.075147314124498349 0 -0.0015295975097636559 -0.092787261368698082 0 -0.0014729321693827621 -0.093370672341987287 0 -0.0011402357748791208 -0.093110131120335254 0 -0.0011377435862745221 -0.093513716100217303 0 -0.0011019556577368163 -0.093579312247848018 0 -0.0010631994279147439 -0.0935380422846874 0 -0.0017556249802719787 -0.074376541202955254 0 0.0012703402120117918 -0.081327127061065083 0 0.00071571999324093836 -0.07552572081904374 0 0.0014536472793042065 -0.075654933343125674 0 0.0010960456380359682 -0.075147314124498349 0 -0.0011402357748791208 -0.093110131120335254 0 -0.00091961683178718974 -0.093469663400984032 0 -0.00050675286543276003 -0.093266976592907433 0 -0.0014729321693827621 -0.093370672341987287 0 -0.0011402357748791208 -0.093110131120335254 0 -0.00091961683178718974 -0.093469663400984032 0 -0.0010841209789790654 -0.093612923070560253 0 -0.0010989841624319111 -0.093452990223305221 0 -0.00091961683178718974 -0.093469663400984032 0 0.0012703402120117918 -0.081327127061065083 0 0.00093588938708408839 -0.082787438407912681 0 -0.00091961683178718974 -0.093469663400984032 0 -0.00050675286543276003 -0.093266976592907433 0 -0.00053102397603057704 -0.093694988514477801 0 -0.00091961683178718974 -0.093469663400984032 0 -0.00053102397603057704 -0.093694988514477801 0 -0.00080851552770686539 -0.093778742043669247 0 -0.00053102397603057704 -0.093694988514477801 0 -0.00080851552770686539 -0.093778742043669247 0 -0.00052953502900891293 -0.094019203977001184 0 -0.00091961683178718974 -0.093469663400984032 0 -0.00080851552770686539 -0.093778742043669247 0 -0.00098665574057996423 -0.093657936198580247 0 -0.0010841209789790654 -0.093612923070560253 0 -0.00091961683178718974 -0.093469663400984032 0 -0.00098665574057996423 -0.093657936198580247 0 -0.0010841209789790654 -0.093612923070560253 0 -0.00098665574057996423 -0.093657936198580247 0 -0.001090973684521131 -0.093769308832059389 0 -0.00080851552770686539 -0.093778742043669247 0 -0.00098665574057996423 -0.093657936198580247 0 -0.001090973684521131 -0.093769308832059389 0 -0.00080851552770686539 -0.093778742043669247 0 -0.001090973684521131 -0.093769308832059389 0 -0.00079643828803955792 -0.094047087020170297 0 -0.00080851552770686539 -0.093778742043669247 0 -0.00079643828803955792 -0.094047087020170297 0 -0.00052953502900891293 -0.094019203977001184 0 -0.00079643828803955792 -0.094047087020170297 0 -0.00052953502900891293 -0.094019203977001184 0 -0.00061437243887481558 -0.094268181332465451 0 -0.00061437243887481558 -0.094268181332465451 0 -0.00095212659793200575 -0.094390590175144673 0 -0.00056362617330711683 -0.094541419575017743 0 -0.00040731089563250731 -0.09429280782568128 0 -0.00061437243887481558 -0.094268181332465451 0 -0.00056362617330711683 -0.094541419575017743 0 -0.00040731089563250731 -0.09429280782568128 0 -0.00052953502900891293 -0.094019203977001184 0 -0.00061437243887481558 -0.094268181332465451 0 -0.001090973684521131 -0.093769308832059389 0 -0.00079643828803955792 -0.094047087020170297 0 -0.00095212659793200575 -0.094390590175144673 0 -0.00079643828803955792 -0.094047087020170297 0 -0.00061437243887481558 -0.094268181332465451 0 -0.00095212659793200575 -0.094390590175144673 0 -0.00021315472456152524 -0.093442588661220682 0 -9.9064465370329185e-06 -0.093115767454772055 0 -0.0012252811305092878 -0.093468462556054469 0 -0.0009781034489431766 -0.093495438538930803 0 -0.0010568843107594433 -0.093629830088633528 0 -0.001090973684521131 -0.093769308832059389 0 -0.0012252811305092878 -0.093468462556054469 0 -0.0010568843107594433 -0.093629830088633528 0 0.00022650810877982293 -0.068644658295857655 0 -0.00028377892626153242 -0.071492177130490886 0 0.0010450735603588091 -0.081033955796555632 0 -0.00028377892626153242 -0.071492177130490886 0 -0.0015303280752999213 -0.075240658550550232 0 -0.0003046387055545747 -0.075610585751816867 0 -0.0012693178504526441 -0.073022931258367785 0 -0.0009781034489431766 -0.093495438538930803 0 -0.0010421596138346497 -0.093641998532954143 0 -0.0010568843107594433 -0.093629830088633528 0 0.0019293995223951638 -0.051748742118248425 0 0.0018062325787544821 -0.05209457274528289 0 0.0020847210002919335 -0.051909421699286792 0 2.8346802398532481e-05 -0.069489682096257097 0 -1.3085279385158772e-05 -0.069478669583238326 0 5.7318446962464126e-05 -0.069641390945603648 0 -0.0011838981733551964 -0.064442347398730032 0 -0.00028377892626153242 -0.071492177130490886 0 -0.0010875170347998285 -0.093670680526986336 0 -0.001090973684521131 -0.093769308832059389 0 -0.0010568843107594433 -0.093629830088633528 0 -0.0010875170347998285 -0.093670680526986336 0 -0.0010421596138346497 -0.093641998532954143 0 -0.0010568843107594433 -0.093629830088633528 0 0.00081201598484432092 -0.049669606586682256 0 0.0014129484195930819 -0.049055860692506621 0 0.0014581647124648738 -0.049982802846920631 0 0.00081201598484432092 -0.049669606586682256 0 0.0014129484195930819 -0.049055860692506621 0 0.00020580603188732625 -0.048949250606496637 0 0.0014129484195930819 -0.049055860692506621 0 0.00020580603188732625 -0.048949250606496637 0 0.0014920429976638071 -0.047891487816721749 0 0.0014129484195930819 -0.049055860692506621 0 0.0020061806179417288 -0.04873015314523161 0 0.0015036676264093924 -0.047892002412280733 0 0.00098019196006196834 -0.053992464632285728 0 -0.00013269237746926763 -0.060258911065039659 0 0.0020061806179417288 -0.04873015314523161 0 0.0024412366626919294 -0.04986682127833926 0 0.0026195765718612552 -0.04812348362529862 0 0.0018062325787544821 -0.05209457274528289 0 0.0020847210002919335 -0.051909421699286792 0 0.0020539952661503256 -0.05233540842952724 0 0.0014129484195930819 -0.049055860692506621 0 0.0024412366626919294 -0.04986682127833926 0 0.0014581647124648738 -0.049982802846920631 0 0.0014129484195930819 -0.049055860692506621 0 0.0020061806179417288 -0.04873015314523161 0 0.0024412366626919294 -0.04986682127833926 0 0.0024412366626919294 -0.04986682127833926 0 0.0017290377865232407 -0.050821364777079048 0 0.0014581647124648738 -0.049982802846920631 0 0.0024412366626919294 -0.04986682127833926 0 0.0017290377865232407 -0.050821364777079048 0 0.0019796926763531713 -0.051624533427752889 0 0.00098019196006196834 -0.053992464632285728 0 0.0012284283382978729 -0.052790619992897067 0 0.0019293995223951638 -0.051748742118248425 0 0.0020847210002919335 -0.051909421699286792 0 0.0019796926763531713 -0.051624533427752889 0 0.0017290377865232407 -0.050821364777079048 0 0.0009483770748104671 -0.050598934997589613 0 0.0016865890536935421 -0.051720399096955874 0 0.0009483770748104671 -0.050598934997589613 0 -0.00024321037791663974 -0.051268148644562424 0 0.0016865890536935421 -0.051720399096955874 0 0.0017290377865232407 -0.050821364777079048 0 0.0014581647124648738 -0.049982802846920631 0 0.0009483770748104671 -0.050598934997589613 0 0.00081201598484432092 -0.049669606586682256 0 0.0014581647124648738 -0.049982802846920631 0 0.0009483770748104671 -0.050598934997589613 0 0.00081201598484432092 -0.049669606586682256 0 0.0009483770748104671 -0.050598934997589613 0 8.7872548629136711e-05 -0.050019187973985149 0 0.0009483770748104671 -0.050598934997589613 0 -0.00024321037791663974 -0.051268148644562424 0 8.7872548629136711e-05 -0.050019187973985149 0 -0.00024321037791663974 -0.051268148644562424 0 8.7872548629136711e-05 -0.050019187973985149 0 -0.001401847310086791 -0.049869211097893475 0 -0.0012791246515370246 -0.058603168262051322 0 -0.0023415460853958119 -0.057047954808725175 0 -0.0030766747777636436 -0.050713660549722872 0 -0.0042001101007540396 -0.050447708946439886 0 -0.0014119367424207431 -0.054104649758260098 0 -0.00024321037791663974 -0.051268148644562424 0 -0.0030766747777636436 -0.050713660549722872 0 -0.001401847310086791 -0.049869211097893475 0 -0.0030766747777636436 -0.050713660549722872 0 -0.0030987340969394752 -0.048688508438037736 0 -0.0042001101007540396 -0.050447708946439886 0 -0.0030766747777636436 -0.050713660549722872 0 -0.001401847310086791 -0.049869211097893475 0 -0.0030987340969394752 -0.048688508438037736 0 -0.001401847310086791 -0.049869211097893475 0 -0.0030987340969394752 -0.048688508438037736 0 -0.001214627356540409 -0.04769932947767741 0 -0.0030987340969394752 -0.048688508438037736 0 -0.001214627356540409 -0.04769932947767741 0 -0.002290341158131844 -0.046425995669922636 0 -0.001214627356540409 -0.04769932947767741 0 -0.002290341158131844 -0.046425995669922636 0 -0.00019356235645132241 -0.046368983010509665 0 8.7872548629136711e-05 -0.050019187973985149 0 -0.001401847310086791 -0.049869211097893475 0 0.00020580603188732625 -0.048949250606496637 0 0.00081201598484432092 -0.049669606586682256 0 8.7872548629136711e-05 -0.050019187973985149 0 0.00020580603188732625 -0.048949250606496637 0 -0.001401847310086791 -0.049869211097893475 0 -0.001214627356540409 -0.04769932947767741 0 0.00082229098311130085 -0.047492055155224415 0 0.0015975362816817509 -0.052574242158693288 0 0.0019272047998506695 -0.053188281012489284 0 -0.001214627356540409 -0.04769932947767741 0 0.00082229098311130085 -0.047492055155224415 0 -0.00019356235645132241 -0.046368983010509665 0 -0.00019356235645132241 -0.046368983010509665 0 -0.00090759966857950863 -0.044852209190735716 0 0.0028964115164721235 -0.045585769912892593 0 -0.00093155756054209696 -0.052590663355686885 0 0.0007664914685030442 -0.057250046752428833 0 -0.002290341158131844 -0.046425995669922636 0 -0.00019356235645132241 -0.046368983010509665 0 -0.00090759966857950863 -0.044852209190735716 0 -0.002290341158131844 -0.046425995669922636 0 -0.00090759966857950863 -0.044852209190735716 0 -0.0036665320689681044 -0.044494029675326605 0 -0.00093155756054209696 -0.052590663355686885 0 -0.0016307019148520162 -0.050457970645666012 0 -0.00048899930427339592 -0.053026690161173798 0 -2.4062830783045217e-05 -0.053632653049182369 0 0.00033287376387300209 -0.05319191660159707 0 -0.00048899930427339592 -0.053026690161173798 0 -0.0010390002532352941 -0.053191571800916167 0 -0.0007291211718182107 -0.053619003111685264 0 -0.00048899930427339592 -0.053026690161173798 0 -0.0007291211718182107 -0.053619003111685264 0 -2.4062830783045217e-05 -0.053632653049182369 0 -0.0010390002532352941 -0.053191571800916167 0 -0.0013825146912823058 -0.053513544504495233 0 -0.0007291211718182107 -0.053619003111685264 0 -0.0010390002532352941 -0.053191571800916167 0 -0.0012795991845398846 -0.052883990165475916 0 -0.0013825146912823058 -0.053513544504495233 0 0.0007664914685030442 -0.057250046752428833 0 -0.00075128356082887926 -0.062428136502633187 0 -0.00075128356082887926 -0.062428136502633187 0 -0.0013777079511275564 -0.060744060688814605 0 0.00082229098311130085 -0.047492055155224415 0 -0.00019356235645132241 -0.046368983010509665 0 0.0028964115164721235 -0.045585769912892593 0 -0.00048899930427339592 -0.053026690161173798 0 -0.0010390002532352941 -0.053191571800916167 0 -0.0012795991845398846 -0.052883990165475916 0 0.00092447335437557867 -0.055063597780871394 0 0.0007664914685030442 -0.057250046752428833 0 0.0019272047998506695 -0.053188281012489284 0 0.0007664914685030442 -0.057250046752428833 0 -0.00039367287201780553 -0.060278135322895159 0 0.00013593836527887355 -0.060398977125958209 0 0.00020679753424258446 -0.059749759626810672 0 -0.00013269237746926763 -0.060258911065039659 0 -0.0007417180396271498 -0.065296559076690436 0 -0.0020839899159771414 -0.063953999587060245 0 -0.0025658240413515203 -0.063847514407132613 0 -0.002481026318494688 -0.063072291999359778 0 -0.0011838981733551964 -0.064442347398730032 0 -0.00013269237746926763 -0.060258911065039659 0 0.0020061806179417288 -0.04873015314523161 0 0.0015036676264093924 -0.047892002412280733 0 0.0026195765718612552 -0.04812348362529862 0 0.0007664914685030442 -0.057250046752428833 0 -0.00013269237746926763 -0.060258911065039659 0 0.0007664914685030442 -0.057250046752428833 0 -0.0007417180396271498 -0.065296559076690436 0 0.00043156717255213832 -0.062594025683212665 0 0.0001524682336294105 -0.063111356031419832 0 0.00031045612669622108 -0.063295339565480113 0 -5.6814509413418473e-05 -0.06304107686862559 0 0.0001524682336294105 -0.063111356031419832 0 -6.7475985660142793e-05 -0.063137875632511095 0 -0.0014269081510277144 -0.068480443831282087 0 -0.0007417180396271498 -0.065296559076690436 0 0.0014572630096366587 -0.067024861770297886 0 -0.001814841636552354 -0.069951869235256078 0 -0.0016191571388954292 -0.068193330141538791 0 -0.0007417180396271498 -0.065296559076690436 0 -0.00074418742758753959 -0.06607642378310595 0 0.00043156717255213832 -0.062594025683212665 0 -5.6814509413418473e-05 -0.06304107686862559 0 0.0001524682336294105 -0.063111356031419832 0 -0.00075128356082887926 -0.062428136502633187 0 -0.00074667956280234237 -0.066826219687284596 0 0.0001524682336294105 -0.063111356031419832 0 0.00031045612669622108 -0.063295339565480113 0 -7.7937848347602829e-05 -0.063229964622873211 0 -0.0014269081510277144 -0.068480443831282087 0 -0.00074667956280234237 -0.066826219687284596 0 0.0014572630096366587 -0.067024861770297886 0 -0.0014331394769896573 -0.066523613660833383 0 -0.0016191571388954292 -0.068193330141538791 0 -0.00074667956280234237 -0.066826219687284596 0 -0.00074418742758753959 -0.06607642378310595 0 0.0001524682336294105 -0.063111356031419832 0 -7.7937848347602829e-05 -0.063229964622873211 0 -6.7475985660142793e-05 -0.063137875632511095 0 0.00029613305424822925 -0.074986265387733037 0 1.6017380274116872e-05 -0.075307708934844869 0 8.634023892310888e-05 -0.074562821568147405 0 -0.00074667956280234237 -0.066826219687284596 0 -0.00086232308913627553 -0.069266239455778214 0 2.1472299944219175e-05 -0.075235297109932445 0 8.634023892310888e-05 -0.074562821568147405 0 -0.00043129629005864655 -0.074292398003081891 0 -0.00075128356082887926 -0.062428136502633187 0 -0.0010338523887275244 -0.06345512298781622 0 -0.0021999807922953364 -0.064564036059281807 0 -0.0019007954869558919 -0.064617899007904919 0 -0.0021383418965105778 -0.064068205837880296 0 -0.00074667956280234237 -0.066826219687284596 0 -0.0010338523887275244 -0.06345512298781622 0 -0.0015102515268627683 -0.053510014025229154 0 -0.0012640265417147385 -0.053881716951875887 0 -0.0016020260084458214 -0.054188567068866544 0 -0.0012640265417147385 -0.053881716951875887 0 -0.001077382517973227 -0.054234385332361433 0 -0.0007291211718182107 -0.053619003111685264 0 -0.0015102515268627683 -0.053510014025229154 0 -0.0012640265417147385 -0.053881716951875887 0 -0.0007291211718182107 -0.053619003111685264 0 -0.0012640265417147385 -0.053881716951875887 0 -0.001077382517973227 -0.054234385332361433 0 -0.0016020260084458214 -0.054188567068866544 0 -0.001077382517973227 -0.054234385332361433 0 -0.0014368429449981006 -0.054644787818316838 0 -0.0016020260084458214 -0.054188567068866544 0 -0.001077382517973227 -0.054234385332361433 0 -0.0014368429449981006 -0.054644787818316838 0 -0.001014597063230205 -0.054707893854629708 0 -0.0010338523887275244 -0.06345512298781622 0 -0.00071198600542091736 -0.064598637970916431 0 -0.0014368429449981006 -0.054644787818316838 0 -0.0015701981409805374 -0.054268208582096841 0 -0.0016753188213611935 -0.054898311608634807 0 -0.00043129629005864655 -0.074292398003081891 0 1.1995121000419792e-05 -0.073841195171331475 0 -0.00045191577465165581 -0.073322061306524092 0 8.634023892310888e-05 -0.074562821568147405 0 -0.00043129629005864655 -0.074292398003081891 0 1.1995121000419792e-05 -0.073841195171331475 0 -0.0015821701278723496 -0.061423271717275643 0 -0.0010338523887275244 -0.06345512298781622 0 1.1995121000419792e-05 -0.073841195171331475 0 0.00017203559434956318 -0.073278349905894713 0 -0.00045191577465165581 -0.073322061306524092 0 -0.0016753188213611935 -0.054898311608634807 0 -0.0012190342087721297 -0.055102658061144616 0 -0.0017698859538142376 -0.055608994958784866 0 0.00017203559434956318 -0.073278349905894713 0 -0.00045191577465165581 -0.073322061306524092 0 8.884285168793139e-05 -0.072280498539023408 0 -0.0014368429449981006 -0.054644787818316838 0 -0.0016753188213611935 -0.054898311608634807 0 -0.0012190342087721297 -0.055102658061144616 0 -0.0014368429449981006 -0.054644787818316838 0 -0.001014597063230205 -0.054707893854629708 0 -0.0012190342087721297 -0.055102658061144616 0 -0.001014597063230205 -0.054707893854629708 0 -0.0012190342087721297 -0.055102658061144616 0 -0.00071380528895619369 -0.05511262964669511 0 -0.0012190342087721297 -0.055102658061144616 0 -0.0010761360380069454 -0.055673339286323814 0 -0.00071380528895619369 -0.05511262964669511 0 -5.1651701984466453e-06 -0.066159958179006412 0 2.0790219626301374e-07 -0.066145352955516865 0 1.3585632740896548e-05 -0.069634111437025123 0 -0.0012190342087721297 -0.055102658061144616 0 -0.0010761360380069454 -0.055673339286323814 0 -0.0017698859538142376 -0.055608994958784866 0 0.0013512558438560386 -0.063533448578082644 0 -0.00037030566186923951 -0.06673041995234312 0 2.0790219626301374e-07 -0.066145352955516865 0 -2.1545679730537809e-07 -0.070021942948638227 0 1.3585632740896548e-05 -0.069634111437025123 0 -0.00045191577465165581 -0.073322061306524092 0 -0.00034219392178935889 -0.071307353506814428 0 8.884285168793139e-05 -0.072280498539023408 0 -0.00071198600542091736 -0.064598637970916431 0 -0.00037030566186923951 -0.06673041995234312 0 0.00038737656211297437 -0.072675468102063906 0 3.838060683532422e-07 -0.070034258501153052 0 -0.00034219392178935889 -0.071307353506814428 0 -5.4322021397757057e-06 -0.07000909633300427 0 -0.00037030566186923951 -0.06673041995234312 0 0.00038737656211297437 -0.072675468102063906 0 -0.00034219392178935889 -0.071307353506814428 0 8.884285168793139e-05 -0.072280498539023408 0 0.0047501890412780601 -0.061385976835610104 0 0.002948844946261314 -0.057544310726108702 0 -0.00037335215745848551 -0.055746480767621245 0 -0.00071380528895619369 -0.05511262964669511 0 -6.0953459996264584e-06 -0.055013583737140499 0 -5.0950627571404669e-06 -0.060970576090605619 0 -0.00074662786761800417 -0.055234558174416012 0 0.00019869697018025796 -0.056848481807983187 0 -5.0950627571404669e-06 -0.060970576090605619 0 -0.0015521067795089757 -0.060806321671187366 0 -0.00074662786761800417 -0.055234558174416012 0 2.994936461777624e-06 -0.060979405769922453 0 0.0047501890412780601 -0.061385976835610104 0 0.0013512558438560386 -0.063533448578082644 0 0.0047501890412780601 -0.061385976835610104 0 -0.0010761360380069454 -0.055673339286323814 0 -0.00037335215745848551 -0.055746480767621245 0 -0.00071380528895619369 -0.05511262964669511 0 -5.1651701984466453e-06 -0.066159958179006412 0 2.0790219626301374e-07 -0.066145352955516865 0 -1.8431075498384608e-07 -0.062190832074708179 0 -0.001014597063230205 -0.054707893854629708 0 -0.00071380528895619369 -0.05511262964669511 0 -0.00062007506695398683 -0.054441672244879592 0 -0.00071380528895619369 -0.05511262964669511 0 -6.0953459996264584e-06 -0.055013583737140499 0 -0.00062007506695398683 -0.054441672244879592 0 -6.0953459996264584e-06 -0.055013583737140499 0 -0.00015866907061543625 -0.054204644720153038 0 0.00032807922486302669 -0.054250362354081774 0 -6.0953459996264584e-06 -0.055013583737140499 0 -0.00015866907061543625 -0.054204644720153038 0 -0.00062007506695398683 -0.054441672244879592 0 -0.001077382517973227 -0.054234385332361433 0 -0.001014597063230205 -0.054707893854629708 0 -0.00062007506695398683 -0.054441672244879592 0 -0.001077382517973227 -0.054234385332361433 0 -0.00062007506695398683 -0.054441672244879592 0 -0.0007291211718182107 -0.053619003111685264 0 -0.00015866907061543625 -0.054204644720153038 0 -0.00062007506695398683 -0.054441672244879592 0 -0.0007291211718182107 -0.053619003111685264 0 -0.00015866907061543625 -0.054204644720153038 0 -0.0007291211718182107 -0.053619003111685264 0 -2.4062830783045217e-05 -0.053632653049182369 0 -0.00015866907061543625 -0.054204644720153038 0 -2.4062830783045217e-05 -0.053632653049182369 0 0.00032807922486302669 -0.054250362354081774 0 0.0019738480201361955 -0.055006408053719535 0 0.0021619740322582981 -0.055627699727565191 0 -2.4062830783045217e-05 -0.053632653049182369 0 0.0005616500429667594 -0.05345065994151018 0 0.00032807922486302669 -0.054250362354081774 0 0.0005616500429667594 -0.05345065994151018 0 0.00073532340423267443 -0.05346390930686528 0 0.00074868188491484708 -0.053416841111195712 0 0.0005616500429667594 -0.05345065994151018 0 0.00079230636438206424 -0.053535130428381296 0 0.00073532340423267443 -0.05346390930686528 0 0.0005616500429667594 -0.05345065994151018 0 0.00079230636438206424 -0.053535130428381296 0 0.00014361009638258238 -0.053692465950307668 0 0.00079230636438206424 -0.053535130428381296 0 0.00014361009638258238 -0.053692465950307668 0 0.00050425566346677306 -0.054699741327583755 0 0.002948844946261314 -0.057544310726108702 0 0.0021619740322582981 -0.055627699727565191 0 -0.00074662786761800417 -0.055234558174416012 0 0.00050425566346677306 -0.054699741327583755 0 0.00019869697018025796 -0.056848481807983187 0 -0.00074662786761800417 -0.055234558174416012 0 0.00014361009638258238 -0.053692465950307668 0 0.00050425566346677306 -0.054699741327583755 0 0.00079230636438206424 -0.053535130428381296 0 0.00050425566346677306 -0.054699741327583755 0 0.00080919691472779089 -0.053376070921765613 0 2.5529282418481392e-06 -0.056241251311272639 0 2.6933481442588679e-06 -0.051502652222313906 0 0.00080919691472779089 -0.053376070921765613 0 0.00050425566346677306 -0.054699741327583755 0 2.5529282418481392e-06 -0.056241251311272639 0 0.00080919691472779089 -0.053376070921765613 0 0.00050425566346677306 -0.054699741327583755 0 2.5529282418481392e-06 -0.056241251311272639 0 0.00019869697018025796 -0.056848481807983187 0 -5.0950627571404669e-06 -0.060970576090605619 0 2.5529282418481392e-06 -0.056241251311272639 0 0.00019869697018025796 -0.056848481807983187 0 -0.00095695884260962253 -0.051241973500735165 0 -5.3054295626647823e-06 -0.046774110186836221 0 0.00040187441337575402 -0.051249215928845779 0 -5.3054295626647823e-06 -0.046774110186836221 0 0.00040187441337575402 -0.051249215928845779 0 2.6933481442588679e-06 -0.051502652222313906 0 0.00040187441337575402 -0.051249215928845779 0 2.6933481442588679e-06 -0.051502652222313906 0 0.00080919691472779089 -0.053376070921765613 0 0.00040187441337575402 -0.051249215928845779 0 0.00080919691472779089 -0.053376070921765613 0 0.00060743178164506396 -0.053039406188749895 0 0.00079230636438206424 -0.053535130428381296 0 0.00080919691472779089 -0.053376070921765613 0 0.00060743178164506396 -0.053039406188749895 0 -0.00095695884260962253 -0.051241973500735165 0 0.00040187441337575402 -0.051249215928845779 0 0.00060743178164506396 -0.053039406188749895 0 0.00019025350151014787 -0.053238683749034739 0 0.00060743178164506396 -0.053039406188749895 0 0.00066419199988922942 -0.053419946030816984 0 0.00079230636438206424 -0.053535130428381296 0 0.00060743178164506396 -0.053039406188749895 0 0.00066419199988922942 -0.053419946030816984 0 0.00079230636438206424 -0.053535130428381296 0 0.00073532340423267443 -0.05346390930686528 0 0.00066419199988922942 -0.053419946030816984 0 0.00073532340423267443 -0.05346390930686528 0 0.00066419199988922942 -0.053419946030816984 0 0.00074868188491484708 -0.053416841111195712 0 0.00067563460356083894 -0.050849888170408933 0 0.00091049855392136443 -0.051624425371075339 0 0.00066419199988922942 -0.053419946030816984 0 0.00056194677771062584 -0.053480699994660451 0 0.00074868188491484708 -0.053416841111195712 0 0.00033295835431980403 -0.053124431885740744 0 0.00066419199988922942 -0.053419946030816984 0 0.00056194677771062584 -0.053480699994660451 0 -0.0039143668033987736 -0.044924505983928872 0 -0.0039390871560793959 -0.04415368204929563 0 -0.0044024258466892098 -0.044502723883799521 0 -0.0039390871560793959 -0.04415368204929563 0 -0.0044024258466892098 -0.044502723883799521 0 -0.0045042415371609563 -0.043820260142529301 0 -0.0044024258466892098 -0.044502723883799521 0 -0.0047375466945299089 -0.04474234082819676 0 -0.0045042415371609563 -0.043820260142529301 0 -0.0044024258466892098 -0.044502723883799521 0 -0.0046919044460575045 -0.044626124345671266 0 -0.0047375466945299089 -0.04474234082819676 0 -0.0015377008005758642 -0.048751389425509932 0 -0.0017962653989688057 -0.049434213604374007 0 -0.0039143668033987736 -0.044924505983928872 0 -0.0044024258466892098 -0.044502723883799521 0 -0.0046919044460575045 -0.044626124345671266 0 0.0005616500429667594 -0.05345065994151018 0 0.00074868188491484708 -0.053416841111195712 0 0.00033287376387300209 -0.05319191660159707 0 -0.0046919044460575045 -0.044626124345671266 0 -0.0036665320689681044 -0.044494029675326605 0 -0.0047375466945299089 -0.04474234082819676 0 -0.0017962653989688057 -0.049434213604374007 0 -0.0016307019148520162 -0.050457970645666012 0 -2.4062830783045217e-05 -0.053632653049182369 0 0.0005616500429667594 -0.05345065994151018 0 0.00033287376387300209 -0.05319191660159707 0 -0.002290341158131844 -0.046425995669922636 0 -0.0036665320689681044 -0.044494029675326605 0 -0.0041774127252965651 -0.046148704024024323 0 -0.0037077689658016688 -0.044369208268455279 0 -0.003478647873797746 -0.044343446067954838 0 -0.0036665320689681044 -0.044494029675326605 0 -0.0047375466945299089 -0.04474234082819676 0 -0.0041774127252965651 -0.046148704024024323 0 -0.0047375466945299089 -0.04474234082819676 0 -0.0053612294645558238 -0.04401921150876343 0 -0.0045042415371609563 -0.043820260142529301 0 -0.0010478800980584233 -0.038286656652734376 0 -0.0010837563816382498 -0.038515858726533236 0 -0.0013310865670463333 -0.038331111930531507 0 -0.003478647873797746 -0.044343446067954838 0 -0.002938011441918294 -0.042059894063588774 0 -0.0030987340969394752 -0.048688508438037736 0 -0.002290341158131844 -0.046425995669922636 0 -0.0068352906173905631 -0.047263692794918009 0 -0.003478647873797746 -0.044343446067954838 0 -0.002406554646603329 -0.045055206418766515 0 -0.0034681854276119939 -0.044831205623119749 0 -0.003478647873797746 -0.044343446067954838 0 -0.0030987340969394752 -0.048688508438037736 0 -0.0068352906173905631 -0.047263692794918009 0 -0.0042001101007540396 -0.050447708946439886 0 -0.00084265171509157193 -0.03852139160957517 0 -0.0010837563816382498 -0.038515858726533236 0 -0.00086174536653459372 -0.038742098929798484 0 -0.0010478800980584233 -0.038286656652734376 0 -0.00084265171509157193 -0.03852139160957517 0 -0.0010837563816382498 -0.038515858726533236 0 -0.0010837563816382498 -0.038515858726533236 0 -0.0012676272792339174 -0.0385165290118928 0 -0.0013310865670463333 -0.038331111930531507 0 -0.0010837563816382498 -0.038515858726533236 0 -0.0012676272792339174 -0.0385165290118928 0 -0.001242335985474101 -0.038701206578414804 0 -0.0012676272792339174 -0.0385165290118928 0 -0.0014134572171756881 -0.038518844911183937 0 -0.001242335985474101 -0.038701206578414804 0 -0.0014134572171756881 -0.038518844911183937 0 -0.0016277128699492644 -0.038644980708328946 0 -0.001242335985474101 -0.038701206578414804 0 -0.0012676272792339174 -0.0385165290118928 0 -0.0014134572171756881 -0.038518844911183937 0 -0.0013310865670463333 -0.038331111930531507 0 -0.0014134572171756881 -0.038518844911183937 0 -0.0016219594552769221 -0.038378542908333112 0 -0.0016277128699492644 -0.038644980708328946 0 -0.002713131210941612 -0.040208760322928576 0 -0.002938011441918294 -0.042059894063588774 0 -0.0039390871560793959 -0.04415368204929563 0 -0.003872777020457515 -0.043534280022537952 0 -0.0045042415371609563 -0.043820260142529301 0 -0.0014134572171756881 -0.038518844911183937 0 -0.0016219594552769221 -0.038378542908333112 0 -0.0013310865670463333 -0.038331111930531507 0 -0.0013863052219743558 -0.038755968831041251 0 -0.0013242018405181654 -0.03901692977413268 0 -0.0011938723911913106 -0.038931572140806871 0 -0.0013863052219743558 -0.038755968831041251 0 -0.0013242018405181654 -0.03901692977413268 0 -0.0015689134892274699 -0.038951886180627254 0 -0.0015689134892274699 -0.038951886180627254 0 -0.0018151949849707486 -0.038773148227672603 0 -0.0017413964855661776 -0.039058379277402334 0 -0.0021054922437600179 -0.039114252448763917 0 -0.0018151949849707486 -0.038773148227672603 0 -0.0017413964855661776 -0.039058379277402334 0 -0.0013863052219743558 -0.038755968831041251 0 -0.0015689134892274699 -0.038951886180627254 0 -0.0018151949849707486 -0.038773148227672603 0 -0.0016214720196010659 -0.038549331984482897 0 -0.0018110141025496839 -0.038402896963586515 0 -0.0013863052219743558 -0.038755968831041251 0 -0.0018151949849707486 -0.038773148227672603 0 -0.0018565315452907674 -0.038289853716465164 0 -0.0018110141025496839 -0.038402896963586515 0 -0.0013304949923675429 -0.038561660891080839 0 -0.0013863052219743558 -0.038755968831041251 0 -0.0016803753016231726 -0.038534144679341235 0 -0.0013019866314367215 -0.038596718880823 0 -0.0013304949923675429 -0.038561660891080839 0 -0.0011133726865379203 -0.038621128525998027 0 -0.0010837563816382498 -0.038515858726533236 0 -0.001242335985474101 -0.038701206578414804 0 -0.00086174536653459372 -0.038742098929798484 0 -0.0013863052219743558 -0.038755968831041251 0 -0.0013019866314367215 -0.038596718880823 0 -0.0011316870696926188 -0.038796793425370235 0 -0.0013019866314367215 -0.038596718880823 0 -0.00086174536653459372 -0.038742098929798484 0 -0.0011316870696926188 -0.038796793425370235 0 -0.00086174536653459372 -0.038742098929798484 0 -0.00095961431540136986 -0.038867030498276001 0 -0.0011316870696926188 -0.038796793425370235 0 -0.00086174536653459372 -0.038742098929798484 0 -0.00095961431540136986 -0.038867030498276001 0 -0.0007714418628214421 -0.038867181043655233 0 -0.00095961431540136986 -0.038867030498276001 0 -0.00081955204189818347 -0.038980141596650392 0 -0.0007714418628214421 -0.038867181043655233 0 -0.00095961431540136986 -0.038867030498276001 0 -0.00093744555864942736 -0.03900598667408417 0 -0.0010706185421565646 -0.038909392133145287 0 -0.00093744555864942736 -0.03900598667408417 0 -0.0010804325314463172 -0.03901738550254432 0 -0.0010241195485309908 -0.039138836859179141 0 -0.00093744555864942736 -0.03900598667408417 0 -0.0010706185421565646 -0.038909392133145287 0 -0.0010804325314463172 -0.03901738550254432 0 -0.00093744555864942736 -0.03900598667408417 0 -0.00086410149466485946 -0.039055998877362469 0 -0.00090696407413992305 -0.039137240661688701 0 -0.00095961431540136986 -0.038867030498276001 0 -0.00093744555864942736 -0.03900598667408417 0 -0.00081955204189818347 -0.038980141596650392 0 -0.00093744555864942736 -0.03900598667408417 0 -0.00086410149466485946 -0.039055998877362469 0 -0.00081955204189818347 -0.038980141596650392 0 -0.00086410149466485946 -0.039055998877362469 0 -0.00081955204189818347 -0.038980141596650392 0 -0.00079338174302727318 -0.039101550139875839 0 -0.0013863052219743558 -0.038755968831041251 0 -0.0011316870696926188 -0.038796793425370235 0 -0.0011938723911913106 -0.038931572140806871 0 -0.00095961431540136986 -0.038867030498276001 0 -0.0011316870696926188 -0.038796793425370235 0 -0.0010706185421565646 -0.038909392133145287 0 -0.0011316870696926188 -0.038796793425370235 0 -0.0010706185421565646 -0.038909392133145287 0 -0.0011938723911913106 -0.038931572140806871 0 -0.0010706185421565646 -0.038909392133145287 0 -0.0010804325314463172 -0.03901738550254432 0 -0.0011938723911913106 -0.038931572140806871 0 -0.0010804325314463172 -0.03901738550254432 0 -0.0011938723911913106 -0.038931572140806871 0 -0.0011763405695874281 -0.039100049007872652 0 -0.0013242018405181654 -0.03901692977413268 0 -0.0011938723911913106 -0.038931572140806871 0 -0.0011763405695874281 -0.039100049007872652 0 -0.0013242018405181654 -0.03901692977413268 0 -0.0011763405695874281 -0.039100049007872652 0 -0.0013413146289899156 -0.039236940230527366 0 -0.0011763405695874281 -0.039100049007872652 0 -0.0010989118382833593 -0.039254640174383251 0 -0.0010241195485309908 -0.039138836859179141 0 -0.0010804325314463172 -0.03901738550254432 0 -0.0011763405695874281 -0.039100049007872652 0 -0.0010241195485309908 -0.039138836859179141 0 -0.0010989118382833593 -0.039254640174383251 0 -0.0012208517994213334 -0.039393277455081144 0 -0.0013413146289899156 -0.039236940230527366 0 -0.0011763405695874281 -0.039100049007872652 0 -0.0010989118382833593 -0.039254640174383251 0 -0.0013413146289899156 -0.039236940230527366 0 -0.00084285897573711864 -0.039187842809998603 0 -0.00079338174302727318 -0.039101550139875839 0 -0.00074333971132598692 -0.039233489927367061 0 -0.00084285897573711864 -0.039187842809998603 0 -0.00079338174302727318 -0.039101550139875839 0 -0.00090696407413992305 -0.039137240661688701 0 -0.00086410149466485946 -0.039055998877362469 0 -0.00079338174302727318 -0.039101550139875839 0 -0.00090696407413992305 -0.039137240661688701 0 -0.00084285897573711864 -0.039187842809998603 0 -0.00090696407413992305 -0.039137240661688701 0 -0.00089237059306994132 -0.039238083992751943 0 -0.00090696407413992305 -0.039137240661688701 0 -0.0010241195485309908 -0.039138836859179141 0 -0.00089237059306994132 -0.039238083992751943 0 -0.00093744555864942736 -0.03900598667408417 0 -0.00090696407413992305 -0.039137240661688701 0 -0.0010241195485309908 -0.039138836859179141 0 -0.0010989118382833593 -0.039254640174383251 0 -0.00089237059306994132 -0.039238083992751943 0 -0.00092556357111677238 -0.039428385107362664 0 -0.0010989118382833593 -0.039254640174383251 0 -0.0010241195485309908 -0.039138836859179141 0 -0.00089237059306994132 -0.039238083992751943 0 -0.00084285897573711864 -0.039187842809998603 0 -0.00089237059306994132 -0.039238083992751943 0 -0.00074333971132598692 -0.039233489927367061 0 -0.00089237059306994132 -0.039238083992751943 0 -0.00092556357111677238 -0.039428385107362664 0 -0.00071000188503597184 -0.039277702009662657 0 0.0012435137264488652 -0.061453860652260599 0 0.0014744079863718055 -0.06161817887208338 0 0.0014913127398840525 -0.06127044385151624 0 0.0012435137264488652 -0.061453860652260599 0 0.00097309352716686514 -0.061627426371848523 0 0.0013032027845267342 -0.061825991386732469 0 0.0012435137264488652 -0.061453860652260599 0 0.0013032027845267342 -0.061825991386732469 0 0.0014744079863718055 -0.06161817887208338 0 0.0010161043923302335 -0.051065383618140336 0 -0.00020341558914466218 -0.053462386021538709 0 -0.0010989118382833593 -0.039254640174383251 0 -0.00092556357111677238 -0.039428385107362664 0 -0.0012208517994213334 -0.039393277455081144 0 -0.00092556357111677238 -0.039428385107362664 0 -0.0012208517994213334 -0.039393277455081144 0 -0.0011543733732864408 -0.039590056515774477 0 0.0010161043923302335 -0.051065383618140336 0 0.0027046694010911844 -0.048644708465712415 0 0.0027046694010911844 -0.048644708465712415 0 0.0016532420280963788 -0.039875679449573459 0 -0.0012208517994213334 -0.039393277455081144 0 -0.0011543733732864408 -0.039590056515774477 0 -0.0014015565509429024 -0.039445560490270225 0 0.0028637875555003593 -0.043313372972827766 0 0.0035860464885021431 -0.043691304627578108 0 0.0033744510361915277 -0.042873985482615118 0 -0.0014015565509429024 -0.039445560490270225 0 -0.0013413146289899156 -0.039236940230527366 0 -0.0016589767905581005 -0.039294852586113975 0 0.002137668954779496 -0.042929938964581867 0 0.0028637875555003593 -0.043313372972827766 0 0.00279077849845628 -0.042479021591582629 0 0.0016532420280963788 -0.039875679449573459 0 0.00086796849669999667 -0.030808933100672262 0 -0.0012208517994213334 -0.039393277455081144 0 -0.0014015565509429024 -0.039445560490270225 0 -0.0013413146289899156 -0.039236940230527366 0 -0.0013413146289899156 -0.039236940230527366 0 -0.0015414929202466978 -0.039119532751347517 0 -0.0016589767905581005 -0.039294852586113975 0 -0.0013242018405181654 -0.03901692977413268 0 -0.0015689134892274699 -0.038951886180627254 0 -0.0015414929202466978 -0.039119532751347517 0 -0.0013242018405181654 -0.03901692977413268 0 -0.0013413146289899156 -0.039236940230527366 0 -0.0015414929202466978 -0.039119532751347517 0 -0.0021054922437600179 -0.039114252448763917 0 -0.0017413964855661776 -0.039058379277402334 0 -0.0016903059924240455 -0.039330870234699257 0 0.0015853132774441676 -0.024708029746280322 0 0.00086796849669999667 -0.030808933100672262 0 -0.0015689134892274699 -0.038951886180627254 0 -0.0015414929202466978 -0.039119532751347517 0 -0.0017413964855661776 -0.039058379277402334 0 -0.0015414929202466978 -0.039119532751347517 0 -0.0017413964855661776 -0.039058379277402334 0 -0.0016903059924240455 -0.039330870234699257 0 1.1308094411989387e-05 -0.032342667897206849 0 0.00086796849669999667 -0.030808933100672262 0 0.0054488131804789836 -0.031257712918212326 0 0.00086796849669999667 -0.030808933100672262 0 0.0041837076854138299 -0.042846608363074995 0 0.0035860464885021431 -0.043691304627578108 0 0.0033744510361915277 -0.042873985482615118 0 0.004059843813353752 -0.0064856581335826025 0 0.002772732719399085 -0.0031533073112996902 0 -0.00025518746778998419 -0.0075313017709450819 0 0.0041837076854138299 -0.042846608363074995 0 0.0033744510361915277 -0.042873985482615118 0 0.0034466732544720753 -0.042031429474442904 0 0.0011389880442957627 -0.061822524953788004 0 0.0010997188469972132 -0.06182967905197722 0 0.0011805874005318307 -0.061883865630620379 0 0.0033744510361915277 -0.042873985482615118 0 0.00279077849845628 -0.042479021591582629 0 0.0034466732544720753 -0.042031429474442904 0 0.0028637875555003593 -0.043313372972827766 0 0.0033744510361915277 -0.042873985482615118 0 0.00279077849845628 -0.042479021591582629 0 0.0028438112060387194 -0.050990384901096537 0 0.0039452298694955239 -0.052566364926491249 0 0.0056275799840504823 -0.08112969621675703 0 0.0042935353701290995 -0.078899366389127798 0 0.002835989309587708 -0.08061061347813088 0 0.0039452298694955239 -0.052566364926491249 0 0.0023300721898588048 -0.054378057195252301 0 0.001077298051078342 -0.061889653276975133 0 0.0011805874005318307 -0.061883865630620379 0 0.0011522851761363135 -0.061960012385991033 0 0.001048386273219383 -0.061905645436201341 0 0.001077298051078342 -0.061889653276975133 0 0.0011522851761363135 -0.061960012385991033 0 0.004273381215521805 -0.056986241992587505 0 0.0027461171152713382 -0.065769772189818054 0 0.0063725293592608112 -0.040990086479656164 0 0.0039452298694955239 -0.052566364926491249 0 0.0071661934834570422 -0.047358960590660942 0 0.0037282660701564259 -0.046457765691323025 0 0.0022367301032292716 -0.047480795273371526 0 0.004273381215521805 -0.056986241992587505 0 0.0039452298694955239 -0.052566364926491249 0 0.0056275799840504823 -0.08112969621675703 0 0.0059677227415883176 -0.079313453288453101 0 0.0042935353701290995 -0.078899366389127798 0 0.0059677227415883176 -0.079313453288453101 0 0.0042935353701290995 -0.078899366389127798 0 0.005863184838803881 -0.077693151852816777 0 0.0042935353701290995 -0.078899366389127798 0 0.0019860416008344725 -0.07828416267859481 0 0.002835989309587708 -0.08061061347813088 0 0.00045147940111602561 -0.075528329620103113 0 0.0022930352956519401 -0.075519604713685795 0 0.0042935353701290995 -0.078899366389127798 0 0.0019860416008344725 -0.07828416267859481 0 0.003863312255668641 -0.076430009337759675 0 0.0042935353701290995 -0.078899366389127798 0 0.005863184838803881 -0.077693151852816777 0 0.003863312255668641 -0.076430009337759675 0 0.00067924467382477936 -0.078983787659826638 0 -0.0024190407540835186 -0.078354837982896733 0 -0.00048640154562225925 -0.076011907485757174 0 0.0019860416008344725 -0.07828416267859481 0 0.0001042578849133294 -0.080116341753294643 0 0.002835989309587708 -0.08061061347813088 0 0.00045147940111602561 -0.075528329620103113 0 0.00099874776279779468 -0.07087277634666389 0 0.00067924467382477936 -0.078983787659826638 0 -0.0013732998585838767 -0.080931858088285943 0 -0.0024190407540835186 -0.078354837982896733 0 0.0013568248479015649 -0.06208834466108213 0 0.0011805874005318307 -0.061883865630620379 0 0.0013032027845267342 -0.061825991386732469 0 0.0013568248479015649 -0.06208834466108213 0 0.0011805874005318307 -0.061883865630620379 0 0.0011522851761363135 -0.061960012385991033 0 0.00099874776279779468 -0.07087277634666389 0 0.0027461171152713382 -0.065769772189818054 0 0.0012009137668762442 -0.061762563912391349 0 0.0011805874005318307 -0.061883865630620379 0 0.0013032027845267342 -0.061825991386732469 0 0.0012009137668762442 -0.061762563912391349 0 0.0011389880442957627 -0.061822524953788004 0 0.0011805874005318307 -0.061883865630620379 0 0.0027046694010911844 -0.048644708465712415 0 0.0028438112060387194 -0.050990384901096537 0 0.0027046694010911844 -0.048644708465712415 0 0.0037231251979559709 -0.050927253480465381 0 0.0013032027845267342 -0.061825991386732469 0 0.0016360250635745349 -0.061980435395198138 0 0.0014744079863718055 -0.06161817887208338 0 0.0016360250635745349 -0.061980435395198138 0 0.0017739691391915611 -0.061604644698948538 0 0.0014744079863718055 -0.06161817887208338 0 0.0028205222178292869 -0.068628886525789412 0 0.0030809965595127897 -0.064925599085041863 0 -0.00017662264300619682 -0.064818076755609938 0 0.00031180069574816431 -0.068143991469590909 0 0.00073648333745756397 -0.061936873644952359 0 0.0016360250635745349 -0.061980435395198138 0 0.0023011883005577445 -0.062148486594469789 0 0.0017739691391915611 -0.061604644698948538 0 0.0016360250635745349 -0.061980435395198138 0 0.0018191250335417 -0.062900467742720692 0 0.0023011883005577445 -0.062148486594469789 0 0.0018191250335417 -0.062900467742720692 0 0.0023011883005577445 -0.062148486594469789 0 0.0024014300878176607 -0.062710260648181138 0 0.0013568248479015649 -0.06208834466108213 0 0.0013032027845267342 -0.061825991386732469 0 0.0016360250635745349 -0.061980435395198138 0 0.00099874776279779468 -0.07087277634666389 0 0.002980536396158574 -0.066976886345055039 0 0.00085076630891200891 -0.062755279782171977 0 0.0016360250635745349 -0.061980435395198138 0 0.0018191250335417 -0.062900467742720692 0 -0.0013732998585838767 -0.080931858088285943 0 -0.0040652603538661814 -0.080450748996191326 0 -0.0024190407540835186 -0.078354837982896733 0 0.00099874776279779468 -0.07087277634666389 0 -0.00090751861361984217 -0.073850589698626665 0 -0.0040652603538661814 -0.080450748996191326 0 -0.0024190407540835186 -0.078354837982896733 0 -0.0053051383112192709 -0.077925475701211139 0 -0.010302111817270986 -0.084454359088100311 0 -0.012275013737323752 -0.083389001076828811 0 -0.011462986683534314 -0.085244149622061713 0 -0.010302111817270986 -0.084454359088100311 0 -0.012275013737323752 -0.083389001076828811 0 -0.010391974831817332 -0.082476286342701668 0 -0.0040967891170795839 -0.079785763753346825 0 -0.0013737547494659253 -0.078204704131249719 0 -0.010302111817270986 -0.084454359088100311 0 -0.0074322362115759764 -0.083307179756015468 0 -0.010391974831817332 -0.082476286342701668 0 -0.010302111817270986 -0.084454359088100311 0 -0.0074322362115759764 -0.083307179756015468 0 -0.0095812827304190586 -0.086195824160897674 0 -0.00090751861361984217 -0.073850589698626665 0 -0.0013737547494659253 -0.078204704131249719 0 0.0018191250335417 -0.062900467742720692 0 0.0027270361121893879 -0.063085153537374442 0 0.0024014300878176607 -0.062710260648181138 0 -0.0040652603538661814 -0.080450748996191326 0 -0.0053051383112192709 -0.077925475701211139 0 -0.0067188424217380213 -0.079988889333991023 0 0.0027270361121893879 -0.063085153537374442 0 0.0028675131955561719 -0.062892401351409971 0 0.0024014300878176607 -0.062710260648181138 0 -0.0013737547494659253 -0.078204704131249719 0 -0.00028146222284321243 -0.076732840693131507 0 -0.00044844722093091916 -0.077806200657417238 0 -0.00086996067161406658 -0.077276281471283167 0 -0.0011137681050594071 -0.078764498380910458 0 -0.00075378209561704915 -0.080012871536459196 0 -0.00040454145976753569 -0.079664314461987587 0 -0.0014067833749029531 -0.093912880376296443 0 -0.0014239215764562431 -0.093805222304980895 0 -0.0013597293875303885 -0.093866670763745316 0 0.0016687393324711505 -0.078992874424406584 0 -0.0003655507955224755 -0.081937926661418831 0 -0.0033952426108623313 -0.078136042678334211 0 -0.00028146222284321243 -0.076732840693131507 0 -0.00075378209561704915 -0.080012871536459196 0 -0.010302111817270986 -0.084454359088100311 0 -0.0095812827304190586 -0.086195824160897674 0 -0.010935032871663544 -0.085930499451697118 0 -0.010302111817270986 -0.084454359088100311 0 -0.010935032871663544 -0.085930499451697118 0 -0.011462986683534314 -0.085244149622061713 0 -0.0013737547494659253 -0.078204704131249719 0 -0.00075378209561704915 -0.080012871536459196 0 -0.00075378209561704915 -0.080012871536459196 0 -0.00092300764123612149 -0.080015432057410435 0 -0.0014067833749029531 -0.093912880376296443 0 -0.0013597293875303885 -0.093866670763745316 0 -0.0013301237716467646 -0.093890081604805276 0 -0.0014239215764562431 -0.093805222304980895 0 -0.0013629640695525199 -0.093836598085473719 0 -0.0013597293875303885 -0.093866670763745316 0 -0.00028146222284321243 -0.076732840693131507 0 -0.00040454145976753569 -0.079664314461987587 0 -0.0014470240973030004 -0.093757733548183009 0 -0.0014239215764562431 -0.093805222304980895 0 -0.0013629640695525199 -0.093836598085473719 0 -0.00085019020453660338 -0.080580701828716905 0 -0.00040454145976753569 -0.079664314461987587 0 -0.00028146222284321243 -0.076732840693131507 0 0.00031180069574816431 -0.068143991469590909 0 0.0028675131955561719 -0.062892401351409971 0 0.0023011883005577445 -0.062148486594469789 0 0.0024014300878176607 -0.062710260648181138 0 0.0075297224800377144 -0.069982158540994099 0 0.0028205222178292869 -0.068628886525789412 0 0.005787279909428295 -0.06713931428384444 0 0.0058299391242137262 -0.072443256311383222 0 0.0075297224800377144 -0.069982158540994099 0 0.0028205222178292869 -0.068628886525789412 0 0.0028205222178292869 -0.068628886525789412 0 0.005787279909428295 -0.06713931428384444 0 0.0030809965595127897 -0.064925599085041863 0 -0.00040454145976753569 -0.079664314461987587 0 0.00094942056188792863 -0.078272654198096814 0 0.0075297224800377144 -0.069982158540994099 0 0.005787279909428295 -0.06713931428384444 0 0.0081702451418287098 -0.064832673791500067 0 -0.0014470240973030004 -0.093757733548183009 0 -0.0015174747736662214 -0.093919334366052015 0 -0.0016214757385671775 -0.093237515173740418 0 0.005787279909428295 -0.06713931428384444 0 0.0081702451418287098 -0.064832673791500067 0 0.0052442664005676745 -0.062597886532868297 0 0.0081702451418287098 -0.064832673791500067 0 0.0052442664005676745 -0.062597886532868297 0 0.0087915925540250905 -0.059693623790133751 0 0.00094942056188792863 -0.078272654198096814 0 0.00116762756878161 -0.075523718834479683 0 0.0058765463906036326 -0.059537192515758244 0 0.0052442664005676745 -0.062597886532868297 0 0.0087915925540250905 -0.059693623790133751 0 0.0058765463906036326 -0.059537192515758244 0 0.0067837887961014346 -0.057406317032704469 0 0.0087915925540250905 -0.059693623790133751 0 0.0038079886297561556 -0.059789102410891255 0 0.0052442664005676745 -0.062597886532868297 0 0.0017320047815160054 -0.061449722914128015 0 0.0038079886297561556 -0.059789102410891255 0 0.0017320047815160054 -0.061449722914128015 0 0.0022197918301896783 -0.058870933616210368 0 0.0038079886297561556 -0.059789102410891255 0 0.0046840192806688035 -0.058141778867601003 0 0.0033230441634974966 -0.058235939323934997 0 0.0038079886297561556 -0.059789102410891255 0 0.0022197918301896783 -0.058870933616210368 0 0.0033230441634974966 -0.058235939323934997 0 0.0058765463906036326 -0.059537192515758244 0 0.0038079886297561556 -0.059789102410891255 0 0.0046840192806688035 -0.058141778867601003 0 0.0058765463906036326 -0.059537192515758244 0 0.0038079886297561556 -0.059789102410891255 0 0.0052442664005676745 -0.062597886532868297 0 0.0030809965595127897 -0.064925599085041863 0 0.0052442664005676745 -0.062597886532868297 0 0.0017320047815160054 -0.061449722914128015 0 0.005787279909428295 -0.06713931428384444 0 0.0030809965595127897 -0.064925599085041863 0 0.0052442664005676745 -0.062597886532868297 0 -0.00017662264300619682 -0.064818076755609938 0 -0.003182926955509546 -0.061015270543014796 0 0.0017320047815160054 -0.061449722914128015 0 0.0030809965595127897 -0.064925599085041863 0 -0.00017662264300619682 -0.064818076755609938 0 0.0017320047815160054 -0.061449722914128015 0 0.00073648333745756397 -0.061936873644952359 0 -0.00020341558914466218 -0.053462386021538709 0 0.0017739691391915611 -0.061604644698948538 0 0.0014744079863718055 -0.06161817887208338 0 0.0014913127398840525 -0.06127044385151624 0 -0.00074333971132598692 -0.039233489927367061 0 -0.00071371361673763941 -0.039275840520152774 0 -0.00066148107665343501 -0.039026130060570943 0 -0.00071371361673763941 -0.039275840520152774 0 -0.00037819814358586873 -0.039052239419486344 0 -0.00066148107665343501 -0.039026130060570943 0 -0.00089237059306994132 -0.039238083992751943 0 -0.00074333971132598692 -0.039233489927367061 0 -0.00071000188503597184 -0.039277702009662657 0 -0.00029743880406726575 -0.053285572648496093 0 -0.00020341558914466218 -0.053462386021538709 0 -0.00079338174302727318 -0.039101550139875839 0 -0.00074333971132598692 -0.039233489927367061 0 -0.00066148107665343501 -0.039026130060570943 0 -0.00020341558914466218 -0.053462386021538709 0 0.0014946779439955773 -0.04896913167552399 0 -0.003182926955509546 -0.061015270543014796 0 0.0017320047815160054 -0.061449722914128015 0 0.0014086151342263672 -0.057879471293653173 0 0.0017320047815160054 -0.061449722914128015 0 0.0022197918301896783 -0.058870933616210368 0 0.0014086151342263672 -0.057879471293653173 0 -0.00037819814358586873 -0.039052239419486344 0 -0.00066148107665343501 -0.039026130060570943 0 -0.00061524259760744584 -0.03876285882003791 0 0.0022197918301896783 -0.058870933616210368 0 0.0022868026999370533 -0.057282525469115761 0 0.0014168735481551631 -0.057865714632122235 0 0.001476850285840415 -0.057826475609324968 0 0.0014376241304828489 -0.055544103315195652 0 -0.0014119367424207431 -0.054104649758260098 0 0.0014946779439955773 -0.04896913167552399 0 -0.00072618248452283702 -0.046701416756247491 0 0.0017108759346400608 -0.04936690968064162 0 0.0014946779439955773 -0.04896913167552399 0 0.0013981606946240287 -0.04912006412907749 0 0.0014946779439955773 -0.04896913167552399 0 0.0022868026999370533 -0.057282525469115761 0 0.0014376241304828489 -0.055544103315195652 0 0.0031182063985252134 -0.055845824925725811 0 0.0022868026999370533 -0.057282525469115761 0 0.001476850285840415 -0.057826475609324968 0 0.0014376241304828489 -0.055544103315195652 0 -0.00066148107665343501 -0.039026130060570943 0 -0.0007714418628214421 -0.038867181043655233 0 -0.00061524259760744584 -0.03876285882003791 0 -0.00081955204189818347 -0.038980141596650392 0 -0.00079338174302727318 -0.039101550139875839 0 -0.00066148107665343501 -0.039026130060570943 0 -0.00081955204189818347 -0.038980141596650392 0 -0.00066148107665343501 -0.039026130060570943 0 -0.0007714418628214421 -0.038867181043655233 0 -0.00084265171509157193 -0.03852139160957517 0 -0.00086174536653459372 -0.038742098929798484 0 -0.00061524259760744584 -0.03876285882003791 0 -0.00086174536653459372 -0.038742098929798484 0 -0.0007714418628214421 -0.038867181043655233 0 -0.00061524259760744584 -0.03876285882003791 0 0.00094400560779219704 -0.052050936794810564 0 -0.0030766747777636436 -0.050713660549722872 0 -0.0014119367424207431 -0.054104649758260098 0 -0.002406554646603329 -0.045055206418766515 0 -0.00072618248452283702 -0.046701416756247491 0 0.0014376241304828489 -0.055544103315195652 0 0.00064003637678498003 -0.053950367991023526 0 0.0025463332755545241 -0.054255345787377937 0 0.0014376241304828489 -0.055544103315195652 0 0.0025463332755545241 -0.054255345787377937 0 0.0031182063985252134 -0.055845824925725811 0 0.0014376241304828489 -0.055544103315195652 0 -0.0014119367424207431 -0.054104649758260098 0 0.00064003637678498003 -0.053950367991023526 0 0.00094400560779219704 -0.052050936794810564 0 -0.0014119367424207431 -0.054104649758260098 0 0.00064003637678498003 -0.053950367991023526 0 0.00094400560779219704 -0.052050936794810564 0 0.00064003637678498003 -0.053950367991023526 0 0.0025463332755545241 -0.054255345787377937 0 0.00094400560779219704 -0.052050936794810564 0 0.0025463332755545241 -0.054255345787377937 0 0.0051257073569849539 -0.053332136833777216 0 -0.0012791246515370246 -0.058603168262051322 0 5.8250031606050059e-05 -0.063235500081903942 0 0.0025463332755545241 -0.054255345787377937 0 0.0042428199973877957 -0.054857451607662033 0 0.0031182063985252134 -0.055845824925725811 0 0.0025463332755545241 -0.054255345787377937 0 0.0042428199973877957 -0.054857451607662033 0 0.0051257073569849539 -0.053332136833777216 0 0.0053414828749780412 -0.054814791043094925 0 0.0042428199973877957 -0.054857451607662033 0 0.0049016544709652816 -0.056145307077960158 0 0.0053414828749780412 -0.054814791043094925 0 0.0042428199973877957 -0.054857451607662033 0 0.0051257073569849539 -0.053332136833777216 0 5.8250031606050059e-05 -0.063235500081903942 0 0.00011696197874143963 -0.072209507917906438 0 0.0016865890536935421 -0.051720399096955874 0 0.0019796926763531713 -0.051624533427752889 0 0.002148714304544011 -0.051763965095650857 0 0.0051257073569849539 -0.053332136833777216 0 0.0067970235333245253 -0.055078907401708468 0 0.0093905037383054078 -0.054623712219147087 0 0.0019293995223951638 -0.051748742118248425 0 0.0019796926763531713 -0.051624533427752889 0 0.002148714304544011 -0.051763965095650857 0 0.0017290377865232407 -0.050821364777079048 0 0.0016865890536935421 -0.051720399096955874 0 0.0019796926763531713 -0.051624533427752889 0 0.0053414828749780412 -0.054814791043094925 0 0.0067970235333245253 -0.055078907401708468 0 0.0049016544709652816 -0.056145307077960158 0 0.0053414828749780412 -0.054814791043094925 0 0.0051257073569849539 -0.053332136833777216 0 0.0067970235333245253 -0.055078907401708468 0 0.0067970235333245253 -0.055078907401708468 0 0.0067837887961014346 -0.057406317032704469 0 0.0049016544709652816 -0.056145307077960158 0 0.0067837887961014346 -0.057406317032704469 0 0.0093905037383054078 -0.054623712219147087 0 0.0087915925540250905 -0.059693623790133751 0 0.0067970235333245253 -0.055078907401708468 0 0.0067837887961014346 -0.057406317032704469 0 0.0093905037383054078 -0.054623712219147087 0 0.0058765463906036326 -0.059537192515758244 0 0.0067837887961014346 -0.057406317032704469 0 0.0046840192806688035 -0.058141778867601003 0 0.0067837887961014346 -0.057406317032704469 0 0.0046840192806688035 -0.058141778867601003 0 0.0049016544709652816 -0.056145307077960158 0 0.0046840192806688035 -0.058141778867601003 0 0.0036076195113325135 -0.057101272779806846 0 0.0049016544709652816 -0.056145307077960158 0 0.0046840192806688035 -0.058141778867601003 0 0.0033230441634974966 -0.058235939323934997 0 0.0036076195113325135 -0.057101272779806846 0 0.0022197918301896783 -0.058870933616210368 0 0.0022868026999370533 -0.057282525469115761 0 0.0033230441634974966 -0.058235939323934997 0 0.0022868026999370533 -0.057282525469115761 0 0.0033230441634974966 -0.058235939323934997 0 0.0036076195113325135 -0.057101272779806846 0 0.0036076195113325135 -0.057101272779806846 0 0.0031182063985252134 -0.055845824925725811 0 0.0049016544709652816 -0.056145307077960158 0 0.0022868026999370533 -0.057282525469115761 0 0.0036076195113325135 -0.057101272779806846 0 0.0031182063985252134 -0.055845824925725811 0 0.0042428199973877957 -0.054857451607662033 0 0.0031182063985252134 -0.055845824925725811 0 0.0049016544709652816 -0.056145307077960158 0 0.0014803557394563545 -0.084658869625131319 0 0.0015098237125708469 -0.090606282660092741 0 -0.00068800730533331606 -0.091484410117060724 0 -0.0014930587397818662 -0.091212169764979492 0 -0.0016014146325519683 -0.092253801373017974 0 0.00011696197874143963 -0.072209507917906438 0 0.00116762756878161 -0.075523718834479683 0 -0.0015303280752999213 -0.075240658550550232 0 -0.0003046387055545747 -0.075610585751816867 0 -0.0017988814454664424 -0.077454098738403906 0 -0.0003046387055545747 -0.075610585751816867 0 0.00064922724317218274 -0.078195400601088746 0 -0.0017988814454664424 -0.077454098738403906 0 0.0014803557394563545 -0.084658869625131319 0 0.00011696197874143963 -0.072209507917906438 0 0.00022650810877982293 -0.068644658295857655 0 0.00011696197874143963 -0.072209507917906438 0 -0.0012252811305092878 -0.093468462556054469 0 -0.0009781034489431766 -0.093495438538930803 0 -0.0010491598306153727 -0.09320898766734563 0 0.0010450735603588091 -0.081033955796555632 0 0.0014803557394563545 -0.084658869625131319 0 -0.00095212659793200575 -0.094390590175144673 0 -0.00056362617330711683 -0.094541419575017743 0 -0.00080574301599052069 -0.094787439775351645 0 -0.0012252811305092878 -0.093468462556054469 0 -0.0010491598306153727 -0.09320898766734563 0 -0.0012927671192132992 -0.09313045707781592 0 -9.9064465370329185e-06 -0.093115767454772055 0 0.00052219354049432834 -0.090971179024312759 0 -0.00056362617330711683 -0.094541419575017743 0 -0.00080574301599052069 -0.094787439775351645 0 -0.00029243317391375442 -0.094842399964787688 0 0.00052219354049432834 -0.090971179024312759 0 0.00039945164108031226 -0.092058555631454916 0 -0.0002212720451882328 -0.094010306375474167 0 5.9661554231118578e-06 -0.094099716241893075 0 -0.00012609618185051421 -0.094282186820501657 0 0.0014803557394563545 -0.084658869625131319 0 0.00052219354049432834 -0.090971179024312759 0 5.9661554231118578e-06 -0.094099716241893075 0 2.1527702628645488e-05 -0.094360112405141555 0 -0.00012609618185051421 -0.094282186820501657 0 0.00052219354049432834 -0.090971179024312759 0 0.00055886179758241712 -0.093367602281342346 0 2.1527702628645488e-05 -0.094360112405141555 0 -2.2861977963161709e-05 -0.094452046296474051 0 -0.00012609618185051421 -0.094282186820501657 0 1.3900285196291951e-05 -0.09493616765631771 0 -2.7775365462162175e-05 -0.094728811590896828 0 -0.00029243317391375442 -0.094842399964787688 0 -2.7775365462162175e-05 -0.094728811590896828 0 -0.00019228046549140773 -0.0946701069446826 0 -0.00029243317391375442 -0.094842399964787688 0 -2.7775365462162175e-05 -0.094728811590896828 0 -8.4753144266362033e-05 -0.094437846029379019 0 -0.00019228046549140773 -0.0946701069446826 0 0.00055886179758241712 -0.093367602281342346 0 0.00051797295573425281 -0.093837820760191731 0 -8.4753144266362033e-05 -0.094437846029379019 0 -0.00020206942971749854 -0.094501477255096958 0 -0.00019228046549140773 -0.0946701069446826 0 -0.00018073828624529033 -0.093192205447547916 0 -0.00064134768271122112 -0.092963942976637959 0 -0.00040855915310468829 -0.092343868153644926 0 2.1527702628645488e-05 -0.094360112405141555 0 -2.2861977963161709e-05 -0.094452046296474051 0 -8.4753144266362033e-05 -0.094437846029379019 0 0.001199298201686983 -0.092568158760471905 0 0.0015098237125708469 -0.090606282660092741 0 -0.00018073828624529033 -0.093192205447547916 0 -0.00064134768271122112 -0.092963942976637959 0 -0.00062456910210052004 -0.093505231817851489 0 -0.00098673941684713747 -0.093178258511760773 0 -0.00064134768271122112 -0.092963942976637959 0 -0.00062456910210052004 -0.093505231817851489 0 -0.00098673941684713747 -0.093178258511760773 0 -0.00064134768271122112 -0.092963942976637959 0 -0.00099183951622777494 -0.092576568644029633 0 -0.00068800730533331606 -0.091484410117060724 0 -0.00099183951622777494 -0.092576568644029633 0 -0.00040855915310468829 -0.092343868153644926 0 -0.00064134768271122112 -0.092963942976637959 0 -0.00099183951622777494 -0.092576568644029633 0 -0.00040855915310468829 -0.092343868153644926 0 -0.00068800730533331606 -0.091484410117060724 0 -0.00099183951622777494 -0.092576568644029633 0 -0.0016014146325519683 -0.092253801373017974 0 -0.0016214757385671775 -0.093237515173740418 0 -0.00099183951622777494 -0.092576568644029633 0 -0.0016014146325519683 -0.092253801373017974 0 -0.0016214757385671775 -0.093237515173740418 0 -0.00098673941684713747 -0.093178258511760773 0 -0.00099183951622777494 -0.092576568644029633 0 -0.0014470240973030004 -0.093757733548183009 0 -0.0016214757385671775 -0.093237515173740418 0 -0.0012946760658329693 -0.093518684647002387 0 -0.0016214757385671775 -0.093237515173740418 0 -0.00098673941684713747 -0.093178258511760773 0 -0.0012946760658329693 -0.093518684647002387 0 -0.00098673941684713747 -0.093178258511760773 0 -0.0012946760658329693 -0.093518684647002387 0 -0.00096353089504310646 -0.093531042301779235 0 -0.0012946760658329693 -0.093518684647002387 0 -0.0011732222157953224 -0.093776277781913428 0 -0.00096353089504310646 -0.093531042301779235 0 -0.0014470240973030004 -0.093757733548183009 0 -0.0012946760658329693 -0.093518684647002387 0 -0.0011732222157953224 -0.093776277781913428 0 -0.00098673941684713747 -0.093178258511760773 0 -0.00062456910210052004 -0.093505231817851489 0 -0.00096353089504310646 -0.093531042301779235 0 -0.00062456910210052004 -0.093505231817851489 0 -0.00096353089504310646 -0.093531042301779235 0 -0.00067066762297042634 -0.093924495445900189 0 -0.0011732222157953224 -0.093776277781913428 0 -0.00096353089504310646 -0.093531042301779235 0 -0.00067066762297042634 -0.093924495445900189 0 -0.00062456910210052004 -0.093505231817851489 0 -0.00067066762297042634 -0.093924495445900189 0 -0.00039639796940519082 -0.093934228577730539 0 -0.00067066762297042634 -0.093924495445900189 0 -0.00050645131509533111 -0.094140353456016068 0 -0.00068916343087159872 -0.094239578159932891 0 -0.00067066762297042634 -0.093924495445900189 0 -0.00050645131509533111 -0.094140353456016068 0 -0.00039639796940519082 -0.093934228577730539 0 -0.00067066762297042634 -0.093924495445900189 0 -0.0008477121652791772 -0.094070046982430877 0 -0.00068916343087159872 -0.094239578159932891 0 -0.0011732222157953224 -0.093776277781913428 0 -0.00067066762297042634 -0.093924495445900189 0 -0.0008477121652791772 -0.094070046982430877 0 -0.0008477121652791772 -0.094070046982430877 0 -0.00089728077622503344 -0.094314496636341963 0 -0.00068916343087159872 -0.094239578159932891 0 -0.00050645131509533111 -0.094140353456016068 0 -0.00068916343087159872 -0.094239578159932891 0 -0.00047093064989971173 -0.094346536993565128 0 -0.0011732222157953224 -0.093776277781913428 0 -0.0008477121652791772 -0.094070046982430877 0 -0.00089728077622503344 -0.094314496636341963 0 -0.0011732222157953224 -0.093776277781913428 0 -0.0012594257096520819 -0.093866972423662418 0 -0.0012812009915751535 -0.093838464537116653 0 -0.0039571129139329784 -0.092114654272020424 0 -0.0045164260435576432 -0.091048628428901088 0 -0.0014470240973030004 -0.093757733548183009 0 -0.0011732222157953224 -0.093776277781913428 0 -0.0012812009915751535 -0.093838464537116653 0 -0.0014470240973030004 -0.093757733548183009 0 -0.0012812009915751535 -0.093838464537116653 0 -0.0013629640695525199 -0.093836598085473719 0 -0.0012594257096520819 -0.093866972423662418 0 -0.0012981450670164591 -0.093868820355719446 0 -0.0012812009915751535 -0.093838464537116653 0 -0.0012981450670164591 -0.093868820355719446 0 -0.0012812009915751535 -0.093838464537116653 0 -0.0013629640695525199 -0.093836598085473719 0 -0.0012981450670164591 -0.093868820355719446 0 -0.0013629640695525199 -0.093836598085473719 0 -0.0013597293875303885 -0.093866670763745316 0 -0.00075378209561704915 -0.080012871536459196 0 -0.0066272977957155758 -0.086539743532792618 0 -0.0014067833749029531 -0.093912880376296443 0 -0.0013301237716467646 -0.093890081604805276 0 -0.0013032167660126603 -0.093908179017292245 0 -0.0014067833749029531 -0.093912880376296443 0 -0.0013032167660126603 -0.093908179017292245 0 -0.001246384530788679 -0.093933978131907001 0 -0.010977837354227745 -0.08586841564607392 0 -0.011462986683534314 -0.085244149622061713 0 -0.015182569564778526 -0.084971593318289226 0 -0.0012981450670164591 -0.093868820355719446 0 -0.0013597293875303885 -0.093866670763745316 0 -0.0013301237716467646 -0.093890081604805276 0 -0.0013032167660126603 -0.093908179017292245 0 -0.001283107988959097 -0.093889702185046969 0 -0.001246384530788679 -0.093933978131907001 0 -0.0012594257096520819 -0.093866972423662418 0 -0.0012981450670164591 -0.093868820355719446 0 -0.001283107988959097 -0.093889702185046969 0 -0.0013301237716467646 -0.093890081604805276 0 -0.0013032167660126603 -0.093908179017292245 0 -0.001283107988959097 -0.093889702185046969 0 -0.0012981450670164591 -0.093868820355719446 0 -0.0013301237716467646 -0.093890081604805276 0 -0.001283107988959097 -0.093889702185046969 0 -0.0012594257096520819 -0.093866972423662418 0 -0.001283107988959097 -0.093889702185046969 0 -0.001246384530788679 -0.093933978131907001 0 -0.00089728077622503344 -0.094314496636341963 0 -0.00080447256560369743 -0.094377802682631018 0 -0.00079332546118879852 -0.094486214398668167 0 -0.00089728077622503344 -0.094314496636341963 0 -0.00068916343087159872 -0.094239578159932891 0 -0.00080447256560369743 -0.094377802682631018 0 -0.0045164260435576432 -0.091048628428901088 0 -0.0066272977957155758 -0.086539743532792618 0 -0.00068916343087159872 -0.094239578159932891 0 -0.00080447256560369743 -0.094377802682631018 0 -0.00060613149598280007 -0.094383678878339691 0 -0.00068916343087159872 -0.094239578159932891 0 -0.00060613149598280007 -0.094383678878339691 0 -0.00047093064989971173 -0.094346536993565128 0 -0.00060613149598280007 -0.094383678878339691 0 -0.00046076367732616786 -0.094548330855835722 0 -0.00047093064989971173 -0.094346536993565128 0 -0.00080447256560369743 -0.094377802682631018 0 -0.00060613149598280007 -0.094383678878339691 0 -0.00046076367732616786 -0.094548330855835722 0 -0.00080447256560369743 -0.094377802682631018 0 -0.00079332546118879852 -0.094486214398668167 0 -0.00069323293442915775 -0.094491779845608581 0 -0.0042025511032546137 -0.09040259204564341 0 -0.0063090764253611572 -0.088192920523251533 0 -0.015182569564778526 -0.084971593318289226 0 -0.013918433024789607 -0.082377984256113701 0 -0.015882805080242566 -0.0817817136889952 0 -0.016456342056817629 -0.078318151244016018 0 -0.016263819088066046 -0.078520343821810057 0 -0.016418927976369527 -0.078640209910660314 0 -0.0066272977957155758 -0.086539743532792618 0 -0.011205327751833888 -0.081123609455332577 0 -0.0066272977957155758 -0.086539743532792618 0 -0.0063090764253611572 -0.088192920523251533 0 -0.016456342056817629 -0.078318151244016018 0 -0.016263819088066046 -0.078520343821810057 0 -0.016291847050397611 -0.078343286768614351 0 -0.012275013737323752 -0.083389001076828811 0 -0.015182569564778526 -0.084971593318289226 0 -0.013918433024789607 -0.082377984256113701 0 -0.012275013737323752 -0.083389001076828811 0 -0.011462986683534314 -0.085244149622061713 0 -0.015182569564778526 -0.084971593318289226 0 -0.0037812953083661803 -0.089910824650251395 0 -0.0028091112352448557 -0.090811174522397689 0 -0.00022579366479418445 -0.094457511933210753 0 -0.00017821354589877707 -0.09437120102928466 0 -0.00017875475543580158 -0.094384768385571305 0 -0.0054034744994989406 -0.089563005228941867 0 -0.0048646965344425032 -0.089654146797728942 0 -0.0053189695215223416 -0.090104248390654923 0 -0.0028091112352448557 -0.090811174522397689 0 -0.0067963738623167116 -0.088483406789900826 0 -0.0037812953083661803 -0.089910824650251395 0 -0.0063090764253611572 -0.088192920523251533 0 -0.0054034744994989406 -0.089563005228941867 0 -0.0059413215918705633 -0.089472197074724841 0 -0.0053189695215223416 -0.090104248390654923 0 -0.0063090764253611572 -0.088192920523251533 0 -0.0067963738623167116 -0.088483406789900826 0 -0.016263819088066046 -0.078520343821810057 0 -0.016291847050397611 -0.078343286768614351 0 -0.015917867944133482 -0.078630921948050769 0 -0.00022579366479418445 -0.094457511933210753 0 -0.00046076367732616786 -0.094548330855835722 0 -0.00027052080895308118 -0.094386569944507892 0 -0.00046076367732616786 -0.094548330855835722 0 -0.00047093064989971173 -0.094346536993565128 0 -0.00027052080895308118 -0.094386569944507892 0 -0.00047093064989971173 -0.094346536993565128 0 -0.00027052080895308118 -0.094386569944507892 0 -0.00027922830575824833 -0.094246108846880422 0 -0.00027052080895308118 -0.094386569944507892 0 -0.00017821354589877707 -0.09437120102928466 0 -0.00017183542190362996 -0.094297574336657711 0 -0.00022579366479418445 -0.094457511933210753 0 -0.00027052080895308118 -0.094386569944507892 0 -0.00017821354589877707 -0.09437120102928466 0 -0.00017821354589877707 -0.09437120102928466 0 -0.00017183542190362996 -0.094297574336657711 0 -0.00017646981097865211 -0.094334539532438672 0 -0.00017183542190362996 -0.094297574336657711 0 -0.00015483319382258626 -0.094316974491754885 0 -0.00017646981097865211 -0.094334539532438672 0 -0.00017183542190362996 -0.094297574336657711 0 -0.00015483319382258626 -0.094316974491754885 0 -9.1259644058983231e-05 -0.094174151797405015 0 -0.00050645131509533111 -0.094140353456016068 0 -0.00047093064989971173 -0.094346536993565128 0 -0.00027922830575824833 -0.094246108846880422 0 -0.00027052080895308118 -0.094386569944507892 0 -0.00017183542190362996 -0.094297574336657711 0 -0.00027922830575824833 -0.094246108846880422 0 -0.00017183542190362996 -0.094297574336657711 0 -0.00027922830575824833 -0.094246108846880422 0 -9.1259644058983231e-05 -0.094174151797405015 0 -0.00027922830575824833 -0.094246108846880422 0 -9.1259644058983231e-05 -0.094174151797405015 0 -0.00039639796940519082 -0.093934228577730539 0 -0.00050645131509533111 -0.094140353456016068 0 -0.00027922830575824833 -0.094246108846880422 0 -0.00039639796940519082 -0.093934228577730539 0 -0.00018073828624529033 -0.093192205447547916 0 -9.1259644058983231e-05 -0.094174151797405015 0 -0.00039639796940519082 -0.093934228577730539 0 -2.2861977963161709e-05 -0.094452046296474051 0 -9.1259644058983231e-05 -0.094174151797405015 0 -8.4753144266362033e-05 -0.094437846029379019 0 0.001199298201686983 -0.092568158760471905 0 0.0010770159100689689 -0.093079979615148231 0 -0.00018073828624529033 -0.093192205447547916 0 -0.00062456910210052004 -0.093505231817851489 0 -0.00039639796940519082 -0.093934228577730539 0 -0.00015483319382258626 -0.094316974491754885 0 -8.4753144266362033e-05 -0.094437846029379019 0 -0.00020206942971749854 -0.094501477255096958 0 -0.00015483319382258626 -0.094316974491754885 0 -9.1259644058983231e-05 -0.094174151797405015 0 -8.4753144266362033e-05 -0.094437846029379019 0 -0.00015483319382258626 -0.094316974491754885 0 -0.00020206942971749854 -0.094501477255096958 0 -0.00023031667016338041 -0.09438666860614861 0 -0.00013740876182548556 -0.094659595604877009 0 -0.00016620832929294371 -0.094686846752930015 0 -0.00020206942971749854 -0.094501477255096958 0 -0.00026967785080992546 -0.094424252359638333 0 -0.00023031667016338041 -0.09438666860614861 0 -0.00020206942971749854 -0.094501477255096958 0 -0.00019917435508775137 -0.094820767131064188 0 -0.00023160078141724823 -0.094780100623586994 0 -0.00026967785080992546 -0.094424252359638333 0 -0.00023031667016338041 -0.09438666860614861 0 -0.00028388079918096264 -0.094378561796188684 0 -0.00023031667016338041 -0.09438666860614861 0 -0.00021431883860220945 -0.094342546589331416 0 -0.00028388079918096264 -0.094378561796188684 0 -0.00023031667016338041 -0.09438666860614861 0 -0.00017646981097865211 -0.094334539532438672 0 -0.00021431883860220945 -0.094342546589331416 0 -0.00015483319382258626 -0.094316974491754885 0 -0.00023031667016338041 -0.09438666860614861 0 -0.00017646981097865211 -0.094334539532438672 0 -0.00017821354589877707 -0.09437120102928466 0 -0.00017646981097865211 -0.094334539532438672 0 -0.00021431883860220945 -0.094342546589331416 0 -0.00017821354589877707 -0.09437120102928466 0 -0.00021431883860220945 -0.094342546589331416 0 -0.00017875475543580158 -0.094384768385571305 0 -0.0016303436151872809 -0.092870392320570275 0 -0.0028091112352448557 -0.090811174522397689 0 -0.0016303436151872809 -0.092870392320570275 0 -0.00081323830017129969 -0.093971426268749519 0 5.2837229436182907e-06 -0.094980180060447839 0 3.0043329974908305e-06 -0.094968498139798255 0 6.1823713296433164e-06 -0.094962739280362404 0 5.2837229436182907e-06 -0.094980180060447839 0 3.0043329974908305e-06 -0.094968498139798255 0 1.1936075476721895e-06 -0.094988803991697027 0 -0.0012094345058781617 -0.091693291552342113 0 -0.0028091112352448557 -0.090811174522397689 0 3.0043329974908305e-06 -0.094968498139798255 0 -2.6202408261590124e-05 -0.094934549302705826 0 -1.5700647226359488e-05 -0.094956272083644169 0 -4.401641897986293e-08 -0.095000041072140981 0 1.1936075476721895e-06 -0.094988803991697027 0 7.3950524631765731e-06 -0.094985502575002961 0 -4.401641897986293e-08 -0.095000041072140981 0 1.1936075476721895e-06 -0.094988803991697027 0 1.1489545466089869e-08 -0.094999970687740798 0 3.0043329974908305e-06 -0.094968498139798255 0 1.1936075476721895e-06 -0.094988803991697027 0 7.3950524631765731e-06 -0.094985502575002961 0 5.2837229436182907e-06 -0.094980180060447839 0 1.1936075476721895e-06 -0.094988803991697027 0 2.2825065869001471e-06 -0.094993986563594826 0 1.1936075476721895e-06 -0.094988803991697027 0 1.1489545466089869e-08 -0.094999970687740798 0 6.0230057218406253e-08 -0.094997396073947929 0 1.1489545466089869e-08 -0.094999970687740798 0 6.0230057218406253e-08 -0.094997396073947929 0 -7.0958476792729191e-09 -0.095000009573454863 0 1.1936075476721895e-06 -0.094988803991697027 0 6.0230057218406253e-08 -0.094997396073947929 0 2.2825065869001471e-06 -0.094993986563594826 0 6.0230057218406253e-08 -0.094997396073947929 0 2.2825065869001471e-06 -0.094993986563594826 0 2.0625468751596725e-07 -0.094999393488148232 0 -0.00081323830017129969 -0.093971426268749519 0 -0.00022329188101742655 -0.09474755781200131 0 -0.00016620832929294371 -0.094686846752930015 0 -0.00022329188101742655 -0.09474755781200131 0 -0.00019917435508775137 -0.094820767131064188 0 -7.1692619445678593e-05 -0.094974777271869842 0 -8.0584751364837806e-05 -0.094936220251062714 0 -0.00026967785080992546 -0.094424252359638333 0 -0.00028388079918096264 -0.094378561796188684 0 -0.00032464317083272384 -0.094418906772359104 0 -4.4376020190154628e-07 -0.094998906777996453 0 -0.00022329188101742655 -0.09474755781200131 0 6.0230057218406253e-08 -0.094997396073947929 0 -7.0958476792729191e-09 -0.095000009573454863 0 2.0625468751596725e-07 -0.094999393488148232 0 -7.1692619445678593e-05 -0.094974777271869842 0 -6.2385968697536943e-08 -0.094999850367589053 0 -8.0584751364837806e-05 -0.094936220251062714 0 -4.6670362582380258e-10 -0.094999999345211292 0 -4.2486898489184331e-07 -0.094999583393466105 0 1.2811731305279412e-10 -0.094999999870081522 0 -0.00022329188101742655 -0.09474755781200131 0 -7.0849966148872087e-07 -0.094999233645111786 0 -8.0584751364837806e-05 -0.094936220251062714 0 -9.5236730204019606e-08 -0.095000013388351748 0 -0.00012282389232123287 -0.094888024451284969 0 -6.2385968697536943e-08 -0.094999850367589053 0 -8.0584751364837806e-05 -0.094936220251062714 0 -9.5236730204019606e-08 -0.095000013388351748 0 -9.5236730204019606e-08 -0.095000013388351748 0 -6.8151008688542702e-05 -0.09489251492911073 0 -0.00012282389232123287 -0.094888024451284969 0 -9.5236730204019606e-08 -0.095000013388351748 0 -6.8151008688542702e-05 -0.09489251492911073 0 2.4752471008646959e-07 -0.094999448215810245 0 -6.8151008688542702e-05 -0.09489251492911073 0 -0.00012282389232123287 -0.094888024451284969 0 -0.00017412622726932408 -0.094844085537750797 0 -6.8151008688542702e-05 -0.09489251492911073 0 -0.00017412622726932408 -0.094844085537750797 0 -0.00015549957378142184 -0.094778508928352212 0 -0.00019917435508775137 -0.094820767131064188 0 -8.0584751364837806e-05 -0.094936220251062714 0 -0.00012282389232123287 -0.094888024451284969 0 -0.00019917435508775137 -0.094820767131064188 0 -0.00012282389232123287 -0.094888024451284969 0 -0.00023160078141724823 -0.094780100623586994 0 -0.00020206942971749854 -0.094501477255096958 0 -0.00023160078141724823 -0.094780100623586994 0 -0.00019228046549140773 -0.0946701069446826 0 -0.00023160078141724823 -0.094780100623586994 0 -0.00019228046549140773 -0.0946701069446826 0 -0.00029243317391375442 -0.094842399964787688 0 -0.00023160078141724823 -0.094780100623586994 0 -0.00029243317391375442 -0.094842399964787688 0 -0.00017412622726932408 -0.094844085537750797 0 -0.00012282389232123287 -0.094888024451284969 0 -0.00023160078141724823 -0.094780100623586994 0 -0.00017412622726932408 -0.094844085537750797 0 -0.00015549957378142184 -0.094778508928352212 0 -0.00030313301161749063 -0.094662874466827446 0 -0.00018567041827597145 -0.094616566791307088 0 -0.00029243317391375442 -0.094842399964787688 0 -0.00015549957378142184 -0.094778508928352212 0 -0.00030313301161749063 -0.094662874466827446 0 -0.00029243317391375442 -0.094842399964787688 0 -0.00017412622726932408 -0.094844085537750797 0 -0.00015549957378142184 -0.094778508928352212 0 -0.00056362617330711683 -0.094541419575017743 0 -0.00029243317391375442 -0.094842399964787688 0 -0.00030313301161749063 -0.094662874466827446 0 -0.00056362617330711683 -0.094541419575017743 0 -0.00030313301161749063 -0.094662874466827446 0 -0.0002802105358299205 -0.094484703073412127 0 -0.00011037315353652514 -0.094473127553154845 0 -0.0002802105358299205 -0.094484703073412127 0 -0.00018567041827597145 -0.094616566791307088 0 -0.00030313301161749063 -0.094662874466827446 0 -0.0002802105358299205 -0.094484703073412127 0 -0.00018567041827597145 -0.094616566791307088 0 -7.1199547886429049e-05 -0.094656045930309435 0 8.4256261491707927e-05 -0.094582008887779651 0 -3.9066028492213697e-05 -0.094815794133809778 0 -0.00011037315353652514 -0.094473127553154845 0 -0.00018567041827597145 -0.094616566791307088 0 -7.1199547886429049e-05 -0.094656045930309435 0 -1.6447303051838107e-05 -0.094475514976469263 0 -0.00011037315353652514 -0.094473127553154845 0 -7.1199547886429049e-05 -0.094656045930309435 0 -0.00015549957378142184 -0.094778508928352212 0 -0.00018567041827597145 -0.094616566791307088 0 -7.1199547886429049e-05 -0.094656045930309435 0 -1.6447303051838107e-05 -0.094475514976469263 0 -7.1199547886429049e-05 -0.094656045930309435 0 8.4256261491707927e-05 -0.094582008887779651 0 8.4256261491707927e-05 -0.094582008887779651 0 2.4752471008646959e-07 -0.094999448215810245 0 -3.9066028492213697e-05 -0.094815794133809778 0 4.6753082182801798e-09 -0.095000065203398279 0 4.5451101476922592e-06 -0.095003605144147019 0 -1.9937399120142144e-10 -0.094999966746069975 0 -1.8009227220802876e-05 -0.094793503873370724 0 3.3313567458485422e-08 -0.094999699789465444 0 -6.8151008688542702e-05 -0.09489251492911073 0 2.4752471008646959e-07 -0.094999448215810245 0 -3.9066028492213697e-05 -0.094815794133809778 0 -6.8151008688542702e-05 -0.09489251492911073 0 -0.00015549957378142184 -0.094778508928352212 0 -3.9066028492213697e-05 -0.094815794133809778 0 -0.00015549957378142184 -0.094778508928352212 0 -7.1199547886429049e-05 -0.094656045930309435 0 -3.9066028492213697e-05 -0.094815794133809778 0 -1.2958106573530125e-05 -0.094976868105114673 0 -1.854435003183504e-05 -0.094968817828211691 0 -1.9163008909779367e-05 -0.094963403482980019 0 -1.2958106573530125e-05 -0.094976868105114673 0 -1.854435003183504e-05 -0.094968817828211691 0 -1.0762591822142896e-05 -0.094983615531610277 0 -1.854435003183504e-05 -0.094968817828211691 0 -1.9163008909779367e-05 -0.094963403482980019 0 -2.6785768412118825e-05 -0.09495394661942437 0 -1.854435003183504e-05 -0.094968817828211691 0 -2.6785768412118825e-05 -0.09495394661942437 0 -2.0880098576560082e-05 -0.094969385916772855 0 -1.854435003183504e-05 -0.094968817828211691 0 -1.0762591822142896e-05 -0.094983615531610277 0 -2.0880098576560082e-05 -0.094969385916772855 0 -1.2958106573530125e-05 -0.094976868105114673 0 -1.0762591822142896e-05 -0.094983615531610277 0 -1.1924587982122472e-08 -0.094999964795390246 0 -1.0762591822142896e-05 -0.094983615531610277 0 -1.1924587982122472e-08 -0.094999964795390246 0 -1.2374308781951493e-08 -0.094999964981321836 0 -1.2958106573530125e-05 -0.094976868105114673 0 -1.1924587982122472e-08 -0.094999964795390246 0 -1.4859508736111885e-05 -0.094968504132990073 0 -1.1924587982122472e-08 -0.094999964795390246 0 -1.4859508736111885e-05 -0.094968504132990073 0 -7.675467352335856e-06 -0.094979386802860985 0 -1.2958106573530125e-05 -0.094976868105114673 0 -1.4859508736111885e-05 -0.094968504132990073 0 -1.9163008909779367e-05 -0.094963403482980019 0 -1.4859508736111885e-05 -0.094968504132990073 0 -1.9163008909779367e-05 -0.094963403482980019 0 -2.1398625565233672e-05 -0.094950155299132241 0 -1.4859508736111885e-05 -0.094968504132990073 0 -2.1398625565233672e-05 -0.094950155299132241 0 -1.8182921646634258e-05 -0.094951377915083568 0 -2.1398625565233672e-05 -0.094950155299132241 0 -2.2226523982976739e-05 -0.094936669164086135 0 -1.8567253914776124e-05 -0.094928153020169215 0 -2.1398625565233672e-05 -0.094950155299132241 0 -2.2226523982976739e-05 -0.094936669164086135 0 -2.6785768412118825e-05 -0.09495394661942437 0 -1.9163008909779367e-05 -0.094963403482980019 0 -2.1398625565233672e-05 -0.094950155299132241 0 -2.6785768412118825e-05 -0.09495394661942437 0 -2.2226523982976739e-05 -0.094936669164086135 0 -1.0178713817473259e-05 -0.094924297700609589 0 -9.7063709670470588e-06 -0.09490660726733946 0 -2.2226523982976739e-05 -0.094936669164086135 0 -9.7063709670470588e-06 -0.09490660726733946 0 -1.8567253914776124e-05 -0.094928153020169215 0 -0.0067498132690619597 -0.087739717666234104 0 -0.0081364206869599959 -0.08351709291497908 0 -2.2226523982976739e-05 -0.094936669164086135 0 -3.09155667287422e-05 -0.094945898160214523 0 -1.0178713817473259e-05 -0.094924297700609589 0 -0.011904759453863259 -0.081817932827353279 0 -0.011294633538078509 -0.081517038311100257 0 -0.011442359099791338 -0.080809865557890853 0 -0.012466907869849711 -0.081363881979755914 0 -0.011904759453863259 -0.081817932827353279 0 -0.011442359099791338 -0.080809865557890853 0 -0.0067498132690619597 -0.087739717666234104 0 -0.011028100181052731 -0.08481631026893488 0 -0.0059249007574331469 -0.088460962248678471 0 -0.0067498132690619597 -0.087739717666234104 0 -2.2226523982976739e-05 -0.094936669164086135 0 -2.6785768412118825e-05 -0.09495394661942437 0 -3.09155667287422e-05 -0.094945898160214523 0 -2.6785768412118825e-05 -0.09495394661942437 0 -3.3128861193337493e-05 -0.094949391056590796 0 -2.0880098576560082e-05 -0.094969385916772855 0 -0.012609023259138387 -0.10175403277379953 0 -0.009323329846862443 -0.098040566936914222 0 -0.0058877658580078571 -0.098262560406113406 0 -0.0067498132690619597 -0.087739717666234104 0 -0.0045216241398577063 -0.091834368754206711 0 -0.011435269491085894 -0.097227728316214276 0 -0.015585485535247103 -0.095044760205790432 0 -0.0073610187152261773 -0.094921791405150238 0 -0.015585485535247103 -0.095044760205790432 0 -0.011485149869030193 -0.08952128280981482 0 -0.0082468369512414905 -0.095028426254382015 0 -0.0091435069838231992 -0.094693128989400355 0 -0.0064760766192571663 -0.094612456667807279 0 -0.009323329846862443 -0.098040566936914222 0 -0.011435269491085894 -0.097227728316214276 0 -0.0073610187152261773 -0.094921791405150238 0 -0.012609023259138387 -0.10175403277379953 0 -0.009323329846862443 -0.098040566936914222 0 -0.011435269491085894 -0.097227728316214276 0 -0.012609023259138387 -0.10175403277379953 0 -0.011435269491085894 -0.097227728316214276 0 -0.017909349087272215 -0.097507446338393297 0 -0.017909349087272215 -0.097507446338393297 0 -0.015585485535247103 -0.095044760205790432 0 -0.023309713876841293 -0.093141268317563794 0 -0.011435269491085894 -0.097227728316214276 0 -0.017909349087272215 -0.097507446338393297 0 -0.015585485535247103 -0.095044760205790432 0 -0.011028100181052731 -0.08481631026893488 0 -0.014540006954402754 -0.080923930061002805 0 -0.015585485535247103 -0.095044760205790432 0 -0.014848267181203835 -0.082729890957872532 0 -0.023309713876841293 -0.093141268317563794 0 -0.01594861295529627 -0.083007945086684812 0 -0.014540006954402754 -0.080923930061002805 0 -0.014848267181203835 -0.082729890957872532 0 -0.015641417885414569 -0.081532840034744966 0 -0.015795022127576809 -0.081527241960960187 0 -0.015585485535247103 -0.095044760205790432 0 -0.011485149869030193 -0.08952128280981482 0 -0.014848267181203835 -0.082729890957872532 0 -0.011485149869030193 -0.08952128280981482 0 -0.0080299891368857887 -0.090081312971502361 0 -0.0082468369512414905 -0.095028426254382015 0 -0.011485149869030193 -0.08952128280981482 0 -0.010435348226453204 -0.084988326272854478 0 -0.014848267181203835 -0.082729890957872532 0 -0.011485149869030193 -0.08952128280981482 0 -0.0080299891368857887 -0.090081312971502361 0 -0.010435348226453204 -0.084988326272854478 0 -0.0080299891368857887 -0.090081312971502361 0 -0.0053576240109247473 -0.084971011532360377 0 -0.010435348226453204 -0.084988326272854478 0 -0.0044554364548385385 -0.092037525755725214 0 -0.0080299891368857887 -0.090081312971502361 0 -0.0053576240109247473 -0.084971011532360377 0 -0.0044554364548385385 -0.092037525755725214 0 -0.0080299891368857887 -0.090081312971502361 0 -0.0082468369512414905 -0.095028426254382015 0 -0.0064760766192571663 -0.094612456667807279 0 -0.0020293942854834076 -0.09438706812681838 0 -0.0073610187152261773 -0.094921791405150238 0 -0.0058877658580078571 -0.098262560406113406 0 0.00079046631168132233 -0.094804536797780378 0 -0.0044554364548385385 -0.092037525755725214 0 -0.0082468369512414905 -0.095028426254382015 0 -0.0017640612108226889 -0.09566136486052014 0 -1.0762591822142896e-05 -0.094983615531610277 0 -2.0880098576560082e-05 -0.094969385916772855 0 -9.0754925848348111e-06 -0.09498718880385694 0 -0.0045216241398577063 -0.091834368754206711 0 -0.0020293942854834076 -0.09438706812681838 0 -0.009323329846862443 -0.098040566936914222 0 -0.0073610187152261773 -0.094921791405150238 0 -0.0058877658580078571 -0.098262560406113406 0 -1.0762591822142896e-05 -0.094983615531610277 0 -9.0754925848348111e-06 -0.09498718880385694 0 -1.2374308781951493e-08 -0.094999964981321836 0 -0.0020293942854834076 -0.09438706812681838 0 -5.074666403154382e-06 -0.09499629474183921 0 -6.8349453587302813e-06 -0.0949983797451249 0 -4.9443662738633736e-09 -0.095000002946673434 0 2.7062259074018239e-09 -0.094999995494912656 0 -0.0020293942854834076 -0.09438706812681838 0 -4.1642000753057207e-06 -0.094997296699550773 0 -0.0017640612108226889 -0.09566136486052014 0 -0.00015868290249152511 -0.094491166413209746 0 1.3923654544574093e-06 -0.094995378374971587 0 -0.00015868290249152511 -0.094491166413209746 0 1.3923654544574093e-06 -0.094995378374971587 0 -6.1310740681038625e-07 -0.095000834529497841 0 -0.0044554364548385385 -0.092037525755725214 0 -0.00015868290249152511 -0.094491166413209746 0 -0.0053576240109247473 -0.084971011532360377 0 -0.0023749618087816971 -0.091389203779464148 0 -0.0035615292842811437 -0.090138737091382287 0 -0.0044554364548385385 -0.092037525755725214 0 -0.0017640612108226889 -0.09566136486052014 0 -0.00015868290249152511 -0.094491166413209746 0 -0.00015868290249152511 -0.094491166413209746 0 -6.1310740681038625e-07 -0.095000834529497841 0 9.8430111389081801e-05 -0.094891701517238497 0 -6.1310740681038625e-07 -0.095000834529497841 0 9.8430111389081801e-05 -0.094891701517238497 0 3.3572858076483169e-05 -0.094980292177390693 0 -0.0035615292842811437 -0.090138737091382287 0 -0.0055313534441632315 -0.088428628819438151 0 9.8430111389081801e-05 -0.094891701517238497 0 3.3572858076483169e-05 -0.094980292177390693 0 3.3796871636290095e-05 -0.09496657443101722 0 -6.1310740681038625e-07 -0.095000834529497841 0 3.3572858076483169e-05 -0.094980292177390693 0 1.8503173396252687e-07 -0.094999757727944584 0 1.8503173396252687e-07 -0.094999757727944584 0 1.7353149355568604e-05 -0.094982277551499544 0 7.3950524631765731e-06 -0.094985502575002961 0 3.3572858076483169e-05 -0.094980292177390693 0 1.8503173396252687e-07 -0.094999757727944584 0 1.7353149355568604e-05 -0.094982277551499544 0 3.3572858076483169e-05 -0.094980292177390693 0 1.7353149355568604e-05 -0.094982277551499544 0 1.5637834349028994e-05 -0.094973379682231573 0 3.0043329974908305e-06 -0.094968498139798255 0 7.3950524631765731e-06 -0.094985502575002961 0 4.8574191372918119e-06 -0.094968578623672459 0 1.7353149355568604e-05 -0.094982277551499544 0 7.3950524631765731e-06 -0.094985502575002961 0 4.8574191372918119e-06 -0.094968578623672459 0 -4.401641897986293e-08 -0.095000041072140981 0 1.8503173396252687e-07 -0.094999757727944584 0 7.3950524631765731e-06 -0.094985502575002961 0 -1.5700647226359488e-05 -0.094956272083644169 0 -1.9353030648585137e-05 -0.094969890347499614 0 -5.7538048508495971e-05 -0.094946660783375506 0 -1.5700647226359488e-05 -0.094956272083644169 0 4.8574191372918119e-06 -0.094968578623672459 0 -1.9353030648585137e-05 -0.094969890347499614 0 -2.6202408261590124e-05 -0.094934549302705826 0 -1.5700647226359488e-05 -0.094956272083644169 0 -5.7538048508495971e-05 -0.094946660783375506 0 3.0043329974908305e-06 -0.094968498139798255 0 -1.5700647226359488e-05 -0.094956272083644169 0 4.8574191372918119e-06 -0.094968578623672459 0 1.7353149355568604e-05 -0.094982277551499544 0 4.8574191372918119e-06 -0.094968578623672459 0 1.5637834349028994e-05 -0.094973379682231573 0 4.8574191372918119e-06 -0.094968578623672459 0 1.5637834349028994e-05 -0.094973379682231573 0 -1.9353030648585137e-05 -0.094969890347499614 0 1.5637834349028994e-05 -0.094973379682231573 0 -1.9353030648585137e-05 -0.094969890347499614 0 3.3796871636290095e-05 -0.09496657443101722 0 -0.015166537983169349 -0.07853770060845032 0 -0.015045760302430402 -0.080060932448839994 0 -0.015645441221197369 -0.079396058169559039 0 -0.015166537983169349 -0.07853770060845032 0 -0.015045760302430402 -0.080060932448839994 0 -0.012182831977618469 -0.079467479059927057 0 -0.0068330303456810076 -0.087702360954781802 0 -0.0055313534441632315 -0.088428628819438151 0 3.3572858076483169e-05 -0.094980292177390693 0 1.5637834349028994e-05 -0.094973379682231573 0 3.3796871636290095e-05 -0.09496657443101722 0 -0.0053576240109247473 -0.084971011532360377 0 -0.012182831977618469 -0.079467479059927057 0 -0.010435348226453204 -0.084988326272854478 0 -0.012182831977618469 -0.079467479059927057 0 -0.010435348226453204 -0.084988326272854478 0 -0.014848267181203835 -0.082729890957872532 0 -0.015045760302430402 -0.080060932448839994 0 -0.014848267181203835 -0.082729890957872532 0 -0.015641417885414569 -0.081532840034744966 0 -0.015045760302430402 -0.080060932448839994 0 -0.012182831977618469 -0.079467479059927057 0 -0.014848267181203835 -0.082729890957872532 0 -0.016044660920784912 -0.080437262085309158 0 -0.0160184932467357 -0.079728697782358041 0 -0.015641417885414569 -0.081532840034744966 0 -0.015045760302430402 -0.080060932448839994 0 -0.0160184932467357 -0.079728697782358041 0 -0.015641417885414569 -0.081532840034744966 0 -0.016044660920784912 -0.080437262085309158 0 -0.016344841631771138 -0.079440357311887408 0 -0.0160184932467357 -0.079728697782358041 0 -0.016344841631771138 -0.079440357311887408 0 -0.016480267352497396 -0.077993974578965009 0 -0.016275031756840364 -0.080893351945255224 0 -0.016680864568041954 -0.078943729606428037 0 -0.016598642430652306 -0.079118950720856646 0 -0.016044660920784912 -0.080437262085309158 0 -0.016344841631771138 -0.079440357311887408 0 -0.016275031756840364 -0.080893351945255224 0 -0.016344841631771138 -0.079440357311887408 0 -0.016415348796938636 -0.079160805339922397 0 -0.0160184932467357 -0.079728697782358041 0 -0.016344841631771138 -0.079440357311887408 0 -0.016415348796938636 -0.079160805339922397 0 -0.016480267352497396 -0.077993974578965009 0 -0.016415348796938636 -0.079160805339922397 0 -0.016114676414974532 -0.079127409283176325 0 -0.016293637426141813 -0.079300366701249667 0 -0.016415348796938636 -0.079160805339922397 0 -0.016293637426141813 -0.079300366701249667 0 -0.016480267352497396 -0.077993974578965009 0 -0.015045760302430402 -0.080060932448839994 0 -0.0160184932467357 -0.079728697782358041 0 -0.015645441221197369 -0.079396058169559039 0 -0.016415348796938636 -0.079160805339922397 0 -0.0160184932467357 -0.079728697782358041 0 -0.016114676414974532 -0.079127409283176325 0 -0.0160184932467357 -0.079728697782358041 0 -0.015645441221197369 -0.079396058169559039 0 -0.016114676414974532 -0.079127409283176325 0 -0.0068330303456810076 -0.087702360954781802 0 -0.0067963738623167116 -0.088483406789900826 0 -0.015166537983169349 -0.07853770060845032 0 -0.01589684079005001 -0.078746925950117952 0 -0.01592574184921141 -0.078560753086402701 0 -0.015166537983169349 -0.07853770060845032 0 -0.015645441221197369 -0.079396058169559039 0 -0.016114676414974532 -0.079127409283176325 0 -0.015166537983169349 -0.07853770060845032 0 -0.01589684079005001 -0.078746925950117952 0 -0.016114676414974532 -0.079127409283176325 0 -0.01589684079005001 -0.078746925950117952 0 -0.016114676414974532 -0.079127409283176325 0 -0.016131035340766434 -0.078944981170235073 0 -0.01589684079005001 -0.078746925950117952 0 -0.016131035340766434 -0.078944981170235073 0 -0.015980261796309139 -0.078671336522256413 0 -0.016114676414974532 -0.079127409283176325 0 -0.016293637426141813 -0.079300366701249667 0 -0.016131035340766434 -0.078944981170235073 0 -0.016293637426141813 -0.079300366701249667 0 -0.016131035340766434 -0.078944981170235073 0 -0.016189685269882421 -0.078691582771735907 0 -0.016263819088066046 -0.078520343821810057 0 -0.016189685269882421 -0.078691582771735907 0 -0.015917867944133482 -0.078630921948050769 0 -0.016189685269882421 -0.078691582771735907 0 -0.015917867944133482 -0.078630921948050769 0 -0.015980261796309139 -0.078671336522256413 0 -0.016293637426141813 -0.079300366701249667 0 -0.016189685269882421 -0.078691582771735907 0 -0.016418927976369527 -0.078640209910660314 0 -0.016131035340766434 -0.078944981170235073 0 -0.016189685269882421 -0.078691582771735907 0 -0.015980261796309139 -0.078671336522256413 0 -0.016263819088066046 -0.078520343821810057 0 -0.016189685269882421 -0.078691582771735907 0 -0.016418927976369527 -0.078640209910660314 0 -0.01589684079005001 -0.078746925950117952 0 -0.01592574184921141 -0.078560753086402701 0 -0.015980261796309139 -0.078671336522256413 0 -0.0067963738623167116 -0.088483406789900826 0 -0.0068875740476460881 -0.088356404048932691 0 -0.012275013737323752 -0.083389001076828811 0 -0.013918433024789607 -0.082377984256113701 0 -0.012266439278006296 -0.080906051597252143 0 -0.014292857123417428 -0.080833233097875573 0 -0.013918433024789607 -0.082377984256113701 0 -0.012266439278006296 -0.080906051597252143 0 -0.014292857123417428 -0.080833233097875573 0 -0.013918433024789607 -0.082377984256113701 0 -0.015882805080242566 -0.0817817136889952 0 -0.012418341344234524 -0.07990686786873949 0 -0.011205327751833888 -0.081123609455332577 0 -0.016293637426141813 -0.079300366701249667 0 -0.014292857123417428 -0.080833233097875573 0 -0.013553214654293131 -0.079094463803892331 0 -0.016293637426141813 -0.079300366701249667 0 -0.014292857123417428 -0.080833233097875573 0 -0.015882805080242566 -0.0817817136889952 0 -0.014292857123417428 -0.080833233097875573 0 -0.013553214654293131 -0.079094463803892331 0 -0.012266439278006296 -0.080906051597252143 0 -0.013553214654293131 -0.079094463803892331 0 -0.014378745420193241 -0.078203303585698783 0 -0.011281492707176492 -0.077495493920785585 0 -0.016293637426141813 -0.079300366701249667 0 -0.013553214654293131 -0.079094463803892331 0 -0.014378745420193241 -0.078203303585698783 0 -0.016293637426141813 -0.079300366701249667 0 -0.014378745420193241 -0.078203303585698783 0 -0.016480267352497396 -0.077993974578965009 0 -0.014378745420193241 -0.078203303585698783 0 -0.016480267352497396 -0.077993974578965009 0 -0.013632067669876579 -0.075685430166742257 0 -0.014378745420193241 -0.078203303585698783 0 -0.013632067669876579 -0.075685430166742257 0 -0.011281492707176492 -0.077495493920785585 0 -0.013632067669876579 -0.075685430166742257 0 -0.013841750704994469 -0.070790269418349483 0 -0.015932085325944569 -0.073735855326390209 0 -0.013632067669876579 -0.075685430166742257 0 -0.013841750704994469 -0.070790269418349483 0 -0.01150542216421396 -0.072918341539479417 0 -0.013841750704994469 -0.070790269418349483 0 -0.017143355183087749 -0.071100171677557514 0 -0.015448020185159618 -0.067466050892058024 0 -0.013841750704994469 -0.070790269418349483 0 -0.017143355183087749 -0.071100171677557514 0 -0.015932085325944569 -0.073735855326390209 0 -0.016480267352497396 -0.077993974578965009 0 -0.015932085325944569 -0.073735855326390209 0 -0.017969230080467229 -0.074065202650597364 0 -0.016480267352497396 -0.077993974578965009 0 -0.013632067669876579 -0.075685430166742257 0 -0.015932085325944569 -0.073735855326390209 0 -0.017143355183087749 -0.071100171677557514 0 -0.015932085325944569 -0.073735855326390209 0 -0.017969230080467229 -0.074065202650597364 0 -0.016480267352497396 -0.077993974578965009 0 -0.020133079545725123 -0.075015754588305728 0 -0.017969230080467229 -0.074065202650597364 0 -0.020133079545725123 -0.075015754588305728 0 -0.020056188051809067 -0.07297187608824951 0 -0.017969230080467229 -0.074065202650597364 0 -0.016044660920784912 -0.080437262085309158 0 -0.016275031756840364 -0.080893351945255224 0 -0.015641417885414569 -0.081532840034744966 0 -0.016275031756840364 -0.080893351945255224 0 -0.015641417885414569 -0.081532840034744966 0 -0.015795022127576809 -0.081527241960960187 0 -0.016598642430652306 -0.079118950720856646 0 -0.014540006954402754 -0.080923930061002805 0 -0.020133079545725123 -0.075015754588305728 0 -0.020056188051809067 -0.07297187608824951 0 -0.023084378470163591 -0.07245544783020165 0 -0.011904759453863259 -0.081817932827353279 0 -0.011341107613999013 -0.082276500886640319 0 -0.011294633538078509 -0.081517038311100257 0 -0.011341107613999013 -0.082276500886640319 0 -0.01048717029094701 -0.081162346630462734 0 -0.011294633538078509 -0.081517038311100257 0 -0.014540006954402754 -0.080923930061002805 0 -0.014485792910106614 -0.073797257684443993 0 -0.020056188051809067 -0.07297187608824951 0 -0.023084378470163591 -0.07245544783020165 0 -0.019567102703534577 -0.067942437263941044 0 -0.015645890968184164 -0.072445194293123807 0 -0.014485792910106614 -0.073797257684443993 0 -0.017143355183087749 -0.071100171677557514 0 -0.020056188051809067 -0.07297187608824951 0 -0.019401971779076946 -0.067866104737135446 0 -0.017143355183087749 -0.071100171677557514 0 -0.020056188051809067 -0.07297187608824951 0 -0.017969230080467229 -0.074065202650597364 0 -0.01048717029094701 -0.081162346630462734 0 -0.011294633538078509 -0.081517038311100257 0 -0.011442359099791338 -0.080809865557890853 0 -0.0081364206869599959 -0.08351709291497908 0 -0.011090149517147135 -0.077172327008910399 0 -0.01048717029094701 -0.081162346630462734 0 -0.011442359099791338 -0.080809865557890853 0 -0.010400102235404324 -0.080254660643608283 0 -1.0178713817473259e-05 -0.094924297700609589 0 3.95598168861572e-05 -0.094882569292303071 0 -9.7063709670470588e-06 -0.09490660726733946 0 -0.01915066143738656 -0.067984555559746168 0 -0.018838347007986957 -0.064503142894951765 0 -0.016358551135551333 -0.064319629230596753 0 -0.014485792910106614 -0.073797257684443993 0 -0.013985158283876769 -0.070527756293650698 0 -0.014485792910106614 -0.073797257684443993 0 -0.011090149517147135 -0.077172327008910399 0 -0.019401971779076946 -0.067866104737135446 0 -0.016358551135551333 -0.064319629230596753 0 -0.015448020185159618 -0.067466050892058024 0 -0.016358551135551333 -0.064319629230596753 0 -0.01383675893534434 -0.064605518672246454 0 -0.015448020185159618 -0.067466050892058024 0 -0.012223384098113755 -0.066500016726471656 0 -0.01383675893534434 -0.064605518672246454 0 -0.011174099531037584 -0.063178383500436516 0 -0.012223384098113755 -0.066500016726471656 0 -0.01383675893534434 -0.064605518672246454 0 -0.015448020185159618 -0.067466050892058024 0 -0.013841750704994469 -0.070790269418349483 0 -0.012223384098113755 -0.066500016726471656 0 -0.01018432409311495 -0.069349970714748035 0 -0.013841750704994469 -0.070790269418349483 0 -0.012223384098113755 -0.066500016726471656 0 -0.015448020185159618 -0.067466050892058024 0 -0.017143355183087749 -0.071100171677557514 0 -0.019401971779076946 -0.067866104737135446 0 -0.015448020185159618 -0.067466050892058024 0 -0.0091745465884933673 -0.06573761546538813 0 -0.0062087701283449854 -0.06504881274474035 0 -0.0060597007988785877 -0.067716276394766378 0 -0.0091745465884933673 -0.06573761546538813 0 -0.0060597007988785877 -0.067716276394766378 0 -0.01018432409311495 -0.069349970714748035 0 -0.012223384098113755 -0.066500016726471656 0 -0.0091745465884933673 -0.06573761546538813 0 -0.01018432409311495 -0.069349970714748035 0 -0.012223384098113755 -0.066500016726471656 0 -0.0091745465884933673 -0.06573761546538813 0 -0.011174099531037584 -0.063178383500436516 0 -0.0091745465884933673 -0.06573761546538813 0 -0.0062087701283449854 -0.06504881274474035 0 -0.0080702166837312451 -0.062767293620554443 0 -0.0062087701283449854 -0.06504881274474035 0 -0.0038364577520639911 -0.063917530740910972 0 -0.0057185275490411816 -0.062788234169022988 0 -0.0062087701283449854 -0.06504881274474035 0 -0.0038364577520639911 -0.063917530740910972 0 -0.0030498566309636287 -0.066712655961521275 0 -0.0038364577520639911 -0.063917530740910972 0 -0.0030498566309636287 -0.066712655961521275 0 -0.0018836469458987141 -0.064523340496751944 0 -0.0062087701283449854 -0.06504881274474035 0 -0.0030498566309636287 -0.066712655961521275 0 -0.0060597007988785877 -0.067716276394766378 0 -0.0060597007988785877 -0.067716276394766378 0 -0.0042585021064549611 -0.06908029593080825 0 -0.0082902173613305114 -0.069919674389285008 0 -0.0030498566309636287 -0.066712655961521275 0 -0.0042585021064549611 -0.06908029593080825 0 -0.0010485661814340567 -0.067982679920500277 0 -0.0030498566309636287 -0.066712655961521275 0 -0.0060597007988785877 -0.067716276394766378 0 -0.0042585021064549611 -0.06908029593080825 0 -0.0042585021064549611 -0.06908029593080825 0 -0.0051782882984431717 -0.072204474894632151 0 -0.0012287418849546764 -0.072050920594068424 0 -0.0042585021064549611 -0.06908029593080825 0 -0.0082902173613305114 -0.069919674389285008 0 -0.0051782882984431717 -0.072204474894632151 0 -0.0060597007988785877 -0.067716276394766378 0 -0.0082303214885653762 -0.073125747047168052 0 -0.01018432409311495 -0.069349970714748035 0 -0.0076803811922074357 -0.070234324982165267 0 -0.0087958514093933651 -0.072037611982247798 0 -0.0082303214885653762 -0.073125747047168052 0 -0.01018432409311495 -0.069349970714748035 0 -0.01150542216421396 -0.072918341539479417 0 -0.013841750704994469 -0.070790269418349483 0 -0.01018432409311495 -0.069349970714748035 0 -0.01150542216421396 -0.072918341539479417 0 -0.013632067669876579 -0.075685430166742257 0 -0.01150542216421396 -0.072918341539479417 0 -0.011281492707176492 -0.077495493920785585 0 -0.0082303214885653762 -0.073125747047168052 0 -0.01150542216421396 -0.072918341539479417 0 -0.011281492707176492 -0.077495493920785585 0 -0.0087958514093933651 -0.072037611982247798 0 -0.010735126550808173 -0.075079554075425381 0 -0.0082902173613305114 -0.069919674389285008 0 -0.0079670733090617223 -0.074020986773222566 0 -0.0051782882984431717 -0.072204474894632151 0 -0.0082902173613305114 -0.069919674389285008 0 -0.011158112522826261 -0.073910349139360829 0 -0.0079670733090617223 -0.074020986773222566 0 -0.011158112522826261 -0.073910349139360829 0 -0.0079670733090617223 -0.074020986773222566 0 -0.0092031692509853425 -0.078592724832518765 0 -0.0079670733090617223 -0.074020986773222566 0 -0.0092031692509853425 -0.078592724832518765 0 -0.0060618898366797593 -0.07603568912515879 0 -0.011830722420459825 -0.076793347597746545 0 -0.010735126550808173 -0.075079554075425381 0 -0.013553214654293131 -0.079094463803892331 0 -0.011158112522826261 -0.073910349139360829 0 -0.0092031692509853425 -0.078592724832518765 0 -0.013553214654293131 -0.079094463803892331 0 -0.0092031692509853425 -0.078592724832518765 0 -0.012266439278006296 -0.080906051597252143 0 -0.0074322362115759764 -0.083307179756015468 0 -0.0092031692509853425 -0.078592724832518765 0 -0.010391974831817332 -0.082476286342701668 0 -0.0092031692509853425 -0.078592724832518765 0 -0.010391974831817332 -0.082476286342701668 0 -0.012266439278006296 -0.080906051597252143 0 -0.012275013737323752 -0.083389001076828811 0 -0.010391974831817332 -0.082476286342701668 0 -0.012266439278006296 -0.080906051597252143 0 -0.0024190407540835186 -0.078354837982896733 0 -0.0038770357252356359 -0.075831477744379566 0 -0.00048640154562225925 -0.076011907485757174 0 -0.0074322362115759764 -0.083307179756015468 0 -0.0092031692509853425 -0.078592724832518765 0 -0.0051051653062810474 -0.080039612844366378 0 -0.0040967891170795839 -0.079785763753346825 0 -0.0037474727424740037 -0.078039647673795315 0 -0.0024190407540835186 -0.078354837982896733 0 -0.0053051383112192709 -0.077925475701211139 0 -0.0038770357252356359 -0.075831477744379566 0 -0.0051051653062810474 -0.080039612844366378 0 -0.0029226967948320632 -0.076206541677910272 0 -0.0060618898366797593 -0.07603568912515879 0 -0.0092031692509853425 -0.078592724832518765 0 -0.0051051653062810474 -0.080039612844366378 0 -0.0060618898366797593 -0.07603568912515879 0 -0.0038770357252356359 -0.075831477744379566 0 -0.002432547125310598 -0.073740248429362221 0 -0.00048640154562225925 -0.076011907485757174 0 -0.0037474727424740037 -0.078039647673795315 0 -0.0026716141426671057 -0.075805905766987328 0 -0.0029226967948320632 -0.076206541677910272 0 -0.0060618898366797593 -0.07603568912515879 0 -0.0051782882984431717 -0.072204474894632151 0 -0.0079670733090617223 -0.074020986773222566 0 -0.0060618898366797593 -0.07603568912515879 0 -0.0051782882984431717 -0.072204474894632151 0 -0.0029226967948320632 -0.076206541677910272 0 -0.0051782882984431717 -0.072204474894632151 0 -0.0012287418849546764 -0.072050920594068424 0 -0.0012287418849546764 -0.072050920594068424 0 0.0024376455637422287 -0.071984238540348688 0 0.0012100439077826917 -0.069967864680892583 0 -0.0012287418849546764 -0.072050920594068424 0 8.2700930849650105e-05 -0.073703687033722085 0 0.0024376455637422287 -0.071984238540348688 0 -0.002432547125310598 -0.073740248429362221 0 -0.0012287418849546764 -0.072050920594068424 0 8.2700930849650105e-05 -0.073703687033722085 0 -0.0026716141426671057 -0.075805905766987328 0 -0.0020055543521304963 -0.074584257430548306 0 -0.002432547125310598 -0.073740248429362221 0 8.2700930849650105e-05 -0.073703687033722085 0 -0.00048640154562225925 -0.076011907485757174 0 8.2700930849650105e-05 -0.073703687033722085 0 -0.00048640154562225925 -0.076011907485757174 0 0.0026205755687159402 -0.074364954029911889 0 0.00067924467382477936 -0.078983787659826638 0 -0.00048640154562225925 -0.076011907485757174 0 0.002881847311791984 -0.076988533444214788 0 -0.00048640154562225925 -0.076011907485757174 0 0.002881847311791984 -0.076988533444214788 0 0.0026205755687159402 -0.074364954029911889 0 0.005863184838803881 -0.077693151852816777 0 0.0058627150883013533 -0.076119680746582707 0 0.003863312255668641 -0.076430009337759675 0 0.0058627150883013533 -0.076119680746582707 0 0.003863312255668641 -0.076430009337759675 0 0.0055127829114912938 -0.074586637000380471 0 0.0022930352956519401 -0.075519604713685795 0 0.0034369992446265816 -0.074898215318424693 0 0.002881847311791984 -0.076988533444214788 0 0.0026205755687159402 -0.074364954029911889 0 0.0055127829114912938 -0.074586637000380471 0 0.0026205755687159402 -0.074364954029911889 0 0.0055127829114912938 -0.074586637000380471 0 0.0059936937849865892 -0.072743877820898237 0 0.0024376455637422287 -0.071984238540348688 0 0.0046151181828869813 -0.070117735260941588 0 0.0056121691915598619 -0.072253582447195999 0 0.0044467084671569084 -0.072165675096606721 0 0.0060622654825107942 -0.072580961506107572 0 0.0026205755687159402 -0.074364954029911889 0 0.0024376455637422287 -0.071984238540348688 0 0.0059936937849865892 -0.072743877820898237 0 8.2700930849650105e-05 -0.073703687033722085 0 0.0026205755687159402 -0.074364954029911889 0 0.0024376455637422287 -0.071984238540348688 0 0.0024376455637422287 -0.071984238540348688 0 0.0046151181828869813 -0.070117735260941588 0 0.0012100439077826917 -0.069967864680892583 0 0.0046151181828869813 -0.070117735260941588 0 0.0037898697936939877 -0.066833059224417971 0 0.007518964218075597 -0.068668197060676811 0 0.0046151181828869813 -0.070117735260941588 0 0.0037898697936939877 -0.066833059224417971 0 0.0012100439077826917 -0.069967864680892583 0 0.0037898697936939877 -0.066833059224417971 0 -0.0010485661814340567 -0.067982679920500277 0 0.00058044009636763652 -0.063075171683370804 0 0.0037898697936939877 -0.066833059224417971 0 0.0012100439077826917 -0.069967864680892583 0 -0.0010485661814340567 -0.067982679920500277 0 -0.0012287418849546764 -0.072050920594068424 0 0.0012100439077826917 -0.069967864680892583 0 -0.0010485661814340567 -0.067982679920500277 0 -0.0042585021064549611 -0.06908029593080825 0 -0.0012287418849546764 -0.072050920594068424 0 -0.0010485661814340567 -0.067982679920500277 0 0.00010706409947100128 -0.065958551103896687 0 0.0011021970701395466 -0.064246127246424645 0 -0.0030498566309636287 -0.066712655961521275 0 -0.0010485661814340567 -0.067982679920500277 0 0.00044722553736646831 -0.065611354446375933 0 -0.0030498566309636287 -0.066712655961521275 0 0.00044722553736646831 -0.065611354446375933 0 -0.0018836469458987141 -0.064523340496751944 0 -0.0038364577520639911 -0.063917530740910972 0 -0.0018836469458987141 -0.064523340496751944 0 -0.0023351105340967504 -0.06273723376225887 0 0.00044722553736646831 -0.065611354446375933 0 -0.0018836469458987141 -0.064523340496751944 0 -0.00057934323437271228 -0.06310291379706022 0 0.00044722553736646831 -0.065611354446375933 0 0.00075571533692069199 -0.063021272334587028 0 -0.00057934323437271228 -0.06310291379706022 0 0.00044722553736646831 -0.065611354446375933 0 0.0022243813021097405 -0.062527987221400447 0 0.00075571533692069199 -0.063021272334587028 0 0.0011021970701395466 -0.064246127246424645 0 0.0027807547789977273 -0.061975300022509353 0 0.0042128639300337859 -0.060675576743737969 0 0.0031430506643341945 -0.062946549956896039 0 0.0025001599092154677 -0.058705372600906428 0 0.00058044009636763652 -0.063075171683370804 0 0.0031430506643341945 -0.062946549956896039 0 0.0025001599092154677 -0.058705372600906428 0 0.0042128639300337859 -0.060675576743737969 0 0.0056353291920081565 -0.063486909566981761 0 0.0031430506643341945 -0.062946549956896039 0 0.0042128639300337859 -0.060675576743737969 0 0.0056353291920081565 -0.063486909566981761 0 0.006542999192886677 -0.059709280254903789 0 0.0037898697936939877 -0.066833059224417971 0 0.0056353291920081565 -0.063486909566981761 0 0.0031430506643341945 -0.062946549956896039 0 0.0037898697936939877 -0.066833059224417971 0 0.00058044009636763652 -0.063075171683370804 0 0.0031430506643341945 -0.062946549956896039 0 0.0076647876292784498 -0.050877349575112051 0 0.0078580225582900627 -0.050685153693027549 0 0.0076882865242481075 -0.050017901865423466 0 0.0080201463790254557 -0.050419717450083008 0 0.0079096589090938019 -0.050963519955244514 0 0.0086277451771511471 -0.050018785742893049 0 0.0079877902459831052 -0.051277162306701242 0 0.0079096589090938019 -0.050963519955244514 0 0.0086277451771511471 -0.050018785742893049 0 0.0080201463790254557 -0.050419717450083008 0 0.0076882865242481075 -0.050017901865423466 0 0.0086277451771511471 -0.050018785742893049 0 0.0078580225582900627 -0.050685153693027549 0 0.0080201463790254557 -0.050419717450083008 0 0.0079096589090938019 -0.050963519955244514 0 0.0020601712511674904 -0.065043379357223458 0 0.0021560585550653073 -0.064918096423737762 0 0.0076647876292784498 -0.050877349575112051 0 0.0078580225582900627 -0.050685153693027549 0 0.0079096589090938019 -0.050963519955244514 0 0.0078580225582900627 -0.050685153693027549 0 0.0080201463790254557 -0.050419717450083008 0 0.0076882865242481075 -0.050017901865423466 0 0.0027807547789977273 -0.061975300022509353 0 0.0064452839337614948 -0.053726916732977768 0 0.0054791090600429058 -0.05705720422463112 0 0.0019735155949938197 -0.058001013619864344 0 0.0044785282284538156 -0.053735290153333976 0 0.0054791090600429058 -0.05705720422463112 0 0.0046060455787495227 -0.058882206426548192 0 0.0019735155949938197 -0.058001013619864344 0 0.0042128639300337859 -0.060675576743737969 0 0.0046060455787495227 -0.058882206426548192 0 0.006542999192886677 -0.059709280254903789 0 0.0054791090600429058 -0.05705720422463112 0 0.0046060455787495227 -0.058882206426548192 0 0.006542999192886677 -0.059709280254903789 0 0.0042128639300337859 -0.060675576743737969 0 0.0046060455787495227 -0.058882206426548192 0 0.0019735155949938197 -0.058001013619864344 0 0.0026959133666029454 -0.061544632716406728 0 0.0027807547789977273 -0.061975300022509353 0 0.0014792308998157989 -0.06165451020713756 0 0.0022243813021097405 -0.062527987221400447 0 0.00075571533692069199 -0.063021272334587028 0 0.0076461727218160016 -0.050893876987535572 0 0.0079877902459831052 -0.051277162306701242 0 0.0079096589090938019 -0.050963519955244514 0 0.0020601712511674904 -0.065043379357223458 0 0.0027807547789977273 -0.061975300022509353 0 0.0014792308998157989 -0.06165451020713756 0 -0.00057934323437271228 -0.06310291379706022 0 -0.0016588924683715114 -0.060591461799484596 0 0.0014792308998157989 -0.06165451020713756 0 0.00075571533692069199 -0.063021272334587028 0 -0.00057934323437271228 -0.06310291379706022 0 -0.00057934323437271228 -0.06310291379706022 0 -0.0023351105340967504 -0.06273723376225887 0 -0.0016588924683715114 -0.060591461799484596 0 -0.0018836469458987141 -0.064523340496751944 0 -0.00057934323437271228 -0.06310291379706022 0 -0.0023351105340967504 -0.06273723376225887 0 -0.0023351105340967504 -0.06273723376225887 0 -0.0016588924683715114 -0.060591461799484596 0 -0.0038101778545516244 -0.061518883282857866 0 0.0076647876292784498 -0.050877349575112051 0 0.0068481256428995349 -0.049829180428196639 0 0.0076882865242481075 -0.050017901865423466 0 -0.0025834014423099924 -0.080944796223681031 0 0.00087843767905645921 -0.082086147073751323 0 -0.00031628994653646334 -0.083638946461231017 0 0.0020601712511674904 -0.065043379357223458 0 0.00020862709486425392 -0.06929661563552264 0 0.0020601712511674904 -0.065043379357223458 0 0.0027339067647159754 -0.067730436810422595 0 0.0068481256428995349 -0.049829180428196639 0 0.0073259033995766252 -0.049370027657421434 0 0.0076882865242481075 -0.050017901865423466 0 0.0068481256428995349 -0.049829180428196639 0 0.0066608969216101523 -0.049052153844676039 0 0.0069181659407244744 -0.049297602287601106 0 0.0068481256428995349 -0.049829180428196639 0 0.0073259033995766252 -0.049370027657421434 0 0.0069181659407244744 -0.049297602287601106 0 -0.00031628994653646334 -0.083638946461231017 0 0.0019369981247689813 -0.083771656464967773 0 0.0016575049916041449 -0.084556939782819709 0 0.0027339067647159754 -0.067730436810422595 0 0.0038426672451145898 -0.071921190596382828 0 0.00087843767905645921 -0.082086147073751323 0 -0.00031628994653646334 -0.083638946461231017 0 0.0019369981247689813 -0.083771656464967773 0 -0.00031628994653646334 -0.083638946461231017 0 0.0016575049916041449 -0.084556939782819709 0 0.001921255912598662 -0.085973733989590212 0 -0.00031628994653646334 -0.083638946461231017 0 0.0019101285611117205 -0.086166035823394507 0 0.001921255912598662 -0.085973733989590212 0 0.0068481256428995349 -0.049829180428196639 0 0.0066608969216101523 -0.049052153844676039 0 0.0060728198300816355 -0.048866054232546884 0 0.0066608969216101523 -0.049052153844676039 0 0.0067574192729399091 -0.048645693551934786 0 0.006464133412245332 -0.048646299154714016 0 0.0066608969216101523 -0.049052153844676039 0 0.006464133412245332 -0.048646299154714016 0 0.0060728198300816355 -0.048866054232546884 0 0.0038426672451145898 -0.071921190596382828 0 0.0038382697416902835 -0.071974291972513579 0 0.0073259033995766252 -0.049370027657421434 0 0.0069966777293613645 -0.048943733474359583 0 0.0075333689431525798 -0.048770358738738959 0 0.0073259033995766252 -0.049370027657421434 0 0.0069181659407244744 -0.049297602287601106 0 0.0069966777293613645 -0.048943733474359583 0 0.0066608969216101523 -0.049052153844676039 0 0.0069181659407244744 -0.049297602287601106 0 0.0069966777293613645 -0.048943733474359583 0 0.0067574192729399091 -0.048645693551934786 0 0.0069966777293613645 -0.048943733474359583 0 0.0070871931595128754 -0.048419592496115348 0 0.0066608969216101523 -0.049052153844676039 0 0.0067574192729399091 -0.048645693551934786 0 0.0069966777293613645 -0.048943733474359583 0 0.0069966777293613645 -0.048943733474359583 0 0.0075333689431525798 -0.048770358738738959 0 0.0070871931595128754 -0.048419592496115348 0 0.0073259033995766252 -0.049370027657421434 0 0.0080920872578982457 -0.04922811982748411 0 0.0075333689431525798 -0.048770358738738959 0 0.0080920872578982457 -0.04922811982748411 0 0.0075333689431525798 -0.048770358738738959 0 0.0082077807607259384 -0.048374935955220896 0 0.0073259033995766252 -0.049370027657421434 0 0.0080920872578982457 -0.04922811982748411 0 0.0076882865242481075 -0.050017901865423466 0 0.0080920872578982457 -0.04922811982748411 0 0.0076882865242481075 -0.050017901865423466 0 0.0086277451771511471 -0.050018785742893049 0 0.0064452839337614948 -0.053726916732977768 0 0.0079826517538388354 -0.050415564624947742 0 0.0080920872578982457 -0.04922811982748411 0 0.0086277451771511471 -0.050018785742893049 0 0.0091976998232255313 -0.048760467709839134 0 0.0080920872578982457 -0.04922811982748411 0 0.0082077807607259384 -0.048374935955220896 0 0.0091976998232255313 -0.048760467709839134 0 0.0088015628700366111 -0.047724696064885386 0 0.0082077807607259384 -0.048374935955220896 0 0.0091976998232255313 -0.048760467709839134 0 0.0088015628700366111 -0.047724696064885386 0 0.0082077807607259384 -0.048374935955220896 0 0.0079966575590721262 -0.047508395612133283 0 0.0076054279615228705 -0.048179428503098538 0 0.0082077807607259384 -0.048374935955220896 0 0.0079966575590721262 -0.047508395612133283 0 0.0076054279615228705 -0.048179428503098538 0 0.0079966575590721262 -0.047508395612133283 0 0.0071265349238181499 -0.047688355550664537 0 0.0075333689431525798 -0.048770358738738959 0 0.0076054279615228705 -0.048179428503098538 0 0.0082077807607259384 -0.048374935955220896 0 0.0079966575590721262 -0.047508395612133283 0 0.0086647954584719283 -0.046820343421241924 0 0.0080160017800460417 -0.046771519404965767 0 0.0079966575590721262 -0.047508395612133283 0 0.0080160017800460417 -0.046771519404965767 0 0.0075019833638222582 -0.047056670263249174 0 0.0088015628700366111 -0.047724696064885386 0 0.0079966575590721262 -0.047508395612133283 0 0.0086647954584719283 -0.046820343421241924 0 0.0088015628700366111 -0.047724696064885386 0 0.0086647954584719283 -0.046820343421241924 0 0.0093770676765467572 -0.0469416086444144 0 0.0086647954584719283 -0.046820343421241924 0 0.0083637114101152762 -0.046025185477256654 0 0.0097740233144409869 -0.046232426696217771 0 0.010315208981649032 -0.063696024907626742 0 0.009660815579503575 -0.060758940929428525 0 0.0086647954584719283 -0.046820343421241924 0 0.0080160017800460417 -0.046771519404965767 0 0.0084116669173784804 -0.046305922983510148 0 0.0091079246522999639 -0.059601185323015109 0 0.010315208981649032 -0.063696024907626742 0 0.0080160017800460417 -0.046771519404965767 0 0.0073743534193564664 -0.046234625124050667 0 0.0075019833638222582 -0.047056670263249174 0 0.0080160017800460417 -0.046771519404965767 0 0.0084116669173784804 -0.046305922983510148 0 0.0073743534193564664 -0.046234625124050667 0 0.025980097422127368 -0.091659373886227594 0 0.027621434487627085 -0.09325998470898654 0 0.024927202837786867 -0.093009954734646461 0 0.010315208981649032 -0.063696024907626742 0 0.014171821675055518 -0.071440488335817037 0 0.014054282790837272 -0.050819409569844771 0 0.014327477441795767 -0.046188330571189554 0 0.018257478963195944 -0.055113621909091824 0 0.025980097422127368 -0.091659373886227594 0 0.027621434487627085 -0.09325998470898654 0 0.026665604337576143 -0.090214667792546221 0 0.010315208981649032 -0.063696024907626742 0 0.01818313446903885 -0.072354202493670222 0 0.011597829052456194 -0.048052978034783089 0 0.014327477441795767 -0.046188330571189554 0 0.0097740233144409869 -0.046232426696217771 0 0.014054282790837272 -0.050819409569844771 0 0.011597829052456194 -0.048052978034783089 0 0.012592484786028566 -0.051749436607886383 0 0.014054282790837272 -0.050819409569844771 0 0.011597829052456194 -0.048052978034783089 0 0.014327477441795767 -0.046188330571189554 0 0.021956267280229917 -0.092653283928672184 0 0.024927202837786867 -0.093009954734646461 0 0.0234369980474619 -0.090965578549398116 0 0.014112102652482746 -0.079589501240810073 0 0.014171821675055518 -0.071440488335817037 0 0.024927202837786867 -0.093009954734646461 0 0.024875051762216657 -0.091175009222131467 0 0.0234369980474619 -0.090965578549398116 0 0.025980097422127368 -0.091659373886227594 0 0.024927202837786867 -0.093009954734646461 0 0.024875051762216657 -0.091175009222131467 0 0.0063579793600606381 -0.046170522138798929 0 0.0073743534193564664 -0.046234625124050667 0 0.0069146694886907892 -0.046919254645113456 0 0.0073743534193564664 -0.046234625124050667 0 0.0075019833638222582 -0.047056670263249174 0 0.0069146694886907892 -0.046919254645113456 0 0.0063579793600606381 -0.046170522138798929 0 0.0069146694886907892 -0.046919254645113456 0 0.0062215621158110438 -0.047473376907024904 0 0.014112102652482746 -0.079589501240810073 0 0.0080654742458762269 -0.070618609215539946 0 0.0069146694886907892 -0.046919254645113456 0 0.0062215621158110438 -0.047473376907024904 0 0.0071265349238181499 -0.047688355550664537 0 0.0062215621158110438 -0.047473376907024904 0 0.0071265349238181499 -0.047688355550664537 0 0.0065814977235092243 -0.048177428990169253 0 0.0075019833638222582 -0.047056670263249174 0 0.0069146694886907892 -0.046919254645113456 0 0.0071265349238181499 -0.047688355550664537 0 0.0079966575590721262 -0.047508395612133283 0 0.0075019833638222582 -0.047056670263249174 0 0.0071265349238181499 -0.047688355550664537 0 0.0076054279615228705 -0.048179428503098538 0 0.0071265349238181499 -0.047688355550664537 0 0.0070871931595128754 -0.048419592496115348 0 0.0071265349238181499 -0.047688355550664537 0 0.0070871931595128754 -0.048419592496115348 0 0.0065814977235092243 -0.048177428990169253 0 0.0067574192729399091 -0.048645693551934786 0 0.0070871931595128754 -0.048419592496115348 0 0.0065814977235092243 -0.048177428990169253 0 0.0075333689431525798 -0.048770358738738959 0 0.0076054279615228705 -0.048179428503098538 0 0.0070871931595128754 -0.048419592496115348 0 0.0038426672451145898 -0.071921190596382828 0 0.0080654742458762269 -0.070618609215539946 0 0.0060728198300816355 -0.048866054232546884 0 0.0062215621158110438 -0.047473376907024904 0 0.0065814977235092243 -0.048177428990169253 0 0.0067574192729399091 -0.048645693551934786 0 0.006464133412245332 -0.048646299154714016 0 0.0065814977235092243 -0.048177428990169253 0 0.006464133412245332 -0.048646299154714016 0 0.0060728198300816355 -0.048866054232546884 0 0.0065814977235092243 -0.048177428990169253 0 0.0039672012812328175 -0.087833464995681801 0 0.00390490193160579 -0.089491949086508857 0 0.0046703564297806846 -0.088679620727220757 0 0.0038426672451145898 -0.071921190596382828 0 0.0068164557223349157 -0.080267974033912046 0 0.0051257796859731537 -0.087286229912724556 0 0.0059844090681427133 -0.087177600262869567 0 0.0058308963546139904 -0.086200976852912267 0 0.0034792428448109972 -0.087898040062592511 0 0.0051257796859731537 -0.087286229912724556 0 0.0036727088429562293 -0.086181376260044559 0 0.0034792428448109972 -0.087898040062592511 0 0.0051257796859731537 -0.087286229912724556 0 0.0053281562374914914 -0.088398445748515075 0 0.0034792428448109972 -0.087898040062592511 0 0.0053281562374914914 -0.088398445748515075 0 0.0052026645891678084 -0.089497533090285589 0 0.0051257796859731537 -0.087286229912724556 0 0.0053281562374914914 -0.088398445748515075 0 0.0060991430796329639 -0.08803071389425976 0 0.0053281562374914914 -0.088398445748515075 0 0.0052026645891678084 -0.089497533090285589 0 0.0062309382835777187 -0.088893853230785469 0 0.0046703564297806846 -0.088679620727220757 0 0.0052026645891678084 -0.089497533090285589 0 0.0046549810882254667 -0.089481919728092621 0 0.0068164557223349157 -0.080267974033912046 0 0.0075254328480494626 -0.082566823870873898 0 0.0052026645891678084 -0.089497533090285589 0 0.0046549810882254667 -0.089481919728092621 0 0.0054068768440384447 -0.090396367734837474 0 0.0052026645891678084 -0.089497533090285589 0 0.0054068768440384447 -0.090396367734837474 0 0.0059088071125387746 -0.089805064703333798 0 0.00390490193160579 -0.089491949086508857 0 0.0046703564297806846 -0.088679620727220757 0 0.0046549810882254667 -0.089481919728092621 0 0.00390490193160579 -0.089491949086508857 0 0.0046549810882254667 -0.089481919728092621 0 0.0046875270211081503 -0.090353328221755139 0 0.0038633282873203074 -0.09120048415739386 0 0.00390490193160579 -0.089491949086508857 0 0.0046875270211081503 -0.090353328221755139 0 0.0046875270211081503 -0.090353328221755139 0 0.0054068768440384447 -0.090396367734837474 0 0.0056569129652224246 -0.091328364895505762 0 0.0046549810882254667 -0.089481919728092621 0 0.0046875270211081503 -0.090353328221755139 0 0.0054068768440384447 -0.090396367734837474 0 0.0056569129652224246 -0.091328364895505762 0 0.0056566632930586452 -0.091285318703464943 0 0.0056929079169235845 -0.090955799695708037 0 0.0054068768440384447 -0.090396367734837474 0 0.0056569129652224246 -0.091328364895505762 0 0.0056566632930586452 -0.091285318703464943 0 0.0072134851968398235 -0.091534048784716798 0 0.0056569129652224246 -0.091328364895505762 0 0.0064829166961633969 -0.090676766038131101 0 0.014112102652482746 -0.079589501240810073 0 0.0091516238710305457 -0.082126825718133553 0 0.0038633282873203074 -0.09120048415739386 0 0.0046875270211081503 -0.090353328221755139 0 0.0056569129652224246 -0.091328364895505762 0 0.0043466522890646493 -0.09219058358798933 0 0.003643907412335114 -0.092441202105152734 0 0.0043866508334547399 -0.09154846760213009 0 0.0043466522890646493 -0.09219058358798933 0 0.0050239109844920256 -0.093197953083032165 0 0.003643907412335114 -0.092441202105152734 0 0.0030378444815143432 -0.092584439751398864 0 0.0033752393749734442 -0.092276699835796991 0 0.0056566632930586452 -0.091285318703464943 0 0.0061805805840540575 -0.090831188130232152 0 0.0051437359407935195 -0.091495252710330849 0 0.0050573879596262812 -0.091211669786427668 0 0.0051028961162799119 -0.091286624427324409 0 0.0043466522890646493 -0.09219058358798933 0 0.0050239109844920256 -0.093197953083032165 0 0.0051437359407935195 -0.091495252710330849 0 0.0054068768440384447 -0.090396367734837474 0 0.0061805805840540575 -0.090831188130232152 0 0.0059088071125387746 -0.089805064703333798 0 0.0054068768440384447 -0.090396367734837474 0 0.0056566632930586452 -0.091285318703464943 0 0.0061805805840540575 -0.090831188130232152 0 0.0050239109844920256 -0.093197953083032165 0 0.0039138136610936472 -0.094094929825441237 0 0.003643907412335114 -0.092441202105152734 0 0.0050239109844920256 -0.093197953083032165 0 0.0039138136610936472 -0.094094929825441237 0 0.0050536029568224337 -0.094646351890251279 0 0.0067648370271292972 -0.085817175932062686 0 0.0068921887864936224 -0.086139550497184497 0 0.006516734849635635 -0.086314927246341766 0 0.0043775448052198384 -0.090963071217547126 0 0.0047483632440771606 -0.089928014633364639 0 0.0067648370271292972 -0.085817175932062686 0 0.0071590747970633846 -0.08611925974367908 0 0.0068921887864936224 -0.086139550497184497 0 0.0050573879596262812 -0.091211669786427668 0 0.0047483632440771606 -0.089928014633364639 0 0.0061805805840540575 -0.090831188130232152 0 0.0059088071125387746 -0.089805064703333798 0 0.0065827924133851105 -0.08917328452031742 0 0.0047483632440771606 -0.089928014633364639 0 0.004808080861298844 -0.089931633379173204 0 0.0052026645891678084 -0.089497533090285589 0 0.0059088071125387746 -0.089805064703333798 0 0.0062309382835777187 -0.088893853230785469 0 0.0059088071125387746 -0.089805064703333798 0 0.0065827924133851105 -0.08917328452031742 0 0.0062309382835777187 -0.088893853230785469 0 0.006889071571223755 -0.089209307759349904 0 0.0060991430796329639 -0.08803071389425976 0 0.0069091288220410017 -0.087188055992084387 0 0.0071590747970633846 -0.08611925974367908 0 0.0069442451348558469 -0.08629640929545862 0 0.0070583078587371003 -0.086248601116575119 0 0.0047483632440771606 -0.089928014633364639 0 0.0052591034770547856 -0.087849129802858375 0 0.006889071571223755 -0.089209307759349904 0 0.0062309382835777187 -0.088893853230785469 0 0.0060991430796329639 -0.08803071389425976 0 0.0053281562374914914 -0.088398445748515075 0 0.0062309382835777187 -0.088893853230785469 0 0.0060991430796329639 -0.08803071389425976 0 0.0069442451348558469 -0.08629640929545862 0 0.0070583078587371003 -0.086248601116575119 0 0.0071275320077452946 -0.086331556277899249 0 0.0051257796859731537 -0.087286229912724556 0 0.0060991430796329639 -0.08803071389425976 0 0.0059844090681427133 -0.087177600262869567 0 0.0060991430796329639 -0.08803071389425976 0 0.0069091288220410017 -0.087188055992084387 0 0.0059844090681427133 -0.087177600262869567 0 0.0068921887864936224 -0.086139550497184497 0 0.0069690745715142617 -0.086277586007101975 0 0.0068017145078028834 -0.086380208759285898 0 0.0068921887864936224 -0.086139550497184497 0 0.0068017145078028834 -0.086380208759285898 0 0.006516734849635635 -0.086314927246341766 0 0.0071590747970633846 -0.08611925974367908 0 0.0068921887864936224 -0.086139550497184497 0 0.0070583078587371003 -0.086248601116575119 0 0.0068921887864936224 -0.086139550497184497 0 0.0070583078587371003 -0.086248601116575119 0 0.0069690745715142617 -0.086277586007101975 0 0.0069690745715142617 -0.086277586007101975 0 0.0071275320077452946 -0.086331556277899249 0 0.0068017145078028834 -0.086380208759285898 0 0.0070583078587371003 -0.086248601116575119 0 0.0069690745715142617 -0.086277586007101975 0 0.0071275320077452946 -0.086331556277899249 0 0.0071275320077452946 -0.086331556277899249 0 0.0068017145078028834 -0.086380208759285898 0 0.0064763661065980402 -0.086922639385937278 0 0.0071275320077452946 -0.086331556277899249 0 0.0073096560571416797 -0.085535468113371801 0 0.0088150842741001705 -0.085194777465442836 0 0.0073096560571416797 -0.085535468113371801 0 0.0070244164847048313 -0.084480460997621798 0 0.0088150842741001705 -0.085194777465442836 0 0.0038480324298277133 -0.083713925448610865 0 0.00052578638573570031 -0.084289863285798225 0 -0.0090066228367642002 -0.057876942592442582 0 -0.012208290218605396 -0.058636161598305807 0 -0.01309401660722862 -0.056648662621533771 0 -0.0016367154331401431 -0.076097412173853823 0 0.00052578638573570031 -0.084289863285798225 0 -0.010313956255100443 -0.059247444467414929 0 -0.0090066228367642002 -0.057876942592442582 0 -0.012208290218605396 -0.058636161598305807 0 0.0070244164847048313 -0.084480460997621798 0 0.0067596092203312591 -0.085163574346576745 0 0.0052302770988631245 -0.084699968276716692 0 -0.0090066228367642002 -0.057876942592442582 0 -0.0050936547784888311 -0.059270001719254874 0 -0.0081213888603907311 -0.05953374071174402 0 -0.010313956255100443 -0.059247444467414929 0 -0.0090066228367642002 -0.057876942592442582 0 -0.0081213888603907311 -0.05953374071174402 0 0.0069442451348558469 -0.08629640929545862 0 0.0073096560571416797 -0.085535468113371801 0 0.0067596092203312591 -0.085163574346576745 0 0.0067596092203312591 -0.085163574346576745 0 0.0058308963546139904 -0.086200976852912267 0 0.0052302770988631245 -0.084699968276716692 0 0.0069091288220410017 -0.087188055992084387 0 0.0067596092203312591 -0.085163574346576745 0 0.0058308963546139904 -0.086200976852912267 0 0.0052591034770547856 -0.087849129802858375 0 0.0054086648196433173 -0.087100641005517399 0 0.0073096560571416797 -0.085535468113371801 0 0.0070244164847048313 -0.084480460997621798 0 0.0067596092203312591 -0.085163574346576745 0 0.0069442451348558469 -0.08629640929545862 0 0.0071275320077452946 -0.086331556277899249 0 0.0073096560571416797 -0.085535468113371801 0 0.0069091288220410017 -0.087188055992084387 0 0.0059844090681427133 -0.087177600262869567 0 0.0058308963546139904 -0.086200976852912267 0 0.0036727088429562293 -0.086181376260044559 0 0.003059491905809356 -0.084843625345497845 0 0.0052302770988631245 -0.084699968276716692 0 0.0058308963546139904 -0.086200976852912267 0 0.0036727088429562293 -0.086181376260044559 0 0.0052302770988631245 -0.084699968276716692 0 0.0051257796859731537 -0.087286229912724556 0 0.0058308963546139904 -0.086200976852912267 0 0.0036727088429562293 -0.086181376260044559 0 0.0019119125741357337 -0.08615682589377234 0 0.001921255912598662 -0.085973733989590212 0 0.0036727088429562293 -0.086181376260044559 0 0.0019119125741357337 -0.08615682589377234 0 0.0034792428448109972 -0.087898040062592511 0 0.0036727088429562293 -0.086181376260044559 0 0.0016575049916041449 -0.084556939782819709 0 0.001921255912598662 -0.085973733989590212 0 0.003059491905809356 -0.084843625345497845 0 0.001921255912598662 -0.085973733989590212 0 0.0036727088429562293 -0.086181376260044559 0 0.003059491905809356 -0.084843625345497845 0 0.0019369981247689813 -0.083771656464967773 0 0.003059491905809356 -0.084843625345497845 0 0.0041617381974800348 -0.083275888432699841 0 0.00087843767905645921 -0.082086147073751323 0 0.0019369981247689813 -0.083771656464967773 0 0.0041617381974800348 -0.083275888432699841 0 0.0019369981247689813 -0.083771656464967773 0 0.0016575049916041449 -0.084556939782819709 0 0.003059491905809356 -0.084843625345497845 0 -0.0016367154331401431 -0.076097412173853823 0 -0.00084096559911262317 -0.072282236887869569 0 0.003059491905809356 -0.084843625345497845 0 0.0041617381974800348 -0.083275888432699841 0 0.0052302770988631245 -0.084699968276716692 0 0.0070244164847048313 -0.084480460997621798 0 0.0041617381974800348 -0.083275888432699841 0 0.0052302770988631245 -0.084699968276716692 0 -0.0050936547784888311 -0.059270001719254874 0 -0.0067122005871727286 -0.060971782953458023 0 -0.0081213888603907311 -0.05953374071174402 0 -0.0050936547784888311 -0.059270001719254874 0 -0.0067122005871727286 -0.060971782953458023 0 -0.0038101778545516244 -0.061518883282857866 0 0.00020862709486425392 -0.06929661563552264 0 -0.00084096559911262317 -0.072282236887869569 0 -0.0016588924683715114 -0.060591461799484596 0 -0.0050936547784888311 -0.059270001719254874 0 -0.0038101778545516244 -0.061518883282857866 0 -0.0038364577520639911 -0.063917530740910972 0 -0.0023351105340967504 -0.06273723376225887 0 -0.0038101778545516244 -0.061518883282857866 0 -0.0038364577520639911 -0.063917530740910972 0 -0.0038101778545516244 -0.061518883282857866 0 -0.0057185275490411816 -0.062788234169022988 0 -0.0062087701283449854 -0.06504881274474035 0 -0.0057185275490411816 -0.062788234169022988 0 -0.0080702166837312451 -0.062767293620554443 0 -0.0067122005871727286 -0.060971782953458023 0 -0.0038101778545516244 -0.061518883282857866 0 -0.0057185275490411816 -0.062788234169022988 0 -0.0067122005871727286 -0.060971782953458023 0 -0.0057185275490411816 -0.062788234169022988 0 -0.0080702166837312451 -0.062767293620554443 0 -0.0080702166837312451 -0.062767293620554443 0 -0.011174099531037584 -0.063178383500436516 0 -0.0094584696604331636 -0.060674113012945535 0 -0.0091745465884933673 -0.06573761546538813 0 -0.0080702166837312451 -0.062767293620554443 0 -0.011174099531037584 -0.063178383500436516 0 -0.011174099531037584 -0.063178383500436516 0 -0.0094584696604331636 -0.060674113012945535 0 -0.011797050604977696 -0.060239866013840987 0 -0.010313956255100443 -0.059247444467414929 0 -0.011797050604977696 -0.060239866013840987 0 -0.012208290218605396 -0.058636161598305807 0 -0.010313956255100443 -0.059247444467414929 0 -0.0094584696604331636 -0.060674113012945535 0 -0.011797050604977696 -0.060239866013840987 0 -0.0067122005871727286 -0.060971782953458023 0 -0.0094584696604331636 -0.060674113012945535 0 -0.0081213888603907311 -0.05953374071174402 0 -0.010313956255100443 -0.059247444467414929 0 -0.0094584696604331636 -0.060674113012945535 0 -0.0081213888603907311 -0.05953374071174402 0 -0.0067122005871727286 -0.060971782953458023 0 -0.0080702166837312451 -0.062767293620554443 0 -0.0094584696604331636 -0.060674113012945535 0 -0.015327301459980356 -0.06040826240067089 0 -0.013889200551765629 -0.062227619145578381 0 -0.016262090587633796 -0.062093327145836111 0 -0.015327301459980356 -0.06040826240067089 0 -0.01373978287042992 -0.059516506226049627 0 -0.013889200551765629 -0.062227619145578381 0 -0.015327301459980356 -0.06040826240067089 0 -0.016262090587633796 -0.062093327145836111 0 -0.017340742649271993 -0.059944179097299981 0 -0.015327301459980356 -0.06040826240067089 0 -0.017340742649271993 -0.059944179097299981 0 -0.01526002852353007 -0.05830518752577335 0 -0.015327301459980356 -0.06040826240067089 0 -0.01373978287042992 -0.059516506226049627 0 -0.01526002852353007 -0.05830518752577335 0 -0.011797050604977696 -0.060239866013840987 0 -0.01373978287042992 -0.059516506226049627 0 -0.013889200551765629 -0.062227619145578381 0 -0.011797050604977696 -0.060239866013840987 0 -0.01373978287042992 -0.059516506226049627 0 -0.012208290218605396 -0.058636161598305807 0 -0.011174099531037584 -0.063178383500436516 0 -0.011797050604977696 -0.060239866013840987 0 -0.013889200551765629 -0.062227619145578381 0 -0.01383675893534434 -0.064605518672246454 0 -0.011174099531037584 -0.063178383500436516 0 -0.013889200551765629 -0.062227619145578381 0 -0.016358551135551333 -0.064319629230596753 0 -0.01383675893534434 -0.064605518672246454 0 -0.013889200551765629 -0.062227619145578381 0 -0.011090149517147135 -0.077172327008910399 0 -0.011291368656764002 -0.072485436383328411 0 -0.018838347007986957 -0.064503142894951765 0 -0.016358551135551333 -0.064319629230596753 0 -0.013889200551765629 -0.062227619145578381 0 -0.017713108148559642 -0.064304004972812509 0 -0.013889200551765629 -0.062227619145578381 0 -0.016262090587633796 -0.062093327145836111 0 -0.017713108148559642 -0.064304004972812509 0 -0.016262090587633796 -0.062093327145836111 0 -0.017340742649271993 -0.059944179097299981 0 3.95598168861572e-05 -0.094882569292303071 0 8.0141431365571078e-06 -0.094867737416476791 0 6.0908886985452026e-05 -0.0947790225842923 0 -0.011090149517147135 -0.077172327008910399 0 -0.0030918229809535893 -0.084311015286988505 0 3.95598168861572e-05 -0.094882569292303071 0 8.0141431365571078e-06 -0.094867737416476791 0 -9.7063709670470588e-06 -0.09490660726733946 0 8.0141431365571078e-06 -0.094867737416476791 0 3.0496104150984187e-05 -0.094842387119893318 0 1.0266299969582634e-05 -0.094860792033999677 0 8.0141431365571078e-06 -0.094867737416476791 0 1.0266299969582634e-05 -0.094860792033999677 0 -5.5884732850033834e-08 -0.094878641462886132 0 -0.0036231349796132452 -0.087369923571969196 0 -0.0030918229809535893 -0.084311015286988505 0 8.0141431365571078e-06 -0.094867737416476791 0 3.0496104150984187e-05 -0.094842387119893318 0 5.0298475776379176e-05 -0.094834178817291934 0 3.0496104150984187e-05 -0.094842387119893318 0 5.0298475776379176e-05 -0.094834178817291934 0 5.2122330155977895e-05 -0.094818689778911849 0 -0.0030918229809535893 -0.084311015286988505 0 -0.0030814688129223661 -0.085118697315051423 0 3.0496104150984187e-05 -0.094842387119893318 0 5.2122330155977895e-05 -0.094818689778911849 0 3.1623140723707649e-05 -0.094821239014993453 0 5.2122330155977895e-05 -0.094818689778911849 0 5.1770363829087098e-05 -0.09482645768579312 0 3.1623140723707649e-05 -0.094821239014993453 0 4.0488657844690176e-05 -0.094894679950797117 0 4.041759233185715e-05 -0.09488742800223833 0 5.1770363829087098e-05 -0.09482645768579312 0 3.1623140723707649e-05 -0.094821239014993453 0 5.9159734695014598e-05 -0.094843714879720889 0 4.998044808283673e-05 -0.094800383038356265 0 5.2122330155977895e-05 -0.094818689778911849 0 4.2085710433412492e-05 -0.094812135455374716 0 3.0496104150984187e-05 -0.094842387119893318 0 1.0266299969582634e-05 -0.094860792033999677 0 3.1623140723707649e-05 -0.094821239014993453 0 9.9135944669865247e-05 -0.094929356252632824 0 7.5799496933297324e-05 -0.094932118833031015 0 9.2951005163909419e-05 -0.09491704913226727 0 9.9135944669865247e-05 -0.094929356252632824 0 7.5799496933297324e-05 -0.094932118833031015 0 6.2055996139217298e-05 -0.094950376726530297 0 7.5799496933297324e-05 -0.094932118833031015 0 9.2951005163909419e-05 -0.09491704913226727 0 8.3879520392942904e-05 -0.094923593696536246 0 9.9135944669865247e-05 -0.094929356252632824 0 9.2951005163909419e-05 -0.09491704913226727 0 9.3894444042563521e-05 -0.094907774507224443 0 9.9135944669865247e-05 -0.094929356252632824 0 9.3894444042563521e-05 -0.094907774507224443 0 8.2867788735559969e-05 -0.094887355027203552 0 9.2951005163909419e-05 -0.09491704913226727 0 9.5789364493425663e-05 -0.0949089128856168 0 0.00010252587316528434 -0.094912955050311193 0 9.2951005163909419e-05 -0.09491704913226727 0 9.3894444042563521e-05 -0.094907774507224443 0 9.5789364493425663e-05 -0.0949089128856168 0 9.3894444042563521e-05 -0.094907774507224443 0 9.5789364493425663e-05 -0.0949089128856168 0 9.0282863622307918e-05 -0.094900313322744248 0 9.6653316606649939e-05 -0.094909086937184986 0 9.7310078866483915e-05 -0.094917325815198073 0 9.0282863622307918e-05 -0.094900313322744248 0 9.5789364493425663e-05 -0.0949089128856168 0 9.6653316606649939e-05 -0.094909086937184986 0 0.00010252587316528434 -0.094912955050311193 0 9.5789364493425663e-05 -0.0949089128856168 0 9.6653316606649939e-05 -0.094909086937184986 0 9.0282863622307918e-05 -0.094900313322744248 0 9.6653316606649939e-05 -0.094909086937184986 0 9.7310078866483915e-05 -0.094917325815198073 0 0.00010252587316528434 -0.094912955050311193 0 0.0016158814998652217 -0.08952137995204508 0 0.0015392558387459466 -0.089635735120165622 0 0.00010252587316528434 -0.094912955050311193 0 0.00010074656423747517 -0.094919525881404621 0 0.00011921077881417159 -0.094924546173948257 0 9.8212750002649708e-05 -0.094919674141754909 0 0.00010252587316528434 -0.094912955050311193 0 0.00011921077881417159 -0.094924546173948257 0 0.0016158814998652217 -0.08952137995204508 0 0.0016043123493925935 -0.08958059630052434 0 9.2951005163909419e-05 -0.09491704913226727 0 0.00010252587316528434 -0.094912955050311193 0 0.00010074656423747517 -0.094919525881404621 0 9.2951005163909419e-05 -0.09491704913226727 0 0.00010074656423747517 -0.094919525881404621 0 8.3879520392942904e-05 -0.094923593696536246 0 0.00010074656423747517 -0.094919525881404621 0 9.2445495800468349e-05 -0.094916468384754232 0 0.00011921077881417159 -0.094924546173948257 0 0.00010074656423747517 -0.094919525881404621 0 9.2445495800468349e-05 -0.094916468384754232 0 8.3879520392942904e-05 -0.094923593696536246 0 9.7310078866483915e-05 -0.094917325815198073 0 9.0282863622307918e-05 -0.094900313322744248 0 6.2139821477560491e-05 -0.094860970763854913 0 8.2867788735559969e-05 -0.094887355027203552 0 9.0282863622307918e-05 -0.094900313322744248 0 6.2139821477560491e-05 -0.094860970763854913 0 0.0053382717753214246 -0.086598039529849458 0 0.0059114842493135106 -0.086762249563404475 0 0.0057953429609832446 -0.086456224278918789 0 0.0016158814998652217 -0.08952137995204508 0 0.0023197141205560327 -0.087826674488253154 0 9.9135944669865247e-05 -0.094929356252632824 0 8.2867788735559969e-05 -0.094887355027203552 0 5.9159734695014598e-05 -0.094843714879720889 0 8.2867788735559969e-05 -0.094887355027203552 0 6.2139821477560491e-05 -0.094860970763854913 0 5.9159734695014598e-05 -0.094843714879720889 0 9.3894444042563521e-05 -0.094907774507224443 0 8.2867788735559969e-05 -0.094887355027203552 0 9.0282863622307918e-05 -0.094900313322744248 0 0.0059114842493135106 -0.086762249563404475 0 0.0062552330523659543 -0.086600309584834542 0 0.0064763661065980402 -0.086922639385937278 0 6.2139821477560491e-05 -0.094860970763854913 0 5.9159734695014598e-05 -0.094843714879720889 0 1.3588616207352084e-05 -0.09481490445780906 0 0.0023197141205560327 -0.087826674488253154 0 0.00052578638573570031 -0.084289863285798225 0 0.0059114842493135106 -0.086762249563404475 0 0.0062552330523659543 -0.086600309584834542 0 0.0061196719319926178 -0.086400214627752367 0 5.9159734695014598e-05 -0.094843714879720889 0 4.2085710433412492e-05 -0.094812135455374716 0 1.3588616207352084e-05 -0.09481490445780906 0 5.1770363829087098e-05 -0.09482645768579312 0 5.9159734695014598e-05 -0.094843714879720889 0 4.2085710433412492e-05 -0.094812135455374716 0 -0.0030918229809535893 -0.084311015286988505 0 -0.002079449222035094 -0.083451676172874134 0 5.2122330155977895e-05 -0.094818689778911849 0 5.1770363829087098e-05 -0.09482645768579312 0 4.2085710433412492e-05 -0.094812135455374716 0 -0.01526002852353007 -0.05830518752577335 0 -0.012208290218605396 -0.058636161598305807 0 -0.01309401660722862 -0.056648662621533771 0 -0.01373978287042992 -0.059516506226049627 0 -0.01526002852353007 -0.05830518752577335 0 -0.012208290218605396 -0.058636161598305807 0 -0.002079449222035094 -0.083451676172874134 0 0.00052578638573570031 -0.084289863285798225 0 0.0062552330523659543 -0.086600309584834542 0 0.0064763661065980402 -0.086922639385937278 0 0.006516734849635635 -0.086314927246341766 0 0.0068017145078028834 -0.086380208759285898 0 0.0064763661065980402 -0.086922639385937278 0 0.006516734849635635 -0.086314927246341766 0 0.0062552330523659543 -0.086600309584834542 0 0.006516734849635635 -0.086314927246341766 0 0.0061196719319926178 -0.086400214627752367 0 0.006516734849635635 -0.086314927246341766 0 0.0061196719319926178 -0.086400214627752367 0 0.0062775623331489091 -0.086013177329041401 0 0.0061196719319926178 -0.086400214627752367 0 0.0062775623331489091 -0.086013177329041401 0 0.0058118915473091863 -0.086066895821971148 0 0.0059114842493135106 -0.086762249563404475 0 0.0061196719319926178 -0.086400214627752367 0 0.0057953429609832446 -0.086456224278918789 0 0.0061196719319926178 -0.086400214627752367 0 0.0058118915473091863 -0.086066895821971148 0 0.0057953429609832446 -0.086456224278918789 0 0.0032129128744748871 -0.092120026155532705 0 0.0027458531774550259 -0.090520408043871653 0 0.0062775623331489091 -0.086013177329041401 0 0.0062704158134482555 -0.085564200628929526 0 0.0058118915473091863 -0.086066895821971148 0 0.0067648370271292972 -0.085817175932062686 0 0.006516734849635635 -0.086314927246341766 0 0.0062775623331489091 -0.086013177329041401 0 0.0067648370271292972 -0.085817175932062686 0 0.0062775623331489091 -0.086013177329041401 0 0.0062704158134482555 -0.085564200628929526 0 0.0043775448052198384 -0.090963071217547126 0 0.0032129128744748871 -0.092120026155532705 0 0.0039138136610936472 -0.094094929825441237 0 0.0027300413385289209 -0.093508990449748905 0 0.003643907412335114 -0.092441202105152734 0 0.0032129128744748871 -0.092120026155532705 0 0.0030378444815143432 -0.092584439751398864 0 0.0032129128744748871 -0.092120026155532705 0 0.0014648490930111353 -0.092785802326054032 0 0.00053442185389524746 -0.0946211978379108 0 0.00032152094348912564 -0.094519879594508777 0 0.0003426141603248455 -0.09482400937444023 0 0.00035113533347459828 -0.093985662237560205 0 -0.00013235093763545516 -0.094242596292341246 0 -6.5820164662438595e-05 -0.093819228067536356 0 0.00060167324138107479 -0.095079203258508938 0 0.00035113533347459828 -0.093985662237560205 0 -0.00013235093763545516 -0.094242596292341246 0 0.00060167324138107479 -0.095079203258508938 0 0.00035113533347459828 -0.093985662237560205 0 0.0020154627827089974 -0.094189830723767548 0 0.00035113533347459828 -0.093985662237560205 0 0.0020154627827089974 -0.094189830723767548 0 0.0021642373990221654 -0.092440626892129965 0 0.00099818487342535965 -0.092990799425384268 0 0.0014648490930111353 -0.092785802326054032 0 1.6446043295219235e-05 -0.094350457837328192 0 0.00032152094348912564 -0.094519879594508777 0 0.00017921488604335693 -0.094661642151662631 0 1.6446043295219235e-05 -0.094350457837328192 0 -0.00013235093763545516 -0.094242596292341246 0 -6.5820164662438595e-05 -0.093819228067536356 0 0.00032152094348912564 -0.094519879594508777 0 0.00017921488604335693 -0.094661642151662631 0 0.0003426141603248455 -0.09482400937444023 0 1.6446043295219235e-05 -0.094350457837328192 0 0.00017921488604335693 -0.094661642151662631 0 3.9732771593193647e-05 -0.094697149765508887 0 0.00017921488604335693 -0.094661642151662631 0 0.00014142161803708348 -0.094794260755237142 0 3.9732771593193647e-05 -0.094697149765508887 0 0.00014142161803708348 -0.094794260755237142 0 8.0926197942499554e-05 -0.094853024893534144 0 4.8303299484859839e-05 -0.09480213223530741 0 0.00017921488604335693 -0.094661642151662631 0 0.00014142161803708348 -0.094794260755237142 0 0.0003426141603248455 -0.09482400937444023 0 0.00014142161803708348 -0.094794260755237142 0 0.0003426141603248455 -0.09482400937444023 0 0.0001861565630069318 -0.094868830612839836 0 0.0053382717753214246 -0.086598039529849458 0 0.0058118915473091863 -0.086066895821971148 0 0.0057953429609832446 -0.086456224278918789 0 0.00016628166616598078 -0.094944899637669805 0 0.0003426141603248455 -0.09482400937444023 0 0.0001861565630069318 -0.094868830612839836 0 0.0016158814998652217 -0.08952137995204508 0 0.0027458531774550259 -0.090520408043871653 0 0.00011950061636091655 -0.094881720724241364 0 7.1561575396612967e-05 -0.094897682898495456 0 8.0926197942499554e-05 -0.094853024893534144 0 0.00014142161803708348 -0.094794260755237142 0 0.00011950061636091655 -0.094881720724241364 0 8.0926197942499554e-05 -0.094853024893534144 0 0.00014142161803708348 -0.094794260755237142 0 0.00011950061636091655 -0.094881720724241364 0 0.0001861565630069318 -0.094868830612839836 0 0.00011950061636091655 -0.094881720724241364 0 0.0001861565630069318 -0.094868830612839836 0 0.00011921077881417159 -0.094924546173948257 0 0.00016628166616598078 -0.094944899637669805 0 0.0001861565630069318 -0.094868830612839836 0 0.00011921077881417159 -0.094924546173948257 0 9.2445495800468349e-05 -0.094916468384754232 0 0.00011950061636091655 -0.094881720724241364 0 0.00011921077881417159 -0.094924546173948257 0 9.2445495800468349e-05 -0.094916468384754232 0 0.00011950061636091655 -0.094881720724241364 0 7.1561575396612967e-05 -0.094897682898495456 0 9.2445495800468349e-05 -0.094916468384754232 0 7.1561575396612967e-05 -0.094897682898495456 0 6.7883062331716042e-05 -0.094919964073542931 0 7.1561575396612967e-05 -0.094897682898495456 0 4.0750678002356529e-05 -0.094916159065943473 0 6.7883062331716042e-05 -0.094919964073542931 0 7.1561575396612967e-05 -0.094897682898495456 0 4.0750678002356529e-05 -0.094916159065943473 0 4.0004044614685371e-05 -0.094871802122824991 0 7.1561575396612967e-05 -0.094897682898495456 0 4.0004044614685371e-05 -0.094871802122824991 0 8.0926197942499554e-05 -0.094853024893534144 0 4.0750678002356529e-05 -0.094916159065943473 0 2.90533358981706e-06 -0.094894723511405599 0 5.1629561083356469e-06 -0.094935944018827823 0 4.0750678002356529e-05 -0.094916159065943473 0 4.0004044614685371e-05 -0.094871802122824991 0 2.90533358981706e-06 -0.094894723511405599 0 2.90533358981706e-06 -0.094894723511405599 0 -2.3010223324574916e-06 -0.094821428097310839 0 -1.6014233063493824e-05 -0.094923319524814365 0 4.0004044614685371e-05 -0.094871802122824991 0 2.90533358981706e-06 -0.094894723511405599 0 -2.3010223324574916e-06 -0.094821428097310839 0 -2.3010223324574916e-06 -0.094821428097310839 0 4.8303299484859839e-05 -0.09480213223530741 0 3.9732771593193647e-05 -0.094697149765508887 0 4.0004044614685371e-05 -0.094871802122824991 0 8.0926197942499554e-05 -0.094853024893534144 0 4.8303299484859839e-05 -0.09480213223530741 0 4.0004044614685371e-05 -0.094871802122824991 0 -2.3010223324574916e-06 -0.094821428097310839 0 4.8303299484859839e-05 -0.09480213223530741 0 0.00014142161803708348 -0.094794260755237142 0 4.8303299484859839e-05 -0.09480213223530741 0 3.9732771593193647e-05 -0.094697149765508887 0 -2.3010223324574916e-06 -0.094821428097310839 0 3.9732771593193647e-05 -0.094697149765508887 0 -8.4354128734651288e-06 -0.094695361323045069 0 1.6446043295219235e-05 -0.094350457837328192 0 3.9732771593193647e-05 -0.094697149765508887 0 -8.4354128734651288e-06 -0.094695361323045069 0 -2.3010223324574916e-06 -0.094821428097310839 0 -8.4354128734651288e-06 -0.094695361323045069 0 -1.4248511164254748e-05 -0.09486052656158013 0 -8.4354128734651288e-06 -0.094695361323045069 0 -8.6541593886594759e-06 -0.094727050617577413 0 1.842468437506296e-05 -0.094533555185944057 0 -8.4354128734651288e-06 -0.094695361323045069 0 -8.6541593886594759e-06 -0.094727050617577413 0 -1.4248511164254748e-05 -0.09486052656158013 0 1.6446043295219235e-05 -0.094350457837328192 0 -8.4354128734651288e-06 -0.094695361323045069 0 1.842468437506296e-05 -0.094533555185944057 0 -8.6541593886594759e-06 -0.094727050617577413 0 -1.4248511164254748e-05 -0.09486052656158013 0 4.900675211121979e-06 -0.094814596991865327 0 -1.4248511164254748e-05 -0.09486052656158013 0 -5.5540934325002359e-08 -0.094999827143016205 0 4.900675211121979e-06 -0.094814596991865327 0 -5.5540934325002359e-08 -0.094999827143016205 0 4.900675211121979e-06 -0.094814596991865327 0 1.3969232936741155e-08 -0.094999715651108013 0 -1.4248511164254748e-05 -0.09486052656158013 0 -5.5540934325002359e-08 -0.094999827143016205 0 -1.6014233063493824e-05 -0.094923319524814365 0 -5.5540934325002359e-08 -0.094999827143016205 0 -1.6014233063493824e-05 -0.094923319524814365 0 -8.1780707190573015e-09 -0.094999920243329206 0 -2.3010223324574916e-06 -0.094821428097310839 0 -1.4248511164254748e-05 -0.09486052656158013 0 -1.6014233063493824e-05 -0.094923319524814365 0 -1.6014233063493824e-05 -0.094923319524814365 0 -8.1658753337424068e-06 -0.094969157282349337 0 5.1629561083356469e-06 -0.094935944018827823 0 2.90533358981706e-06 -0.094894723511405599 0 -1.6014233063493824e-05 -0.094923319524814365 0 5.1629561083356469e-06 -0.094935944018827823 0 -1.6014233063493824e-05 -0.094923319524814365 0 -8.1780707190573015e-09 -0.094999920243329206 0 -8.1658753337424068e-06 -0.094969157282349337 0 -8.1780707190573015e-09 -0.094999920243329206 0 -1.5915771130025869e-08 -0.094999949788376808 0 -8.1658753337424068e-06 -0.094969157282349337 0 -1.5915771130025869e-08 -0.094999949788376808 0 -3.9683808070873752e-06 -0.094971867340501073 0 -8.1658753337424068e-06 -0.094969157282349337 0 -2.2495007621343897e-09 -0.094999991783311699 0 -6.3367570409876481e-06 -0.094980881883340584 0 -4.0145690406292345e-06 -0.094987040523073218 0 -1.1179039976882178e-09 -0.094999977449767653 0 1.79467032870232e-06 -0.094990722533763491 0 -3.9683808070873752e-06 -0.094971867340501073 0 3.0187818215818115e-06 -0.094957854196482575 0 -8.1658753337424068e-06 -0.094969157282349337 0 3.0187818215818115e-06 -0.094957854196482575 0 -8.1658753337424068e-06 -0.094969157282349337 0 5.1629561083356469e-06 -0.094935944018827823 0 5.1629561083356469e-06 -0.094935944018827823 0 2.0477027446923075e-05 -0.094948959818415266 0 3.3498529840181871e-05 -0.094935409045757882 0 4.0750678002356529e-05 -0.094916159065943473 0 5.1629561083356469e-06 -0.094935944018827823 0 3.3498529840181871e-05 -0.094935409045757882 0 2.0477027446923075e-05 -0.094948959818415266 0 3.3498529840181871e-05 -0.094935409045757882 0 4.0715553199332445e-05 -0.094951615556533447 0 3.0187818215818115e-06 -0.094957854196482575 0 5.1629561083356469e-06 -0.094935944018827823 0 2.0477027446923075e-05 -0.094948959818415266 0 3.0187818215818115e-06 -0.094957854196482575 0 2.0477027446923075e-05 -0.094948959818415266 0 1.7934623500777875e-05 -0.094961296973128481 0 8.3879520392942904e-05 -0.094923593696536246 0 6.7883062331716042e-05 -0.094919964073542931 0 5.6710158858344587e-05 -0.09493456007261214 0 9.2445495800468349e-05 -0.094916468384754232 0 8.3879520392942904e-05 -0.094923593696536246 0 6.7883062331716042e-05 -0.094919964073542931 0 4.0750678002356529e-05 -0.094916159065943473 0 6.7883062331716042e-05 -0.094919964073542931 0 5.6710158858344587e-05 -0.09493456007261214 0 4.0750678002356529e-05 -0.094916159065943473 0 3.3498529840181871e-05 -0.094935409045757882 0 5.6710158858344587e-05 -0.09493456007261214 0 3.3498529840181871e-05 -0.094935409045757882 0 5.6710158858344587e-05 -0.09493456007261214 0 4.0715553199332445e-05 -0.094951615556533447 0 5.6710158858344587e-05 -0.09493456007261214 0 5.8418961782657045e-05 -0.094942027631516657 0 4.0715553199332445e-05 -0.094951615556533447 0 7.5799496933297324e-05 -0.094932118833031015 0 8.3879520392942904e-05 -0.094923593696536246 0 5.6710158858344587e-05 -0.09493456007261214 0 7.5799496933297324e-05 -0.094932118833031015 0 5.6710158858344587e-05 -0.09493456007261214 0 5.8418961782657045e-05 -0.094942027631516657 0 1.0266299969582634e-05 -0.094860792033999677 0 3.1623140723707649e-05 -0.094821239014993453 0 -1.7417240154887299e-05 -0.0948786054995234 0 4.0488657844690176e-05 -0.094894679950797117 0 2.6886584860948059e-05 -0.094913161625228781 0 9.9135944669865247e-05 -0.094929356252632824 0 6.2055996139217298e-05 -0.094950376726530297 0 3.3344227296540467e-05 -0.094983551848755357 0 6.2055996139217298e-05 -0.094950376726530297 0 5.8418961782657045e-05 -0.094942027631516657 0 4.0715553199332445e-05 -0.094951615556533447 0 7.5799496933297324e-05 -0.094932118833031015 0 6.2055996139217298e-05 -0.094950376726530297 0 5.8418961782657045e-05 -0.094942027631516657 0 6.2055996139217298e-05 -0.094950376726530297 0 4.0715553199332445e-05 -0.094951615556533447 0 4.130289273775171e-05 -0.094963058774617776 0 4.0715553199332445e-05 -0.094951615556533447 0 3.4850521173093418e-05 -0.094961042917765109 0 4.130289273775171e-05 -0.094963058774617776 0 6.2055996139217298e-05 -0.094950376726530297 0 4.130289273775171e-05 -0.094963058774617776 0 3.3344227296540467e-05 -0.094983551848755357 0 3.4850521173093418e-05 -0.094961042917765109 0 4.130289273775171e-05 -0.094963058774617776 0 2.6808474228215313e-05 -0.094970168537963418 0 4.130289273775171e-05 -0.094963058774617776 0 2.6808474228215313e-05 -0.094970168537963418 0 3.3344227296540467e-05 -0.094983551848755357 0 -3.9683808070873752e-06 -0.094971867340501073 0 3.0187818215818115e-06 -0.094957854196482575 0 1.7934623500777875e-05 -0.094961296973128481 0 1.79467032870232e-06 -0.094990722533763491 0 9.7842777890752998e-06 -0.094988103567435936 0 -6.3367570409876481e-06 -0.094980881883340584 0 2.6808474228215313e-05 -0.094970168537963418 0 7.7273461158404805e-06 -0.094975407172898707 0 -3.9683808070873752e-06 -0.094971867340501073 0 1.7934623500777875e-05 -0.094961296973128481 0 2.6808474228215313e-05 -0.094970168537963418 0 4.0715553199332445e-05 -0.094951615556533447 0 3.4850521173093418e-05 -0.094961042917765109 0 1.7934623500777875e-05 -0.094961296973128481 0 2.0477027446923075e-05 -0.094948959818415266 0 4.0715553199332445e-05 -0.094951615556533447 0 1.7934623500777875e-05 -0.094961296973128481 0 2.6808474228215313e-05 -0.094970168537963418 0 7.7273461158404805e-06 -0.094975407172898707 0 3.3344227296540467e-05 -0.094983551848755357 0 3.4850521173093418e-05 -0.094961042917765109 0 1.7934623500777875e-05 -0.094961296973128481 0 2.6808474228215313e-05 -0.094970168537963418 0 7.7273461158404805e-06 -0.094975407172898707 0 3.3344227296540467e-05 -0.094983551848755357 0 -1.2098289896434864e-05 -0.094970239042508023 0 2.6886584860948059e-05 -0.094913161625228781 0 1.8579439590722347e-05 -0.094923595383843928 0 -1.8262908353582946e-05 -0.094925270105316276 0 -1.7417240154887299e-05 -0.0948786054995234 0 -1.2098289896434864e-05 -0.094970239042508023 0 8.0141431365571078e-06 -0.094867737416476791 0 -9.6191445059954491e-06 -0.094899073990848612 0 -5.5884732850033834e-08 -0.094878641462886132 0 1.0266299969582634e-05 -0.094860792033999677 0 -1.7417240154887299e-05 -0.0948786054995234 0 -5.5884732850033834e-08 -0.094878641462886132 0 -1.8262908353582946e-05 -0.094925270105316276 0 -1.7417240154887299e-05 -0.0948786054995234 0 -9.6191445059954491e-06 -0.094899073990848612 0 -1.7417240154887299e-05 -0.0948786054995234 0 -9.6191445059954491e-06 -0.094899073990848612 0 -5.5884732850033834e-08 -0.094878641462886132 0 8.0141431365571078e-06 -0.094867737416476791 0 -9.6191445059954491e-06 -0.094899073990848612 0 -9.7063709670470588e-06 -0.09490660726733946 0 -9.6191445059954491e-06 -0.094899073990848612 0 -9.7063709670470588e-06 -0.09490660726733946 0 -1.8567253914776124e-05 -0.094928153020169215 0 -1.8262908353582946e-05 -0.094925270105316276 0 -1.8182921646634258e-05 -0.094951377915083568 0 -1.2098289896434864e-05 -0.094970239042508023 0 -1.8262908353582946e-05 -0.094925270105316276 0 -1.8567253914776124e-05 -0.094928153020169215 0 -1.8182921646634258e-05 -0.094951377915083568 0 -1.8262908353582946e-05 -0.094925270105316276 0 -9.6191445059954491e-06 -0.094899073990848612 0 -1.8567253914776124e-05 -0.094928153020169215 0 -2.1398625565233672e-05 -0.094950155299132241 0 -1.8567253914776124e-05 -0.094928153020169215 0 -1.8182921646634258e-05 -0.094951377915083568 0 -1.4859508736111885e-05 -0.094968504132990073 0 -1.8182921646634258e-05 -0.094951377915083568 0 -7.675467352335856e-06 -0.094979386802860985 0 -1.8182921646634258e-05 -0.094951377915083568 0 -7.675467352335856e-06 -0.094979386802860985 0 -1.2098289896434864e-05 -0.094970239042508023 0 -1.1924587982122472e-08 -0.094999964795390246 0 -3.6132335432273564e-09 -0.09499995985178479 0 -7.675467352335856e-06 -0.094979386802860985 0 -3.6132335432273564e-09 -0.09499995985178479 0 -7.675467352335856e-06 -0.094979386802860985 0 -4.0145690406292345e-06 -0.094987040523073218 0 -2.2495007621343897e-09 -0.094999991783311699 0 -3.6132335432273564e-09 -0.09499995985178479 0 -4.0145690406292345e-06 -0.094987040523073218 0 -6.3367570409876481e-06 -0.094980881883340584 0 7.7273461158404805e-06 -0.094975407172898707 0 -1.2098289896434864e-05 -0.094970239042508023 0 -6.3367570409876481e-06 -0.094980881883340584 0 -4.0145690406292345e-06 -0.094987040523073218 0 -1.2098289896434864e-05 -0.094970239042508023 0 -7.675467352335856e-06 -0.094979386802860985 0 -4.0145690406292345e-06 -0.094987040523073218 0 -1.2098289896434864e-05 -0.094970239042508023 0 0.017332885934371101 -0.014258554505322015 0 0.017963630732557939 -0.011317935296381088 0 0.019870886147291683 -0.014496551608749951 0 0.023373043814397303 -0.016471116743371657 0 0.020173754948859896 -0.014559631207137495 0 0.022786831864395049 -0.020488557226274354 0 0.019747388812515129 -0.013746009444526395 0 0.021734708145776341 -0.01825045265480172 0 0.017332885934371101 -0.014258554505322015 0 0.016694233428466002 -0.012624126035869373 0 0.017963630732557939 -0.011317935296381088 0 0.017332885934371101 -0.014258554505322015 0 0.01513008390438772 -0.014679331820423722 0 0.016694233428466002 -0.012624126035869373 0 0.016694233428466002 -0.012624126035869373 0 0.016810894814878977 -0.011116685942840343 0 0.017963630732557939 -0.011317935296381088 0 0.016694233428466002 -0.012624126035869373 0 0.016810894814878977 -0.011116685942840343 0 0.015140651875469337 -0.011149687780250732 0 0.016810894814878977 -0.011116685942840343 0 0.017963630732557939 -0.011317935296381088 0 0.017785327496589412 -0.0087736493634061798 0 0.016810894814878977 -0.011116685942840343 0 0.015140651875469337 -0.011149687780250732 0 0.016203682437972444 -0.010348132999351495 0 0.023373043814397303 -0.016471116743371657 0 0.020335339580634333 -0.012951768815280975 0 0.027181306457535713 -0.015254064927539699 0 0.023373043814397303 -0.016471116743371657 0 0.020335339580634333 -0.012951768815280975 0 0.020173754948859896 -0.014559631207137495 0 0.020335339580634333 -0.012951768815280975 0 0.027181306457535713 -0.015254064927539699 0 0.027321312141491694 -0.0095268947314780025 0 0.027181306457535713 -0.015254064927539699 0 0.031767814523835147 -0.01841266871625517 0 0.032859012654522048 -0.014523467414471284 0 0.027181306457535713 -0.015254064927539699 0 0.027321312141491694 -0.0095268947314780025 0 0.032859012654522048 -0.014523467414471284 0 0.031767814523835147 -0.01841266871625517 0 0.026336520981967756 -0.019072040915019794 0 0.029506915801527884 -0.021207551578110807 0 0.027181306457535713 -0.015254064927539699 0 0.031767814523835147 -0.01841266871625517 0 0.026336520981967756 -0.019072040915019794 0 0.023373043814397303 -0.016471116743371657 0 0.027181306457535713 -0.015254064927539699 0 0.026336520981967756 -0.019072040915019794 0 0.023373043814397303 -0.016471116743371657 0 0.026336520981967756 -0.019072040915019794 0 0.022786831864395049 -0.020488557226274354 0 0.026336520981967756 -0.019072040915019794 0 0.025279192182231035 -0.026203105172375507 0 0.022786831864395049 -0.020488557226274354 0 0.026336520981967756 -0.019072040915019794 0 0.029506915801527884 -0.021207551578110807 0 0.025279192182231035 -0.026203105172375507 0 0.024081050291983732 -0.023597843696747594 0 0.021734708145776341 -0.01825045265480172 0 0.029506915801527884 -0.021207551578110807 0 0.029467277049806374 -0.024863728955303466 0 0.035844686848937511 -0.020914986206408956 0 0.029506915801527884 -0.021207551578110807 0 0.029467277049806374 -0.024863728955303466 0 0.025279192182231035 -0.026203105172375507 0 0.029467277049806374 -0.024863728955303466 0 0.029497707028802569 -0.028256815666307347 0 0.03210125995369674 -0.027827296978626841 0 0.029467277049806374 -0.024863728955303466 0 0.029497707028802569 -0.028256815666307347 0 0.025279192182231035 -0.026203105172375507 0 0.024050567639506411 -0.020930201220644373 0 0.019394567444892041 -0.023507754158230171 0 0.018013616875821394 -0.018303308420182723 0 0.019394567444892041 -0.023507754158230171 0 0.018013616875821394 -0.018303308420182723 0 0.015157301255976672 -0.022021941356414752 0 0.017332885934371101 -0.014258554505322015 0 0.018013616875821394 -0.018303308420182723 0 0.019870886147291683 -0.014496551608749951 0 0.024050567639506411 -0.020930201220644373 0 0.018013616875821394 -0.018303308420182723 0 0.019870886147291683 -0.014496551608749951 0 0.017332885934371101 -0.014258554505322015 0 0.018013616875821394 -0.018303308420182723 0 0.015918674318014508 -0.016583277319411827 0 0.01513008390438772 -0.014679331820423722 0 0.015918674318014508 -0.016583277319411827 0 0.013968833870220845 -0.016389956298402539 0 0.017332885934371101 -0.014258554505322015 0 0.01513008390438772 -0.014679331820423722 0 0.015918674318014508 -0.016583277319411827 0 0.018013616875821394 -0.018303308420182723 0 0.015918674318014508 -0.016583277319411827 0 0.014970630852513402 -0.018967195959747871 0 0.015918674318014508 -0.016583277319411827 0 0.014970630852513402 -0.018967195959747871 0 0.013968833870220845 -0.016389956298402539 0 0.018013616875821394 -0.018303308420182723 0 0.014970630852513402 -0.018967195959747871 0 0.015157301255976672 -0.022021941356414752 0 0.014970630852513402 -0.018967195959747871 0 0.015157301255976672 -0.022021941356414752 0 0.014502519772920741 -0.020432134196367444 0 0.014970630852513402 -0.018967195959747871 0 0.014502519772920741 -0.020432134196367444 0 0.013633581219972485 -0.018728013276679611 0 0.013633581219972485 -0.018728013276679611 0 0.013801412490494836 -0.020120241772857161 0 0.012925089658464251 -0.019135423380657608 0 0.014502519772920741 -0.020432134196367444 0 0.013633581219972485 -0.018728013276679611 0 0.013801412490494836 -0.020120241772857161 0 0.014970630852513402 -0.018967195959747871 0 0.013633581219972485 -0.018728013276679611 0 0.013968833870220845 -0.016389956298402539 0 0.013633581219972485 -0.018728013276679611 0 0.011998240657334349 -0.017798821793416394 0 0.012382449299794105 -0.01639490330164721 0 0.013633581219972485 -0.018728013276679611 0 0.011998240657334349 -0.017798821793416394 0 0.012925089658464251 -0.019135423380657608 0 0.011998240657334349 -0.017798821793416394 0 0.010968768191904942 -0.015942727859092422 0 0.010007210970794067 -0.017581798621661808 0 0.011998240657334349 -0.017798821793416394 0 0.010007210970794067 -0.017581798621661808 0 0.011882802543895571 -0.019065046085155413 0 0.011998240657334349 -0.017798821793416394 0 0.011882802543895571 -0.019065046085155413 0 0.012925089658464251 -0.019135423380657608 0 0.011998240657334349 -0.017798821793416394 0 0.010968768191904942 -0.015942727859092422 0 0.012382449299794105 -0.01639490330164721 0 0.010968768191904942 -0.015942727859092422 0 0.0099405880577757913 -0.01452214636911754 0 0.011862440822140266 -0.013621998716137177 0 0.010968768191904942 -0.015942727859092422 0 0.012382449299794105 -0.01639490330164721 0 0.011862440822140266 -0.013621998716137177 0 0.01513008390438772 -0.014679331820423722 0 0.013968833870220845 -0.016389956298402539 0 0.011862440822140266 -0.013621998716137177 0 0.013968833870220845 -0.016389956298402539 0 0.012382449299794105 -0.01639490330164721 0 0.011862440822140266 -0.013621998716137177 0 0.013633581219972485 -0.018728013276679611 0 0.013968833870220845 -0.016389956298402539 0 0.012382449299794105 -0.01639490330164721 0 0.0085938011875578563 -0.014537607680064665 0 0.0094281959553575868 -0.015803849606911977 0 0.010007210970794067 -0.017581798621661808 0 0.0085938011875578563 -0.014537607680064665 0 0.0089679967958230418 -0.014676585966501289 0 0.0094281959553575868 -0.015803849606911977 0 0.0087150323070917385 -0.01362844847210941 0 0.0089679967958230418 -0.014676585966501289 0 0.0091943317271873139 -0.014761394104170201 0 0.0085938011875578563 -0.014537607680064665 0 0.0087150323070917385 -0.01362844847210941 0 0.0089679967958230418 -0.014676585966501289 0 0.0089679967958230418 -0.014676585966501289 0 0.0091943317271873139 -0.014761394104170201 0 0.0094281959553575868 -0.015803849606911977 0 0.010968768191904942 -0.015942727859092422 0 0.0098433839121703972 -0.01547404931582313 0 0.010007210970794067 -0.017581798621661808 0 0.0091943317271873139 -0.014761394104170201 0 0.0098433839121703972 -0.01547404931582313 0 0.0094281959553575868 -0.015803849606911977 0 0.0098433839121703972 -0.01547404931582313 0 0.0094281959553575868 -0.015803849606911977 0 0.010007210970794067 -0.017581798621661808 0 0.010968768191904942 -0.015942727859092422 0 0.0098433839121703972 -0.01547404931582313 0 0.0099405880577757913 -0.01452214636911754 0 0.0099405880577757913 -0.01452214636911754 0 0.0094393388103207482 -0.014178126321091576 0 0.0093920673968518886 -0.014467212612665233 0 0.0099405880577757913 -0.01452214636911754 0 0.0093645378390422064 -0.013815664334444536 0 0.009364575380762739 -0.013932588628120775 0 0.0099405880577757913 -0.01452214636911754 0 0.0094393388103207482 -0.014178126321091576 0 0.009364575380762739 -0.013932588628120775 0 0.0093079110367569624 -0.013948776132489878 0 0.0094393388103207482 -0.014178126321091576 0 0.009364575380762739 -0.013932588628120775 0 0.0091943317271873139 -0.014761394104170201 0 0.0098433839121703972 -0.01547404931582313 0 0.0093920673968518886 -0.014467212612665233 0 0.0098433839121703972 -0.01547404931582313 0 0.0099405880577757913 -0.01452214636911754 0 0.0093920673968518886 -0.014467212612665233 0 0.0086868506719662668 -0.012914910088105976 0 0.0087150323070917385 -0.01362844847210941 0 0.0089792527756545979 -0.013903852907707903 0 0.0099248482683231103 -0.010909567158616797 0 0.011655865304702745 -0.010788248123190585 0 0.0086868506719662668 -0.012914910088105976 0 0.0091698062633080203 -0.01386248219852981 0 0.0093800498841999438 -0.013934263862399307 0 0.0086868506719662668 -0.012914910088105976 0 0.0091698062633080203 -0.01386248219852981 0 0.0089792527756545979 -0.013903852907707903 0 0.0091943317271873139 -0.014761394104170201 0 0.0093920673968518886 -0.014467212612665233 0 0.0089792527756545979 -0.013903852907707903 0 0.0093920673968518886 -0.014467212612665233 0 0.0091698062633080203 -0.01386248219852981 0 0.0089792527756545979 -0.013903852907707903 0 0.0094393388103207482 -0.014178126321091576 0 0.0093920673968518886 -0.014467212612665233 0 0.0091698062633080203 -0.01386248219852981 0 0.0093079110367569624 -0.013948776132489878 0 0.0091698062633080203 -0.01386248219852981 0 0.0093800498841999438 -0.013934263862399307 0 0.0093079110367569624 -0.013948776132489878 0 0.0094393388103207482 -0.014178126321091576 0 0.0091698062633080203 -0.01386248219852981 0 0.0087150323070917385 -0.01362844847210941 0 0.0091943317271873139 -0.014761394104170201 0 0.0089792527756545979 -0.013903852907707903 0 0.011729218830562807 -0.0085475687829630886 0 0.012528922106899482 -0.0069345151003987462 0 0.013484999342765312 -0.0078846153898869693 0 0.012528922106899482 -0.0069345151003987462 0 0.013484999342765312 -0.0078846153898869693 0 0.013305763203122411 -0.0064982596088391078 0 0.0098202310043003695 -0.014312073123771167 0 0.011514099614007072 -0.012570450169709318 0 0.010374038797822531 -0.010754275940679226 0 0.0098202310043003695 -0.014312073123771167 0 0.011514099614007072 -0.012570450169709318 0 0.01360591197659853 -0.013489770347350428 0 0.0099405880577757913 -0.01452214636911754 0 0.0093645378390422064 -0.013815664334444536 0 0.011862440822140266 -0.013621998716137177 0 0.011655865304702745 -0.010788248123190585 0 0.01199474542705738 -0.0076851278687696169 0 0.0093079110367569624 -0.013948776132489878 0 0.0093800498841999438 -0.013934263862399307 0 0.009364575380762739 -0.013932588628120775 0 0.011655865304702745 -0.010788248123190585 0 0.011651686410151603 -0.010801623878644006 0 0.013484999342765312 -0.0078846153898869693 0 0.013840911998818576 -0.0054302284229468594 0 0.013305763203122411 -0.0064982596088391078 0 0.011514099614007072 -0.012570450169709318 0 0.010374038797822531 -0.010754275940679226 0 0.012541446855472534 -0.011126317258996781 0 0.013840911998818576 -0.0054302284229468594 0 0.013269415707239352 -0.0059111488260738991 0 0.012847826960387764 -0.0052845723028038423 0 0.013840911998818576 -0.0054302284229468594 0 0.013305763203122411 -0.0064982596088391078 0 0.013269415707239352 -0.0059111488260738991 0 0.011452497704611301 -0.0058953989888804806 0 0.012528922106899482 -0.0069345151003987462 0 0.012225996291043336 -0.004367972766474053 0 0.011815708979619626 -0.0045717292052372795 0 0.011259738177975173 -0.0024593041683403055 0 0.012528922106899482 -0.0069345151003987462 0 0.012847826960387764 -0.0052845723028038423 0 0.011571399082024725 -0.0046013230381363101 0 0.012528922106899482 -0.0069345151003987462 0 0.013269415707239352 -0.0059111488260738991 0 0.012847826960387764 -0.0052845723028038423 0 0.012528922106899482 -0.0069345151003987462 0 0.013305763203122411 -0.0064982596088391078 0 0.013269415707239352 -0.0059111488260738991 0 0.016694233428466002 -0.012624126035869373 0 0.01360591197659853 -0.013489770347350428 0 0.015140651875469337 -0.011149687780250732 0 0.01513008390438772 -0.014679331820423722 0 0.016694233428466002 -0.012624126035869373 0 0.011862440822140266 -0.013621998716137177 0 0.014339809260532951 -0.012029218263376485 0 0.012706087972658936 -0.01198156451747028 0 0.011655865304702745 -0.010788248123190585 0 0.012706087972658936 -0.01198156451747028 0 0.011514099614007072 -0.012570450169709318 0 0.01360591197659853 -0.013489770347350428 0 0.012541446855472534 -0.011126317258996781 0 0.012541446855472534 -0.011126317258996781 0 0.015140651875469337 -0.011149687780250732 0 0.013718387666346725 -0.0092654782229426927 0 0.01360591197659853 -0.013489770347350428 0 0.012541446855472534 -0.011126317258996781 0 0.015140651875469337 -0.011149687780250732 0 0.010374038797822531 -0.010754275940679226 0 0.012541446855472534 -0.011126317258996781 0 0.012058775175717899 -0.0091229076052067593 0 0.015717079916679293 -0.0092055058779312356 0 0.015270707566492764 -0.0071020640453482329 0 0.017785327496589412 -0.0087736493634061798 0 0.015140651875469337 -0.011149687780250732 0 0.015717079916679293 -0.0092055058779312356 0 0.016203682437972444 -0.010348132999351495 0 0.015717079916679293 -0.0092055058779312356 0 0.013718387666346725 -0.0092654782229426927 0 0.015270707566492764 -0.0071020640453482329 0 0.015140651875469337 -0.011149687780250732 0 0.015717079916679293 -0.0092055058779312356 0 0.013718387666346725 -0.0092654782229426927 0 0.012541446855472534 -0.011126317258996781 0 0.013718387666346725 -0.0092654782229426927 0 0.012058775175717899 -0.0091229076052067593 0 0.013718387666346725 -0.0092654782229426927 0 0.012058775175717899 -0.0091229076052067593 0 0.012991317707561446 -0.0074129743551022637 0 0.012991317707561446 -0.0074129743551022637 0 0.010684089263387453 -0.0068459427848338019 0 0.013458677696185818 -0.004891516335140172 0 0.012058775175717899 -0.0091229076052067593 0 0.012991317707561446 -0.0074129743551022637 0 0.010684089263387453 -0.0068459427848338019 0 0.012991317707561446 -0.0074129743551022637 0 0.015270707566492764 -0.0071020640453482329 0 0.013458677696185818 -0.004891516335140172 0 0.015270707566492764 -0.0071020640453482329 0 0.016207592103456465 -0.0037589246781868754 0 0.018464044484419115 -0.0054485395524704891 0 0.013718387666346725 -0.0092654782229426927 0 0.012991317707561446 -0.0074129743551022637 0 0.015270707566492764 -0.0071020640453482329 0 0.009211954896144044 -0.0010141345722144467 0 0.012262505998087076 -0.0025280870785351944 0 0.0099551774592886774 -0.003891820109483047 0 0.012847826960387764 -0.0052845723028038423 0 0.012262505998087076 -0.0025280870785351944 0 0.0099551774592886774 -0.003891820109483047 0 0.01175345323063187 -0.0029307264301177988 0 0.011259738177975173 -0.0024593041683403055 0 0.01199474542705738 -0.0076851278687696169 0 0.012385123248164497 -0.0038677639304899353 0 0.013840911998818576 -0.0054302284229468594 0 0.012847826960387764 -0.0052845723028038423 0 0.012262505998087076 -0.0025280870785351944 0 0.013840911998818576 -0.0054302284229468594 0 0.012262505998087076 -0.0025280870785351944 0 0.014131194757375773 -0.00095840577481908754 0 0.010374038797822531 -0.010754275940679226 0 0.012058775175717899 -0.0091229076052067593 0 0.010684089263387453 -0.0068459427848338019 0 0.012262505998087076 -0.0025280870785351944 0 0.014131194757375773 -0.00095840577481908754 0 0.011126108728735245 -7.5801223847887507e-05 0 0.009211954896144044 -0.0010141345722144467 0 0.012262505998087076 -0.0025280870785351944 0 0.011126108728735245 -7.5801223847887507e-05 0 0.0085525455796436039 0.001695110620964364 0 0.011126108728735245 -7.5801223847887507e-05 0 0.011459521005908791 0.0023020290952717169 0 0.0096526116929731547 0.0025069419485523364 0 0.010022142917797877 0.0025065745800386704 0 0.014131194757375773 -0.00095840577481908754 0 0.011126108728735245 -7.5801223847887507e-05 0 0.011459521005908791 0.0023020290952717169 0 0.012385123248164497 -0.0038677639304899353 0 0.01280110442588836 0.00015893008853334846 0 0.014131194757375773 -0.00095840577481908754 0 0.011459521005908791 0.0023020290952717169 0 0.014150402793155024 0.0029769463106184774 0 0.011459521005908791 0.0023020290952717169 0 0.012497729152176522 0.0046026765248042825 0 0.014150402793155024 0.0029769463106184774 0 0.013978007843218239 0.0061155726073105999 0 0.012497729152176522 0.0046026765248042825 0 0.014150402793155024 0.0029769463106184774 0 0.011459521005908791 0.0023020290952717169 0 0.012497729152176522 0.0046026765248042825 0 0.01051030415088307 0.0042776097192967089 0 0.0090901137859554539 0.0018654558874328703 0 0.011459521005908791 0.0023020290952717169 0 0.01051030415088307 0.0042776097192967089 0 0.015270707566492764 -0.0071020640453482329 0 0.016207592103456465 -0.0037589246781868754 0 0.013458677696185818 -0.004891516335140172 0 0.016207592103456465 -0.0037589246781868754 0 0.013458677696185818 -0.004891516335140172 0 0.014249802632913016 -0.0013447538329617891 0 0.013458677696185818 -0.004891516335140172 0 0.011205301874474842 -0.0020859584315000871 0 0.014249802632913016 -0.0013447538329617891 0 0.010684089263387453 -0.0068459427848338019 0 0.013458677696185818 -0.004891516335140172 0 0.011205301874474842 -0.0020859584315000871 0 0.013238012165871661 0.0037879694679999317 0 0.01280110442588836 0.00015893008853334846 0 0.012139410476140299 0.0031760402101215991 0 0.011205301874474842 -0.0020859584315000871 0 0.014249802632913016 -0.0013447538329617891 0 0.015594852317757996 0.0010140912709923828 0 0.014249802632913016 -0.0013447538329617891 0 0.016722262956916555 -0.0011351920028534409 0 0.016207592103456465 -0.0037589246781868754 0 0.014249802632913016 -0.0013447538329617891 0 0.016722262956916555 -0.0011351920028534409 0 0.015594852317757996 0.0010140912709923828 0 0.016722262956916555 -0.0011351920028534409 0 0.017683306127807972 0.00038851154619907248 0 0.016207592103456465 -0.0037589246781868754 0 0.016722262956916555 -0.0011351920028534409 0 0.019409428822357265 -0.0015687985836839223 0 0.016722262956916555 -0.0011351920028534409 0 0.017683306127807972 0.00038851154619907248 0 0.019409428822357265 -0.0015687985836839223 0 0.019342369289830436 0.00076870030674947357 0 0.019409428822357265 -0.0015687985836839223 0 0.020740998860742935 0.00036917662474020941 0 0.019342369289830436 0.00076870030674947357 0 0.017683306127807972 0.00038851154619907248 0 0.019409428822357265 -0.0015687985836839223 0 0.019409428822357265 -0.0015687985836839223 0 0.022348518018502708 -0.00063244976544165406 0 0.021226079899102395 -0.0036921015875213659 0 0.022119914427164399 0.0012366875271135188 0 0.022348518018502708 -0.00063244976544165406 0 0.020740998860742935 0.00036917662474020941 0 0.019409428822357265 -0.0015687985836839223 0 0.022348518018502708 -0.00063244976544165406 0 0.020740998860742935 0.00036917662474020941 0 0.016207592103456465 -0.0037589246781868754 0 0.019409428822357265 -0.0015687985836839223 0 0.018464044484419115 -0.0054485395524704891 0 0.019409428822357265 -0.0015687985836839223 0 0.021226079899102395 -0.0036921015875213659 0 0.018464044484419115 -0.0054485395524704891 0 0.015270707566492764 -0.0071020640453482329 0 0.018464044484419115 -0.0054485395524704891 0 0.017785327496589412 -0.0087736493634061798 0 0.018464044484419115 -0.0054485395524704891 0 0.021325295222662525 -0.0080290711873051805 0 0.017785327496589412 -0.0087736493634061798 0 0.021226079899102395 -0.0036921015875213659 0 0.018464044484419115 -0.0054485395524704891 0 0.021325295222662525 -0.0080290711873051805 0 0.021226079899102395 -0.0036921015875213659 0 0.021325295222662525 -0.0080290711873051805 0 0.024233942379007192 -0.0058142191645713824 0 0.020335339580634333 -0.012951768815280975 0 0.021325295222662525 -0.0080290711873051805 0 0.017785327496589412 -0.0087736493634061798 0 0.020335339580634333 -0.012951768815280975 0 0.021325295222662525 -0.0080290711873051805 0 0.025786986949998106 -0.0095223338601691156 0 0.019747388812515129 -0.013746009444526395 0 0.018830057795998233 -0.011561257778123666 0 0.020335339580634333 -0.012951768815280975 0 0.020173754948859896 -0.014559631207137495 0 0.017785327496589412 -0.0087736493634061798 0 0.016810894814878977 -0.011116685942840343 0 0.016203682437972444 -0.010348132999351495 0 0.017785327496589412 -0.0087736493634061798 0 0.015717079916679293 -0.0092055058779312356 0 0.016203682437972444 -0.010348132999351495 0 0.017785327496589412 -0.0087736493634061798 0 0.025786986949998106 -0.0095223338601691156 0 0.024233942379007192 -0.0058142191645713824 0 0.031875661244177886 -0.0065867734583799128 0 0.027321312141491694 -0.0095268947314780025 0 0.032305008974961795 -0.010226482005896174 0 0.032859012654522048 -0.014523467414471284 0 0.023546767382251785 -0.011337548359501229 0 0.026920695116228348 -0.0094799238069240444 0 0.021325295222662525 -0.0080290711873051805 0 0.025786986949998106 -0.0095223338601691156 0 0.024233942379007192 -0.0058142191645713824 0 0.026920695116228348 -0.0094799238069240444 0 0.0324615185589123 -0.0064701962605760825 0 0.027321312141491694 -0.0095268947314780025 0 0.032305008974961795 -0.010226482005896174 0 0.033623096710871332 -0.006325218179728951 0 0.024233942379007192 -0.0058142191645713824 0 0.025700585149260886 -0.0022603999598262746 0 0.031875661244177886 -0.0065867734583799128 0 0.022348518018502708 -0.00063244976544165406 0 0.021226079899102395 -0.0036921015875213659 0 0.025700585149260886 -0.0022603999598262746 0 0.021226079899102395 -0.0036921015875213659 0 0.024233942379007192 -0.0058142191645713824 0 0.025700585149260886 -0.0022603999598262746 0 0.024570944197162208 0.0014711210398517859 0 0.022348518018502708 -0.00063244976544165406 0 0.025700585149260886 -0.0022603999598262746 0 0.024570944197162208 0.0014711210398517859 0 0.025700585149260886 -0.0022603999598262746 0 0.027260034835652033 0.0003557477121527831 0 0.025700585149260886 -0.0022603999598262746 0 0.027260034835652033 0.0003557477121527831 0 0.029349675467870241 -0.001012675422921421 0 0.029224786102697613 -0.0074595360783393369 0 0.030849800779052628 -0.0094303726483861289 0 0.029487713576437976 0.00094939314732339294 0 0.027260034835652033 0.0003557477121527831 0 0.029349675467870241 -0.001012675422921421 0 0.025700585149260886 -0.0022603999598262746 0 0.033021220971548318 -0.00036739466090417844 0 0.031875661244177886 -0.0065867734583799128 0 0.033021220971548318 -0.00036739466090417844 0 0.039278508355772637 -0.0029001138275245872 0 0.031875661244177886 -0.0065867734583799128 0 0.035909710250412889 -0.004575314378060069 0 0.0324615185589123 -0.0064701962605760825 0 0.030675023162776201 0.00081332138586990535 0 0.029349675467870241 -0.001012675422921421 0 0.032197940840264075 -0.00020074074771417135 0 0.033021220971548318 -0.00036739466090417844 0 0.040900889267497957 0.0012154624976403869 0 0.039278508355772637 -0.0029001138275245872 0 0.030675023162776201 0.00081332138586990535 0 0.029487713576437976 0.00094939314732339294 0 0.029349675467870241 -0.001012675422921421 0 0.030849800779052628 -0.0094303726483861289 0 0.023703118171856916 -0.019877519026537584 0 0.02261500986908373 -0.037538948617268066 0 0.020415838370562201 -0.036211534872747246 0 0.021983867993402406 -0.034636903884760394 0 0.02261500986908373 -0.037538948617268066 0 0.019499865455414007 -0.038257405029055648 0 0.020415838370562201 -0.036211534872747246 0 0.023703118171856916 -0.019877519026537584 0 0.016587985484461734 -0.033126570125773254 0 0.020415838370562201 -0.036211534872747246 0 0.019716884716886825 -0.034126845597329696 0 0.021983867993402406 -0.034636903884760394 0 0.040900889267497957 0.0012154624976403869 0 0.041945184736828303 -0.0042510457508219621 0 0.039278508355772637 -0.0029001138275245872 0 0.041945184736828303 -0.0042510457508219621 0 0.039278508355772637 -0.0029001138275245872 0 0.038799315951467045 -0.0074126429039396684 0 0.023703118171856916 -0.019877519026537584 0 0.025122846456060808 -0.024353623586505526 0 0.041945184736828303 -0.0042510457508219621 0 0.043058064696623988 -0.0090797997986120389 0 0.038799315951467045 -0.0074126429039396684 0 0.043058064696623988 -0.0090797997986120389 0 0.038799315951467045 -0.0074126429039396684 0 0.039433950882045619 -0.014801939740460589 0 0.025122846456060808 -0.024353623586505526 0 0.024992215481142076 -0.035901455117412058 0 0.019716884716886825 -0.034126845597329696 0 0.021983867993402406 -0.034636903884760394 0 0.021379340021138542 -0.031757849833967705 0 0.017146613906566136 -0.047114157838916038 0 0.024992215481142076 -0.035901455117412058 0 0.014904231528661152 -0.073089930498440259 0 0.017105050668374075 -0.070182087754175032 0 0.013943298069239241 -0.070758383438052699 0 0.024992215481142076 -0.035901455117412058 0 0.022280903399425182 -0.047351314795165515 0 0.017105050668374075 -0.070182087754175032 0 0.013913380372914719 -0.067968543067044321 0 0.0162557910037321 -0.065611875417459539 0 0.017105050668374075 -0.070182087754175032 0 0.013943298069239241 -0.070758383438052699 0 0.013913380372914719 -0.067968543067044321 0 0.024992215481142076 -0.035901455117412058 0 0.034301004341871541 -0.023312667331680467 0 0.03535624510272467 -0.01061390685099787 0 0.038799315951467045 -0.0074126429039396684 0 0.039433950882045619 -0.014801939740460589 0 0.032305008974961795 -0.010226482005896174 0 0.03535624510272467 -0.01061390685099787 0 0.032859012654522048 -0.014523467414471284 0 0.032305008974961795 -0.010226482005896174 0 0.03535624510272467 -0.01061390685099787 0 0.033623096710871332 -0.006325218179728951 0 0.039278508355772637 -0.0029001138275245872 0 0.033623096710871332 -0.006325218179728951 0 0.038799315951467045 -0.0074126429039396684 0 0.03535624510272467 -0.01061390685099787 0 0.033623096710871332 -0.006325218179728951 0 0.038799315951467045 -0.0074126429039396684 0 0.0073121613431422292 -0.075140920843782141 0 0.0090787989901590354 -0.073457230038789678 0 0.0059936937849865892 -0.072743877820898237 0 0.0055127829114912938 -0.074586637000380471 0 0.0073121613431422292 -0.075140920843782141 0 0.0059936937849865892 -0.072743877820898237 0 0.0058627150883013533 -0.076119680746582707 0 0.0055127829114912938 -0.074586637000380471 0 0.0073121613431422292 -0.075140920843782141 0 0.0058627150883013533 -0.076119680746582707 0 0.0073121613431422292 -0.075140920843782141 0 0.0069942683824197249 -0.076682988361784263 0 0.005863184838803881 -0.077693151852816777 0 0.0058627150883013533 -0.076119680746582707 0 0.0069942683824197249 -0.076682988361784263 0 0.0079107094226433545 -0.077124072414752998 0 0.0069942683824197249 -0.076682988361784263 0 0.0080006106022428546 -0.076389395133071442 0 0.0073121613431422292 -0.075140920843782141 0 0.0069942683824197249 -0.076682988361784263 0 0.0080006106022428546 -0.076389395133071442 0 0.0073121613431422292 -0.075140920843782141 0 0.0080006106022428546 -0.076389395133071442 0 0.0090621616820105201 -0.075875078843688867 0 0.0080006106022428546 -0.076389395133071442 0 0.0087071032660416929 -0.077012893497547752 0 0.0090621616820105201 -0.075875078843688867 0 0.0079107094226433545 -0.077124072414752998 0 0.0080006106022428546 -0.076389395133071442 0 0.0087071032660416929 -0.077012893497547752 0 0.0087071032660416929 -0.077012893497547752 0 0.0095237746010542051 -0.076950901837032876 0 0.0090621616820105201 -0.075875078843688867 0 0.0095237746010542051 -0.076950901837032876 0 0.0090621616820105201 -0.075875078843688867 0 0.010636422430790968 -0.076299553701725017 0 0.0090621616820105201 -0.075875078843688867 0 0.0090787989901590354 -0.073457230038789678 0 0.01054640022330274 -0.075043643344949132 0 0.0073121613431422292 -0.075140920843782141 0 0.0090621616820105201 -0.075875078843688867 0 0.0090787989901590354 -0.073457230038789678 0 0.0089034110503278287 -0.073065480922902951 0 0.012644127487118375 -0.074229366698460933 0 0.011668743138027165 -0.071583523422875286 0 0.0090787989901590354 -0.073457230038789678 0 0.01054640022330274 -0.075043643344949132 0 0.012644127487118375 -0.074229366698460933 0 0.0087973550213984453 -0.073310612195781569 0 0.010503896592918529 -0.073784953968211442 0 0.01054640022330274 -0.075043643344949132 0 0.011684469427828102 -0.075234505334486113 0 0.012644127487118375 -0.074229366698460933 0 0.011889507582818516 -0.046096967792979941 0 0.01337807916366842 -0.049924430753955154 0 0.0090621616820105201 -0.075875078843688867 0 0.01054640022330274 -0.075043643344949132 0 0.010636422430790968 -0.076299553701725017 0 0.01089800174281866 -0.077612032967293312 0 0.010636422430790968 -0.076299553701725017 0 0.012722326847500531 -0.075602108851985095 0 0.010023673332260799 -0.077706556199142643 0 0.0095237746010542051 -0.076950901837032876 0 0.010636422430790968 -0.076299553701725017 0 0.010636422430790968 -0.076299553701725017 0 0.011684469427828102 -0.075234505334486113 0 0.012722326847500531 -0.075602108851985095 0 0.01054640022330274 -0.075043643344949132 0 0.010636422430790968 -0.076299553701725017 0 0.011684469427828102 -0.075234505334486113 0 0.016325680602391208 -0.038970282745230539 0 0.019499865455414007 -0.038257405029055648 0 0.018024732681106118 -0.036522309828237405 0 0.019499865455414007 -0.038257405029055648 0 0.020415838370562201 -0.036211534872747246 0 0.018024732681106118 -0.036522309828237405 0 0.017146613906566136 -0.047114157838916038 0 0.01337807916366842 -0.049924430753955154 0 0.014904231528661152 -0.073089930498440259 0 0.012722326847500531 -0.075602108851985095 0 0.012644127487118375 -0.074229366698460933 0 0.020415838370562201 -0.036211534872747246 0 0.019716884716886825 -0.034126845597329696 0 0.018024732681106118 -0.036522309828237405 0 0.011684469427828102 -0.075234505334486113 0 0.012722326847500531 -0.075602108851985095 0 0.012644127487118375 -0.074229366698460933 0 0.014904231528661152 -0.073089930498440259 0 0.012644127487118375 -0.074229366698460933 0 0.013281237708197127 -0.072426849683344272 0 0.012644127487118375 -0.074229366698460933 0 0.013281237708197127 -0.072426849683344272 0 0.011668743138027165 -0.071583523422875286 0 0.014904231528661152 -0.073089930498440259 0 0.013281237708197127 -0.072426849683344272 0 0.013943298069239241 -0.070758383438052699 0 0.013281237708197127 -0.072426849683344272 0 0.013943298069239241 -0.070758383438052699 0 0.011668743138027165 -0.071583523422875286 0 0.013943298069239241 -0.070758383438052699 0 0.012000648094600374 -0.069585311903478164 0 0.011668743138027165 -0.071583523422875286 0 0.013943298069239241 -0.070758383438052699 0 0.013913380372914719 -0.067968543067044321 0 0.012000648094600374 -0.069585311903478164 0 0.013913380372914719 -0.067968543067044321 0 0.012000648094600374 -0.069585311903478164 0 0.011237855030149001 -0.067425546952112475 0 0.012000648094600374 -0.069585311903478164 0 0.009736798020381977 -0.0697793689648009 0 0.011668743138027165 -0.071583523422875286 0 0.012000648094600374 -0.069585311903478164 0 0.009736798020381977 -0.0697793689648009 0 0.011237855030149001 -0.067425546952112475 0 0.009736798020381977 -0.0697793689648009 0 0.0097678658560097532 -0.067494453922874009 0 0.011237855030149001 -0.067425546952112475 0 0.0089034110503278287 -0.073065480922902951 0 0.009736798020381977 -0.0697793689648009 0 0.011668743138027165 -0.071583523422875286 0 0.0089034110503278287 -0.073065480922902951 0 0.009736798020381977 -0.0697793689648009 0 0.0074082319887208035 -0.070875816236747463 0 0.009736798020381977 -0.0697793689648009 0 0.007518964218075597 -0.068668197060676811 0 0.0097678658560097532 -0.067494453922874009 0 0.009736798020381977 -0.0697793689648009 0 0.0074082319887208035 -0.070875816236747463 0 0.007518964218075597 -0.068668197060676811 0 0.0046151181828869813 -0.070117735260941588 0 0.0074082319887208035 -0.070875816236747463 0 0.007518964218075597 -0.068668197060676811 0 0.0046151181828869813 -0.070117735260941588 0 0.0074082319887208035 -0.070875816236747463 0 0.0056121691915598619 -0.072253582447195999 0 0.0087973550213984453 -0.073310612195781569 0 0.0060622654825107942 -0.072580961506107572 0 0.0089034110503278287 -0.073065480922902951 0 0.0074082319887208035 -0.070875816236747463 0 0.0056121691915598619 -0.072253582447195999 0 0.0037898697936939877 -0.066833059224417971 0 0.007518964218075597 -0.068668197060676811 0 0.00814354697592274 -0.0658013496759286 0 0.0037898697936939877 -0.066833059224417971 0 0.0056353291920081565 -0.063486909566981761 0 0.00814354697592274 -0.0658013496759286 0 0.0079966020862183955 -0.06629104309402388 0 0.0081996957881888734 -0.064485108571313343 0 0.007518964218075597 -0.068668197060676811 0 0.0097678658560097532 -0.067494453922874009 0 0.007904400634127319 -0.064290997621170201 0 0.007904400634127319 -0.064290997621170201 0 0.010602104207807009 -0.065214640344064809 0 0.010991726924354867 -0.061923553238428609 0 0.0097678658560097532 -0.067494453922874009 0 0.007904400634127319 -0.064290997621170201 0 0.010602104207807009 -0.065214640344064809 0 0.010602104207807009 -0.065214640344064809 0 0.013097924607822336 -0.063804406561965427 0 0.010991726924354867 -0.061923553238428609 0 0.010602104207807009 -0.065214640344064809 0 0.011237855030149001 -0.067425546952112475 0 0.013097924607822336 -0.063804406561965427 0 0.0097678658560097532 -0.067494453922874009 0 0.010602104207807009 -0.065214640344064809 0 0.011237855030149001 -0.067425546952112475 0 0.011237855030149001 -0.067425546952112475 0 0.014197647026578121 -0.062582103890100466 0 0.012490650458974597 -0.055864547135124135 0 0.013913380372914719 -0.067968543067044321 0 0.011237855030149001 -0.067425546952112475 0 0.014197647026578121 -0.062582103890100466 0 0.013913380372914719 -0.067968543067044321 0 0.014197647026578121 -0.062582103890100466 0 0.019006731093994256 -0.06276118698180079 0 0.014197647026578121 -0.062582103890100466 0 0.01507182098839247 -0.058794235196211589 0 0.019006731093994256 -0.06276118698180079 0 0.012329130486135693 -0.063209502448669852 0 0.013182755640491237 -0.059882996562619278 0 0.014197647026578121 -0.062582103890100466 0 0.01507182098839247 -0.058794235196211589 0 0.012490650458974597 -0.055864547135124135 0 0.01507182098839247 -0.058794235196211589 0 0.012490650458974597 -0.055864547135124135 0 0.016085242443965617 -0.055280673197319934 0 0.012490650458974597 -0.055864547135124135 0 0.014705766976962286 -0.050391836097867827 0 0.016085242443965617 -0.055280673197319934 0 0.013097924607822336 -0.063804406561965427 0 0.014638958384152422 -0.059207638505555701 0 0.010991726924354867 -0.061923553238428609 0 0.013182755640491237 -0.059882996562619278 0 0.014521922042996228 -0.055337346395526697 0 0.014638958384152422 -0.059207638505555701 0 0.010991726924354867 -0.061923553238428609 0 0.011043647661753687 -0.058613797251341505 0 0.007904400634127319 -0.064290997621170201 0 0.010991726924354867 -0.061923553238428609 0 0.0084770320793473002 -0.060304322199163658 0 0.0081996957881888734 -0.064485108571313343 0 0.0085683277384257031 -0.061309522842823094 0 0.010991726924354867 -0.061923553238428609 0 0.0084770320793473002 -0.060304322199163658 0 0.011043647661753687 -0.058613797251341505 0 0.0056353291920081565 -0.063486909566981761 0 0.0090058797189246677 -0.061643814792927118 0 0.006542999192886677 -0.059709280254903789 0 0.0056353291920081565 -0.063486909566981761 0 0.00814354697592274 -0.0658013496759286 0 0.0090058797189246677 -0.061643814792927118 0 0.033398706622597814 -0.026914145259515354 0 0.033385966482149317 -0.026482905059275662 0 0.033412227812220641 -0.026429107321834365 0 0.032859012654522048 -0.014523467414471284 0 0.039433950882045619 -0.014801939740460589 0 0.035844686848937511 -0.020914986206408956 0 0.034301004341871541 -0.023312667331680467 0 0.03408536756511741 -0.024124244096983376 0 0.031767814523835147 -0.01841266871625517 0 0.029506915801527884 -0.021207551578110807 0 0.035844686848937511 -0.020914986206408956 0 0.031767814523835147 -0.01841266871625517 0 0.032859012654522048 -0.014523467414471284 0 0.035844686848937511 -0.020914986206408956 0 0.03535624510272467 -0.01061390685099787 0 0.032859012654522048 -0.014523467414471284 0 0.039433950882045619 -0.014801939740460589 0 0.032890251254482285 -0.027682916876242677 0 0.033398706622597814 -0.026914145259515354 0 0.032781276457271587 -0.026899889382751428 0 0.017227277314228684 -0.054111097426299055 0 0.022280903399425182 -0.047351314795165515 0 0.01507182098839247 -0.058794235196211589 0 0.019006731093994256 -0.06276118698180079 0 0.016085242443965617 -0.055280673197319934 0 0.022280903399425182 -0.047351314795165515 0 0.0220258940747321 -0.051251997114217074 0 0.016521082544695333 -0.057078036541825673 0 0.016085242443965617 -0.055280673197319934 0 0.018525270748770594 -0.054544146407168946 0 0.033398706622597814 -0.026914145259515354 0 0.032781276457271587 -0.026899889382751428 0 0.033385966482149317 -0.026482905059275662 0 0.022280903399425182 -0.047351314795165515 0 0.025719105220442084 -0.042118853751364607 0 0.018525270748770594 -0.054544146407168946 0 0.017180538183651457 -0.052540861262782262 0 0.018453306558735755 -0.051755690803326378 0 0.016085242443965617 -0.055280673197319934 0 0.018525270748770594 -0.054544146407168946 0 0.017180538183651457 -0.052540861262782262 0 0.014705766976962286 -0.050391836097867827 0 0.016085242443965617 -0.055280673197319934 0 0.017180538183651457 -0.052540861262782262 0 0.014705766976962286 -0.050391836097867827 0 0.017180538183651457 -0.052540861262782262 0 0.017318971620700615 -0.050011792596163659 0 0.017180538183651457 -0.052540861262782262 0 0.018453306558735755 -0.051755690803326378 0 0.017318971620700615 -0.050011792596163659 0 0.018453306558735755 -0.051755690803326378 0 0.018653644513899201 -0.049794666269917229 0 0.017318971620700615 -0.050011792596163659 0 0.018453306558735755 -0.051755690803326378 0 0.020330635941485119 -0.051517485292911072 0 0.018653644513899201 -0.049794666269917229 0 0.025719105220442084 -0.042118853751364607 0 0.02659976810348395 -0.040373568009067232 0 0.033385966482149317 -0.026482905059275662 0 0.033419222744973213 -0.027075827519507503 0 0.033412227812220641 -0.026429107321834365 0 0.018525270748770594 -0.054544146407168946 0 0.018453306558735755 -0.051755690803326378 0 0.020330635941485119 -0.051517485292911072 0 0.033022513868709392 -0.025863472715675243 0 0.03408536756511741 -0.024124244096983376 0 0.029467277049806374 -0.024863728955303466 0 0.03210125995369674 -0.027827296978626841 0 0.035844686848937511 -0.020914986206408956 0 0.02659976810348395 -0.040373568009067232 0 0.026262810395658573 -0.040274630076106856 0 0.03210125995369674 -0.027827296978626841 0 0.033419222744973213 -0.027075827519507503 0 0.032276553892925913 -0.030111046076097176 0 0.03210125995369674 -0.027827296978626841 0 0.033419222744973213 -0.027075827519507503 0 0.033412227812220641 -0.026429107321834365 0 0.020330635941485119 -0.051517485292911072 0 0.021265512872159404 -0.047899438917772069 0 0.019532468599523543 -0.048067318808373283 0 0.020330635941485119 -0.051517485292911072 0 0.021265512872159404 -0.047899438917772069 0 0.023217760202021841 -0.048091390319969181 0 0.021265512872159404 -0.047899438917772069 0 0.021193059098049145 -0.046100040528408825 0 0.019532468599523543 -0.048067318808373283 0 0.021265512872159404 -0.047899438917772069 0 0.021193059098049145 -0.046100040528408825 0 0.022647946135756585 -0.045511560038956268 0 0.021193059098049145 -0.046100040528408825 0 0.018654971970828001 -0.046179296141255155 0 0.023959199570538426 -0.042804725736333399 0 0.021193059098049145 -0.046100040528408825 0 0.019532468599523543 -0.048067318808373283 0 0.018654971970828001 -0.046179296141255155 0 0.01795272537616819 -0.048080473353614053 0 0.017512588853419605 -0.047454679773604395 0 0.018654971970828001 -0.046179296141255155 0 0.019532468599523543 -0.048067318808373283 0 0.01795272537616819 -0.048080473353614053 0 0.018654971970828001 -0.046179296141255155 0 0.020330635941485119 -0.051517485292911072 0 0.019532468599523543 -0.048067318808373283 0 0.018653644513899201 -0.049794666269917229 0 0.019532468599523543 -0.048067318808373283 0 0.018653644513899201 -0.049794666269917229 0 0.01795272537616819 -0.048080473353614053 0 0.017318971620700615 -0.050011792596163659 0 0.016333507326992902 -0.047716707922924956 0 0.01795272537616819 -0.048080473353614053 0 0.018653644513899201 -0.049794666269917229 0 0.017318971620700615 -0.050011792596163659 0 0.01795272537616819 -0.048080473353614053 0 0.014705766976962286 -0.050391836097867827 0 0.017318971620700615 -0.050011792596163659 0 0.016333507326992902 -0.047716707922924956 0 0.016333507326992902 -0.047716707922924956 0 0.01795272537616819 -0.048080473353614053 0 0.017512588853419605 -0.047454679773604395 0 0.017512588853419605 -0.047454679773604395 0 0.016653728379618631 -0.048735621834876348 0 0.017587282755831182 -0.047724572758700304 0 0.016333507326992902 -0.047716707922924956 0 0.017512588853419605 -0.047454679773604395 0 0.016653728379618631 -0.048735621834876348 0 0.015618896104422268 -0.051815450686044713 0 0.01607355214439048 -0.050264348592977112 0 0.016653728379618631 -0.048735621834876348 0 0.017587282755831182 -0.047724572758700304 0 0.017249613460737744 -0.047726242496153301 0 0.017587282755831182 -0.047724572758700304 0 0.017755797754926236 -0.047627809763826842 0 0.017249613460737744 -0.047726242496153301 0 0.017587282755831182 -0.047724572758700304 0 0.017755797754926236 -0.047627809763826842 0 0.017888251342774626 -0.047464738904170481 0 0.017587282755831182 -0.047724572758700304 0 0.017888251342774626 -0.047464738904170481 0 0.018023668316509648 -0.047171852837338379 0 0.017888251342774626 -0.047464738904170481 0 0.017775300344091759 -0.047682870895679984 0 0.017936135300993659 -0.047107931497556335 0 0.017755797754926236 -0.047627809763826842 0 0.017888251342774626 -0.047464738904170481 0 0.017775300344091759 -0.047682870895679984 0 0.017755797754926236 -0.047627809763826842 0 0.017775300344091759 -0.047682870895679984 0 0.017690233256362597 -0.047523150773878586 0 0.0080618361535513428 -0.050557342113527949 0 0.0099772698693921507 -0.050049334546843939 0 0.017453187180381476 -0.047873852798260036 0 0.01716049556570149 -0.046604871300083103 0 0.0168810760516835 -0.047380159258959095 0 0.017453187180381476 -0.047873852798260036 0 0.017125812248738156 -0.048102862017256963 0 0.0168810760516835 -0.047380159258959095 0 0.01716049556570149 -0.046604871300083103 0 0.018654971970828001 -0.046179296141255155 0 0.016402968213708118 -0.046153680025168661 0 0.017775300344091759 -0.047682870895679984 0 0.017936135300993659 -0.047107931497556335 0 0.01716049556570149 -0.046604871300083103 0 0.019405618974748559 -0.03868962653630615 0 0.018291723321109871 -0.036834545843553737 0 0.017936135300993659 -0.047107931497556335 0 0.01716049556570149 -0.046604871300083103 0 0.018654971970828001 -0.046179296141255155 0 0.017512588853419605 -0.047454679773604395 0 0.018654971970828001 -0.046179296141255155 0 0.018023668316509648 -0.047171852837338379 0 0.017512588853419605 -0.047454679773604395 0 0.017587282755831182 -0.047724572758700304 0 0.018023668316509648 -0.047171852837338379 0 0.017888251342774626 -0.047464738904170481 0 0.017936135300993659 -0.047107931497556335 0 0.018023668316509648 -0.047171852837338379 0 0.017936135300993659 -0.047107931497556335 0 0.018654971970828001 -0.046179296141255155 0 0.018023668316509648 -0.047171852837338379 0 0.0054791090600429058 -0.05705720422463112 0 0.009263265388114561 -0.056507263718403783 0 0.0083531984050030303 -0.053467615135089491 0 0.0054791090600429058 -0.05705720422463112 0 0.0044785282284538156 -0.053735290153333976 0 0.0083531984050030303 -0.053467615135089491 0 0.0090058797189246677 -0.061643814792927118 0 0.006542999192886677 -0.059709280254903789 0 0.009263265388114561 -0.056507263718403783 0 0.0054791090600429058 -0.05705720422463112 0 0.006542999192886677 -0.059709280254903789 0 0.009263265388114561 -0.056507263718403783 0 0.0085683277384257031 -0.061309522842823094 0 0.0087804398750645999 -0.05933563914597343 0 0.0084770320793473002 -0.060304322199163658 0 0.009263265388114561 -0.056507263718403783 0 0.011043647661753687 -0.058613797251341505 0 0.009263265388114561 -0.056507263718403783 0 0.012097264737991871 -0.055222651379641621 0 0.0083531984050030303 -0.053467615135089491 0 0.009263265388114561 -0.056507263718403783 0 0.012097264737991871 -0.055222651379641621 0 0.011043647661753687 -0.058613797251341505 0 0.014638958384152422 -0.059207638505555701 0 0.012097264737991871 -0.055222651379641621 0 0.011043647661753687 -0.058613797251341505 0 0.014521922042996228 -0.055337346395526697 0 0.015618896104422268 -0.051815450686044713 0 0.014638958384152422 -0.059207638505555701 0 0.015891439041673429 -0.054399133319601493 0 0.012097264737991871 -0.055222651379641621 0 0.015891439041673429 -0.054399133319601493 0 0.016653728379618631 -0.048735621834876348 0 0.011974448364621118 -0.05113904093792862 0 0.016653728379618631 -0.048735621834876348 0 0.011974448364621118 -0.05113904093792862 0 0.01443188460444174 -0.048061135738252388 0 0.015891439041673429 -0.054399133319601493 0 0.012097264737991871 -0.055222651379641621 0 0.011974448364621118 -0.05113904093792862 0 0.011974448364621118 -0.05113904093792862 0 0.011222008406646816 -0.048400633066992632 0 0.01443188460444174 -0.048061135738252388 0 0.012097264737991871 -0.055222651379641621 0 0.011974448364621118 -0.05113904093792862 0 0.0083531984050030303 -0.053467615135089491 0 0.011974448364621118 -0.05113904093792862 0 0.0071029053987780033 -0.050094247006318864 0 0.0083531984050030303 -0.053467615135089491 0 0.011974448364621118 -0.05113904093792862 0 0.0071029053987780033 -0.050094247006318864 0 0.011222008406646816 -0.048400633066992632 0 0.0044785282284538156 -0.053735290153333976 0 0.0071029053987780033 -0.050094247006318864 0 0.0083531984050030303 -0.053467615135089491 0 0.0093770676765467572 -0.0469416086444144 0 0.0095615608464053349 -0.047495044142274623 0 0.010055060116394553 -0.046329745074939255 0 0.0088015628700366111 -0.047724696064885386 0 0.0093770676765467572 -0.0469416086444144 0 0.0095615608464053349 -0.047495044142274623 0 0.0088015628700366111 -0.047724696064885386 0 0.0091976998232255313 -0.048760467709839134 0 0.0095615608464053349 -0.047495044142274623 0 0.0079826517538388354 -0.050415564624947742 0 0.0086361413783494559 -0.049147571228228944 0 0.0071029053987780033 -0.050094247006318864 0 0.0095615608464053349 -0.047495044142274623 0 0.011222008406646816 -0.048400633066992632 0 0.0095615608464053349 -0.047495044142274623 0 0.011436127507693541 -0.046747061010988529 0 0.010055060116394553 -0.046329745074939255 0 0.0095615608464053349 -0.047495044142274623 0 0.011436127507693541 -0.046747061010988529 0 0.011222008406646816 -0.048400633066992632 0 0.011436127507693541 -0.046747061010988529 0 0.011222008406646816 -0.048400633066992632 0 0.013049326650719497 -0.047167075947699644 0 0.011436127507693541 -0.046747061010988529 0 0.013049326650719497 -0.047167075947699644 0 0.013231050997299506 -0.046200332765943729 0 0.011222008406646816 -0.048400633066992632 0 0.01443188460444174 -0.048061135738252388 0 0.013049326650719497 -0.047167075947699644 0 0.01443188460444174 -0.048061135738252388 0 0.014665931002515325 -0.046729785087483655 0 0.013049326650719497 -0.047167075947699644 0 0.014665931002515325 -0.046729785087483655 0 0.013231050997299506 -0.046200332765943729 0 0.01518430750043768 -0.045420312888179007 0 0.014665931002515325 -0.046729785087483655 0 0.013049326650719497 -0.047167075947699644 0 0.013231050997299506 -0.046200332765943729 0 0.0047337811789675355 -0.048192743309294288 0 0.0019828405458890137 -0.048742757105324205 0 0.013231050997299506 -0.046200332765943729 0 0.0118723825300871 -0.045199360185334894 0 0.01518430750043768 -0.045420312888179007 0 -0.0057569366361916461 -0.047891918340234395 0 -0.0026338938494035674 -0.047102724435031766 0 -0.0081723751354659518 -0.045266294511026928 0 -0.0057569366361916461 -0.047891918340234395 0 -0.0052696753962674682 -0.050784406311513194 0 -0.0093260075988718123 -0.046824972686350864 0 -0.0057569366361916461 -0.047891918340234395 0 -0.0052696753962674682 -0.050784406311513194 0 -0.003291468035732738 -0.049560457098963007 0 -0.0052696753962674682 -0.050784406311513194 0 -0.003291468035732738 -0.049560457098963007 0 -0.0029822559403436351 -0.052104263372746061 0 -0.0057569366361916461 -0.047891918340234395 0 -0.003291468035732738 -0.049560457098963007 0 -0.0026338938494035674 -0.047102724435031766 0 -0.00067121357159745842 -0.049975229003563368 0 -0.0026338938494035674 -0.047102724435031766 0 0.0039864159377170092 -0.048996088160077 0 -0.003291468035732738 -0.049560457098963007 0 -0.00067121357159745842 -0.049975229003563368 0 -0.0026338938494035674 -0.047102724435031766 0 -0.003291468035732738 -0.049560457098963007 0 -0.00067121357159745842 -0.049975229003563368 0 -0.0029822559403436351 -0.052104263372746061 0 0.011436127507693541 -0.046747061010988529 0 0.0118723825300871 -0.045199360185334894 0 0.010055060116394553 -0.046329745074939255 0 0.011436127507693541 -0.046747061010988529 0 0.013231050997299506 -0.046200332765943729 0 0.0118723825300871 -0.045199360185334894 0 0.0118723825300871 -0.045199360185334894 0 0.010055060116394553 -0.046329745074939255 0 0.0092734668840638579 -0.046534838861606559 0 0.0047337811789675355 -0.048192743309294288 0 0.0077355445469014569 -0.048998823898871904 0 -0.00067121357159745842 -0.049975229003563368 0 0.0039864159377170092 -0.048996088160077 0 0.0016769857027556108 -0.052209608090071552 0 0.0039864159377170092 -0.048996088160077 0 0.0087548480769990694 -0.051586501170045929 0 0.012592484786028566 -0.051749436607886383 0 0.0077355445469014569 -0.048998823898871904 0 0.010271407374043572 -0.050059657264614303 0 0.011597829052456194 -0.048052978034783089 0 0.0092734668840638579 -0.046534838861606559 0 0.0097740233144409869 -0.046232426696217771 0 0.011597829052456194 -0.048052978034783089 0 0.0092734668840638579 -0.046534838861606559 0 0.012592484786028566 -0.051749436607886383 0 0.010055060116394553 -0.046329745074939255 0 0.0092734668840638579 -0.046534838861606559 0 0.0097740233144409869 -0.046232426696217771 0 0.0086647954584719283 -0.046820343421241924 0 0.0093770676765467572 -0.0469416086444144 0 0.0097740233144409869 -0.046232426696217771 0 0.0093770676765467572 -0.0469416086444144 0 0.010055060116394553 -0.046329745074939255 0 0.0097740233144409869 -0.046232426696217771 0 -0.019932992029250036 -0.063977703893064383 0 -0.019903480179850903 -0.065530917909138744 0 -0.020962446007909048 -0.066471128125429962 0 -0.019932992029250036 -0.063977703893064383 0 -0.019903480179850903 -0.065530917909138744 0 -0.01903686598003116 -0.065864806933245743 0 -0.019659773212755447 -0.064612077878721877 0 -0.019139357695153802 -0.065265538275896387 0 -0.018955539413104676 -0.066340248551127079 0 0.0064153569521878473 -0.034965955501467492 0 0.0059079068683012036 -0.035146370877848235 0 0.0057794051683042495 -0.036433221706012819 0 -0.00060414235213188745 -0.049653967656006964 0 -0.0048946076468644002 -0.056841856531190074 0 -0.00060414235213188745 -0.049653967656006964 0 -0.0021344434982264993 -0.045675214248933525 0 -0.00060414235213188745 -0.049653967656006964 0 -0.0028865247645023955 -0.051038678059501776 0 0.018037351686687852 -0.046933672806809795 0 0.017411377213157397 -0.047107805820150159 0 0.017522508156344697 -0.046348213624035017 0 -0.019659773212755447 -0.064612077878721877 0 -0.019139357695153802 -0.065265538275896387 0 -0.018757613026667831 -0.065425482357702708 0 -0.019139357695153802 -0.065265538275896387 0 -0.018771754708459824 -0.065433598800378565 0 -0.018955539413104676 -0.066340248551127079 0 -0.0031938164558700474 -0.051065256166536475 0 -0.0028865247645023955 -0.051038678059501776 0 0.0053542970969837084 -0.035387880000843829 0 0.0059079068683012036 -0.035146370877848235 0 0.0057794051683042495 -0.036433221706012819 0 0.0053542970969837084 -0.035387880000843829 0 0.0051855263801596713 -0.035952855287639765 0 0.0049129068187635915 -0.035557421382209388 0 0.0053542970969837084 -0.035387880000843829 0 0.0054695582905338984 -0.034749399745210248 0 0.0046729310884404606 -0.034779773957017396 0 0.0053542970969837084 -0.035387880000843829 0 0.0059079068683012036 -0.035146370877848235 0 0.0054695582905338984 -0.034749399745210248 0 0.0064153569521878473 -0.034965955501467492 0 0.0059079068683012036 -0.035146370877848235 0 0.0054695582905338984 -0.034749399745210248 0 0.017453187180381476 -0.047873852798260036 0 0.017758303878190076 -0.048738533159181141 0 0.017125812248738156 -0.048102862017256963 0 -0.00060414235213188745 -0.049653967656006964 0 0.0067546619023015732 -0.043923978253445614 0 0.0064153569521878473 -0.034965955501467492 0 0.0054695582905338984 -0.034749399745210248 0 0.0052470105840960414 -0.033831747064921897 0 0.0054695582905338984 -0.034749399745210248 0 0.0052470105840960414 -0.033831747064921897 0 0.0046729310884404606 -0.034779773957017396 0 0.017775300344091759 -0.047682870895679984 0 0.017708698091807785 -0.047442789825719055 0 0.017690233256362597 -0.047523150773878586 0 0.0080618361535513428 -0.050557342113527949 0 -0.00060414235213188745 -0.049653967656006964 0 -0.00060414235213188745 -0.049653967656006964 0 0.00069453055037590236 -0.048495283756250694 0 0.018037351686687852 -0.046933672806809795 0 0.017690233256362597 -0.047523150773878586 0 0.017411377213157397 -0.047107805820150159 0 0.017755797754926236 -0.047627809763826842 0 0.017690233256362597 -0.047523150773878586 0 0.017249613460737744 -0.047726242496153301 0 0.017249613460737744 -0.047726242496153301 0 0.015960243829920104 -0.047418380344909229 0 0.016791225276568747 -0.047025613219657619 0 0.017690233256362597 -0.047523150773878586 0 0.017249613460737744 -0.047726242496153301 0 0.017411377213157397 -0.047107805820150159 0 0.017249613460737744 -0.047726242496153301 0 0.017411377213157397 -0.047107805820150159 0 0.016791225276568747 -0.047025613219657619 0 0.016653728379618631 -0.048735621834876348 0 0.01443188460444174 -0.048061135738252388 0 0.015960243829920104 -0.047418380344909229 0 0.016653728379618631 -0.048735621834876348 0 0.017249613460737744 -0.047726242496153301 0 0.015960243829920104 -0.047418380344909229 0 0.01443188460444174 -0.048061135738252388 0 0.014665931002515325 -0.046729785087483655 0 0.015960243829920104 -0.047418380344909229 0 0.014665931002515325 -0.046729785087483655 0 0.015960243829920104 -0.047418380344909229 0 0.016066936878653151 -0.046596630332394494 0 0.015960243829920104 -0.047418380344909229 0 0.016066936878653151 -0.046596630332394494 0 0.016791225276568747 -0.047025613219657619 0 0.014665931002515325 -0.046729785087483655 0 0.016066936878653151 -0.046596630332394494 0 0.01518430750043768 -0.045420312888179007 0 0.016066936878653151 -0.046596630332394494 0 0.017522508156344697 -0.046348213624035017 0 0.01518430750043768 -0.045420312888179007 0 -0.0028865247645023955 -0.051038678059501776 0 0.0019828405458890137 -0.048742757105324205 0 0.016066936878653151 -0.046596630332394494 0 0.016791225276568747 -0.047025613219657619 0 0.017522508156344697 -0.046348213624035017 0 0.017411377213157397 -0.047107805820150159 0 0.016791225276568747 -0.047025613219657619 0 0.017522508156344697 -0.046348213624035017 0 -0.016958213470767376 -0.067274668530310777 0 -0.018256423642138399 -0.068036830267011877 0 -0.018955539413104676 -0.066340248551127079 0 -0.0061786296189839038 -0.059088830295920797 0 -0.0048946076468644002 -0.056841856531190074 0 -0.0028865247645023955 -0.051038678059501776 0 -0.0086005499313333168 -0.05425093087968301 0 -0.018771754708459824 -0.065433598800378565 0 -0.016958213470767376 -0.067274668530310777 0 -0.018955539413104676 -0.066340248551127079 0 -0.0057569366361916461 -0.047891918340234395 0 -0.0093260075988718123 -0.046824972686350864 0 -0.0081723751354659518 -0.045266294511026928 0 -0.013019018802336647 -0.043467105097207533 0 -0.0093260075988718123 -0.046824972686350864 0 -0.0081723751354659518 -0.045266294511026928 0 -0.016958213470767376 -0.067274668530310777 0 -0.018256423642138399 -0.068036830267011877 0 -0.016903798355385802 -0.06936984549258364 0 -0.015112022677679466 -0.069277664198556341 0 -0.016958213470767376 -0.067274668530310777 0 -0.016903798355385802 -0.06936984549258364 0 -0.0084184202562964609 -0.058544865762550392 0 -0.0086005499313333168 -0.05425093087968301 0 -0.018256423642138399 -0.068036830267011877 0 -0.019083209004930841 -0.069407716441751227 0 -0.016903798355385802 -0.06936984549258364 0 -0.019768142356012635 -0.06739296664577224 0 -0.021451893578303044 -0.067305109259276713 0 -0.019083209004930841 -0.069407716441751227 0 0.0042063606239655105 -0.030557737234219277 0 0.0047403243286359168 -0.030954180517967767 0 0.0043751719192763145 -0.031204420180923953 0 -0.018256423642138399 -0.068036830267011877 0 -0.019768142356012635 -0.06739296664577224 0 -0.019083209004930841 -0.069407716441751227 0 6.6939816717367378e-05 -0.042978398393174952 0 -0.0039428301724895795 -0.047111368819562127 0 -0.019768142356012635 -0.06739296664577224 0 -0.019867229706343064 -0.066422555661101848 0 -0.01903686598003116 -0.065864806933245743 0 -0.018256423642138399 -0.068036830267011877 0 -0.019768142356012635 -0.06739296664577224 0 -0.01903686598003116 -0.065864806933245743 0 -0.019768142356012635 -0.06739296664577224 0 -0.019867229706343064 -0.066422555661101848 0 -0.021176910371462587 -0.066637201838219154 0 -0.019768142356012635 -0.06739296664577224 0 -0.021176910371462587 -0.066637201838219154 0 -0.021451893578303044 -0.067305109259276713 0 -0.0070303292607146245 -0.050232986018565531 0 -0.0021344434982264993 -0.045675214248933525 0 -0.019867229706343064 -0.066422555661101848 0 -0.019903480179850903 -0.065530917909138744 0 -0.021176910371462587 -0.066637201838219154 0 -0.019867229706343064 -0.066422555661101848 0 -0.019903480179850903 -0.065530917909138744 0 -0.01903686598003116 -0.065864806933245743 0 0.0051855263801596713 -0.035952855287639765 0 0.0054873748111313831 -0.036688387650152997 0 0.0043955692835973871 -0.035701204960741355 0 0.0053542970969837084 -0.035387880000843829 0 0.0051855263801596713 -0.035952855287639765 0 0.0057794051683042495 -0.036433221706012819 0 0.00051916675732884151 -0.040726426544878375 0 -0.00054474873126228332 -0.043171178190371515 0 -0.0014357929788423422 -0.042418937248357227 0 -0.0021344434982264993 -0.045675214248933525 0 6.6939816717367378e-05 -0.042978398393174952 0 -0.0021344434982264993 -0.045675214248933525 0 5.1802405984842752e-05 -0.042169221621418083 0 6.6939816717367378e-05 -0.042978398393174952 0 5.1802405984842752e-05 -0.042169221621418083 0 0.0051855263801596713 -0.035952855287639765 0 0.0057794051683042495 -0.036433221706012819 0 0.0054873748111313831 -0.036688387650152997 0 0.0025466850677049783 -0.035671560489910298 0 0.0028971907107760361 -0.035967485623703818 0 0.0053491551607254689 -0.033840089470615953 0 0.0025466850677049783 -0.035671560489910298 0 0.0053491551607254689 -0.033840089470615953 0 0.0043621490111344753 -0.031540307033658246 0 5.1802405984842752e-05 -0.042169221621418083 0 0.0052329352412000393 -0.027945399194666445 0 6.6939816717367378e-05 -0.042978398393174952 0 0.0047058003735274264 -0.031540416564842993 0 0.0082839930127750067 -0.0063134990763161316 0 0.0068720937999436635 -0.0064135871304638525 0 0.0072117118947238939 -0.0040441983608023998 0 0.0053779130757273938 -0.036547026015271836 0 0.0045841149553435268 -0.037229592325603279 0 0.0046241019253417904 -0.03643402248426298 0 0.0068720937999436635 -0.0064135871304638525 0 0.0060572528003732468 -0.0051629258101548265 0 0.0041636094746174759 -0.0074526186954521276 0 0.0082839930127750067 -0.0063134990763161316 0 0.0068720937999436635 -0.0064135871304638525 0 0.0065432592831889194 -0.0078994509367156778 0 0.0068720937999436635 -0.0064135871304638525 0 0.0060572528003732468 -0.0051629258101548265 0 0.0072117118947238939 -0.0040441983608023998 0 0.0060572528003732468 -0.0051629258101548265 0 0.0059297171289843789 -0.0040607407536961283 0 0.0072117118947238939 -0.0040441983608023998 0 0.0045841149553435268 -0.037229592325603279 0 0.0040044870462584885 -0.035962016680975137 0 0.0046241019253417904 -0.03643402248426298 0 0.0053779130757273938 -0.036547026015271836 0 0.0046241019253417904 -0.03643402248426298 0 0.0043955692835973871 -0.035701204960741355 0 0.0040044870462584885 -0.035962016680975137 0 0.0046241019253417904 -0.03643402248426298 0 0.0043955692835973871 -0.035701204960741355 0 0.0052329352412000393 -0.027945399194666445 0 0.0043109407375088588 -0.021908949475725782 0 5.1802405984842752e-05 -0.042169221621418083 0 0.00079979698239522569 -0.040968091141045299 0 0.0037417359688462271 -0.0056870405460441803 0 0.0047340656842350141 -0.0053550557305047618 0 0.0037773119294621581 -0.0047908593591333122 0 0.0037417359688462271 -0.0056870405460441803 0 0.0047340656842350141 -0.0053550557305047618 0 0.0046472709942269683 -0.0060875315732525593 0 0.0060572528003732468 -0.0051629258101548265 0 0.0047340656842350141 -0.0053550557305047618 0 0.0046257596391746352 -0.0066470761402289994 0 0.0065037473879603607 -0.0086854592184432873 0 0.0052639016374066809 -0.011461803204959809 0 0.0053035744917677551 -0.0095764866219732233 0 0.0052639016374066809 -0.011461803204959809 0 0.0059297171289843789 -0.0040607407536961283 0 0.0047340656842350141 -0.0053550557305047618 0 0.0048784519112609111 -0.0036489047118916976 0 0.0060572528003732468 -0.0051629258101548265 0 0.0059297171289843789 -0.0040607407536961283 0 0.0047340656842350141 -0.0053550557305047618 0 0.0037773119294621581 -0.0047908593591333122 0 0.0037938171515227905 -0.0037521925369347737 0 0.0030221059623844145 -0.0042834547507846895 0 0.0037773119294621581 -0.0047908593591333122 0 0.0037938171515227905 -0.0037521925369347737 0 0.0048784519112609111 -0.0036489047118916976 0 0.0047340656842350141 -0.0053550557305047618 0 0.0037773119294621581 -0.0047908593591333122 0 0.0048784519112609111 -0.0036489047118916976 0 0.0032661777724019431 -0.0023244404615652748 0 0.0048784519112609111 -0.0036489047118916976 0 0.0047300566546707419 -0.0013831271059513248 0 0.0032661777724019431 -0.0023244404615652748 0 0.0037938171515227905 -0.0037521925369347737 0 0.0030221059623844145 -0.0042834547507846895 0 0.0032661777724019431 -0.0023244404615652748 0 0.0037938171515227905 -0.0037521925369347737 0 0.0048784519112609111 -0.0036489047118916976 0 0.0059297171289843789 -0.0040607407536961283 0 0.0048784519112609111 -0.0036489047118916976 0 0.0063405542023939679 -0.0020016792321932721 0 0.0048784519112609111 -0.0036489047118916976 0 0.0047300566546707419 -0.0013831271059513248 0 0.0063405542023939679 -0.0020016792321932721 0 0.0047300566546707419 -0.0013831271059513248 0 0.0063405542023939679 -0.0020016792321932721 0 0.005392719969187801 0.00024335623708147505 0 0.0032661777724019431 -0.0023244404615652748 0 0.0047300566546707419 -0.0013831271059513248 0 0.0030695208312659459 -0.00065138143569681535 0 0.0043955692835973871 -0.035701204960741355 0 0.0033862209202525782 -0.034561385540250594 0 0.0046729310884404606 -0.034779773957017396 0 0.0053542970969837084 -0.035387880000843829 0 0.0049129068187635915 -0.035557421382209388 0 0.0046729310884404606 -0.034779773957017396 0 0.0051855263801596713 -0.035952855287639765 0 0.0049129068187635915 -0.035557421382209388 0 0.0043955692835973871 -0.035701204960741355 0 0.0049129068187635915 -0.035557421382209388 0 0.0043955692835973871 -0.035701204960741355 0 0.0046729310884404606 -0.034779773957017396 0 0.0059297171289843789 -0.0040607407536961283 0 0.0072117118947238939 -0.0040441983608023998 0 0.0063405542023939679 -0.0020016792321932721 0 0.0043109407375088588 -0.021908949475725782 0 0.0038094256287583895 -0.019391901324345963 0 0.0040044870462584885 -0.035962016680975137 0 0.0043955692835973871 -0.035701204960741355 0 0.0033862209202525782 -0.034561385540250594 0 0.0038094256287583895 -0.019391901324345963 0 0.0033310214673691958 -0.018764984603151603 0 0.0033862209202525782 -0.034561385540250594 0 0.0040624483490953574 -0.033807335052692407 0 0.0027763985130323629 -0.033137036517387621 0 0.0052470105840960414 -0.033831747064921897 0 0.0040624483490953574 -0.033807335052692407 0 0.0046729310884404606 -0.034779773957017396 0 0.0033862209202525782 -0.034561385540250594 0 0.0040624483490953574 -0.033807335052692407 0 0.0046729310884404606 -0.034779773957017396 0 0.0052470105840960414 -0.033831747064921897 0 0.0040624483490953574 -0.033807335052692407 0 0.0041210723324628497 -0.0327858003779802 0 0.0067546619023015732 -0.043923978253445614 0 0.009708780723168664 -0.038580464478249685 0 0.017125812248738156 -0.048102862017256963 0 0.0168810760516835 -0.047380159258959095 0 0.01600176871981699 -0.047261059110896113 0 0.01716049556570149 -0.046604871300083103 0 0.0168810760516835 -0.047380159258959095 0 0.016606173718437284 -0.046905264279314914 0 0.016606173718437284 -0.046905264279314914 0 0.01600176871981699 -0.047261059110896113 0 0.016402968213708118 -0.046153680025168661 0 0.0168810760516835 -0.047380159258959095 0 0.016606173718437284 -0.046905264279314914 0 0.01600176871981699 -0.047261059110896113 0 0.01716049556570149 -0.046604871300083103 0 0.016606173718437284 -0.046905264279314914 0 0.016402968213708118 -0.046153680025168661 0 0.0041210723324628497 -0.0327858003779802 0 0.0027763985130323629 -0.033137036517387621 0 0.0029904629518140795 -0.031747745331322526 0 0.01600176871981699 -0.047261059110896113 0 0.014683774377058324 -0.046076391662277831 0 0.016402968213708118 -0.046153680025168661 0 0.009708780723168664 -0.038580464478249685 0 0.010561595796668813 -0.0307716668450701 0 0.0040624483490953574 -0.033807335052692407 0 0.0041210723324628497 -0.0327858003779802 0 0.0027763985130323629 -0.033137036517387621 0 0.0047300566546707419 -0.0013831271059513248 0 0.005392719969187801 0.00024335623708147505 0 0.0030695208312659459 -0.00065138143569681535 0 0.005392719969187801 0.00024335623708147505 0 0.0030695208312659459 -0.00065138143569681535 0 0.0034685295264562563 0.00096706144329651816 0 0.0030695208312659459 -0.00065138143569681535 0 0.0034685295264562563 0.00096706144329651816 0 0.0017489758971946767 0.00031643086928919713 0 0.0034685295264562563 0.00096706144329651816 0 0.004406235412208837 0.0024332602277623823 0 0.0027353494458540579 0.0024741405106579557 0 0.005392719969187801 0.00024335623708147505 0 0.0034685295264562563 0.00096706144329651816 0 0.004406235412208837 0.0024332602277623823 0 0.0027763985130323629 -0.033137036517387621 0 0.0029904629518140795 -0.031747745331322526 0 0.0021712305640180975 -0.031721596594984344 0 0.0033310214673691958 -0.018764984603151603 0 0.0041080988321681965 -0.023131898293381813 0 0.0070664594990384501 -0.023736621665605518 0 0.0053264130791459679 -0.022528604488762101 0 0.0049858469231486759 -0.02186407396079099 0 0.0070664594990384501 -0.023736621665605518 0 0.0058391457992625776 -0.023706886947673693 0 0.0053264130791459679 -0.022528604488762101 0 0.010561595796668813 -0.0307716668450701 0 0.0041080988321681965 -0.023131898293381813 0 0.023029122691042909 -0.040347724266648968 0 0.011290941894005254 -0.030045341711816591 0 0.021215698692592686 -0.03218601713749749 0 0.010561595796668813 -0.0307716668450701 0 0.0078346461642726795 -0.024113307223366919 0 0.0041080988321681965 -0.023131898293381813 0 0.0062071660941604139 -0.015425089483665926 0 0.0058207668873210064 -0.02367633009101006 0 0.004244591187817991 -0.023639303480535868 0 0.0053264130791459679 -0.022528604488762101 0 0.014266698295983196 -0.022263734465592454 0 0.014827763421839158 -0.020675330375436386 0 0.013967715905235314 -0.021117826899330994 0 0.004244591187817991 -0.023639303480535868 0 0.0053264130791459679 -0.022528604488762101 0 0.0049858469231486759 -0.02186407396079099 0 0.0062071660941604139 -0.015425089483665926 0 0.0078346461642726795 -0.024113307223366919 0 0.0041080988321681965 -0.023131898293381813 0 0.0042302484021725026 -0.02317335940822322 0 0.014219112895981623 -0.020733594342173308 0 0.014657556301564871 -0.020621865563050172 0 0.014827763421839158 -0.020675330375436386 0 0.014219112895981623 -0.020733594342173308 0 0.014827763421839158 -0.020675330375436386 0 0.013967715905235314 -0.021117826899330994 0 0.014219112895981623 -0.020733594342173308 0 0.014657556301564871 -0.020621865563050172 0 0.014319313777761957 -0.020445497525980849 0 0.0078825677814421975 -0.0241217233729898 0 0.0078346461642726795 -0.024113307223366919 0 0.008582409171945294 -0.023383812938584183 0 0.0078346461642726795 -0.024113307223366919 0 0.015157301255976672 -0.022021941356414752 0 0.011290941894005254 -0.030045341711816591 0 0.017038270354660916 -0.026793203529542467 0 0.015157301255976672 -0.022021941356414752 0 0.014657556301564871 -0.020621865563050172 0 0.014483200593718439 -0.020471801753210499 0 0.015157301255976672 -0.022021941356414752 0 0.014502519772920741 -0.020432134196367444 0 0.014657556301564871 -0.020621865563050172 0 0.014502519772920741 -0.020432134196367444 0 0.014657556301564871 -0.020621865563050172 0 0.014319313777761957 -0.020445497525980849 0 0.024050567639506411 -0.020930201220644373 0 0.019394567444892041 -0.023507754158230171 0 0.021215698692592686 -0.03218601713749749 0 0.011290941894005254 -0.030045341711816591 0 0.021215698692592686 -0.03218601713749749 0 0.017038270354660916 -0.026793203529542467 0 0.019394567444892041 -0.023507754158230171 0 0.021215698692592686 -0.03218601713749749 0 0.017038270354660916 -0.026793203529542467 0 0.019394567444892041 -0.023507754158230171 0 0.015157301255976672 -0.022021941356414752 0 0.017038270354660916 -0.026793203529542467 0 0.029497707028802569 -0.028256815666307347 0 0.025279192182231035 -0.026203105172375507 0 0.027564475178877904 -0.033088266025517947 0 0.024050567639506411 -0.020930201220644373 0 0.021215698692592686 -0.03218601713749749 0 0.027564475178877904 -0.033088266025517947 0 0.024081050291983732 -0.023597843696747594 0 0.025518313893760709 -0.027108027750211816 0 0.021215698692592686 -0.03218601713749749 0 0.027564475178877904 -0.033088266025517947 0 0.023975451777903622 -0.035759624711807297 0 0.029497707028802569 -0.028256815666307347 0 0.027564475178877904 -0.033088266025517947 0 0.032276553892925913 -0.030111046076097176 0 0.029497707028802569 -0.028256815666307347 0 0.03210125995369674 -0.027827296978626841 0 0.032276553892925913 -0.030111046076097176 0 0.021265512872159404 -0.047899438917772069 0 0.023217760202021841 -0.048091390319969181 0 0.022647946135756585 -0.045511560038956268 0 0.02351315461346995 -0.044097251925135576 0 0.023959199570538426 -0.042804725736333399 0 0.024188332096235932 -0.04040682634925459 0 0.027564475178877904 -0.033088266025517947 0 0.032276553892925913 -0.030111046076097176 0 0.024188332096235932 -0.04040682634925459 0 0.023217760202021841 -0.048091390319969181 0 0.02351315461346995 -0.044097251925135576 0 0.024188332096235932 -0.04040682634925459 0 0.026262810395658573 -0.040274630076106856 0 0.025212295707232289 -0.041009291705582519 0 0.023217760202021841 -0.048091390319969181 0 0.02351315461346995 -0.044097251925135576 0 0.022647946135756585 -0.045511560038956268 0 0.021193059098049145 -0.046100040528408825 0 0.022647946135756585 -0.045511560038956268 0 0.023959199570538426 -0.042804725736333399 0 0.02351315461346995 -0.044097251925135576 0 0.022647946135756585 -0.045511560038956268 0 0.023959199570538426 -0.042804725736333399 0 0.023029122691042909 -0.040347724266648968 0 0.021215698692592686 -0.03218601713749749 0 0.023975451777903622 -0.035759624711807297 0 0.010561595796668813 -0.0307716668450701 0 0.018291723321109871 -0.036834545843553737 0 0.023029122691042909 -0.040347724266648968 0 0.023959199570538426 -0.042804725736333399 0 0.024188332096235932 -0.04040682634925459 0 0.023029122691042909 -0.040347724266648968 0 0.024188332096235932 -0.04040682634925459 0 0.023975451777903622 -0.035759624711807297 0 0.027564475178877904 -0.033088266025517947 0 0.024188332096235932 -0.04040682634925459 0 0.023975451777903622 -0.035759624711807297 0 -0.0022711236684575331 -0.0027461873754523781 0 -0.0019969953650693256 -0.0024394392063980417 0 -0.0026157244749693289 -0.0037157448993440619 0 -0.0022711236684575331 -0.0027461873754523781 0 -0.0026157244749693289 -0.0037157448993440619 0 -0.0022175277545608873 -0.0025621649430128519 0 0.0079548641171442273 -0.019829104565063368 0 0.01113670203749609 -0.019815204694750815 0 0.010822951036050301 -0.021777110658144781 0 0.0046174557123278897 -0.012027682630887958 0 0.0049439671653891248 -0.011950659340466083 0 -0.0022711236684575331 -0.0027461873754523781 0 -0.0022175277545608873 -0.0025621649430128519 0 -0.0020785573691449581 -0.0024742787945944375 0 -0.0022711236684575331 -0.0027461873754523781 0 -0.0019969953650693256 -0.0024394392063980417 0 -0.0020785573691449581 -0.0024742787945944375 0 -0.0013732207427240553 -0.00266806410677767 0 -0.0019969953650693256 -0.0024394392063980417 0 -0.0018648508523007011 -0.0022144849238187624 0 -0.0013732207427240553 -0.00266806410677767 0 -0.0019969953650693256 -0.0024394392063980417 0 -0.0026157244749693289 -0.0037157448993440619 0 0.0060592846290340192 -0.012934908400166067 0 0.0084267444262132764 -0.013985968863565205 0 0.004692667213811094 -0.017561071794793354 0 0.0079548641171442273 -0.019829104565063368 0 0.010007210970794067 -0.017581798621661808 0 0.0060592846290340192 -0.012934908400166067 0 0.0046174557123278897 -0.012027682630887958 0 -0.00070875981901002928 -0.0068702180576693615 0 -0.0013732207427240553 -0.00266806410677767 0 -0.0026157244749693289 -0.0037157448993440619 0 0.0079548641171442273 -0.019829104565063368 0 0.010007210970794067 -0.017581798621661808 0 0.01113670203749609 -0.019815204694750815 0 0.010007210970794067 -0.017581798621661808 0 0.011882802543895571 -0.019065046085155413 0 0.01113670203749609 -0.019815204694750815 0 0.011882802543895571 -0.019065046085155413 0 0.012925089658464251 -0.019135423380657608 0 0.012771489175271473 -0.020106974753467295 0 0.01113670203749609 -0.019815204694750815 0 0.012771489175271473 -0.020106974753467295 0 0.011954745829395836 -0.021053187166206244 0 0.011882802543895571 -0.019065046085155413 0 0.01113670203749609 -0.019815204694750815 0 0.012771489175271473 -0.020106974753467295 0 0.014502519772920741 -0.020432134196367444 0 0.014319313777761957 -0.020445497525980849 0 0.013801412490494836 -0.020120241772857161 0 0.013801412490494836 -0.020120241772857161 0 0.012925089658464251 -0.019135423380657608 0 0.012771489175271473 -0.020106974753467295 0 0.012771489175271473 -0.020106974753467295 0 0.013504279243394895 -0.020600985340656575 0 0.013019200631601337 -0.021295973631473567 0 0.013801412490494836 -0.020120241772857161 0 0.012771489175271473 -0.020106974753467295 0 0.013504279243394895 -0.020600985340656575 0 0.014219112895981623 -0.020733594342173308 0 0.013801412490494836 -0.020120241772857161 0 0.013504279243394895 -0.020600985340656575 0 0.014219112895981623 -0.020733594342173308 0 0.013504279243394895 -0.020600985340656575 0 0.013967715905235314 -0.021117826899330994 0 0.014219112895981623 -0.020733594342173308 0 0.014319313777761957 -0.020445497525980849 0 0.013801412490494836 -0.020120241772857161 0 0.014266698295983196 -0.022263734465592454 0 0.013019200631601337 -0.021295973631473567 0 0.012013235605334158 -0.02241232195126926 0 0.0062071660941604139 -0.015425089483665926 0 0.005320668266829893 -0.011961052983215342 0 0.013504279243394895 -0.020600985340656575 0 0.013967715905235314 -0.021117826899330994 0 0.013019200631601337 -0.021295973631473567 0 0.014266698295983196 -0.022263734465592454 0 0.013967715905235314 -0.021117826899330994 0 0.013019200631601337 -0.021295973631473567 0 0.01113670203749609 -0.019815204694750815 0 0.011954745829395836 -0.021053187166206244 0 0.010822951036050301 -0.021777110658144781 0 0.013019200631601337 -0.021295973631473567 0 0.011954745829395836 -0.021053187166206244 0 0.012013235605334158 -0.02241232195126926 0 0.012771489175271473 -0.020106974753467295 0 0.013019200631601337 -0.021295973631473567 0 0.011954745829395836 -0.021053187166206244 0 -0.0019183019352227732 -0.0024519440961716524 0 -0.0022175277545608873 -0.0025621649430128519 0 -0.0019355921366914822 -0.0024690456545517128 0 0.011954745829395836 -0.021053187166206244 0 0.012013235605334158 -0.02241232195126926 0 0.010822951036050301 -0.021777110658144781 0 0.005320668266829893 -0.011961052983215342 0 0.0049439671653891248 -0.011950659340466083 0 -0.0022175277545608873 -0.0025621649430128519 0 -0.0019355921366914822 -0.0024690456545517128 0 -0.0020785573691449581 -0.0024742787945944375 0 -0.0019355921366914822 -0.0024690456545517128 0 -0.0018766333427303007 -0.0024298267536866603 0 -0.0020785573691449581 -0.0024742787945944375 0 -0.0019355921366914822 -0.0024690456545517128 0 -0.0017556443827696281 -0.0024738375786570125 0 -0.0017401928412841385 -0.0024747605463010633 0 -0.0019183019352227732 -0.0024519440961716524 0 -0.0019355921366914822 -0.0024690456545517128 0 -0.0017401928412841385 -0.0024747605463010633 0 0.005320668266829893 -0.011961052983215342 0 0.0040706076663728549 -0.010915644539298599 0 -0.0019355921366914822 -0.0024690456545517128 0 -0.0017556443827696281 -0.0024738375786570125 0 -0.0018766333427303007 -0.0024298267536866603 0 -0.0017499277626549963 -0.0024938633499055544 0 -0.0017401928412841385 -0.0024747605463010633 0 -0.0016860877003216368 -0.0024609751242593448 0 -0.0017499277626549963 -0.0024938633499055544 0 -0.0017166491502432816 -0.0024996744963798742 0 -0.0017401928412841385 -0.0024747605463010633 0 0.0062071660941604139 -0.015425089483665926 0 0.0043332617608362852 -0.0057442492736617208 0 0.0034685295264562563 0.00096706144329651816 0 0.0027353494458540579 0.0024741405106579557 0 0.0017489758971946767 0.00031643086928919713 0 -0.0017556443827696281 -0.0024738375786570125 0 -0.0017401928412841385 -0.0024747605463010633 0 -0.0016860877003216368 -0.0024609751242593448 0 -0.0017556443827696281 -0.0024738375786570125 0 -0.0016860877003216368 -0.0024609751242593448 0 -0.0016020584188126998 -0.0024391509018932794 0 -0.0016860877003216368 -0.0024609751242593448 0 -0.0016020584188126998 -0.0024391509018932794 0 -0.0012855200710112065 -0.0025510015586945006 0 -0.0017556443827696281 -0.0024738375786570125 0 -0.0018766333427303007 -0.0024298267536866603 0 -0.0016020584188126998 -0.0024391509018932794 0 -0.0018766333427303007 -0.0024298267536866603 0 -0.0016020584188126998 -0.0024391509018932794 0 -0.0017334704143818407 -0.0023784188597330211 0 -0.0017334704143818407 -0.0023784188597330211 0 -0.0018672832092527455 -0.0022709732258824138 0 -0.0016147521201561668 -0.0024435617682417787 0 -0.0016020584188126998 -0.0024391509018932794 0 -0.0017334704143818407 -0.0023784188597330211 0 -0.0016147521201561668 -0.0024435617682417787 0 -0.0018766333427303007 -0.0024298267536866603 0 -0.0017334704143818407 -0.0023784188597330211 0 -0.0018672832092527455 -0.0022709732258824138 0 -0.0018766333427303007 -0.0024298267536866603 0 -0.0020785573691449581 -0.0024742787945944375 0 -0.0018672832092527455 -0.0022709732258824138 0 -0.0019969953650693256 -0.0024394392063980417 0 -0.0020785573691449581 -0.0024742787945944375 0 -0.0018672832092527455 -0.0022709732258824138 0 -0.0019969953650693256 -0.0024394392063980417 0 -0.0018648508523007011 -0.0022144849238187624 0 -0.0018672832092527455 -0.0022709732258824138 0 -0.0018672832092527455 -0.0022709732258824138 0 -0.0020016516024619754 -0.0022255199152325898 0 -0.0016147521201561668 -0.0024435617682417787 0 -0.0018648508523007011 -0.0022144849238187624 0 -0.0018672832092527455 -0.0022709732258824138 0 -0.0020016516024619754 -0.0022255199152325898 0 -0.0020342576454938795 -0.0025319487785587201 0 -0.0020016516024619754 -0.0022255199152325898 0 -0.0016147521201561668 -0.0024435617682417787 0 -0.0016147521201561668 -0.0024435617682417787 0 -0.0012661875194166022 -0.0027620264130543367 0 -0.0012855200710112065 -0.0025510015586945006 0 -0.0016147521201561668 -0.0024435617682417787 0 -0.0015596141101256735 -0.0029659003829534927 0 -0.0012661875194166022 -0.0027620264130543367 0 -0.0015596141101256735 -0.0029659003829534927 0 -0.0012661875194166022 -0.0027620264130543367 0 -0.00067841772444651477 -0.00329418401510604 0 -0.0020342576454938795 -0.0025319487785587201 0 -0.0016147521201561668 -0.0024435617682417787 0 -0.0015596141101256735 -0.0029659003829534927 0 -0.0020342576454938795 -0.0025319487785587201 0 -0.0022443814368456392 -0.0030249127842725408 0 -0.0015596141101256735 -0.0029659003829534927 0 0.0030695208312659459 -0.00065138143569681535 0 0.0017489758971946767 0.00031643086928919713 0 0.00058704753017653738 -0.0017706905898981467 0 0.0032661777724019431 -0.0023244404615652748 0 0.0030695208312659459 -0.00065138143569681535 0 0.00058704753017653738 -0.0017706905898981467 0 0.0043332617608362852 -0.0057442492736617208 0 0.0024279138386878556 -0.0040400134150487422 0 -0.0016020584188126998 -0.0024391509018932794 0 -0.0016147521201561668 -0.0024435617682417787 0 -0.0012855200710112065 -0.0025510015586945006 0 0.0024279138386878556 -0.0040400134150487422 0 0.0016961502608346755 -0.0040451709444608653 0 -0.0012661875194166022 -0.0027620264130543367 0 -0.0012855200710112065 -0.0025510015586945006 0 -0.00067841772444651477 -0.00329418401510604 0 0.00058704753017653738 -0.0017706905898981467 0 0.0012253303156039108 -0.0034615595978240137 0 -0.00067841772444651477 -0.00329418401510604 0 0.0029041861980976091 -0.0030193609642007227 0 0.0024395908825745466 -0.0036389480965624442 0 0.0032661777724019431 -0.0023244404615652748 0 0.00058704753017653738 -0.0017706905898981467 0 0.0012253303156039108 -0.0034615595978240137 0 0.0030221059623844145 -0.0042834547507846895 0 0.003206116895786247 -0.0052156682252724853 0 0.0033976746534584313 -0.0052507235805197994 0 0.0037773119294621581 -0.0047908593591333122 0 0.0030221059623844145 -0.0042834547507846895 0 0.0033976746534584313 -0.0052507235805197994 0 0.0024395908825745466 -0.0036389480965624442 0 0.0016801746155798432 -0.0047091616475510491 0 -0.00067841772444651477 -0.00329418401510604 0 -0.00038673609446774265 -0.0041796129271890947 0 -0.0011986807015103543 -0.0035085630992837159 0 0.0012253303156039108 -0.0034615595978240137 0 -0.00067841772444651477 -0.00329418401510604 0 -0.00038673609446774265 -0.0041796129271890947 0 0.0016801746155798432 -0.0047091616475510491 0 0.00086131993772971694 -0.0060231404065366079 0 0.003206116895786247 -0.0052156682252724853 0 0.0033789682658291707 -0.0055287036315379186 0 0.0033788783277064823 -0.0059434825340486273 0 0.003206116895786247 -0.0052156682252724853 0 0.0033789682658291707 -0.0055287036315379186 0 0.0033976746534584313 -0.0052507235805197994 0 0.0037417359688462271 -0.0056870405460441803 0 0.0037773119294621581 -0.0047908593591333122 0 0.0033976746534584313 -0.0052507235805197994 0 0.0033789682658291707 -0.0055287036315379186 0 0.0033976746534584313 -0.0052507235805197994 0 0.0035099078678619061 -0.0057152125133891575 0 0.0037417359688462271 -0.0056870405460441803 0 0.0033976746534584313 -0.0052507235805197994 0 0.0035099078678619061 -0.0057152125133891575 0 -0.0022443814368456392 -0.0030249127842725408 0 -0.0015596141101256735 -0.0029659003829534927 0 -0.0016403361157552663 -0.0036266760595889493 0 -0.0015596141101256735 -0.0029659003829534927 0 -0.00067841772444651477 -0.00329418401510604 0 -0.0011986807015103543 -0.0035085630992837159 0 -0.0015596141101256735 -0.0029659003829534927 0 -0.0016403361157552663 -0.0036266760595889493 0 -0.0011986807015103543 -0.0035085630992837159 0 -0.00038673609446774265 -0.0041796129271890947 0 -0.0011986807015103543 -0.0035085630992837159 0 -0.0011256078027723612 -0.0040740963517464568 0 -0.0016403361157552663 -0.0036266760595889493 0 -0.0011986807015103543 -0.0035085630992837159 0 -0.0011256078027723612 -0.0040740963517464568 0 -0.00038673609446774265 -0.0041796129271890947 0 -0.0011256078027723612 -0.0040740963517464568 0 -0.0010715356352138533 -0.00459982270459752 0 -0.0020987057626717948 -0.0038090137016385554 0 -0.0016403361157552663 -0.0036266760595889493 0 -0.0016116799940989609 -0.0043130829434924493 0 -0.0020987057626717948 -0.0038090137016385554 0 -0.0016116799940989609 -0.0043130829434924493 0 -0.0021953333707317403 -0.0045074889284050269 0 -0.0016403361157552663 -0.0036266760595889493 0 -0.0011256078027723612 -0.0040740963517464568 0 -0.0016116799940989609 -0.0043130829434924493 0 -0.0016116799940989609 -0.0043130829434924493 0 -0.0010715356352138533 -0.00459982270459752 0 -0.0016149022794480824 -0.005257016871415718 0 -0.0016116799940989609 -0.0043130829434924493 0 -0.0016149022794480824 -0.005257016871415718 0 -0.0021953333707317403 -0.0045074889284050269 0 -0.0011256078027723612 -0.0040740963517464568 0 -0.0016116799940989609 -0.0043130829434924493 0 -0.0010715356352138533 -0.00459982270459752 0 0.0024050781781782666 -0.0062336628357353629 0 0.0026550025926229139 -0.0085932431076810034 0 0.0035866487518156787 -0.0073818487737611141 0 0.0026550025926229139 -0.0085932431076810034 0 0.00030487828730506859 -0.0087506742474587357 0 0.0017780060968203587 -0.010586556859247278 0 0.0024050781781782666 -0.0062336628357353629 0 0.0026550025926229139 -0.0085932431076810034 0 0.00030487828730506859 -0.0087506742474587357 0 0.00086131993772971694 -0.0060231404065366079 0 -8.8400492280814468e-05 -0.007877947943830817 0 -8.8400492280814468e-05 -0.007877947943830817 0 -0.0014878004920226651 -0.0056411742874843849 0 0.0037375009638403148 -0.012461380309815175 0 0.0031249698072506149 -0.010612485318389821 0 0.0037417359688462271 -0.0056870405460441803 0 0.0036483887224389882 -0.0058715483097780546 0 0.0035099078678619061 -0.0057152125133891575 0 0.0036483887224389882 -0.0058715483097780546 0 0.0035099078678619061 -0.0057152125133891575 0 0.0033788783277064823 -0.0059434825340486273 0 0.0076443466755149129 -0.0071879258781225464 0 0.0033788783277064823 -0.0059434825340486273 0 0.005093519241209485 -0.0075436839277216337 0 0.003206116895786247 -0.0052156682252724853 0 0.0024050781781782666 -0.0062336628357353629 0 0.0033788783277064823 -0.0059434825340486273 0 0.0033789682658291707 -0.0055287036315379186 0 0.0035099078678619061 -0.0057152125133891575 0 0.0033788783277064823 -0.0059434825340486273 0 0.0033788783277064823 -0.0059434825340486273 0 0.0035866487518156787 -0.0073818487737611141 0 0.005093519241209485 -0.0075436839277216337 0 0.0024050781781782666 -0.0062336628357353629 0 0.0033788783277064823 -0.0059434825340486273 0 0.0035866487518156787 -0.0073818487737611141 0 0.0026550025926229139 -0.0085932431076810034 0 0.0035866487518156787 -0.0073818487737611141 0 0.0044118919766235531 -0.0088357394679577043 0 0.0026550025926229139 -0.0085932431076810034 0 0.0044118919766235531 -0.0088357394679577043 0 0.004044889567829355 -0.010593923699068095 0 0.0035866487518156787 -0.0073818487737611141 0 0.0044118919766235531 -0.0088357394679577043 0 0.005093519241209485 -0.0075436839277216337 0 0.0044118919766235531 -0.0088357394679577043 0 0.005093519241209485 -0.0075436839277216337 0 0.0065151187477504183 -0.0082827580992720796 0 0.0076443466755149129 -0.0071879258781225464 0 0.005093519241209485 -0.0075436839277216337 0 0.0065151187477504183 -0.0082827580992720796 0 0.0076443466755149129 -0.0071879258781225464 0 0.0065151187477504183 -0.0082827580992720796 0 0.0072676006646773669 -0.009540969775174336 0 0.0037375009638403148 -0.012461380309815175 0 0.0045255986830643824 -0.014813657598135899 0 0.0065151187477504183 -0.0082827580992720796 0 0.0072676006646773669 -0.009540969775174336 0 0.0055620083821736159 -0.0098336315983150041 0 0.0044118919766235531 -0.0088357394679577043 0 0.0065151187477504183 -0.0082827580992720796 0 0.0055620083821736159 -0.0098336315983150041 0 0.0072676006646773669 -0.009540969775174336 0 0.0055620083821736159 -0.0098336315983150041 0 0.0055895798400285033 -0.011847163195685448 0 0.0045255986830643824 -0.014813657598135899 0 0.0047819113534785388 -0.0195273112174962 0 0.0054676930910933811 -0.019049055712539838 0 0.0056571065782303016 -0.017641847365454596 0 0.0047032002554413047 -0.019277270446301949 0 0.0057846191441674423 -0.014529798956715065 0 0.0046116998487825949 -0.015957916892170923 0 0.0055981317163844588 -0.016024965564115045 0 0.0045255986830643824 -0.014813657598135899 0 0.0045840583865394994 -0.014777940105267753 0 0.004044889567829355 -0.010593923699068095 0 0.0055895798400285033 -0.011847163195685448 0 0.00357571541044934 -0.012470405460241809 0 0.0055620083821736159 -0.0098336315983150041 0 0.004044889567829355 -0.010593923699068095 0 0.0055895798400285033 -0.011847163195685448 0 0.0044118919766235531 -0.0088357394679577043 0 0.0055620083821736159 -0.0098336315983150041 0 0.004044889567829355 -0.010593923699068095 0 0.0041656520574554585 -0.017281110072259281 0 0.0046116998487825949 -0.015957916892170923 0 0.0033605916873625089 -0.017405691875917083 0 0.0045840583865394994 -0.014777940105267753 0 0.0035878410235242989 -0.016096316807535697 0 0.0055895798400285033 -0.011847163195685448 0 0.00357571541044934 -0.012470405460241809 0 0.004203336331393367 -0.014634964553029187 0 0.0052801386882750422 -0.016219110944008148 0 0.0081720277821936381 -0.013724962704804449 0 0.0076598351701959791 -0.017941323112789669 0 0.0047819113534785388 -0.0195273112174962 0 0.005568357482349115 -0.021541890066486376 0 0.0050303436900287265 -0.018245690831080994 0 0.0047819113534785388 -0.0195273112174962 0 0.0041656520574554585 -0.017281110072259281 0 0.0046116998487825949 -0.015957916892170923 0 0.0055981317163844588 -0.016024965564115045 0 0.005911173309234713 -0.028596626006890457 0 0.0062724331299676313 -0.026567162060489875 0 0.00519461293381401 -0.027550766431069306 0 0.00048809520039252291 -0.010586655294039163 0 0.0020859387679231451 -0.010300407392084486 0 0.0017167435276423683 -0.012517683468144421 0 0.00048809520039252291 -0.010586655294039163 0 -0.00058520614833847454 -0.011383301412087196 0 -0.00094770435710246094 -0.010390468867860178 0 -8.8400492280814468e-05 -0.007877947943830817 0 -0.00041166055877413671 -0.0084682030934345662 0 0.00059436501540744834 -0.0085149449825478816 0 0.00048809520039252291 -0.010586655294039163 0 -0.00094770435710246094 -0.010390468867860178 0 0.00059436501540744834 -0.0085149449825478816 0 0.00048809520039252291 -0.010586655294039163 0 0.0020859387679231451 -0.010300407392084486 0 -8.8400492280814468e-05 -0.007877947943830817 0 0.001200121000554562 -0.0094940114092821135 0 0.0026550025926229139 -0.0085932431076810034 0 0.004044889567829355 -0.010593923699068095 0 0.0017780060968203587 -0.010586556859247278 0 0.001200121000554562 -0.0094940114092821135 0 0.0017718784123375774 -0.01020851655089916 0 0.004044889567829355 -0.010593923699068095 0 0.0017780060968203587 -0.010586556859247278 0 0.00357571541044934 -0.012470405460241809 0 0.0020859387679231451 -0.010300407392084486 0 0.0017167435276423683 -0.012517683468144421 0 0.00357571541044934 -0.012470405460241809 0 0.00357571541044934 -0.012470405460241809 0 0.0026205832155278739 -0.014374312603539446 0 0.004203336331393367 -0.014634964553029187 0 0.0017167435276423683 -0.012517683468144421 0 0.0026205832155278739 -0.014374312603539446 0 0.0012103671589840451 -0.014957524669906316 0 0.0017167435276423683 -0.012517683468144421 0 0.00357571541044934 -0.012470405460241809 0 0.0026205832155278739 -0.014374312603539446 0 6.0332051828536564e-05 -0.013030478964132494 0 -0.00089259510396607125 -0.017338274623974147 0 -0.0018897606871984959 -0.011607537016826115 0 0.0017167435276423683 -0.012517683468144421 0 6.0332051828536564e-05 -0.013030478964132494 0 0.0012103671589840451 -0.014957524669906316 0 0.00048809520039252291 -0.010586655294039163 0 0.0017167435276423683 -0.012517683468144421 0 6.0332051828536564e-05 -0.013030478964132494 0 -0.00058520614833847454 -0.011383301412087196 0 6.0332051828536564e-05 -0.013030478964132494 0 -0.0018897606871984959 -0.011607537016826115 0 0.00048809520039252291 -0.010586655294039163 0 -0.00058520614833847454 -0.011383301412087196 0 6.0332051828536564e-05 -0.013030478964132494 0 -0.00089259510396607125 -0.017338274623974147 0 0.0012103671589840451 -0.014957524669906316 0 0.0018045162599268447 -0.018719253157321331 0 6.0332051828536564e-05 -0.013030478964132494 0 -0.00089259510396607125 -0.017338274623974147 0 0.0012103671589840451 -0.014957524669906316 0 -0.00040671090809991537 -0.015820635492562476 0 0.000944161059340494 -0.018439669817205552 0 -0.00092097647047807458 -0.013806811643157188 0 8.1906268466575561e-05 -0.016081277369338107 0 -0.0018260730420104866 -0.015820145475085205 0 -0.00089259510396607125 -0.017338274623974147 0 0.0018045162599268447 -0.018719253157321331 0 0.0014078177829314881 -0.022717093697561627 0 0.0031983002905188883 -0.02041932512235322 0 0.0018045162599268447 -0.018719253157321331 0 0.0014078177829314881 -0.022717093697561627 0 0.0031983002905188883 -0.02041932512235322 0 0.0018045162599268447 -0.018719253157321331 0 0.0025006535000735271 -0.018469193755257018 0 0.0031983002905188883 -0.02041932512235322 0 0.0025006535000735271 -0.018469193755257018 0 0.0038962130930620033 -0.019605865179093688 0 0.0018045162599268447 -0.018719253157321331 0 0.0025006535000735271 -0.018469193755257018 0 0.0033605916873625089 -0.017405691875917083 0 0.0026205832155278739 -0.014374312603539446 0 0.0012103671589840451 -0.014957524669906316 0 0.0018045162599268447 -0.018719253157321331 0 0.0028623743419225675 -0.017036652719998865 0 0.0035878410235242989 -0.016096316807535697 0 0.0026205832155278739 -0.014374312603539446 0 0.0018045162599268447 -0.018719253157321331 0 0.004203336331393367 -0.014634964553029187 0 0.0050303436900287265 -0.018245690831080994 0 0.0044447596696140191 -0.018428129260871114 0 0.0052801386882750422 -0.016219110944008148 0 0.0025006535000735271 -0.018469193755257018 0 0.0048545583025382906 -0.018615642475269274 0 0.0041656520574554585 -0.017281110072259281 0 0.0025006535000735271 -0.018469193755257018 0 0.0033605916873625089 -0.017405691875917083 0 0.0052801386882750422 -0.016219110944008148 0 0.0048545583025382906 -0.018615642475269274 0 0.0076598351701959791 -0.017941323112789669 0 0.0076598351701959791 -0.017941323112789669 0 0.0050617626091693244 -0.020870604345226716 0 0.0066754626309867377 -0.023092623795442736 0 0.005568357482349115 -0.021541890066486376 0 0.0057699768491423281 -0.022185609290113976 0 0.0062724331299676313 -0.026567162060489875 0 0.0066754626309867377 -0.023092623795442736 0 0.0047630586714906588 -0.024742366010217343 0 0.0048545583025382906 -0.018615642475269274 0 0.0076598351701959791 -0.017941323112789669 0 0.0050617626091693244 -0.020870604345226716 0 0.0048545583025382906 -0.018615642475269274 0 0.0038962130930620033 -0.019605865179093688 0 0.0050617626091693244 -0.020870604345226716 0 0.0025006535000735271 -0.018469193755257018 0 0.0048545583025382906 -0.018615642475269274 0 0.0038962130930620033 -0.019605865179093688 0 0.0031983002905188883 -0.02041932512235322 0 0.0050617626091693244 -0.020870604345226716 0 0.0040034625164719947 -0.022317149623340044 0 0.0031983002905188883 -0.02041932512235322 0 0.0038962130930620033 -0.019605865179093688 0 0.0050617626091693244 -0.020870604345226716 0 0.0040034625164719947 -0.022317149623340044 0 0.005383569078735528 -0.022666303738285921 0 0.0049623077069545487 -0.023474651316847284 0 0.0050617626091693244 -0.020870604345226716 0 0.0040034625164719947 -0.022317149623340044 0 0.005383569078735528 -0.022666303738285921 0 0.0050617626091693244 -0.020870604345226716 0 0.005383569078735528 -0.022666303738285921 0 0.0066754626309867377 -0.023092623795442736 0 0.005383569078735528 -0.022666303738285921 0 0.0059924697190485059 -0.023231546719770103 0 0.0066754626309867377 -0.023092623795442736 0 0.0059924697190485059 -0.023231546719770103 0 0.0058132785304935743 -0.023688775743575335 0 0.0049623077069545487 -0.023474651316847284 0 0.005383569078735528 -0.022666303738285921 0 0.0059924697190485059 -0.023231546719770103 0 0.0049623077069545487 -0.023474651316847284 0 0.0040034625164719947 -0.022317149623340044 0 0.0049623077069545487 -0.023474651316847284 0 0.0035148364822692548 -0.023707803101260156 0 0.0049623077069545487 -0.023474651316847284 0 0.004614967705202767 -0.0244546827536435 0 0.0035148364822692548 -0.023707803101260156 0 0.006170631225734473 -0.023281704186582246 0 0.0060352096572889582 -0.022910733072608894 0 0.0047630586714906588 -0.024742366010217343 0 0.006170631225734473 -0.023281704186582246 0 0.0066754626309867377 -0.023092623795442736 0 0.0047630586714906588 -0.024742366010217343 0 0.006170631225734473 -0.023281704186582246 0 0.0066754626309867377 -0.023092623795442736 0 0.006335914792549014 -0.023199349393615586 0 0.0059924697190485059 -0.023231546719770103 0 0.0066754626309867377 -0.023092623795442736 0 0.006335914792549014 -0.023199349393615586 0 0.0059924697190485059 -0.023231546719770103 0 0.0061003800822214864 -0.023445660732433961 0 0.006335914792549014 -0.023199349393615586 0 0.0059924697190485059 -0.023231546719770103 0 0.0058132785304935743 -0.023688775743575335 0 0.0061003800822214864 -0.023445660732433961 0 0.0061003800822214864 -0.023445660732433961 0 0.006335914792549014 -0.023199349393615586 0 0.0063424134947167327 -0.023037980152162844 0 0.006170631225734473 -0.023281704186582246 0 0.006335914792549014 -0.023199349393615586 0 0.0063424134947167327 -0.023037980152162844 0 0.006170631225734473 -0.023281704186582246 0 0.0063424134947167327 -0.023037980152162844 0 0.0060352096572889582 -0.022910733072608894 0 0.0036316377245543792 -0.023085085688473398 0 0.0031697669361482783 -0.022014752301274788 0 0.0063424134947167327 -0.023037980152162844 0 0.0060352096572889582 -0.022910733072608894 0 0.0065017320731881661 -0.022049045505018003 0 0.0044154799068136363 -0.024531804962305174 0 0.0043114642518851561 -0.024276686507115765 0 0.0044901659073761846 -0.024164916184634486 0 0.0063424134947167327 -0.023037980152162844 0 0.0068926975494111873 -0.02266423155649577 0 0.0065017320731881661 -0.022049045505018003 0 0.0027117261872165602 -0.020851425737948213 0 0.0022983633814689158 -0.02083257458466024 0 0.0061003800822214864 -0.023445660732433961 0 0.0063424134947167327 -0.023037980152162844 0 0.0058031759812919971 -0.024436520256981734 0 0.0022983633814689158 -0.02083257458466024 0 0.0031697669361482783 -0.022014752301274788 0 0.0021041412215285801 -0.018666085627027981 0 0.0010917526903652783 -0.019341415181209614 0 0.0018419498455560265 -0.019560005424106141 0 0.004614967705202767 -0.0244546827536435 0 0.0057939548795771512 -0.02463482822441548 0 0.0033790683068251749 -0.026410350178910368 0 0.004614967705202767 -0.0244546827536435 0 0.0035148364822692548 -0.023707803101260156 0 0.0033790683068251749 -0.026410350178910368 0 0.0022983633814689158 -0.02083257458466024 0 0.0014926621983986498 -0.018398208599224041 0 0.0058132785304935743 -0.023688775743575335 0 0.0049623077069545487 -0.023474651316847284 0 0.0055770109204766535 -0.024242330757487586 0 0.004614967705202767 -0.0244546827536435 0 0.0055770109204766535 -0.024242330757487586 0 0.0057939548795771512 -0.02463482822441548 0 0.0049623077069545487 -0.023474651316847284 0 0.004614967705202767 -0.0244546827536435 0 0.0055770109204766535 -0.024242330757487586 0 0.0058132785304935743 -0.023688775743575335 0 0.0061003800822214864 -0.023445660732433961 0 0.0058031759812919971 -0.024436520256981734 0 0.0058132785304935743 -0.023688775743575335 0 0.0055770109204766535 -0.024242330757487586 0 0.0058031759812919971 -0.024436520256981734 0 0.00232924267492724 -0.020875515460620695 0 0.0022983633814689158 -0.02083257458466024 0 0.0021041412215285801 -0.018666085627027981 0 0.0018419498455560265 -0.019560005424106141 0 0.0025536958758423317 -0.019359820057693145 0 -0.00075934536602210697 -0.017602151180126074 0 8.1906268466575561e-05 -0.016081277369338107 0 0.001063248874994436 -0.018260841326218944 0 0.000944161059340494 -0.018439669817205552 0 0.0014926621983986498 -0.018398208599224041 0 0.0014078177829314881 -0.022717093697561627 0 0.0035148364822692548 -0.023707803101260156 0 0.0033790683068251749 -0.026410350178910368 0 -0.00075934536602210697 -0.017602151180126074 0 8.1906268466575561e-05 -0.016081277369338107 0 -0.0018260730420104866 -0.015820145475085205 0 0.0031983002905188883 -0.02041932512235322 0 0.0040034625164719947 -0.022317149623340044 0 0.0014078177829314881 -0.022717093697561627 0 0.0040034625164719947 -0.022317149623340044 0 0.0014078177829314881 -0.022717093697561627 0 0.0035148364822692548 -0.023707803101260156 0 0.0026619310945513483 -0.024975764371921682 0 0.0031744499857126454 -0.024524700652959291 0 0.0031804048988048838 -0.025014178868587474 0 0.0033509818651200006 -0.028365174651581344 0 0.0019290563761758029 -0.029296826288926603 0 0.0008053017475360242 -0.026538107263430311 0 0.0021394435038553056 -0.024857317663940011 0 0.0008053017475360242 -0.026538107263430311 0 0.0015526267956466374 -0.023428377400997243 0 0.0033509818651200006 -0.028365174651581344 0 0.0021394435038553056 -0.024857317663940011 0 0.0008053017475360242 -0.026538107263430311 0 0.0026695691414523109 -0.02684050464275993 0 0.0023848356691069553 -0.026035270811481607 0 0.0026619310945513483 -0.024975764371921682 0 0.0021394435038553056 -0.024857317663940011 0 0.0031744499857126454 -0.024524700652959291 0 0.0031744499857126454 -0.024524700652959291 0 0.0037914433484654664 -0.024632974101375209 0 0.0040859776632082723 -0.024138712237724715 0 0.0042422940666187675 -0.024456769694253533 0 0.0037914433484654664 -0.024632974101375209 0 0.0040859776632082723 -0.024138712237724715 0 0.0043114642518851561 -0.024276686507115765 0 0.0042422940666187675 -0.024456769694253533 0 0.0040859776632082723 -0.024138712237724715 0 0.0044154799068136363 -0.024531804962305174 0 0.0043114642518851561 -0.024276686507115765 0 0.0042422940666187675 -0.024456769694253533 0 0.0036316377245543792 -0.023085085688473398 0 0.0036877814676296015 -0.023597984502121853 0 0.004359514725141669 -0.024638902553764476 0 0.0037914433484654664 -0.024632974101375209 0 0.0038107347192186296 -0.0251336307031759 0 0.0044154799068136363 -0.024531804962305174 0 0.004359514725141669 -0.024638902553764476 0 0.0047630586714906588 -0.024742366010217343 0 0.0044154799068136363 -0.024531804962305174 0 0.0042422940666187675 -0.024456769694253533 0 0.004359514725141669 -0.024638902553764476 0 0.0042422940666187675 -0.024456769694253533 0 0.004359514725141669 -0.024638902553764476 0 0.0037914433484654664 -0.024632974101375209 0 0.0031744499857126454 -0.024524700652959291 0 0.0031804048988048838 -0.025014178868587474 0 0.0037914433484654664 -0.024632974101375209 0 0.0031804048988048838 -0.025014178868587474 0 0.0037914433484654664 -0.024632974101375209 0 0.0038107347192186296 -0.0251336307031759 0 0.0031804048988048838 -0.025014178868587474 0 0.0038107347192186296 -0.0251336307031759 0 0.0025988938164316776 -0.025843105511867491 0 0.0038107347192186296 -0.0251336307031759 0 0.0043320019886994559 -0.026611840802204544 0 0.0025988938164316776 -0.025843105511867491 0 0.0038107347192186296 -0.0251336307031759 0 0.0047630586714906588 -0.024742366010217343 0 0.0043320019886994559 -0.026611840802204544 0 0.004359514725141669 -0.024638902553764476 0 0.0038107347192186296 -0.0251336307031759 0 0.0047630586714906588 -0.024742366010217343 0 0.0062724331299676313 -0.026567162060489875 0 0.0047630586714906588 -0.024742366010217343 0 0.0043320019886994559 -0.026611840802204544 0 0.0062724331299676313 -0.026567162060489875 0 0.0043320019886994559 -0.026611840802204544 0 0.00519461293381401 -0.027550766431069306 0 0.0043320019886994559 -0.026611840802204544 0 0.0025988938164316776 -0.025843105511867491 0 0.0029289723218763886 -0.028182599885382513 0 0.0028612838625853756 -0.031314129098806175 0 0.0030046492810560936 -0.031676731091412433 0 0.0035440470570886826 -0.031684176762075279 0 0.0030915620110182635 -0.02826505568756324 0 0.0035217634744848518 -0.029681249954858682 0 0.0028612838625853756 -0.031314129098806175 0 0.0035104317491712307 -0.030725043526201024 0 0.0022743294744043928 -0.030752067031057598 0 0.0028612838625853756 -0.031314129098806175 0 0.0035104317491712307 -0.030725043526201024 0 0.0035440470570886826 -0.031684176762075279 0 0.0028612838625853756 -0.031314129098806175 0 0.0026159175921954469 -0.031572316158748649 0 0.0030046492810560936 -0.031676731091412433 0 0.0033509818651200006 -0.028365174651581344 0 0.0035104317491712307 -0.030725043526201024 0 0.0022743294744043928 -0.030752067031057598 0 0.0026695691414523109 -0.02684050464275993 0 0.0030915620110182635 -0.02826505568756324 0 0.0026619310945513483 -0.024975764371921682 0 0.0031804048988048838 -0.025014178868587474 0 0.0025988938164316776 -0.025843105511867491 0 0.0033509818651200006 -0.028365174651581344 0 0.0019290563761758029 -0.029296826288926603 0 0.0022743294744043928 -0.030752067031057598 0 0.0019290563761758029 -0.029296826288926603 0 0.0022743294744043928 -0.030752067031057598 0 0.0009548211325186058 -0.031087340271868755 0 0.0022743294744043928 -0.030752067031057598 0 0.0017156929837956476 -0.031276456593709458 0 0.0009548211325186058 -0.031087340271868755 0 0.0022743294744043928 -0.030752067031057598 0 0.0017156929837956476 -0.031276456593709458 0 0.0022889674711999018 -0.031405475615696746 0 0.0028612838625853756 -0.031314129098806175 0 0.0022743294744043928 -0.030752067031057598 0 0.0022889674711999018 -0.031405475615696746 0 0.0022889674711999018 -0.031405475615696746 0 0.0026159175921954469 -0.031572316158748649 0 0.0022600895233860999 -0.031858143108444044 0 0.0028612838625853756 -0.031314129098806175 0 0.0022889674711999018 -0.031405475615696746 0 0.0026159175921954469 -0.031572316158748649 0 0.0017156929837956476 -0.031276456593709458 0 0.0022889674711999018 -0.031405475615696746 0 0.0022600895233860999 -0.031858143108444044 0 0.0037025480816431774 -0.032262396324712228 0 0.003560686354101518 -0.03191468191309766 0 0.0036231024424125684 -0.031979330648571558 0 0.003534776796479538 -0.032017104154166649 0 0.0035042282658913214 -0.032010980471204376 0 0.0035176359773577788 -0.031805910004138502 0 0.0037025480816431774 -0.032262396324712228 0 0.0037627230182256054 -0.032059398331594435 0 0.0036231024424125684 -0.031979330648571558 0 0.0037953097217838707 -0.032213210834700037 0 0.0036230520197660259 -0.032097053609318013 0 0.0037025480816431774 -0.032262396324712228 0 0.0035176359773577788 -0.031805910004138502 0 0.003560686354101518 -0.03191468191309766 0 0.0022600895233860999 -0.031858143108444044 0 0.0030046492810560936 -0.031676731091412433 0 0.0035280500681915605 -0.031787359269387236 0 0.0026159175921954469 -0.031572316158748649 0 0.0022600895233860999 -0.031858143108444044 0 0.0030046492810560936 -0.031676731091412433 0 0.0035042282658913214 -0.032010980471204376 0 0.0035176359773577788 -0.031805910004138502 0 0.0035280500681915605 -0.031787359269387236 0 0.0029821987492300345 -0.031872824339956092 0 0.0030945579554094169 -0.03188521838209353 0 0.0030046492810560936 -0.031676731091412433 0 0.0035440470570886826 -0.031684176762075279 0 0.0035280500681915605 -0.031787359269387236 0 0.003560686354101518 -0.03191468191309766 0 0.0034617535552853222 -0.03185728346594232 0 0.0036231024424125684 -0.031979330648571558 0 0.003560686354101518 -0.03191468191309766 0 0.0035135435994619762 -0.031853584338447573 0 0.0034617535552853222 -0.03185728346594232 0 0.0035176359773577788 -0.031805910004138502 0 0.003560686354101518 -0.03191468191309766 0 0.0035318194738732261 -0.03183943567718938 0 0.0035447012092671673 -0.031800241281992991 0 0.0035135435994619762 -0.031853584338447573 0 0.003603085555478384 -0.031785338165190739 0 0.0035176359773577788 -0.031805910004138502 0 0.0035447012092671673 -0.031800241281992991 0 0.0036078636940658567 -0.031736720332129723 0 0.0035176359773577788 -0.031805910004138502 0 0.0035447012092671673 -0.031800241281992991 0 0.0035318194738732261 -0.03183943567718938 0 0.003560686354101518 -0.03191468191309766 0 0.0035318194738732261 -0.03183943567718938 0 0.0035135435994619762 -0.031853584338447573 0 0.0035447012092671673 -0.031800241281992991 0 0.0035318194738732261 -0.03183943567718938 0 0.0035135435994619762 -0.031853584338447573 0 0.0035135435994619762 -0.031853584338447573 0 0.003603085555478384 -0.031785338165190739 0 0.0035960289181093991 -0.031962611888247727 0 0.0035135435994619762 -0.031853584338447573 0 0.0034617535552853222 -0.03185728346594232 0 0.0035960289181093991 -0.031962611888247727 0 0.0034617535552853222 -0.03185728346594232 0 0.0036231024424125684 -0.031979330648571558 0 0.0038644460250704688 -0.031876114295245769 0 0.0034474024443526484 -0.031656631818870615 0 0.0038014313986587957 -0.031547401414658553 0 0.0040298898467664773 -0.031911543320966698 0 0.0051591137456867917 -0.026565839634302306 0 0.0050356713419738384 -0.028770651158193196 0 0.0037627230182256054 -0.032059398331594435 0 0.0036231024424125684 -0.031979330648571558 0 0.0038644460250704688 -0.031876114295245769 0 0.0043320019886994559 -0.026611840802204544 0 0.0042795577219855163 -0.028375541653480184 0 0.00519461293381401 -0.027550766431069306 0 0.0042535663876167359 -0.027111712628560363 0 0.0042571236743607441 -0.0267607070871306 0 0.005911173309234713 -0.028596626006890457 0 0.0042795577219855163 -0.028375541653480184 0 0.00519461293381401 -0.027550766431069306 0 0.0035440470570886826 -0.031684176762075279 0 0.0035280500681915605 -0.031787359269387236 0 0.0040066074676520687 -0.031404192344950815 0 0.0044633241956100267 -0.029607796315567224 0 0.0029289723218763886 -0.028182599885382513 0 0.0040066074676520687 -0.031404192344950815 0 0.0035217634744848518 -0.029681249954858682 0 0.0037906839527288828 -0.030428483336074869 0 0.0043320019886994559 -0.026611840802204544 0 0.0044633241956100267 -0.029607796315567224 0 0.0029289723218763886 -0.028182599885382513 0 0.0044633241956100267 -0.029607796315567224 0 0.0040066074676520687 -0.031404192344950815 0 0.0041174949736856939 -0.032517618653448141 0 0.0036078636940658567 -0.031736720332129723 0 0.003603085555478384 -0.031785338165190739 0 0.0040066074676520687 -0.031404192344950815 0 0.0035280500681915605 -0.031787359269387236 0 0.0036078636940658567 -0.031736720332129723 0 0.0040066074676520687 -0.031404192344950815 0 0.0035176359773577788 -0.031805910004138502 0 0.0035280500681915605 -0.031787359269387236 0 0.0036078636940658567 -0.031736720332129723 0 0.0035447012092671673 -0.031800241281992991 0 0.0036078636940658567 -0.031736720332129723 0 0.003603085555478384 -0.031785338165190739 0 0.003603085555478384 -0.031785338165190739 0 0.0035960289181093991 -0.031962611888247727 0 0.0037156076105419205 -0.031847322767738849 0 0.0035960289181093991 -0.031962611888247727 0 0.0037156076105419205 -0.031847322767738849 0 0.0037428328189971043 -0.032176703337046753 0 0.003603085555478384 -0.031785338165190739 0 0.0037156076105419205 -0.031847322767738849 0 0.0040066074676520687 -0.031404192344950815 0 0.0037156076105419205 -0.031847322767738849 0 0.0040066074676520687 -0.031404192344950815 0 0.0041174949736856939 -0.032517618653448141 0 0.0037156076105419205 -0.031847322767738849 0 0.0041174949736856939 -0.032517618653448141 0 0.0037428328189971043 -0.032176703337046753 0 0.0056571065782303016 -0.017641847365454596 0 0.0047032002554413047 -0.019277270446301949 0 0.0039180218111366004 -0.01913578449192762 0 0.005911173309234713 -0.028596626006890457 0 0.0042795577219855163 -0.028375541653480184 0 0.0041562602375285491 -0.030064973493622981 0 0.0042571236743607441 -0.0267607070871306 0 0.0044798829445333007 -0.022149043616288201 0 0.0047819113534785388 -0.0195273112174962 0 0.0044798829445333007 -0.022149043616288201 0 0.0051250994434434236 -0.015364279981570507 0 0.0053093125935314046 -0.01397237423503947 0 0.0043926201297886918 -0.015081266407413368 0 0.0037375009638403148 -0.012461380309815175 0 0.0041851553006690802 -0.014741108699991292 0 0.0045255986830643824 -0.014813657598135899 0 0.0041851553006690802 -0.014741108699991292 0 0.0054676930910933811 -0.019049055712539838 0 0.004623523049588768 -0.020067451027807423 0 0.0047032002554413047 -0.019277270446301949 0 0.0047032002554413047 -0.019277270446301949 0 0.0038700994155994981 -0.019778457919931755 0 0.0039180218111366004 -0.01913578449192762 0 0.004623523049588768 -0.020067451027807423 0 0.0047032002554413047 -0.019277270446301949 0 0.0038700994155994981 -0.019778457919931755 0 0.0041851553006690802 -0.014741108699991292 0 0.0044883856131042975 -0.018477142081021039 0 0.0052365749647857261 -0.02170496632942738 0 0.0060208398696118227 -0.023169182798145001 0 0.0040256833088403148 -0.0092912836576243239 0 0.0046943803000700406 -0.0095521596839821758 0 0.0047437346189768709 -0.0084143978504498344 0 0.0044883856131042975 -0.018477142081021039 0 0.0052365749647857261 -0.02170496632942738 0 0.0077886656322098975 -0.024776829452996661 0 0.0082229187327956393 -0.018767731642600476 0 0.0032940828958981298 -0.023036040931250053 0 0.0044883856131042975 -0.018477142081021039 0 0.0044798829445333007 -0.022149043616288201 0 0.0041174949736856939 -0.032517618653448141 0 0.0037428328189971043 -0.032176703337046753 0 0.0037309423258468795 -0.03237701430818353 0 0.0044798829445333007 -0.022149043616288201 0 0.0052365749647857261 -0.02170496632942738 0 0.0035960289181093991 -0.031962611888247727 0 0.0037428328189971043 -0.032176703337046753 0 0.0037309423258468795 -0.03237701430818353 0 0.0046943803000700406 -0.0095521596839821758 0 0.0047437346189768709 -0.0084143978504498344 0 0.0065432592831889194 -0.0078994509367156778 0 0.0041636094746174759 -0.0074526186954521276 0 0.0047437346189768709 -0.0084143978504498344 0 0.0065432592831889194 -0.0078994509367156778 0 0.0044883856131042975 -0.018477142081021039 0 0.0052639016374066809 -0.011461803204959809 0 0.0040256833088403148 -0.0092912836576243239 0 0.0041636094746174759 -0.0074526186954521276 0 0.0047437346189768709 -0.0084143978504498344 0 0.0039261524153748921 -0.010368702594092638 0 0.0037375009638403148 -0.012461380309815175 0 0.0037417359688462271 -0.0056870405460441803 0 0.0036070975762845219 -0.0066094587058472204 0 0.0040310365014871539 -0.0062360959413901244 0 0.0041510236542577515 -0.013854075509126184 0 0.0029408097159736805 -0.013386720843652168 0 0.0027880685169593151 -0.015500023031579926 0 0.0037417359688462271 -0.0056870405460441803 0 0.0046472709942269683 -0.0060875315732525593 0 0.0040310365014871539 -0.0062360959413901244 0 0.0040790403905610522 -0.0067827607994764682 0 0.0046472709942269683 -0.0060875315732525593 0 0.0040310365014871539 -0.0062360959413901244 0 0.0041851553006690802 -0.014741108699991292 0 0.0052639016374066809 -0.011461803204959809 0 0.0036070975762845219 -0.0066094587058472204 0 0.0040790403905610522 -0.0067827607994764682 0 0.0040310365014871539 -0.0062360959413901244 0 0.0035600533074517144 -0.03131171819089832 0 0.0038314660505915045 -0.031261614455769339 0 0.0038014313986587957 -0.031547401414658553 0 0.0038314660505915045 -0.031261614455769339 0 0.0038014313986587957 -0.031547401414658553 0 0.0041710218425489078 -0.031594036451797924 0 0.0034474024443526484 -0.031656631818870615 0 0.0035600533074517144 -0.03131171819089832 0 0.0038014313986587957 -0.031547401414658553 0 0.0034617535552853222 -0.03185728346594232 0 0.0035960289181093991 -0.031962611888247727 0 0.0037309423258468795 -0.03237701430818353 0 0.0028674414306928734 -0.03140396368607648 0 0.0032886385032462298 -0.031346151357783396 0 0.003318984359827558 -0.031017043127155756 0 0.0051591137456867917 -0.026565839634302306 0 0.0052365749647857261 -0.02170496632942738 0 0.0034474024443526484 -0.031656631818870615 0 0.0028674414306928734 -0.03140396368607648 0 0.0032886385032462298 -0.031346151357783396 0 0.0034474024443526484 -0.031656631818870615 0 0.0035600533074517144 -0.03131171819089832 0 0.0032886385032462298 -0.031346151357783396 0 0.0035600533074517144 -0.03131171819089832 0 0.0032886385032462298 -0.031346151357783396 0 0.003318984359827558 -0.031017043127155756 0 0.0068720937999436635 -0.0064135871304638525 0 0.0041636094746174759 -0.0074526186954521276 0 0.0065432592831889194 -0.0078994509367156778 0 0.0035600533074517144 -0.03131171819089832 0 0.003318984359827558 -0.031017043127155756 0 0.0036802959776590528 -0.031035456621781938 0 0.0052329352412000393 -0.027945399194666445 0 0.0060208398696118227 -0.023169182798145001 0 0.0037847250198477897 -0.03060115727797804 0 0.003318984359827558 -0.031017043127155756 0 0.0036802959776590528 -0.031035456621781938 0 0.0035600533074517144 -0.03131171819089832 0 0.0038314660505915045 -0.031261614455769339 0 0.0036802959776590528 -0.031035456621781938 0 0.0046731187559952547 -0.031525508934930176 0 0.0047058003735274264 -0.031540416564842993 0 0.0038314660505915045 -0.031261614455769339 0 0.0036802959776590528 -0.031035456621781938 0 0.0039526276956226422 -0.030989195679744855 0 0.0037847250198477897 -0.03060115727797804 0 0.0036802959776590528 -0.031035456621781938 0 0.0039526276956226422 -0.030989195679744855 0 0.0052329352412000393 -0.027945399194666445 0 0.0047058003735274264 -0.031540416564842993 0 0.0042063606239655105 -0.030557737234219277 0 0.0039640823187390758 -0.031118577526611534 0 0.0043751719192763145 -0.031204420180923953 0 0.0038314660505915045 -0.031261614455769339 0 0.00395049711213651 -0.030995051293177138 0 0.0041710218425489078 -0.031594036451797924 0 0.0047058003735274264 -0.031540416564842993 0 0.0045540891816301656 -0.031404779131453432 0 0.0039640823187390758 -0.031118577526611534 0 0.0041710218425489078 -0.031594036451797924 0 0.0043751719192763145 -0.031204420180923953 0 0.0041710218425489078 -0.031594036451797924 0 0.0046720904086915782 -0.031577381462518497 0 0.0043554405596139822 -0.031812195526564113 0 0.0041710218425489078 -0.031594036451797924 0 0.0046720904086915782 -0.031577381462518497 0 0.0043751719192763145 -0.031204420180923953 0 0.0046720904086915782 -0.031577381462518497 0 0.0047403243286359168 -0.030954180517967767 0 0.0043751719192763145 -0.031204420180923953 0 -0.019083209004930841 -0.069407716441751227 0 -0.016903798355385802 -0.06936984549258364 0 -0.017076113661631857 -0.07135370115976819 0 -0.0039428301724895795 -0.047111368819562127 0 -0.0046683015509037503 -0.050195163743400134 0 -0.016903798355385802 -0.06936984549258364 0 -0.017076113661631857 -0.07135370115976819 0 -0.015152029319097808 -0.07132413290321267 0 -0.0046683015509037503 -0.050195163743400134 0 -0.0044541090626670134 -0.05263733633620174 0 0.0046720904086915782 -0.031577381462518497 0 0.0047403243286359168 -0.030954180517967767 0 0.0053580954757713626 -0.031374644243992458 0 0.0046720904086915782 -0.031577381462518497 0 0.0053580954757713626 -0.031374644243992458 0 0.0052309671832361446 -0.031914549430062326 0 0.0046720904086915782 -0.031577381462518497 0 0.0052309671832361446 -0.031914549430062326 0 0.0045530651070205394 -0.032162361931788848 0 0.0053580954757713626 -0.031374644243992458 0 0.0052309671832361446 -0.031914549430062326 0 0.0060889933195521053 -0.03186742081549284 0 0.0052309671832361446 -0.031914549430062326 0 0.0055821361697230816 -0.032414541180095943 0 0.0060889933195521053 -0.03186742081549284 0 0.0055821361697230816 -0.032414541180095943 0 0.0050658027432651537 -0.032462008331843914 0 0.005377364309284368 -0.033134653259755016 0 0.0052309671832361446 -0.031914549430062326 0 0.0055821361697230816 -0.032414541180095943 0 0.0050658027432651537 -0.032462008331843914 0 0.0052309671832361446 -0.031914549430062326 0 0.0050658027432651537 -0.032462008331843914 0 0.0045530651070205394 -0.032162361931788848 0 0.0045530651070205394 -0.032162361931788848 0 0.0041710941636019586 -0.03232969232582919 0 0.0045236401627126964 -0.03273302233853867 0 0.0050658027432651537 -0.032462008331843914 0 0.0045530651070205394 -0.032162361931788848 0 0.0045236401627126964 -0.03273302233853867 0 0.0045530651070205394 -0.032162361931788848 0 0.0041710941636019586 -0.03232969232582919 0 0.003950366954635953 -0.032143117302018867 0 0.003534776796479538 -0.032017104154166649 0 0.0035042282658913214 -0.032010980471204376 0 0.0036980078362746434 -0.032271133215683714 0 0.0037025480816431774 -0.032262396324712228 0 0.0041710941636019586 -0.03232969232582919 0 0.0045236401627126964 -0.03273302233853867 0 0.0037953097217838707 -0.032213210834700037 0 0.0043201769409589629 -0.032481567364993108 0 0.0037025480816431774 -0.032262396324712228 0 0.0037627230182256054 -0.032059398331594435 0 0.003950366954635953 -0.032143117302018867 0 0.0037025480816431774 -0.032262396324712228 0 0.0041710941636019586 -0.03232969232582919 0 0.003950366954635953 -0.032143117302018867 0 0.0050966028740592204 -0.02944840604314972 0 0.0050356713419738384 -0.028770651158193196 0 0.0045530651070205394 -0.032162361931788848 0 0.0040298898467664773 -0.031911543320966698 0 0.0043554405596139822 -0.031812195526564113 0 0.0045530651070205394 -0.032162361931788848 0 0.003950366954635953 -0.032143117302018867 0 0.0038644460250704688 -0.031876114295245769 0 0.0037627230182256054 -0.032059398331594435 0 0.003950366954635953 -0.032143117302018867 0 0.0038644460250704688 -0.031876114295245769 0 0.0038014313986587957 -0.031547401414658553 0 0.0041710218425489078 -0.031594036451797924 0 0.0040298898467664773 -0.031911543320966698 0 0.0041710218425489078 -0.031594036451797924 0 0.0040298898467664773 -0.031911543320966698 0 0.0043554405596139822 -0.031812195526564113 0 0.0046720904086915782 -0.031577381462518497 0 0.0045530651070205394 -0.032162361931788848 0 0.0043554405596139822 -0.031812195526564113 0 0.0019264643800209736 -0.056068400113811249 0 0.0031991343649409561 -0.059207090031176884 0 0.0067645698816570163 -0.059778060907149627 0 0.0076807933237897424 -0.056541751697321785 0 0.0031457449506549829 -0.056929930980228964 0 0.0097589392740834238 -0.058999759360595393 0 0.0031457449506549829 -0.056929930980228964 0 0.0097589392740834238 -0.058999759360595393 0 0.0098861084205671881 -0.061831803018537863 0 0.0025300197938017384 -0.057658119180058545 0 0.0072106590910059123 -0.062242148419137291 0 0.0076807933237897424 -0.056541751697321785 0 0.0052057859398532864 -0.053497764463704883 0 0.0031457449506549829 -0.056929930980228964 0 0.0076807933237897424 -0.056541751697321785 0 0.0083429264537352513 -0.054870202205348592 0 0.0052057859398532864 -0.053497764463704883 0 0.0083429264537352513 -0.054870202205348592 0 0.0087548480769990694 -0.051586501170045929 0 0.0052057859398532864 -0.053497764463704883 0 0.0039864159377170092 -0.048996088160077 0 0.0087548480769990694 -0.051586501170045929 0 0.0052057859398532864 -0.053497764463704883 0 0.0052057859398532864 -0.053497764463704883 0 0.0016769857027556108 -0.052209608090071552 0 0.0031457449506549829 -0.056929930980228964 0 0.0016769857027556108 -0.052209608090071552 0 0.0031457449506549829 -0.056929930980228964 0 -0.0029822559403436351 -0.052104263372746061 0 0.0039864159377170092 -0.048996088160077 0 0.0052057859398532864 -0.053497764463704883 0 0.0016769857027556108 -0.052209608090071552 0 -0.013350157443896898 -0.071310701127555123 0 -0.013393362172587336 -0.073297547663287291 0 -0.011723007090922702 -0.073355099917472452 0 0.0019264643800209736 -0.056068400113811249 0 -0.0010291185180750738 -0.055122635929104331 0 0.0031991343649409561 -0.059207090031176884 0 -0.0065355764425847895 -0.062468740676101281 0 -0.0041742531026507266 -0.066010640112090388 0 -0.015152029319097808 -0.07132413290321267 0 -0.015142449998899585 -0.073317208959941635 0 -0.013393362172587336 -0.073297547663287291 0 -0.013350157443896898 -0.071310701127555123 0 -0.015152029319097808 -0.07132413290321267 0 -0.013393362172587336 -0.073297547663287291 0 0.0025300197938017384 -0.057658119180058545 0 -0.00026076443083922988 -0.055276264568521416 0 -0.00067121357159745842 -0.049975229003563368 0 0.0016769857027556108 -0.052209608090071552 0 -0.0029822559403436351 -0.052104263372746061 0 -0.0084184202562964609 -0.058544865762550392 0 -0.0065355764425847895 -0.062468740676101281 0 -0.0052696753962674682 -0.050784406311513194 0 -0.0010291185180750738 -0.055122635929104331 0 -0.0029822559403436351 -0.052104263372746061 0 0.0019264643800209736 -0.056068400113811249 0 -0.0010291185180750738 -0.055122635929104331 0 -0.0029822559403436351 -0.052104263372746061 0 -0.015112022677679466 -0.069277664198556341 0 -0.013350157443896898 -0.071310701127555123 0 -0.015152029319097808 -0.07132413290321267 0 -0.015112022677679466 -0.069277664198556341 0 -0.016903798355385802 -0.06936984549258364 0 -0.015152029319097808 -0.07132413290321267 0 -0.017076113661631857 -0.07135370115976819 0 -0.015152029319097808 -0.07132413290321267 0 -0.015142449998899585 -0.073317208959941635 0 0.0055821361697230816 -0.032414541180095943 0 0.0060889933195521053 -0.03186742081549284 0 0.0061682462765450478 -0.032738174756207966 0 0.0060889933195521053 -0.03186742081549284 0 0.0069076374892964127 -0.032450880544297782 0 0.0061682462765450478 -0.032738174756207966 0 -0.0044541090626670134 -0.05263733633620174 0 -0.0042199373275830883 -0.055085075414279983 0 -0.015142449998899585 -0.073317208959941635 0 -0.013283936549688949 -0.075211063786407767 0 -0.013393362172587336 -0.073297547663287291 0 -0.013283936549688949 -0.075211063786407767 0 -0.013393362172587336 -0.073297547663287291 0 -0.011723007090922702 -0.073355099917472452 0 -0.013283936549688949 -0.075211063786407767 0 -0.011503107697442559 -0.075429000061055462 0 -0.011723007090922702 -0.073355099917472452 0 -0.013283936549688949 -0.075211063786407767 0 -0.011503107697442559 -0.075429000061055462 0 -0.011553143192896827 -0.076908783259444613 0 -0.011503107697442559 -0.075429000061055462 0 -0.011723007090922702 -0.073355099917472452 0 -0.010404404158816475 -0.075297282537200985 0 -0.011503107697442559 -0.075429000061055462 0 -0.010404404158816475 -0.075297282537200985 0 -0.010715237670123294 -0.076264370768307124 0 0.0031991343649409561 -0.059207090031176884 0 0.0067645698816570163 -0.059778060907149627 0 0.00736813028057106 -0.063075993721970702 0 -0.0041742531026507266 -0.066010640112090388 0 -0.0016830066262832372 -0.069455080312224693 0 0.0077954495269459516 -0.033094563817423539 0 0.0074121490762086347 -0.033935926344246366 0 0.0087977709794778477 -0.033934717574726936 0 -0.0047863407893925314 -0.058261205101215428 0 -0.0075071239844824913 -0.063396026883988557 0 -0.011503107697442559 -0.075429000061055462 0 -0.011553143192896827 -0.076908783259444613 0 -0.010715237670123294 -0.076264370768307124 0 -0.011553143192896827 -0.076908783259444613 0 -0.010715237670123294 -0.076264370768307124 0 -0.010624531291117791 -0.07709059554567628 0 -0.0042199373275830883 -0.055085075414279983 0 -0.0047863407893925314 -0.058261205101215428 0 0.0069076374892964127 -0.032450880544297782 0 0.0077954495269459516 -0.033094563817423539 0 0.0070308310664705812 -0.033277515968341019 0 0.0077954495269459516 -0.033094563817423539 0 0.0070308310664705812 -0.033277515968341019 0 0.0074121490762086347 -0.033935926344246366 0 0.0058958351056109352 -0.032976450815667156 0 0.0066445384777252857 -0.034157891892052344 0 0.0074121490762086347 -0.033935926344246366 0 0.0060441879294161989 -0.033225014967252872 0 0.0066595183548250787 -0.033481886835241795 0 0.0070308310664705812 -0.033277515968341019 0 0.0063393547224235292 -0.033550098366958346 0 0.0074121490762086347 -0.033935926344246366 0 0.0070308310664705812 -0.033277515968341019 0 0.0061682462765450478 -0.032738174756207966 0 0.0063393547224235292 -0.033550098366958346 0 0.0069076374892964127 -0.032450880544297782 0 0.0070308310664705812 -0.033277515968341019 0 0.0061682462765450478 -0.032738174756207966 0 0.0061682462765450478 -0.032738174756207966 0 0.0063393547224235292 -0.033550098366958346 0 0.005377364309284368 -0.033134653259755016 0 0.0060441879294161989 -0.033225014967252872 0 0.0051020932596319213 -0.032828060218939026 0 0.0058958351056109352 -0.032976450815667156 0 0.0053827618553356701 -0.033900812072471247 0 0.004901761696625837 -0.033214565500532159 0 0.0058958351056109352 -0.032976450815667156 0 0.0053827618553356701 -0.033900812072471247 0 0.0059912767451832947 -0.034102244994849595 0 0.0053827618553356701 -0.033900812072471247 0 0.005749659415005234 -0.034562839048949669 0 0.0059912767451832947 -0.034102244994849595 0 0.0053827618553356701 -0.033900812072471247 0 0.0052335284568855662 -0.034639899004580546 0 0.005749659415005234 -0.034562839048949669 0 0.0053827618553356701 -0.033900812072471247 0 0.0052335284568855662 -0.034639899004580546 0 0.0046488787493886271 -0.034009483773348351 0 0.0023516600362992975 -0.046720133590340523 0 0.0026905412428919829 -0.047924308267063266 0 0.0052335284568855662 -0.034639899004580546 0 0.0055847093339945059 -0.035170124990332195 0 0.004786016561184105 -0.035042784942697816 0 0.0054024211975280149 -0.035259887681974286 0 0.0058802179601813685 -0.035188691185716651 0 0.0057061960751450171 -0.036054447829680571 0 0.0052335284568855662 -0.034639899004580546 0 0.0054024211975280149 -0.035259887681974286 0 0.0058802179601813685 -0.035188691185716651 0 0.0052335284568855662 -0.034639899004580546 0 0.0058802179601813685 -0.035188691185716651 0 0.005749659415005234 -0.034562839048949669 0 0.0058802179601813685 -0.035188691185716651 0 0.005749659415005234 -0.034562839048949669 0 0.0063442755982880241 -0.034919440286600018 0 0.0058802179601813685 -0.035188691185716651 0 0.0063442755982880241 -0.034919440286600018 0 0.0063957709117688335 -0.03572324594508984 0 0.0063442755982880241 -0.034919440286600018 0 0.0071467953765401273 -0.035862589303657259 0 0.0063957709117688335 -0.03572324594508984 0 0.0063442755982880241 -0.034919440286600018 0 0.0066445384777252857 -0.034157891892052344 0 0.0073187305097032144 -0.034866846974903498 0 0.0058958351056109352 -0.032976450815667156 0 0.0059912767451832947 -0.034102244994849595 0 0.0066445384777252857 -0.034157891892052344 0 0.005749659415005234 -0.034562839048949669 0 0.0063442755982880241 -0.034919440286600018 0 0.0059912767451832947 -0.034102244994849595 0 0.0063442755982880241 -0.034919440286600018 0 0.0059912767451832947 -0.034102244994849595 0 0.0066445384777252857 -0.034157891892052344 0 0.0066445384777252857 -0.034157891892052344 0 0.0074121490762086347 -0.033935926344246366 0 0.0073187305097032144 -0.034866846974903498 0 0.0063442755982880241 -0.034919440286600018 0 0.0073187305097032144 -0.034866846974903498 0 0.0071467953765401273 -0.035862589303657259 0 0.0073187305097032144 -0.034866846974903498 0 0.0071467953765401273 -0.035862589303657259 0 0.0085415196013563753 -0.035199053793921367 0 0.0074121490762086347 -0.033935926344246366 0 0.0087977709794778477 -0.033934717574726936 0 0.0085415196013563753 -0.035199053793921367 0 0.0074121490762086347 -0.033935926344246366 0 0.0073187305097032144 -0.034866846974903498 0 0.0085415196013563753 -0.035199053793921367 0 0.0018718331428848993 -0.031797353433037967 0 0.0012882302245617245 -0.031038810557404223 0 0.0030988274917428831 -0.03168924070280027 0 0.0018718331428848993 -0.031797353433037967 0 0.0030988274917428831 -0.03168924070280027 0 0.0025220071591580966 -0.032982923787905571 0 0.0018718331428848993 -0.031797353433037967 0 0.0009548211325186058 -0.031087340271868755 0 0.0016564143440244248 -0.032782728457830278 0 0.0018718331428848993 -0.031797353433037967 0 0.0009548211325186058 -0.031087340271868755 0 0.0012882302245617245 -0.031038810557404223 0 0.0017156929837956476 -0.031276456593709458 0 0.0022600895233860999 -0.031858143108444044 0 0.0012882302245617245 -0.031038810557404223 0 0.0029821987492300345 -0.031872824339956092 0 0.0030185895977603372 -0.031924231435906156 0 0.003534776796479538 -0.032017104154166649 0 0.0036980078362746434 -0.032271133215683714 0 0.0038778912993418105 -0.032204254008083091 0 0.0017156929837956476 -0.031276456593709458 0 0.0009548211325186058 -0.031087340271868755 0 0.0012882302245617245 -0.031038810557404223 0 0.0030185895977603372 -0.031924231435906156 0 0.0036119336503594932 -0.032254426382258665 0 0.0036980078362746434 -0.032271133215683714 0 0.0038778912993418105 -0.032204254008083091 0 0.0041510018441062065 -0.032661220037265654 0 0.0050658027432651537 -0.032462008331843914 0 0.0045236401627126964 -0.03273302233853867 0 0.005377364309284368 -0.033134653259755016 0 0.0038778912993418105 -0.032204254008083091 0 0.004624910547110556 -0.032454831600063815 0 0.0041510018441062065 -0.032661220037265654 0 0.0043201769409589629 -0.032481567364993108 0 0.0051020932596319213 -0.032828060218939026 0 0.0055821361697230816 -0.032414541180095943 0 0.0061682462765450478 -0.032738174756207966 0 0.005377364309284368 -0.033134653259755016 0 0.004624910547110556 -0.032454831600063815 0 0.004901761696625837 -0.033214565500532159 0 0.0041510018441062065 -0.032661220037265654 0 0.0058958351056109352 -0.032976450815667156 0 0.004624910547110556 -0.032454831600063815 0 0.004901761696625837 -0.033214565500532159 0 0.004901761696625837 -0.033214565500532159 0 0.0030988274917428831 -0.03168924070280027 0 0.0037361743428099559 -0.033561251771632578 0 0.0041101950006711477 -0.032543270164386358 0 0.0036119336503594932 -0.032254426382258665 0 0.0030988274917428831 -0.03168924070280027 0 0.0037361743428099559 -0.033561251771632578 0 0.0025220071591580966 -0.032982923787905571 0 0.0037361743428099559 -0.033561251771632578 0 0.0028852084483696029 -0.034060868493219848 0 0.0025220071591580966 -0.032982923787905571 0 0.0053827618553356701 -0.033900812072471247 0 0.004901761696625837 -0.033214565500532159 0 0.0046488787493886271 -0.034009483773348351 0 0.004901761696625837 -0.033214565500532159 0 0.0037361743428099559 -0.033561251771632578 0 0.0046488787493886271 -0.034009483773348351 0 0.0037361743428099559 -0.033561251771632578 0 0.0046488787493886271 -0.034009483773348351 0 0.0042485253605154989 -0.034612648399199121 0 0.0052335284568855662 -0.034639899004580546 0 0.0047398073159641259 -0.034587258469317032 0 0.004786016561184105 -0.035042784942697816 0 0.0052335284568855662 -0.034639899004580546 0 0.0046488787493886271 -0.034009483773348351 0 0.0047398073159641259 -0.034587258469317032 0 0.0046488787493886271 -0.034009483773348351 0 0.0047398073159641259 -0.034587258469317032 0 0.0042485253605154989 -0.034612648399199121 0 0.0047398073159641259 -0.034587258469317032 0 0.0042485253605154989 -0.034612648399199121 0 0.004786016561184105 -0.035042784942697816 0 0.0042485253605154989 -0.034612648399199121 0 0.0041719325009089408 -0.035265118046703077 0 0.004786016561184105 -0.035042784942697816 0 0.0041719325009089408 -0.035265118046703077 0 0.004786016561184105 -0.035042784942697816 0 0.0045992477738298412 -0.035944410865013453 0 0.0055847093339945059 -0.035170124990332195 0 0.004786016561184105 -0.035042784942697816 0 0.0045992477738298412 -0.035944410865013453 0 0.0037361743428099559 -0.033561251771632578 0 0.0042485253605154989 -0.034612648399199121 0 0.003428588570946349 -0.034847080029948865 0 0.0037361743428099559 -0.033561251771632578 0 0.0028852084483696029 -0.034060868493219848 0 0.003428588570946349 -0.034847080029948865 0 0.0028852084483696029 -0.034060868493219848 0 0.003428588570946349 -0.034847080029948865 0 0.0026923228374798442 -0.035050273635803667 0 0.0042485253605154989 -0.034612648399199121 0 0.0041719325009089408 -0.035265118046703077 0 0.003428588570946349 -0.034847080029948865 0 0.0041719325009089408 -0.035265118046703077 0 0.003428588570946349 -0.034847080029948865 0 0.0035660016366257743 -0.035708618173780717 0 0.003428588570946349 -0.034847080029948865 0 0.0026923228374798442 -0.035050273635803667 0 0.0035660016366257743 -0.035708618173780717 0 0.0026923228374798442 -0.035050273635803667 0 0.0016961973723478227 -0.035233362896090921 0 0.0019801818269930748 -0.034074893401972846 0 0.0028852084483696029 -0.034060868493219848 0 0.0026923228374798442 -0.035050273635803667 0 0.0019801818269930748 -0.034074893401972846 0 0.0028852084483696029 -0.034060868493219848 0 0.0019801818269930748 -0.034074893401972846 0 0.0025220071591580966 -0.032982923787905571 0 0.0019801818269930748 -0.034074893401972846 0 0.0016564143440244248 -0.032782728457830278 0 0.0025220071591580966 -0.032982923787905571 0 0.0018718331428848993 -0.031797353433037967 0 0.0016564143440244248 -0.032782728457830278 0 0.0025220071591580966 -0.032982923787905571 0 0.0015105970094916571 -0.030917448035633292 0 0.0017460019740431023 -0.031005865562463011 0 0.0019290563761758029 -0.029296826288926603 0 0.0009548211325186058 -0.031087340271868755 0 0.0008053017475360242 -0.026538107263430311 0 0.0009548211325186058 -0.031087340271868755 0 0.0016564143440244248 -0.032782728457830278 0 0.00025744104523359575 -0.034156343531177843 0 0.0019801818269930748 -0.034074893401972846 0 0.0016564143440244248 -0.032782728457830278 0 0.00025744104523359575 -0.034156343531177843 0 0.0016961973723478227 -0.035233362896090921 0 0.0019801818269930748 -0.034074893401972846 0 0.00025744104523359575 -0.034156343531177843 0 0.0016961973723478227 -0.035233362896090921 0 0.00025744104523359575 -0.034156343531177843 0 0.0011658926811005093 -0.036131633726733531 0 0.00025744104523359575 -0.034156343531177843 0 0.0011658926811005093 -0.036131633726733531 0 0.0001001243158898768 -0.036622462887139641 0 0.0017460019740431023 -0.031005865562463011 0 0.0026138150461699821 -0.033063438639391839 0 0.0011658926811005093 -0.036131633726733531 0 0.0014248888531037851 -0.03732856634884886 0 0.0001001243158898768 -0.036622462887139641 0 0.0014248888531037851 -0.03732856634884886 0 0.0001001243158898768 -0.036622462887139641 0 -6.3848959948909495e-05 -0.039004339788829452 0 0.0014248888531037851 -0.03732856634884886 0 0.0027308330316246979 -0.037453114368203422 0 0.0019487922741176207 -0.038636417320350933 0 0.0014248888531037851 -0.03732856634884886 0 0.0027308330316246979 -0.037453114368203422 0 0.0025339533427089166 -0.03635104522633098 0 0.0016961973723478227 -0.035233362896090921 0 0.0011658926811005093 -0.036131633726733531 0 0.0025339533427089166 -0.03635104522633098 0 0.0011658926811005093 -0.036131633726733531 0 0.0014248888531037851 -0.03732856634884886 0 0.0025339533427089166 -0.03635104522633098 0 0.0026923228374798442 -0.035050273635803667 0 0.0016961973723478227 -0.035233362896090921 0 0.0025339533427089166 -0.03635104522633098 0 0.0026923228374798442 -0.035050273635803667 0 0.0025339533427089166 -0.03635104522633098 0 0.0035660016366257743 -0.035708618173780717 0 0.0025339533427089166 -0.03635104522633098 0 0.0035660016366257743 -0.035708618173780717 0 0.0038035849832794193 -0.036681865554203948 0 0.0035660016366257743 -0.035708618173780717 0 0.0038035849832794193 -0.036681865554203948 0 0.0045992477738298412 -0.035944410865013453 0 0.0055847093339945059 -0.035170124990332195 0 0.0045992477738298412 -0.035944410865013453 0 0.0047306180116012259 -0.036685260834814618 0 0.0041719325009089408 -0.035265118046703077 0 0.0035660016366257743 -0.035708618173780717 0 0.0045992477738298412 -0.035944410865013453 0 0.0038035849832794193 -0.036681865554203948 0 0.0045992477738298412 -0.035944410865013453 0 0.0047857797946356442 -0.036815096039897681 0 0.0033889428436835729 -0.052788883686647546 0 0.0037094507769573114 -0.055697791738774122 0 0.0022841897833673287 -0.064878354044977188 0 0.0033294173525997097 -0.063254161747032508 0 0.0020428569616637799 -0.063471504879395194 0 0.0037094507769573114 -0.055697791738774122 0 0.0048865004342593553 -0.064829255484731896 0 0.0038035849832794193 -0.036681865554203948 0 0.0047857797946356442 -0.036815096039897681 0 0.0039187862331548232 -0.038276061162605457 0 0.0022628974827488897 -0.060077728900550076 0 0.00238844530949341 -0.060829142122740883 0 0.002757354281191407 -0.060363534214325915 0 0.0037094507769573114 -0.055697791738774122 0 0.003405478085139307 -0.067276978583129643 0 0.0027308330316246979 -0.037453114368203422 0 0.0038035849832794193 -0.036681865554203948 0 0.0039187862331548232 -0.038276061162605457 0 0.0027308330316246979 -0.037453114368203422 0 0.0025339533427089166 -0.03635104522633098 0 0.0038035849832794193 -0.036681865554203948 0 0.0027308330316246979 -0.037453114368203422 0 0.0039187862331548232 -0.038276061162605457 0 0.0019487922741176207 -0.038636417320350933 0 0.007963810640425591 -0.08172376090143485 0 0.0088433283459543599 -0.080374777363314748 0 0.0093597962173244328 -0.081538073359181673 0 0.0048865004342593553 -0.064829255484731896 0 0.0048566470197097004 -0.056507352316158332 0 0.0048865004342593553 -0.064829255484731896 0 0.0044259515930428952 -0.076428516904330265 0 0.0054454115597871739 -0.085386132226787606 0 0.0037190975537550034 -0.085671027385276405 0 0.0049895293371839565 -0.083519423685544936 0 0.003405478085139307 -0.067276978583129643 0 0.0039835280385976937 -0.078490360789208943 0 0.0037190975537550034 -0.085671027385276405 0 0.0049895293371839565 -0.083519423685544936 0 0.0032343204396428731 -0.082962433046353257 0 0.0048865004342593553 -0.064829255484731896 0 0.003405478085139307 -0.067276978583129643 0 0.0049895293371839565 -0.083519423685544936 0 0.0032343204396428731 -0.082962433046353257 0 0.0051016043431090178 -0.081229686929348496 0 0.0054454115597871739 -0.085386132226787606 0 0.0049895293371839565 -0.083519423685544936 0 0.0074840104729394837 -0.082313379369086975 0 0.0049895293371839565 -0.083519423685544936 0 0.0074840104729394837 -0.082313379369086975 0 0.0051016043431090178 -0.081229686929348496 0 0.0088433283459543599 -0.080374777363314748 0 0.010027345267395694 -0.08050271317244663 0 0.0093597962173244328 -0.081538073359181673 0 0.010027345267395694 -0.08050271317244663 0 0.011123931000394686 -0.079789786570751933 0 0.010818666872295626 -0.081325185981861919 0 0.0048566470197097004 -0.056507352316158332 0 0.0040124572775248309 -0.046440393549703647 0 0.0014248888531037851 -0.03732856634884886 0 0.0019487922741176207 -0.038636417320350933 0 -6.3848959948909495e-05 -0.039004339788829452 0 0.010027345267395694 -0.08050271317244663 0 0.0093597962173244328 -0.081538073359181673 0 0.010818666872295626 -0.081325185981861919 0 0.00049337155037590679 -0.061486031263126455 0 0.0022445068659245719 -0.070216753133090989 0 0.00049337155037590679 -0.061486031263126455 0 -0.0021729225424261468 -0.059498504917152473 0 0.0082312717972388861 -0.036754742895022216 0 0.0071467953765401273 -0.035862589303657259 0 0.0085415196013563753 -0.035199053793921367 0 0.0082312717972388861 -0.036754742895022216 0 0.0071467953765401273 -0.035862589303657259 0 0.0070177531160649335 -0.036720626446015037 0 0.0071467953765401273 -0.035862589303657259 0 0.0070177531160649335 -0.036720626446015037 0 0.0063643658470703924 -0.036504892193336524 0 0.0082312717972388861 -0.036754742895022216 0 0.0070177531160649335 -0.036720626446015037 0 0.007765735330920673 -0.03849407815413658 0 0.0070177531160649335 -0.036720626446015037 0 0.0064985060603020891 -0.037323645292259851 0 0.007765735330920673 -0.03849407815413658 0 0.0016316108196717664 -0.064709294335145176 0 0.0019028970588736631 -0.0521230125393157 0 0.0062838736254938821 -0.037357313500584376 0 0.0063643658470703924 -0.036504892193336524 0 0.0057061960751450171 -0.036054447829680571 0 0.0064985060603020891 -0.037323645292259851 0 0.0062838736254938821 -0.037357313500584376 0 0.00657449563699388 -0.036919440099701648 0 0.0017813391851956995 -0.064556135681322513 0 0.0016316108196717664 -0.064709294335145176 0 0.0062838736254938821 -0.037357313500584376 0 0.00657449563699388 -0.036919440099701648 0 0.0063643658470703924 -0.036504892193336524 0 0.0070177531160649335 -0.036720626446015037 0 0.0064985060603020891 -0.037323645292259851 0 0.00657449563699388 -0.036919440099701648 0 0.0070177531160649335 -0.036720626446015037 0 0.00657449563699388 -0.036919440099701648 0 0.0063643658470703924 -0.036504892193336524 0 0.0071467953765401273 -0.035862589303657259 0 0.0063643658470703924 -0.036504892193336524 0 0.0063957709117688335 -0.03572324594508984 0 0.0058802179601813685 -0.035188691185716651 0 0.0063957709117688335 -0.03572324594508984 0 0.0057061960751450171 -0.036054447829680571 0 0.0063643658470703924 -0.036504892193336524 0 0.0063957709117688335 -0.03572324594508984 0 0.0057061960751450171 -0.036054447829680571 0 0.00291066802207901 -0.059042190825623155 0 0.0032057317466786216 -0.059615073645987074 0 0.0027815758397723156 -0.059895263442403569 0 0.00291066802207901 -0.059042190825623155 0 0.0022628974827488897 -0.060077728900550076 0 0.0027815758397723156 -0.059895263442403569 0 0.0026905412428919829 -0.047924308267063266 0 0.0037094507769573114 -0.055697791738774122 0 0.0026905412428919829 -0.047924308267063266 0 0.0019028970588736631 -0.0521230125393157 0 0.00238844530949341 -0.060829142122740883 0 0.0037496143856795387 -0.06059932971425884 0 0.002757354281191407 -0.060363534214325915 0 0.0022628974827488897 -0.060077728900550076 0 0.0027815758397723156 -0.059895263442403569 0 0.002757354281191407 -0.060363534214325915 0 0.0037496143856795387 -0.06059932971425884 0 0.0027815758397723156 -0.059895263442403569 0 0.002757354281191407 -0.060363534214325915 0 0.003405478085139307 -0.067276978583129643 0 0.0016316108196717664 -0.064709294335145176 0 0.0036897920170541353 -0.060573890497461542 0 0.0032057317466786216 -0.059615073645987074 0 0.0027815758397723156 -0.059895263442403569 0 0.0016316108196717664 -0.064709294335145176 0 0.0014823315851193188 -0.063500982002329315 0 0.0035797341492940006 -0.087805559674562494 0 0.0030358974800476315 -0.08454093984875008 0 0.00030350126416461219 -0.085671011795149424 0 0.0035797341492940006 -0.087805559674562494 0 -0.0006589460369803258 -0.088556353829857395 0 0.00030350126416461219 -0.085671011795149424 0 0.0030358974800476315 -0.08454093984875008 0 0.00013350848277389539 -0.083172511664357296 0 0.00030350126416461219 -0.085671011795149424 0 0.00013350848277389539 -0.083172511664357296 0 -0.0015225261334291351 -0.084045506526534031 0 0.00030350126416461219 -0.085671011795149424 0 -0.0015225261334291351 -0.084045506526534031 0 0.00030350126416461219 -0.085671011795149424 0 -0.002162190459594514 -0.085851663421179641 0 0.0016316108196717664 -0.064709294335145176 0 0.001691508257953589 -0.076530997870548234 0 -0.0006589460369803258 -0.088556353829857395 0 0.00030350126416461219 -0.085671011795149424 0 -0.002162190459594514 -0.085851663421179641 0 0.0016316108196717664 -0.064709294335145176 0 0.0022445068659245719 -0.070216753133090989 0 -0.0027152929054244869 -0.086145723177471087 0 -0.0037314924459683841 -0.084404085949205315 0 -0.0052719631613608979 -0.084510187954965205 0 0.0064985060603020891 -0.037323645292259851 0 0.0062812447458658136 -0.037358200308568922 0 0.007765735330920673 -0.03849407815413658 0 -0.0037314924459683841 -0.084404085949205315 0 -0.0051558739231256897 -0.084086298678533192 0 -0.0052719631613608979 -0.084510187954965205 0 -0.0015225261334291351 -0.084045506526534031 0 -0.002162190459594514 -0.085851663421179641 0 -0.0037548646580866747 -0.083170885145192053 0 -0.0037314924459683841 -0.084404085949205315 0 -0.0047375747346932789 -0.082418784822300861 0 -0.0051558739231256897 -0.084086298678533192 0 0.001691508257953589 -0.076530997870548234 0 7.4480913683721464e-06 -0.079107347630094901 0 0.0022445068659245719 -0.070216753133090989 0 -0.0010615190512520589 -0.073345671665409146 0 -0.0061558536663797727 -0.082981821247507137 0 -0.0053095728187486247 -0.084647257311557089 0 -0.0085154348697987544 -0.082467247140163763 0 -0.0051558739231256897 -0.084086298678533192 0 -0.0061558536663797727 -0.082981821247507137 0 -0.0053095728187486247 -0.084647257311557089 0 -0.0047375747346932789 -0.082418784822300861 0 -0.0051558739231256897 -0.084086298678533192 0 -0.0061558536663797727 -0.082981821247507137 0 -0.0094514347116336529 -0.082304803452149161 0 -0.0092033208742059343 -0.082511905184435339 0 -0.0090619690937890508 -0.082502688352421541 0 0.0020824220477959261 -0.070660420179601127 0 0.0022445068659245719 -0.070216753133090989 0 -0.0055981423097518522 -0.080344390512914379 0 -0.0038439619312123367 -0.077182561953778414 0 -0.0072323982174306032 -0.078928053794686967 0 -0.0055981423097518522 -0.080344390512914379 0 -0.0070541002171559336 -0.080428682260520648 0 -0.0072323982174306032 -0.078928053794686967 0 -0.0055981423097518522 -0.080344390512914379 0 -0.0070541002171559336 -0.080428682260520648 0 -0.0070079776798437935 -0.081496896825294873 0 -0.0047375747346932789 -0.082418784822300861 0 -0.0061558536663797727 -0.082981821247507137 0 -0.0070079776798437935 -0.081496896825294873 0 7.4480913683721464e-06 -0.079107347630094901 0 -0.00087793608097663442 -0.079173575761341736 0 -0.0061558536663797727 -0.082981821247507137 0 -0.0070079776798437935 -0.081496896825294873 0 -0.0085154348697987544 -0.082467247140163763 0 -0.0047375747346932789 -0.082418784822300861 0 -0.0055981423097518522 -0.080344390512914379 0 -0.0070079776798437935 -0.081496896825294873 0 -0.0037548646580866747 -0.083170885145192053 0 -0.0055981423097518522 -0.080344390512914379 0 -0.0033155578918526133 -0.080979965846163043 0 -0.0015225261334291351 -0.084045506526534031 0 -0.0037548646580866747 -0.083170885145192053 0 -0.0016319369710743924 -0.08205655464957666 0 -0.0037548646580866747 -0.083170885145192053 0 -0.0033155578918526133 -0.080979965846163043 0 -0.0016319369710743924 -0.08205655464957666 0 -0.0033155578918526133 -0.080979965846163043 0 -0.0017186882334894885 -0.07972102546800619 0 -0.0016319369710743924 -0.08205655464957666 0 -0.0055981423097518522 -0.080344390512914379 0 -0.003426812657507319 -0.079277943807083168 0 -0.0038439619312123367 -0.077182561953778414 0 -0.0033155578918526133 -0.080979965846163043 0 -0.003426812657507319 -0.079277943807083168 0 -0.0017186882334894885 -0.07972102546800619 0 -0.0055981423097518522 -0.080344390512914379 0 -0.0033155578918526133 -0.080979965846163043 0 -0.003426812657507319 -0.079277943807083168 0 -0.003426812657507319 -0.079277943807083168 0 -0.0017186882334894885 -0.07972102546800619 0 -0.0026293122580312656 -0.077666422779110428 0 0.00036609258466179792 -0.079247939369331402 0 -0.0017186882334894885 -0.07972102546800619 0 -0.00095341829247014612 -0.077252729809706724 0 -0.0017186882334894885 -0.07972102546800619 0 -0.00095341829247014612 -0.077252729809706724 0 -0.0026293122580312656 -0.077666422779110428 0 0.00036609258466179792 -0.079247939369331402 0 -0.0017186882334894885 -0.07972102546800619 0 0.00019994389901095266 -0.081114747767476431 0 -0.0017186882334894885 -0.07972102546800619 0 -0.0016319369710743924 -0.08205655464957666 0 0.00019994389901095266 -0.081114747767476431 0 0.00013350848277389539 -0.083172511664357296 0 -0.0015225261334291351 -0.084045506526534031 0 -0.0016319369710743924 -0.08205655464957666 0 0.00013350848277389539 -0.083172511664357296 0 -0.0016319369710743924 -0.08205655464957666 0 0.00019994389901095266 -0.081114747767476431 0 0.00013350848277389539 -0.083172511664357296 0 0.00019994389901095266 -0.081114747767476431 0 0.0025416377662792833 -0.081203831479711885 0 0.0039835280385976937 -0.078490360789208943 0 0.0035405093482121868 -0.079640626634811862 0 0.0030358974800476315 -0.08454093984875008 0 0.00013350848277389539 -0.083172511664357296 0 0.0025416377662792833 -0.081203831479711885 0 0.00036609258466179792 -0.079247939369331402 0 0.0025416377662792833 -0.081203831479711885 0 0.0020396081452938343 -0.07764020573582478 0 0.0035405093482121868 -0.079640626634811862 0 0.003247542531153893 -0.07904620413286953 0 0.00036609258466179792 -0.079247939369331402 0 0.00019994389901095266 -0.081114747767476431 0 0.0025416377662792833 -0.081203831479711885 0 0.0020396081452938343 -0.07764020573582478 0 0.00229946307712236 -0.074557132931309805 0 0.00038490242411720133 -0.076053631977536576 0 0.0020396081452938343 -0.07764020573582478 0 0.00229946307712236 -0.074557132931309805 0 0.0042632165834586601 -0.076286614289709592 0 0.0024904054784623247 -0.074799053282265909 0 0.00064745114928318592 -0.074827567535836262 0 0.0019549715213664082 -0.075032459113007974 0 -0.0018104280796655354 -0.074820849817694615 0 0.0006506478462281433 -0.073199879072540705 0 0.00229946307712236 -0.074557132931309805 0 -0.0018104280796655354 -0.074820849817694615 0 0.00038490242411720133 -0.076053631977536576 0 -0.0018104280796655354 -0.074820849817694615 0 -0.0013782693679034726 -0.073228526242495165 0 0.0006506478462281433 -0.073199879072540705 0 -0.0018104280796655354 -0.074820849817694615 0 -0.00095341829247014612 -0.077252729809706724 0 -0.002365070677606555 -0.076358699356579365 0 0.00036609258466179792 -0.079247939369331402 0 0.0020396081452938343 -0.07764020573582478 0 -0.00095341829247014612 -0.077252729809706724 0 0.0020396081452938343 -0.07764020573582478 0 0.00038490242411720133 -0.076053631977536576 0 -0.00095341829247014612 -0.077252729809706724 0 -0.0018104280796655354 -0.074820849817694615 0 0.00038490242411720133 -0.076053631977536576 0 -0.00095341829247014612 -0.077252729809706724 0 -0.00095341829247014612 -0.077252729809706724 0 -0.0026293122580312656 -0.077666422779110428 0 -0.002365070677606555 -0.076358699356579365 0 -0.0026293122580312656 -0.077666422779110428 0 -0.0038439619312123367 -0.077182561953778414 0 -0.0034609331079459172 -0.076363182514249089 0 -0.003426812657507319 -0.079277943807083168 0 -0.0026293122580312656 -0.077666422779110428 0 -0.0038439619312123367 -0.077182561953778414 0 -0.0034609331079459172 -0.076363182514249089 0 -0.0041285332121692555 -0.075763511876579009 0 -0.0026308967008866623 -0.075278760567008079 0 -0.0034609331079459172 -0.076363182514249089 0 -0.0041285332121692555 -0.075763511876579009 0 -0.0045475707553812037 -0.076993649340780124 0 -0.0038439619312123367 -0.077182561953778414 0 -0.0034609331079459172 -0.076363182514249089 0 -0.0045475707553812037 -0.076993649340780124 0 -0.0034609331079459172 -0.076363182514249089 0 -0.002365070677606555 -0.076358699356579365 0 -0.0026308967008866623 -0.075278760567008079 0 -0.0026293122580312656 -0.077666422779110428 0 -0.0034609331079459172 -0.076363182514249089 0 -0.002365070677606555 -0.076358699356579365 0 -0.0018104280796655354 -0.074820849817694615 0 -0.002365070677606555 -0.076358699356579365 0 -0.0026308967008866623 -0.075278760567008079 0 -0.0018104280796655354 -0.074820849817694615 0 -0.0026308967008866623 -0.075278760567008079 0 -0.0013782693679034726 -0.073228526242495165 0 -0.0034079927753711036 -0.077317833078825976 0 -0.003074647732228218 -0.075357023030321754 0 -0.0013009314606056035 -0.074590829023784902 0 -0.0041285332121692555 -0.075763511876579009 0 -0.0026308967008866623 -0.075278760567008079 0 -0.0013782693679034726 -0.073228526242495165 0 -0.0038797500065976356 -0.076522393789731163 0 -0.0018223524781485316 -0.074249967921725446 0 -0.003074647732228218 -0.075357023030321754 0 -0.0036418599962984 -0.076654066624976133 0 -0.0037146760121399515 -0.075619870207299128 0 -0.0034079927753711036 -0.077317833078825976 0 -0.003074647732228218 -0.075357023030321754 0 -0.0036418599962984 -0.076654066624976133 0 -0.0034079927753711036 -0.077317833078825976 0 -0.0036426439715835407 -0.077115478151889433 0 -0.0036242093468503399 -0.07734918970990963 0 -0.0036426439715835407 -0.077115478151889433 0 -0.0042102432606999198 -0.077047825555368182 0 -0.0036242093468503399 -0.07734918970990963 0 -0.0042102432606999198 -0.077047825555368182 0 -0.0036418599962984 -0.076654066624976133 0 -0.0043958318907438123 -0.075936221429693251 0 -0.0036426439715835407 -0.077115478151889433 0 -0.0042102432606999198 -0.077047825555368182 0 -0.0036418599962984 -0.076654066624976133 0 -0.0034079927753711036 -0.077317833078825976 0 -0.0036426439715835407 -0.077115478151889433 0 -0.0036418599962984 -0.076654066624976133 0 -0.0043958318907438123 -0.075936221429693251 0 -0.0037146760121399515 -0.075619870207299128 0 -0.0039965250682832435 -0.074620993413564762 0 -0.0036418599962984 -0.076654066624976133 0 -0.0043958318907438123 -0.075936221429693251 0 -0.0037146760121399515 -0.075619870207299128 0 -0.0043958318907438123 -0.075936221429693251 0 -0.0052127214168036255 -0.076709480377620515 0 -0.0055699712075070445 -0.074901256070191033 0 -0.0042102432606999198 -0.077047825555368182 0 -0.0043958318907438123 -0.075936221429693251 0 -0.0052127214168036255 -0.076709480377620515 0 -0.0042102432606999198 -0.077047825555368182 0 -0.005493225018002779 -0.077742885969643002 0 -0.0052127214168036255 -0.076709480377620515 0 -0.0036242093468503399 -0.07734918970990963 0 -0.0059901653242503952 -0.078971783243594773 0 -0.0050904985684808342 -0.07920855844042736 0 -0.0034079927753711036 -0.077317833078825976 0 -0.0036242093468503399 -0.07734918970990963 0 -0.0050904985684808342 -0.07920855844042736 0 -0.0038797500065976356 -0.076522393789731163 0 -0.0060816485865107456 -0.078864943157882159 0 -0.0054091605000553926 -0.078429997956244404 0 -0.0060816485865107456 -0.078864943157882159 0 -0.0041285332121692555 -0.075763511876579009 0 -0.0045475707553812037 -0.076993649340780124 0 -0.0067165261302163113 -0.078671054242746397 0 -0.0036242093468503399 -0.07734918970990963 0 -0.0059436721768408186 -0.079448735867096484 0 -0.005493225018002779 -0.077742885969643002 0 -0.0042102432606999198 -0.077047825555368182 0 -0.0036242093468503399 -0.07734918970990963 0 -0.005493225018002779 -0.077742885969643002 0 -0.0049055145920919134 -0.078447373017527369 0 -0.0061238334586939652 -0.079339698641340967 0 -0.0038439619312123367 -0.077182561953778414 0 -0.0045475707553812037 -0.076993649340780124 0 -0.0067165261302163113 -0.078671054242746397 0 0.0096091164907424979 -0.078883670876580173 0 0.007160164129960323 -0.079571833178731524 0 0.0078977566167913703 -0.076489612398718529 0 0.0096091164907424979 -0.078883670876580173 0 0.010315069651679656 -0.076516558224046433 0 0.01173272592967056 -0.077461771291836998 0 0.0096091164907424979 -0.078883670876580173 0 0.01173272592967056 -0.077461771291836998 0 0.011123931000394686 -0.079789786570751933 0 0.010027345267395694 -0.08050271317244663 0 0.0096091164907424979 -0.078883670876580173 0 0.011123931000394686 -0.079789786570751933 0 0.0044259515930428952 -0.076428516904330265 0 0.0056459402190012454 -0.077391735187321342 0 0.0088433283459543599 -0.080374777363314748 0 0.010027345267395694 -0.08050271317244663 0 0.0096091164907424979 -0.078883670876580173 0 0.0074840104729394837 -0.082313379369086975 0 0.0096091164907424979 -0.078883670876580173 0 0.007160164129960323 -0.079571833178731524 0 0.0074840104729394837 -0.082313379369086975 0 0.0051016043431090178 -0.081229686929348496 0 0.007160164129960323 -0.079571833178731524 0 0.0051016043431090178 -0.081229686929348496 0 0.0053647722647720605 -0.078458624441523808 0 0.007160164129960323 -0.079571833178731524 0 0.0026987226157478834 -0.080264157955611273 0 0.0051016043431090178 -0.081229686929348496 0 0.0053647722647720605 -0.078458624441523808 0 0.0032343204396428731 -0.082962433046353257 0 0.0026987226157478834 -0.080264157955611273 0 0.0051016043431090178 -0.081229686929348496 0 0.0026987226157478834 -0.080264157955611273 0 0.0020396081452938343 -0.07764020573582478 0 0.0053647722647720605 -0.078458624441523808 0 0.0053647722647720605 -0.078458624441523808 0 0.007160164129960323 -0.079571833178731524 0 0.0078977566167913703 -0.076489612398718529 0 0.0042632165834586601 -0.076286614289709592 0 0.0060817681447401647 -0.074563077036662068 0 0.0078977566167913703 -0.076489612398718529 0 0.0053647722647720605 -0.078458624441523808 0 0.0042632165834586601 -0.076286614289709592 0 0.0078977566167913703 -0.076489612398718529 0 0.0020396081452938343 -0.07764020573582478 0 0.0053647722647720605 -0.078458624441523808 0 0.0042632165834586601 -0.076286614289709592 0 0.0024904054784623247 -0.074799053282265909 0 0.0055182924045085509 -0.074752345636541956 0 0.0019549715213664082 -0.075032459113007974 0 0.0058495413994397562 -0.074966440659776049 0 0.0032118252337098442 -0.072470275948884832 0 0.00229946307712236 -0.074557132931309805 0 0.0042632165834586601 -0.076286614289709592 0 0.0060817681447401647 -0.074563077036662068 0 0.0055182924045085509 -0.074752345636541956 0 0.0072856757140249981 -0.074722713551032077 0 0.0058495413994397562 -0.074966440659776049 0 0.009575206566246797 -0.074713119366033448 0 0.0078378930907790686 -0.073121872956590173 0 0.0078977566167913703 -0.076489612398718529 0 0.01010248037459544 -0.07550543977371349 0 0.009575206566246797 -0.074713119366033448 0 0.0060817681447401647 -0.074563077036662068 0 0.0078977566167913703 -0.076489612398718529 0 0.009575206566246797 -0.074713119366033448 0 0.0096091164907424979 -0.078883670876580173 0 0.0078977566167913703 -0.076489612398718529 0 0.010315069651679656 -0.076516558224046433 0 0.010315069651679656 -0.076516558224046433 0 0.010865134083355071 -0.074573527737609668 0 0.01173272592967056 -0.077461771291836998 0 0.0078977566167913703 -0.076489612398718529 0 0.010315069651679656 -0.076516558224046433 0 0.01010248037459544 -0.07550543977371349 0 0.010315069651679656 -0.076516558224046433 0 0.01010248037459544 -0.07550543977371349 0 0.010865134083355071 -0.074573527737609668 0 0.01010248037459544 -0.07550543977371349 0 0.009575206566246797 -0.074713119366033448 0 0.010865134083355071 -0.074573527737609668 0 0.0093716244651705482 -0.052877438876991242 0 0.0095093898737555679 -0.052658632363554919 0 0.009493581365184833 -0.053101037992280005 0 0.011382245951647503 -0.073686433824824357 0 0.012417449698588833 -0.074175985652016385 0 0.012605793488838784 -0.072605507802464053 0 0.010784066619867106 -0.061135482757226779 0 0.012053514714380587 -0.057030098791895446 0 0.0095093898737555679 -0.052658632363554919 0 0.0093332107455805485 -0.052726802168694693 0 0.0092643338451535284 -0.052593524690837869 0 0.0093716244651705482 -0.052877438876991242 0 0.0095093898737555679 -0.052658632363554919 0 0.0093332107455805485 -0.052726802168694693 0 0.0070285420499057128 -0.044165848417410808 0 0.0077780062960820396 -0.046052262544488055 0 0.0088522912849461604 -0.043381475768366651 0 0.0075336919637141609 -0.043502672464236496 0 0.0077791526072030362 -0.040995661347548229 0 0.0070285420499057128 -0.044165848417410808 0 0.0088522912849461604 -0.043381475768366651 0 0.0080389263673996871 -0.042377150169846417 0 0.0091010053477283814 -0.048112877866467008 0 0.0093620249399485947 -0.046237821674106686 0 0.0093716244651705482 -0.052877438876991242 0 0.009179095655025735 -0.052754300430937824 0 0.0093367858866136751 -0.05313434479884812 0 0.0091010053477283814 -0.048112877866467008 0 0.01144089660405018 -0.054750499214340817 0 0.0093716244651705482 -0.052877438876991242 0 0.0093332107455805485 -0.052726802168694693 0 0.009179095655025735 -0.052754300430937824 0 0.0092643338451535284 -0.052593524690837869 0 0.0091851210310855188 -0.052734250965440342 0 0.0090499249189672087 -0.052418713041186053 0 0.0093332107455805485 -0.052726802168694693 0 0.0092643338451535284 -0.052593524690837869 0 0.009179095655025735 -0.052754300430937824 0 0.008990777644849254 -0.048409368657755261 0 0.0091010053477283814 -0.048112877866467008 0 0.0091010053477283814 -0.048112877866467008 0 0.0075336919637141609 -0.043502672464236496 0 0.0092643338451535284 -0.052593524690837869 0 0.0090499249189672087 -0.052418713041186053 0 0.0093228571871993918 -0.052336245271784335 0 0.010784066619867106 -0.061135482757226779 0 0.0096281018892605558 -0.062604752196683669 0 0.0095093898737555679 -0.052658632363554919 0 0.009516634468258291 -0.052244689048565392 0 0.0093228571871993918 -0.052336245271784335 0 0.011382245951647503 -0.073686433824824357 0 0.012417449698588833 -0.074175985652016385 0 0.012309512170478898 -0.075520492774215242 0 0.011720548401460678 -0.070957470412681106 0 0.0096281018892605558 -0.062604752196683669 0 0.0095093898737555679 -0.052658632363554919 0 0.0092643338451535284 -0.052593524690837869 0 0.0093228571871993918 -0.052336245271784335 0 0.0066489335449141261 -0.057909114954412415 0 0.0050552769685103588 -0.054511967348708501 0 0.0069536219018813119 -0.053387337782906531 0 0.0096281018892605558 -0.062604752196683669 0 0.0063990458261528214 -0.047476823627013158 0 0.0096281018892605558 -0.062604752196683669 0 0.0069821702951777947 -0.062125209005513639 0 0.009516634468258291 -0.052244689048565392 0 0.0093228571871993918 -0.052336245271784335 0 0.0092803988045415241 -0.051768834732623545 0 0.0090499249189672087 -0.052418713041186053 0 0.0093228571871993918 -0.052336245271784335 0 0.0092803988045415241 -0.051768834732623545 0 0.0065311887161242643 -0.043919965660648014 0 0.0085503484680318348 -0.03881743349772894 0 0.0045686214798955124 -0.039041319500919824 0 0.0075336919637141609 -0.043502672464236496 0 0.0063990458261528214 -0.047476823627013158 0 0.0063217446742239143 -0.042542737850093416 0 0.0064169266612468271 -0.042274413188755702 0 0.0062100516482499514 -0.042299404022740919 0 0.0085503484680318348 -0.03881743349772894 0 0.0045686214798955124 -0.039041319500919824 0 0.0073362415483377522 -0.036184237831732212 0 0.0063990458261528214 -0.047476823627013158 0 0.0050894662496623541 -0.040546249750232993 0 0.0050552769685103588 -0.054511967348708501 0 0.0069536219018813119 -0.053387337782906531 0 0.0061174014897961539 -0.051773059781087885 0 0.0063990458261528214 -0.047476823627013158 0 0.005399890382492163 -0.046887920179726816 0 0.004621325589251879 -0.029168709828083832 0 0.0075924761061109394 -0.030748623510542906 0 0.0051400651539258843 -0.034738115227605497 0 0.004621325589251879 -0.029168709828083832 0 0.0051400651539258843 -0.034738115227605497 0 0.0021938303384728356 -0.031077921358598982 0 0.004621325589251879 -0.029168709828083832 0 0.0075924761061109394 -0.030748623510542906 0 0.0058174715482126899 -0.02632072636536183 0 0.0054975913374038649 -0.035443243154830516 0 0.0034583392813458381 -0.028849003444164068 0 0.0045686214798955124 -0.039041319500919824 0 0.0073362415483377522 -0.036184237831732212 0 0.0043126118363153183 -0.034975542106327383 0 0.0093734117716494005 -0.03519396923813984 0 0.0075924761061109394 -0.030748623510542906 0 0.0051400651539258843 -0.034738115227605497 0 0.0075336919637141609 -0.043502672464236496 0 0.0054975913374038649 -0.035443243154830516 0 0.005137140283465195 -0.032278471677397738 0 0.0036383580660629433 -0.026408698487452083 0 0.0093734117716494005 -0.03519396923813984 0 0.0051400651539258843 -0.034738115227605497 0 0.0081015564894234924 -0.038403484949080254 0 0.005137140283465195 -0.032278471677397738 0 0.0077791526072030362 -0.040995661347548229 0 0.006281694607592178 -0.027162201471797941 0 0.0089570335628120397 -0.030487641419120411 0 0.0061512224191428207 -0.030680676919168856 0 0.006281694607592178 -0.027162201471797941 0 0.0061512224191428207 -0.030680676919168856 0 0.003290938984059715 -0.030297489829014548 0 0.0042026209428977406 -0.022982352826109668 0 0.0031887586509076102 -0.020527705732383734 0 0.0041852818225718092 -0.013939859157106898 0 0.0039630637400381724 -0.013978454977327111 0 0.003977045742984288 -0.013607526453619062 0 0.001967185594624523 -0.016770380418035288 0 0.0023309995597515249 -0.014761375866141587 0 0.0039630637400381724 -0.013978454977327111 0 0.003977045742984288 -0.013607526453619062 0 0.0038016646331588654 -0.013574791853055573 0 0.003977045742984288 -0.013607526453619062 0 0.0038016646331588654 -0.013574791853055573 0 0.003887679658930822 -0.0136178738770781 0 0.006281694607592178 -0.027162201471797941 0 0.003290938984059715 -0.030297489829014548 0 0.0019807139027316774 -0.027121352315063883 0 0.0043906789204306426 -0.011727600180701434 0 0.0047927148369131881 -0.010583017831172868 0 0.0059592096439968862 -0.011073960584606119 0 0.0043906789204306426 -0.011727600180701434 0 0.0038202311435001487 -0.010503963065155048 0 0.0047927148369131881 -0.010583017831172868 0 0.0019939771741958614 -0.010897008929505896 0 0.0030911721536333267 -0.010971579795647205 0 0.0031626111783117578 -0.012281601433757717 0 0.0043906789204306426 -0.011727600180701434 0 0.0030911721536333267 -0.010971579795647205 0 0.0038202311435001487 -0.010503963065155048 0 0.0043906789204306426 -0.011727600180701434 0 0.0030911721536333267 -0.010971579795647205 0 0.0031626111783117578 -0.012281601433757717 0 0.0038016646331588654 -0.013574791853055573 0 0.0038821642474694495 -0.013686333714315954 0 0.003887679658930822 -0.0136178738770781 0 0.0023309995597515249 -0.014761375866141587 0 0.0027835666218936355 -0.014568346928277695 0 0.0031626111783117578 -0.012281601433757717 0 0.0045649942451445463 -0.012680726547517767 0 0.0044795799636777548 -0.013674090938421622 0 0.0043906789204306426 -0.011727600180701434 0 0.0045649942451445463 -0.012680726547517767 0 0.0055919220385054133 -0.012296488160641531 0 0.0043906789204306426 -0.011727600180701434 0 0.0031626111783117578 -0.012281601433757717 0 0.0045649942451445463 -0.012680726547517767 0 0.0044795799636777548 -0.013674090938421622 0 0.0038821642474694495 -0.013686333714315954 0 0.0054086533070523612 -0.014016920439776311 0 0.0038821642474694495 -0.013686333714315954 0 0.0036811578936627276 -0.013500642420896393 0 0.0034123275973441045 -0.013583025609144282 0 0.0047416912881096153 -0.009602758590668942 0 0.0046450548337380586 -0.0080124399414009222 0 0.0045649942451445463 -0.012680726547517767 0 0.0044795799636777548 -0.013674090938421622 0 0.0053189517800534755 -0.013149872190877022 0 0.0038016646331588654 -0.013574791853055573 0 0.0044795799636777548 -0.013674090938421622 0 0.0038821642474694495 -0.013686333714315954 0 0.0038821642474694495 -0.013686333714315954 0 0.0038632810965182006 -0.013523884533325465 0 0.0036811578936627276 -0.013500642420896393 0 0.0038821642474694495 -0.013686333714315954 0 0.003887679658930822 -0.0136178738770781 0 0.0039435141749917038 -0.013586552358893774 0 0.0038821642474694495 -0.013686333714315954 0 0.0038632810965182006 -0.013523884533325465 0 0.0039435141749917038 -0.013586552358893774 0 0.0038632810965182006 -0.013523884533325465 0 0.0039435141749917038 -0.013586552358893774 0 0.0039082855827293553 -0.013316812792681773 0 0.0038632810965182006 -0.013523884533325465 0 0.0036811578936627276 -0.013500642420896393 0 0.0039082855827293553 -0.013316812792681773 0 0.0036811578936627276 -0.013500642420896393 0 0.0034123275973441045 -0.013583025609144282 0 0.0034882646584549941 -0.013308516673373462 0 0.0036811578936627276 -0.013500642420896393 0 0.0039082855827293553 -0.013316812792681773 0 0.0034882646584549941 -0.013308516673373462 0 0.006281694607592178 -0.027162201471797941 0 0.0019807139027316774 -0.027121352315063883 0 0.0035948611196218753 -0.023822893755983336 0 0.0031887586509076102 -0.020527705732383734 0 0.0023889670234279064 -0.018445976194968652 0 0.003977045742984288 -0.013607526453619062 0 0.003887679658930822 -0.0136178738770781 0 0.0039435141749917038 -0.013586552358893774 0 0.0019807139027316774 -0.027121352315063883 0 0.0035948611196218753 -0.023822893755983336 0 0.00067028616683787162 -0.02393448274802875 0 0.00067028616683787162 -0.02393448274802875 0 0.00090123238219736671 -0.020481690640825216 0 -0.00063718876913940084 -0.020743182300481788 0 0.0035948611196218753 -0.023822893755983336 0 0.00067028616683787162 -0.02393448274802875 0 0.00090123238219736671 -0.020481690640825216 0 0.0036383580660629433 -0.026408698487452083 0 0.0018754900668600818 -0.018829860951612529 0 0.0023889670234279064 -0.018445976194968652 0 0.0014649940306403057 -0.015846745959892352 0 0.0021938303384728356 -0.031077921358598982 0 0.0025378528055510115 -0.026878359189474829 0 -0.00073997117842090042 -0.027429283700613327 0 0.004621325589251879 -0.029168709828083832 0 0.0021938303384728356 -0.031077921358598982 0 0.0025378528055510115 -0.026878359189474829 0 0.0026015721202714698 -0.023973012622776412 0 0.0018754900668600818 -0.018829860951612529 0 0.0027034719155209054 -0.022497796390113626 0 0.0016183696665881451 -0.022688783620393595 0 0.0016032279010324011 -0.021651392583206225 0 0.0018754900668600818 -0.018829860951612529 0 0.0014649940306403057 -0.015846745959892352 0 0.0016183696665881451 -0.022688783620393595 0 0.0016032279010324011 -0.021651392583206225 0 0.00065033766978103344 -0.021537938898573861 0 0.0027034719155209054 -0.022497796390113626 0 0.0016032279010324011 -0.021651392583206225 0 0.0024902157360947408 -0.021461750663024321 0 0.0027034719155209054 -0.022497796390113626 0 0.0024902157360947408 -0.021461750663024321 0 0.0031684709624945134 -0.021848005435140962 0 0.0024902157360947408 -0.021461750663024321 0 0.0032480581118460934 -0.02097764069811563 0 0.0031684709624945134 -0.021848005435140962 0 0.00034917651406181832 -0.0055215284857804614 0 -0.00068926587610859853 -0.0057465573754186755 0 -0.00067347016954424173 -0.0067632127373085851 0 0.0014649940306403057 -0.015846745959892352 0 0.0010330354056552824 -0.0090534572204234946 0 0.0015025256373539075 -0.0064473564631804363 0 0.00034917651406181832 -0.0055215284857804614 0 -0.00067347016954424173 -0.0067632127373085851 0 0.0023296933614966814 -0.006380693420561712 0 0.0011783399236814723 -0.0056558262280227214 0 0.0010465719406073672 -0.0047900378090689521 0 0.0018754900668600818 -0.018829860951612529 0 0.0004424357724805308 -0.014306248492254878 0 0.0011783399236814723 -0.0056558262280227214 0 0.0015025256373539075 -0.0064473564631804363 0 0.00034917651406181832 -0.0055215284857804614 0 0.00098888596482894081 -0.014210077274110606 0 0.0014649940306403057 -0.015846745959892352 0 0.0023296933614966814 -0.006380693420561712 0 0.0011783399236814723 -0.0056558262280227214 0 0.0015215143797142649 -0.0065211232354686812 0 0.0016032279010324011 -0.021651392583206225 0 0.00065033766978103344 -0.021537938898573861 0 0.001265870237829494 -0.02080998631870843 0 0.0011783399236814723 -0.0056558262280227214 0 0.0010465719406073672 -0.0047900378090689521 0 0.00034917651406181832 -0.0055215284857804614 0 0.0010465719406073672 -0.0047900378090689521 0 0.00034917651406181832 -0.0055215284857804614 0 0.0002470501666344556 -0.004538644978814072 0 0.00034917651406181832 -0.0055215284857804614 0 0.0002470501666344556 -0.004538644978814072 0 -0.00041895501245730482 -0.0048355213683679869 0 0.0002470501666344556 -0.004538644978814072 0 -0.00041895501245730482 -0.0048355213683679869 0 -0.00029388692286585837 -0.0042225710726681411 0 0.00034917651406181832 -0.0055215284857804614 0 -0.00041895501245730482 -0.0048355213683679869 0 -0.00068926587610859853 -0.0057465573754186755 0 0.0004424357724805308 -0.014306248492254878 0 -0.00016948674576887097 -0.011737272845860224 0 0.0002470501666344556 -0.004538644978814072 0 -0.00016850309262409399 -0.0033114311218340464 0 -0.00029388692286585837 -0.0042225710726681411 0 -0.00016850309262409399 -0.0033114311218340464 0 -0.00029388692286585837 -0.0042225710726681411 0 -0.00098648641169846998 -0.004505039576186652 0 0.0010465719406073672 -0.0047900378090689521 0 0.0002470501666344556 -0.004538644978814072 0 -0.00016850309262409399 -0.0033114311218340464 0 0.00065033766978103344 -0.021537938898573861 0 -0.0003718108750478884 -0.020280727124706993 0 0.00072557631976518451 -0.020360310079367862 0 0.00065033766978103344 -0.021537938898573861 0 0.00072557631976518451 -0.020360310079367862 0 0.001265870237829494 -0.02080998631870843 0 0.00072557631976518451 -0.020360310079367862 0 0.001265870237829494 -0.02080998631870843 0 0.0013724216524041452 -0.019952917307856737 0 0.00072557631976518451 -0.020360310079367862 0 0.0010822626831043639 -0.019316988054669172 0 0.0013724216524041452 -0.019952917307856737 0 -0.0003718108750478884 -0.020280727124706993 0 0.00072557631976518451 -0.020360310079367862 0 0.0010822626831043639 -0.019316988054669172 0 -0.00088810678436369828 -0.019538289060520457 0 0.001063248874994436 -0.018260841326218944 0 -4.9390902786940304e-05 -0.01873245390049972 0 -0.00016948674576887097 -0.011737272845860224 0 0.0014926621983986498 -0.018398208599224041 0 -0.00075934536602210697 -0.017602151180126074 0 0.001063248874994436 -0.018260841326218944 0 -4.9390902786940304e-05 -0.01873245390049972 0 0.0014926621983986498 -0.018398208599224041 0 0.0015422511074429047 -0.018591442703291997 0 -0.00075934536602210697 -0.017602151180126074 0 -4.9390902786940304e-05 -0.01873245390049972 0 -0.0012362022696763848 -0.019168437949592849 0 -0.001314350264668429 -0.011120084433084232 0 -0.00087052680823319179 -0.010236965151246603 0 -0.00088810678436369828 -0.019538289060520457 0 -4.9390902786940304e-05 -0.01873245390049972 0 -0.0012132849980022668 -0.01913238822747463 0 -0.00016948674576887097 -0.011737272845860224 0 -0.00087052680823319179 -0.010236965151246603 0 0.0024902157360947408 -0.021461750663024321 0 0.002026402762199691 -0.020697050934154571 0 0.0032480581118460934 -0.02097764069811563 0 0.002026402762199691 -0.020697050934154571 0 0.0024326169045322038 -0.019724307858353784 0 0.0032480581118460934 -0.02097764069811563 0 0.0016032279010324011 -0.021651392583206225 0 0.001265870237829494 -0.02080998631870843 0 0.0020933938124948494 -0.020490470967898883 0 0.0016032279010324011 -0.021651392583206225 0 0.0024902157360947408 -0.021461750663024321 0 0.002026402762199691 -0.020697050934154571 0 0.0026784275337712613 -0.021466671531052455 0 0.0028828237678257236 -0.021374507984061514 0 0.001265870237829494 -0.02080998631870843 0 0.0020933938124948494 -0.020490470967898883 0 0.0013724216524041452 -0.019952917307856737 0 0.0020933938124948494 -0.020490470967898883 0 0.0018419498455560265 -0.019560005424106141 0 0.0025536958758423317 -0.019359820057693145 0 0.0020933938124948494 -0.020490470967898883 0 0.0013724216524041452 -0.019952917307856737 0 0.0018419498455560265 -0.019560005424106141 0 0.0010917526903652783 -0.019341415181209614 0 0.0013724216524041452 -0.019952917307856737 0 0.0018419498455560265 -0.019560005424106141 0 0.0044901659073761846 -0.024164916184634486 0 0.0042738777031339509 -0.02410231870071931 0 0.004201903632121402 -0.023867633783055502 0 0.0028828237678257236 -0.021374507984061514 0 0.0031697669361482783 -0.022014752301274788 0 0.0031697669361482783 -0.022014752301274788 0 0.0029524546595306538 -0.02397057597958463 0 0.0043114642518851561 -0.024276686507115765 0 0.0044901659073761846 -0.024164916184634486 0 0.0042738777031339509 -0.02410231870071931 0 0.0042738777031339509 -0.02410231870071931 0 0.0040859776632082723 -0.024138712237724715 0 0.004201903632121402 -0.023867633783055502 0 0.0043114642518851561 -0.024276686507115765 0 0.0042738777031339509 -0.02410231870071931 0 0.0040859776632082723 -0.024138712237724715 0 0.0040859776632082723 -0.024138712237724715 0 0.004201903632121402 -0.023867633783055502 0 0.004017972550857063 -0.023896879823904153 0 0.0031744499857126454 -0.024524700652959291 0 0.0040859776632082723 -0.024138712237724715 0 0.0034306236673664679 -0.02386172754874958 0 0.0036614999101769181 -0.023108905454176664 0 0.0034306236673664679 -0.02386172754874958 0 0.0028079668601873179 -0.023654616179552689 0 0.0023778076139055544 -0.025450559651876509 0 0.0022948202846205489 -0.026618777466218865 0 0.0040859776632082723 -0.024138712237724715 0 0.0036614999101769181 -0.023108905454176664 0 0.0034306236673664679 -0.02386172754874958 0 0.0021394435038553056 -0.024857317663940011 0 0.0031744499857126454 -0.024524700652959291 0 0.0028079668601873179 -0.023654616179552689 0 0.0031744499857126454 -0.024524700652959291 0 0.0034306236673664679 -0.02386172754874958 0 0.0028079668601873179 -0.023654616179552689 0 0.0021394435038553056 -0.024857317663940011 0 0.0028079668601873179 -0.023654616179552689 0 0.0015526267956466374 -0.023428377400997243 0 0.0015526267956466374 -0.023428377400997243 0 0.0022453130586579675 -0.022978544866872799 0 0.0017952131705715924 -0.022187844244422696 0 0.0026138150461699821 -0.033063438639391839 0 0.0040124572775248309 -0.046440393549703647 0 0.0028079668601873179 -0.023654616179552689 0 0.0015526267956466374 -0.023428377400997243 0 0.0022453130586579675 -0.022978544866872799 0 0.0036614999101769181 -0.023108905454176664 0 0.0028079668601873179 -0.023654616179552689 0 0.0028837799706458271 -0.022749299372837109 0 0.0028079668601873179 -0.023654616179552689 0 0.0022453130586579675 -0.022978544866872799 0 0.0028837799706458271 -0.022749299372837109 0 0.0028837799706458271 -0.022749299372837109 0 0.0031460515669670132 -0.021959943018400773 0 0.0017952131705715924 -0.022187844244422696 0 0.0035767467202492305 -0.034189889984396378 0 0.0040124572775248309 -0.046440393549703647 0 0.0036614999101769181 -0.023108905454176664 0 0.0028837799706458271 -0.022749299372837109 0 0.0031460515669670132 -0.021959943018400773 0 0.0022453130586579675 -0.022978544866872799 0 0.0028837799706458271 -0.022749299372837109 0 0.0017952131705715924 -0.022187844244422696 0 0.0040124572775248309 -0.046440393549703647 0 0.005399890382492163 -0.046887920179726816 0 0.0061032200231487263 -0.042062788732919069 0 0.0065197924518271009 -0.042006485789986912 0 0.0064169266612468271 -0.042274413188755702 0 0.0069821702951777947 -0.062125209005513639 0 0.0040124572775248309 -0.046440393549703647 0 0.0069536219018813119 -0.053387337782906531 0 0.0072441080828434716 -0.048873754323292828 0 0.0061174014897961539 -0.051773059781087885 0 0.0061032200231487263 -0.042062788732919069 0 0.0064169266612468271 -0.042274413188755702 0 0.0062100516482499514 -0.042299404022740919 0 0.0061216042015733311 -0.033551152985991498 0 0.0073362415483377522 -0.036184237831732212 0 0.0043126118363153183 -0.034975542106327383 0 0.0035767467202492305 -0.034189889984396378 0 0.0050894662496623541 -0.040546249750232993 0 0.0045686214798955124 -0.039041319500919824 0 0.0043126118363153183 -0.034975542106327383 0 0.0026072819831567135 -0.034144951533144806 0 0.0035767467202492305 -0.034189889984396378 0 0.0038521351646967142 -0.029602869210033425 0 0.0061216042015733311 -0.033551152985991498 0 0.0043126118363153183 -0.034975542106327383 0 0.0036657070467572988 -0.03396965647456205 0 0.0043126118363153183 -0.034975542106327383 0 0.0036651983093918704 -0.033963084233262962 0 0.0026072819831567135 -0.034144951533144806 0 0.0038521351646967142 -0.029602869210033425 0 0.0034583392813458381 -0.028849003444164068 0 0.0039697329629874486 -0.02986345195056379 0 0.0038521351646967142 -0.029602869210033425 0 0.0026015721202714698 -0.023973012622776412 0 0.0034583392813458381 -0.028849003444164068 0 0.004621325589251879 -0.029168709828083832 0 0.0025378528055510115 -0.026878359189474829 0 0.0058174715482126899 -0.02632072636536183 0 0.0027034719155209054 -0.022497796390113626 0 0.0037694182821788502 -0.022328346302157603 0 0.0031684709624945134 -0.021848005435140962 0 0.0040880300962601781 -0.022284355161875866 0 0.0037703852895060947 -0.022340563376555291 0 0.0036262083874559546 -0.021969456633247151 0 0.0032480581118460934 -0.02097764069811563 0 0.0036262083874559546 -0.021969456633247151 0 0.0031684709624945134 -0.021848005435140962 0 0.0037694182821788502 -0.022328346302157603 0 0.0036262083874559546 -0.021969456633247151 0 0.0031684709624945134 -0.021848005435140962 0 0.0032480581118460934 -0.02097764069811563 0 0.0040880300962601781 -0.022284355161875866 0 0.0036262083874559546 -0.021969456633247151 0 0.0034583392813458381 -0.028849003444164068 0 0.0033319461323855094 -0.028387385956246333 0 0.0029524546595306538 -0.02397057597958463 0 0.0038521351646967142 -0.029602869210033425 0 0.0022948202846205489 -0.026618777466218865 0 0.0035767467202492305 -0.034189889984396378 0 0.004017972550857063 -0.023896879823904153 0 0.0039419066265378531 -0.023742659566714914 0 0.0040466622144388707 -0.023713787103642844 0 0.004201903632121402 -0.023867633783055502 0 0.004017972550857063 -0.023896879823904153 0 0.0040466622144388707 -0.023713787103642844 0 3.3705730144003685e-05 -0.09491742723710507 0 1.9649002415205588e-08 -0.094999925575092931 0 2.4463511601260243e-05 -0.094955460820508403 0 1.9649002415205588e-08 -0.094999925575092931 0 2.4463511601260243e-05 -0.094955460820508403 0 9.4694616902066169e-09 -0.094999948922006278 0 0.00045069762740817913 -0.093041725963312644 0 0.00079614202742185288 -0.0911839670201159 0 3.3705730144003685e-05 -0.09491742723710507 0 2.4463511601260243e-05 -0.094955460820508403 0 1.4666916367145081e-05 -0.094919637298216397 0 0.00045069762740817913 -0.093041725963312644 0 0.00030276514132458824 -0.090354031798402665 0 0.001605147819695791 -0.089359555461293566 0 0.00094980776055812266 -0.089049557468630636 0 0.00074943723071050489 -0.089201269759898852 0 0.00079614202742185288 -0.0911839670201159 0 0.0012338968158661493 -0.088921414522835668 0 0.00094980776055812266 -0.089049557468630636 0 0.00074943723071050489 -0.089201269759898852 0 0.00029185615796030695 -0.088745755326653755 0 1.4666916367145081e-05 -0.094919637298216397 0 1.0467960803688361e-05 -0.094872526580391692 0 -3.1636600261855168e-05 -0.094875500441824009 0 3.3705730144003685e-05 -0.09491742723710507 0 1.4666916367145081e-05 -0.094919637298216397 0 1.0467960803688361e-05 -0.094872526580391692 0 3.3705730144003685e-05 -0.09491742723710507 0 3.043944421090812e-05 -0.094795068521800585 0 3.8950842968920793e-05 -0.094845715922259849 0 3.3705730144003685e-05 -0.09491742723710507 0 1.0467960803688361e-05 -0.094872526580391692 0 3.043944421090812e-05 -0.094795068521800585 0 1.0467960803688361e-05 -0.094872526580391692 0 3.043944421090812e-05 -0.094795068521800585 0 -4.841174470590974e-05 -0.094812001597634754 0 -0.00050429633930638203 -0.091367902354557301 0 1.8229821523425125e-05 -0.09018486794985893 0 3.043944421090812e-05 -0.094795068521800585 0 3.6328394550403947e-05 -0.094630708586209436 0 -1.4497088219650876e-05 -0.09464282677950131 0 3.043944421090812e-05 -0.094795068521800585 0 3.8950842968920793e-05 -0.094845715922259849 0 4.8897555014496401e-05 -0.09470249818925297 0 3.3705730144003685e-05 -0.09491742723710507 0 3.8950842968920793e-05 -0.094845715922259849 0 6.3331124561037354e-08 -0.09499983523927244 0 3.3705730144003685e-05 -0.09491742723710507 0 1.9649002415205588e-08 -0.094999925575092931 0 6.3331124561037354e-08 -0.09499983523927244 0 6.3331124561037354e-08 -0.09499983523927244 0 3.7393351995816493e-05 -0.094818020240418174 0 1.955695060249725e-08 -0.094999787112563294 0 3.8950842968920793e-05 -0.094845715922259849 0 6.3331124561037354e-08 -0.09499983523927244 0 3.7393351995816493e-05 -0.094818020240418174 0 1.955695060249725e-08 -0.094999787112563294 0 4.900675211121979e-06 -0.094814596991865327 0 1.3969232936741155e-08 -0.094999715651108013 0 3.7393351995816493e-05 -0.094818020240418174 0 1.955695060249725e-08 -0.094999787112563294 0 4.900675211121979e-06 -0.094814596991865327 0 3.7393351995816493e-05 -0.094818020240418174 0 4.900675211121979e-06 -0.094814596991865327 0 4.4702992469735457e-05 -0.094613576045793193 0 1.6446043295219235e-05 -0.094350457837328192 0 1.842468437506296e-05 -0.094533555185944057 0 3.3152100753498837e-05 -0.0942443656798201 0 1.842468437506296e-05 -0.094533555185944057 0 4.755155866167964e-05 -0.094420563456276363 0 3.3152100753498837e-05 -0.0942443656798201 0 -8.6541593886594759e-06 -0.094727050617577413 0 4.900675211121979e-06 -0.094814596991865327 0 1.842468437506296e-05 -0.094533555185944057 0 4.900675211121979e-06 -0.094814596991865327 0 1.842468437506296e-05 -0.094533555185944057 0 4.4702992469735457e-05 -0.094613576045793193 0 4.4702992469735457e-05 -0.094613576045793193 0 4.755155866167964e-05 -0.094420563456276363 0 5.2637199879698958e-05 -0.094522950299910993 0 1.842468437506296e-05 -0.094533555185944057 0 4.4702992469735457e-05 -0.094613576045793193 0 4.755155866167964e-05 -0.094420563456276363 0 4.4702992469735457e-05 -0.094613576045793193 0 5.2637199879698958e-05 -0.094522950299910993 0 4.8897555014496401e-05 -0.09470249818925297 0 3.7393351995816493e-05 -0.094818020240418174 0 4.4702992469735457e-05 -0.094613576045793193 0 4.8897555014496401e-05 -0.09470249818925297 0 3.8950842968920793e-05 -0.094845715922259849 0 3.7393351995816493e-05 -0.094818020240418174 0 4.8897555014496401e-05 -0.09470249818925297 0 5.2637199879698958e-05 -0.094522950299910993 0 4.8897555014496401e-05 -0.09470249818925297 0 3.6328394550403947e-05 -0.094630708586209436 0 3.043944421090812e-05 -0.094795068521800585 0 4.8897555014496401e-05 -0.09470249818925297 0 3.6328394550403947e-05 -0.094630708586209436 0 3.6328394550403947e-05 -0.094630708586209436 0 2.0626743417117747e-05 -0.094447854012248311 0 -1.4497088219650876e-05 -0.09464282677950131 0 -7.224654392057301e-05 -0.094502150456008099 0 -0.00013839782999530931 -0.094600804744680009 0 -1.4497088219650876e-05 -0.09464282677950131 0 -7.224654392057301e-05 -0.094502150456008099 0 2.0626743417117747e-05 -0.094447854012248311 0 -9.5420389060494316e-05 -0.094332485167688371 0 -7.224654392057301e-05 -0.094502150456008099 0 2.0626743417117747e-05 -0.094447854012248311 0 -1.4497088219650876e-05 -0.09464282677950131 0 -7.224654392057301e-05 -0.094502150456008099 0 -0.00016408651207539386 -0.094462671731328177 0 -0.00013839782999530931 -0.094600804744680009 0 -7.224654392057301e-05 -0.094502150456008099 0 -9.5420389060494316e-05 -0.094332485167688371 0 -0.00016408651207539386 -0.094462671731328177 0 8.4703110683150598e-06 -0.09416768197898015 0 2.0626743417117747e-05 -0.094447854012248311 0 -9.5420389060494316e-05 -0.094332485167688371 0 8.4703110683150598e-06 -0.09416768197898015 0 2.0626743417117747e-05 -0.094447854012248311 0 3.9321294231646695e-05 -0.094298034707304773 0 5.2637199879698958e-05 -0.094522950299910993 0 3.6328394550403947e-05 -0.094630708586209436 0 2.0626743417117747e-05 -0.094447854012248311 0 5.2637199879698958e-05 -0.094522950299910993 0 2.0626743417117747e-05 -0.094447854012248311 0 3.9321294231646695e-05 -0.094298034707304773 0 4.755155866167964e-05 -0.094420563456276363 0 5.2637199879698958e-05 -0.094522950299910993 0 3.9321294231646695e-05 -0.094298034707304773 0 4.755155866167964e-05 -0.094420563456276363 0 3.9321294231646695e-05 -0.094298034707304773 0 3.3152100753498837e-05 -0.0942443656798201 0 3.9321294231646695e-05 -0.094298034707304773 0 7.2242485211246489e-06 -0.094059766708764411 0 3.3152100753498837e-05 -0.0942443656798201 0 8.4703110683150598e-06 -0.09416768197898015 0 3.9321294231646695e-05 -0.094298034707304773 0 7.2242485211246489e-06 -0.094059766708764411 0 8.4703110683150598e-06 -0.09416768197898015 0 7.2242485211246489e-06 -0.094059766708764411 0 2.2218733972805903e-05 -0.093810697626447864 0 7.2242485211246489e-06 -0.094059766708764411 0 -6.5820164662438595e-05 -0.093819228067536356 0 2.2218733972805903e-05 -0.093810697626447864 0 7.2242485211246489e-06 -0.094059766708764411 0 -6.5820164662438595e-05 -0.093819228067536356 0 3.3152100753498837e-05 -0.0942443656798201 0 1.6446043295219235e-05 -0.094350457837328192 0 -6.5820164662438595e-05 -0.093819228067536356 0 3.3152100753498837e-05 -0.0942443656798201 0 0.00035113533347459828 -0.093985662237560205 0 0.0021642373990221654 -0.092440626892129965 0 8.0653217516840885e-05 -0.092998733584848045 0 0.0021642373990221654 -0.092440626892129965 0 8.0653217516840885e-05 -0.092998733584848045 0 0.0020223010452990403 -0.090841587173247099 0 0.0021642373990221654 -0.092440626892129965 0 0.0020223010452990403 -0.090841587173247099 0 0.0032936619802093315 -0.090852802863750887 0 0.00035113533347459828 -0.093985662237560205 0 -6.5820164662438595e-05 -0.093819228067536356 0 8.0653217516840885e-05 -0.092998733584848045 0 -6.5820164662438595e-05 -0.093819228067536356 0 8.0653217516840885e-05 -0.092998733584848045 0 2.2218733972805903e-05 -0.093810697626447864 0 8.0653217516840885e-05 -0.092998733584848045 0 2.2218733972805903e-05 -0.093810697626447864 0 -0.00020526079350199609 -0.093925993316657755 0 8.4703110683150598e-06 -0.09416768197898015 0 2.2218733972805903e-05 -0.093810697626447864 0 -0.00016690143009330633 -0.094167958681831351 0 2.2218733972805903e-05 -0.093810697626447864 0 -0.00020526079350199609 -0.093925993316657755 0 -0.00016690143009330633 -0.094167958681831351 0 8.0653217516840885e-05 -0.092998733584848045 0 -0.00020526079350199609 -0.093925993316657755 0 -0.00060708077635948394 -0.094191086793437032 0 0.0020223010452990403 -0.090841587173247099 0 0.00089807658826081575 -0.087961061870546614 0 0.003184229867536797 -0.08954948790209076 0 8.0653217516840885e-05 -0.092998733584848045 0 0.0020223010452990403 -0.090841587173247099 0 0.00089807658826081575 -0.087961061870546614 0 0.0027142867607869423 -0.092143317191593618 0 0.0042486954536701893 -0.090575652155880329 0 -0.00020526079350199609 -0.093925993316657755 0 -0.000479072730040298 -0.094162321935391466 0 -0.00060708077635948394 -0.094191086793437032 0 -0.00020526079350199609 -0.093925993316657755 0 -0.000479072730040298 -0.094162321935391466 0 -0.00028959446071421906 -0.09412427221250759 0 -0.00047913412511870797 -0.094172691693602276 0 -0.00036754718434824443 -0.094283701240612139 0 -0.00047606952169512322 -0.094468404314894672 0 0.0042486954536701893 -0.090575652155880329 0 0.0059403428400650066 -0.089236592760005104 0 0.0041920765808806078 -0.090595079190828917 0 0.0042486954536701893 -0.090575652155880329 0 -0.000479072730040298 -0.094162321935391466 0 -0.00036754718434824443 -0.094283701240612139 0 -0.00028959446071421906 -0.09412427221250759 0 -0.000479072730040298 -0.094162321935391466 0 -0.00047913412511870797 -0.094172691693602276 0 -0.00036754718434824443 -0.094283701240612139 0 8.4703110683150598e-06 -0.09416768197898015 0 -0.00016690143009330633 -0.094167958681831351 0 -9.5420389060494316e-05 -0.094332485167688371 0 -0.00036754718434824443 -0.094283701240612139 0 -0.00016690143009330633 -0.094167958681831351 0 -0.00028959446071421906 -0.09412427221250759 0 -0.00020526079350199609 -0.093925993316657755 0 -0.00016690143009330633 -0.094167958681831351 0 -0.00028959446071421906 -0.09412427221250759 0 -0.00036754718434824443 -0.094283701240612139 0 -0.00016690143009330633 -0.094167958681831351 0 -0.00021626735052017194 -0.094347072587246908 0 -0.00036754718434824443 -0.094283701240612139 0 -0.00021626735052017194 -0.094347072587246908 0 -0.00031261688646715466 -0.094433435984464478 0 -0.00021626735052017194 -0.094347072587246908 0 -9.5420389060494316e-05 -0.094332485167688371 0 -0.00016408651207539386 -0.094462671731328177 0 -0.00016690143009330633 -0.094167958681831351 0 -0.00021626735052017194 -0.094347072587246908 0 -9.5420389060494316e-05 -0.094332485167688371 0 -0.00016408651207539386 -0.094462671731328177 0 -0.00031345012393682765 -0.094582848263883135 0 -0.00013839782999530931 -0.094600804744680009 0 -0.00021626735052017194 -0.094347072587246908 0 -0.00016408651207539386 -0.094462671731328177 0 -0.00031261688646715466 -0.094433435984464478 0 -0.00016408651207539386 -0.094462671731328177 0 -0.00031261688646715466 -0.094433435984464478 0 -0.00031345012393682765 -0.094582848263883135 0 -0.00031261688646715466 -0.094433435984464478 0 -0.00031345012393682765 -0.094582848263883135 0 -0.00047606952169512322 -0.094468404314894672 0 -0.00036754718434824443 -0.094283701240612139 0 -0.00031261688646715466 -0.094433435984464478 0 -0.00047606952169512322 -0.094468404314894672 0 -0.00031345012393682765 -0.094582848263883135 0 -0.00041514342955561052 -0.094616019357100983 0 -0.00047606952169512322 -0.094468404314894672 0 -0.00031345012393682765 -0.094582848263883135 0 -0.00041514342955561052 -0.094616019357100983 0 -0.00035080761039710327 -0.094745122518023916 0 -0.00031345012393682765 -0.094582848263883135 0 -0.00035080761039710327 -0.094745122518023916 0 -0.00021948083633533706 -0.094694779305349239 0 0.011393594615377702 -0.076190343512830869 0 0.0086478107792802485 -0.075025912962461375 0 0.012651167610544587 -0.073723971871891128 0 0.011393594615377702 -0.076190343512830869 0 0.012651167610544587 -0.073723971871891128 0 0.01331683298795675 -0.075424983050120978 0 0.0065573496786268098 -0.084635638949875774 0 0.0041690266889200705 -0.085241629375411937 0 -0.00035080761039710327 -0.094745122518023916 0 -0.00017250533201873256 -0.094808786567055839 0 -0.00021948083633533706 -0.094694779305349239 0 -0.00017250533201873256 -0.094808786567055839 0 -0.00021948083633533706 -0.094694779305349239 0 -0.00010620512090658939 -0.094699200260995126 0 -0.00031345012393682765 -0.094582848263883135 0 -0.00021948083633533706 -0.094694779305349239 0 -0.00013839782999530931 -0.094600804744680009 0 -0.00021948083633533706 -0.094694779305349239 0 -0.00013839782999530931 -0.094600804744680009 0 -0.00010620512090658939 -0.094699200260995126 0 -0.00013839782999530931 -0.094600804744680009 0 -0.00010620512090658939 -0.094699200260995126 0 -1.4497088219650876e-05 -0.09464282677950131 0 -0.00010620512090658939 -0.094699200260995126 0 -1.4497088219650876e-05 -0.09464282677950131 0 -1.2740129740749416e-05 -0.094745445313335522 0 3.043944421090812e-05 -0.094795068521800585 0 -1.4497088219650876e-05 -0.09464282677950131 0 -1.2740129740749416e-05 -0.094745445313335522 0 0.0041690266889200705 -0.085241629375411937 0 1.8229821523425125e-05 -0.09018486794985893 0 -0.00017250533201873256 -0.094808786567055839 0 -0.00010620512090658939 -0.094699200260995126 0 -1.2740129740749416e-05 -0.094745445313335522 0 -9.2241587683120104e-05 -0.094803895862529575 0 -4.841174470590974e-05 -0.094812001597634754 0 -7.8009866436613352e-05 -0.094821465937656321 0 0.0018760023592261086 -0.085154909003054918 0 0.0012338968158661493 -0.088921414522835668 0 0.00069516917927532542 -0.083610915334528413 0 0.00040770768387608835 -0.082944548156821771 0 0.0011273456716903928 -0.083049020344341612 0 -0.00036564270819182388 -0.088443759817349449 0 0.00029185615796030695 -0.088745755326653755 0 -0.00011142248763538444 -0.089053442485816786 0 0.0018760023592261086 -0.085154909003054918 0 -0.00078857064492146242 -0.08648001314151478 0 -4.841174470590974e-05 -0.094812001597634754 0 -7.8009866436613352e-05 -0.094821465937656321 0 -3.1636600261855168e-05 -0.094875500441824009 0 1.0467960803688361e-05 -0.094872526580391692 0 -4.841174470590974e-05 -0.094812001597634754 0 -3.1636600261855168e-05 -0.094875500441824009 0 0.00030276514132458824 -0.090354031798402665 0 -0.00078857064492146242 -0.08648001314151478 0 0.00074943723071050489 -0.089201269759898852 0 0.00029185615796030695 -0.088745755326653755 0 -0.00011142248763538444 -0.089053442485816786 0 -0.00078857064492146242 -0.08648001314151478 0 -0.0018779764929997723 -0.083742483292588599 0 -0.0067375325992324077 -0.080759965746251258 0 -0.0080562936811019899 -0.081763745858372691 0 -0.0068793685883069642 -0.081839632191063591 0 -0.0047793064623959467 -0.080737562749471151 0 -0.0067375325992324077 -0.080759965746251258 0 -0.0068793685883069642 -0.081839632191063591 0 -0.0018779764929997723 -0.083742483292588599 0 -0.001121776292370205 -0.08193476150416909 0 -0.0067375325992324077 -0.080759965746251258 0 -0.0082898568576674804 -0.081084654252966876 0 -0.0080562936811019899 -0.081763745858372691 0 0.0085637183231485718 -0.075040718066849976 0 0.011411024163091131 -0.073730030815754619 0 0.012651167610544587 -0.073723971871891128 0 0.0011273456716903928 -0.083049020344341612 0 0.0018530426237435369 -0.083156892060690754 0 0.0016392226796625472 -0.083437802723367385 0 0.0041690266889200705 -0.085241629375411937 0 0.01024877150945463 -0.080933086044515379 0 0.0085637183231485718 -0.075040718066849976 0 0.0072585380187763287 -0.074504703778427744 0 0.011411024163091131 -0.073730030815754619 0 0.0018760023592261086 -0.085154909003054918 0 0.0054795771770305788 -0.081368198102005879 0 0.00069516917927532542 -0.083610915334528413 0 0.0011273456716903928 -0.083049020344341612 0 0.0016392226796625472 -0.083437802723367385 0 0.0041690266889200705 -0.085241629375411937 0 0.0018760023592261086 -0.085154909003054918 0 0.0031334248862087554 -0.080468730608472164 0 0.0051190755988070368 -0.079980372270784805 0 0.015450304116942792 -0.07309451523387632 0 0.016295535962388277 -0.074466650181041039 0 0.015100843727117253 -0.07521872814807587 0 0.003023175567817843 -0.079980588448332515 0 0.0032827990742208372 -0.079937827393572011 0 0.0035132013947770696 -0.080063726321547027 0 0.015450304116942792 -0.07309451523387632 0 0.016295535962388277 -0.074466650181041039 0 0.017404015442064835 -0.073575313963985922 0 0.0031334248862087554 -0.080468730608472164 0 0.0023129345162506633 -0.079940149123727863 0 0.0023129345162506633 -0.079940149123727863 0 0.0019261309704199725 -0.079821332522857072 0 -0.009255777099834309 -0.081470951291110344 0 -0.0096031539104221627 -0.081621182311515425 0 -0.0094037911959772031 -0.081723539828306782 0 0.015450304116942792 -0.07309451523387632 0 0.014140708879188576 -0.074354818281149912 0 0.015100843727117253 -0.07521872814807587 0 -0.001121776292370205 -0.08193476150416909 0 0.0031334248862087554 -0.080468730608472164 0 0.0018530426237435369 -0.083156892060690754 0 0.0016392226796625472 -0.083437802723367385 0 0.0025833939969027793 -0.083271609149731488 0 0.015450304116942792 -0.07309451523387632 0 0.014140708879188576 -0.074354818281149912 0 0.012651167610544587 -0.073723971871891128 0 0.0054795771770305788 -0.081368198102005879 0 0.0031334248862087554 -0.080468730608472164 0 0.011411024163091131 -0.073730030815754619 0 0.015450304116942792 -0.07309451523387632 0 0.012651167610544587 -0.073723971871891128 0 0.014140708879188576 -0.074354818281149912 0 0.012651167610544587 -0.073723971871891128 0 0.01331683298795675 -0.075424983050120978 0 -0.0080562936811019899 -0.081763745858372691 0 -0.0089920506433980758 -0.081759314999650515 0 -0.0089824614471584185 -0.082405899114340944 0 -0.0082898568576674804 -0.081084654252966876 0 -0.009255777099834309 -0.081470951291110344 0 -0.0089920506433980758 -0.081759314999650515 0 -0.0082898568576674804 -0.081084654252966876 0 -0.0080562936811019899 -0.081763745858372691 0 -0.0089920506433980758 -0.081759314999650515 0 -0.0089920506433980758 -0.081759314999650515 0 -0.0093864296991333397 -0.082124720668609194 0 -0.0089824614471584185 -0.082405899114340944 0 -0.009255777099834309 -0.081470951291110344 0 -0.0089920506433980758 -0.081759314999650515 0 -0.0094037911959772031 -0.081723539828306782 0 -0.0089920506433980758 -0.081759314999650515 0 -0.0093864296991333397 -0.082124720668609194 0 -0.0094037911959772031 -0.081723539828306782 0 -0.0094968123407479666 -0.081827451608937049 0 -0.0094037911959772031 -0.081723539828306782 0 -0.0095208222727589768 -0.082031770171774765 0 -0.0093864296991333397 -0.082124720668609194 0 -0.0094037911959772031 -0.081723539828306782 0 -0.0095208222727589768 -0.082031770171774765 0 -0.0093864296991333397 -0.082124720668609194 0 -0.0095208222727589768 -0.082031770171774765 0 -0.0096156835127342802 -0.082313729207586228 0 -0.0094968123407479666 -0.081827451608937049 0 -0.0095984621508687015 -0.082179181800644346 0 -0.0096220954662522024 -0.082310369391653218 0 0.0023129345162506633 -0.079940149123727863 0 -0.00050452940257315968 -0.080479650751488593 0 -0.0095208222727589768 -0.082031770171774765 0 -0.0095984621508687015 -0.082179181800644346 0 -0.0096156835127342802 -0.082313729207586228 0 -0.0095984621508687015 -0.082179181800644346 0 -0.0096020605735778752 -0.082334584501575006 0 -0.0096156835127342802 -0.082313729207586228 0 -0.0095984621508687015 -0.082179181800644346 0 -0.0096020605735778752 -0.082334584501575006 0 -0.0096220954662522024 -0.082310369391653218 0 -0.0094968123407479666 -0.081827451608937049 0 -0.0095208222727589768 -0.082031770171774765 0 -0.0095984621508687015 -0.082179181800644346 0 -0.00050452940257315968 -0.080479650751488593 0 -0.00018188704000655172 -0.080707340520380866 0 0.0042883190660849895 -0.077954901910369315 0 0.0042226053826130514 -0.077943519507089484 0 0.0041123952256168625 -0.078003381171023081 0 -0.009361962786034933 -0.082336197953799539 0 -0.0096220954662522024 -0.082310369391653218 0 -0.0091613547634618216 -0.082449390187786076 0 -0.009361962786034933 -0.082336197953799539 0 -0.0096020605735778752 -0.082334584501575006 0 -0.0094584961086850074 -0.082382477562594578 0 -0.009361962786034933 -0.082336197953799539 0 -0.0096020605735778752 -0.082334584501575006 0 -0.0096220954662522024 -0.082310369391653218 0 0.0051190755988070368 -0.079980372270784805 0 0.009668415290414463 -0.078369520879743956 0 0.0043346134677150127 -0.077917135309593086 0 0.0042916270564265398 -0.077913994121413352 0 0.0042229673414461814 -0.077870670218806753 0 0.0042478778138955184 -0.077913062856651574 0 0.0042916270564265398 -0.077913994121413352 0 0.0042229673414461814 -0.077870670218806753 0 0.0042226053826130514 -0.077943519507089484 0 0.0042478778138955184 -0.077913062856651574 0 0.0042261617310333181 -0.07790203368124364 0 0.0042226053826130514 -0.077943519507089484 0 0.0042261617310333181 -0.07790203368124364 0 0.0042074970532244554 -0.077886059571974892 0 0.0042883190660849895 -0.077954901910369315 0 0.0042226053826130514 -0.077943519507089484 0 0.0042478778138955184 -0.077913062856651574 0 0.0042883190660849895 -0.077954901910369315 0 0.0042478778138955184 -0.077913062856651574 0 0.0042916270564265398 -0.077913994121413352 0 0.0042478778138955184 -0.077913062856651574 0 0.0042261617310333181 -0.07790203368124364 0 0.0042229673414461814 -0.077870670218806753 0 0.016295535962388277 -0.074466650181041039 0 0.017404015442064835 -0.073575313963985922 0 0.017245154992282255 -0.075643060217803385 0 0.0043482205650393416 -0.077930542530876543 0 0.0042883190660849895 -0.077954901910369315 0 0.0043264431606513925 -0.07792137497299842 0 0.0023129345162506633 -0.079940149123727863 0 0.0051190755988070368 -0.079980372270784805 0 0.0042883190660849895 -0.077954901910369315 0 0.0043264431606513925 -0.07792137497299842 0 0.0042916270564265398 -0.077913994121413352 0 0.0051190755988070368 -0.079980372270784805 0 0.0049701843780941071 -0.07988198898433746 0 0.017404015442064835 -0.073575313963985922 0 0.017245154992282255 -0.075643060217803385 0 0.020288351494830683 -0.075309357710696898 0 0.017245154992282255 -0.075643060217803385 0 0.020288351494830683 -0.075309357710696898 0 0.018860564026692828 -0.07684031511705533 0 0.018860564026692828 -0.07684031511705533 0 0.019054050728372844 -0.078321847233893488 0 0.020719007025037459 -0.07739483990803496 0 0.020288351494830683 -0.075309357710696898 0 0.018860564026692828 -0.07684031511705533 0 0.020719007025037459 -0.07739483990803496 0 0.013019257479978048 -0.083350807133832028 0 0.015481881575108061 -0.083516004323760662 0 0.017245154992282255 -0.075643060217803385 0 0.018860564026692828 -0.07684031511705533 0 0.016838476018839425 -0.077593458738433277 0 0.018860564026692828 -0.07684031511705533 0 0.016838476018839425 -0.077593458738433277 0 0.019054050728372844 -0.078321847233893488 0 0.016838476018839425 -0.077593458738433277 0 0.015961702395694031 -0.076158068132190518 0 0.014527436744378504 -0.076727748960866732 0 0.013019257479978048 -0.083350807133832028 0 0.01007463766940965 -0.084071261065212927 0 0.011350779804752461 -0.084686743446546392 0 0.0091638447110251771 -0.083738352454810705 0 0.0099147949578208168 -0.085685965532260974 0 0.017245154992282255 -0.075643060217803385 0 0.016838476018839425 -0.077593458738433277 0 0.015961702395694031 -0.076158068132190518 0 0.015961702395694031 -0.076158068132190518 0 0.015100843727117253 -0.07521872814807587 0 0.014527436744378504 -0.076727748960866732 0 0.016295535962388277 -0.074466650181041039 0 0.015961702395694031 -0.076158068132190518 0 0.015100843727117253 -0.07521872814807587 0 0.016295535962388277 -0.074466650181041039 0 0.017245154992282255 -0.075643060217803385 0 0.015961702395694031 -0.076158068132190518 0 0.011393594615377702 -0.076190343512830869 0 0.01331683298795675 -0.075424983050120978 0 0.014177238355996213 -0.077403364132055424 0 0.0065573496786268098 -0.084635638949875774 0 0.01007463766940965 -0.084071261065212927 0 0.014140708879188576 -0.074354818281149912 0 0.015100843727117253 -0.07521872814807587 0 0.01331683298795675 -0.075424983050120978 0 0.015100843727117253 -0.07521872814807587 0 0.01331683298795675 -0.075424983050120978 0 0.014177238355996213 -0.077403364132055424 0 0.011270861028820515 -0.081536038193679564 0 0.01007463766940965 -0.084071261065212927 0 0.0091638447110251771 -0.083738352454810705 0 0.0081387216924101637 -0.086105547899266013 0 0.0099147949578208168 -0.085685965532260974 0 -0.00041514342955561052 -0.094616019357100983 0 -0.00035080761039710327 -0.094745122518023916 0 -0.00051982738915020853 -0.094659327984755584 0 -0.00041514342955561052 -0.094616019357100983 0 -0.00051982738915020853 -0.094659327984755584 0 -0.00047606952169512322 -0.094468404314894672 0 0.01007463766940965 -0.084071261065212927 0 0.0059403428400650066 -0.089236592760005104 0 0.0081387216924101637 -0.086105547899266013 0 0.0099147949578208168 -0.085685965532260974 0 0.0099901180859473162 -0.087846774807695829 0 0.011350779804752461 -0.084686743446546392 0 0.0099147949578208168 -0.085685965532260974 0 0.011201765838574141 -0.086491068980414282 0 0.0099147949578208168 -0.085685965532260974 0 0.011201765838574141 -0.086491068980414282 0 0.0099901180859473162 -0.087846774807695829 0 0.006029111771106886 -0.085996976695910637 0 0.0044739911108437336 -0.088093100303415481 0 0.011314386528233794 -0.088229716631835847 0 0.011201765838574141 -0.086491068980414282 0 0.0099901180859473162 -0.087846774807695829 0 0.012865200207802888 -0.087213401119439496 0 0.00089807658826081575 -0.087961061870546614 0 0.006029111771106886 -0.085996976695910637 0 0.0044739911108437336 -0.088093100303415481 0 0.0071098293848163886 -0.088480410576958643 0 0.0081387216924101637 -0.086105547899266013 0 0.0099901180859473162 -0.087846774807695829 0 0.0042486954536701893 -0.090575652155880329 0 0.0085946309854361205 -0.087859919639362377 0 0.00089807658826081575 -0.087961061870546614 0 0.0044739911108437336 -0.088093100303415481 0 0.003184229867536797 -0.08954948790209076 0 0.0020223010452990403 -0.090841587173247099 0 0.003184229867536797 -0.08954948790209076 0 0.0032936619802093315 -0.090852802863750887 0 0.003184229867536797 -0.08954948790209076 0 0.0042911472589411762 -0.090098367971363155 0 0.0032936619802093315 -0.090852802863750887 0 0.0044739911108437336 -0.088093100303415481 0 0.0042911472589411762 -0.090098367971363155 0 0.0053149379132444536 -0.090058604147837978 0 0.0044739911108437336 -0.088093100303415481 0 0.003184229867536797 -0.08954948790209076 0 0.0042911472589411762 -0.090098367971363155 0 0.0066491757452717039 -0.087338151253750482 0 0.0094647773540425181 -0.087419471643801039 0 0.0044739911108437336 -0.088093100303415481 0 0.0053149379132444536 -0.090058604147837978 0 0.0062665949522515427 -0.089943164291774666 0 0.0042911472589411762 -0.090098367971363155 0 0.0053149379132444536 -0.090058604147837978 0 0.0050640913258560277 -0.090856594666860094 0 0.0050640913258560277 -0.090856594666860094 0 0.0051437359407935195 -0.091495252710330849 0 0.0043866508334547399 -0.09154846760213009 0 0.0056566632930586452 -0.091285318703464943 0 0.0056929079169235845 -0.090955799695708037 0 0.0051437359407935195 -0.091495252710330849 0 0.0050640913258560277 -0.090856594666860094 0 0.0056929079169235845 -0.090955799695708037 0 0.0051437359407935195 -0.091495252710330849 0 0.0053149379132444536 -0.090058604147837978 0 0.0050640913258560277 -0.090856594666860094 0 0.0056929079169235845 -0.090955799695708037 0 0.0043466522890646493 -0.09219058358798933 0 0.0051437359407935195 -0.091495252710330849 0 0.0043866508334547399 -0.09154846760213009 0 0.0020154627827089974 -0.094189830723767548 0 0.0021642373990221654 -0.092440626892129965 0 0.0043866508334547399 -0.09154846760213009 0 0.0021642373990221654 -0.092440626892129965 0 0.0043866508334547399 -0.09154846760213009 0 0.0032936619802093315 -0.090852802863750887 0 0.0042911472589411762 -0.090098367971363155 0 0.0043866508334547399 -0.09154846760213009 0 0.0032936619802093315 -0.090852802863750887 0 0.0042911472589411762 -0.090098367971363155 0 0.0050640913258560277 -0.090856594666860094 0 0.0043866508334547399 -0.09154846760213009 0 0.0072134851968398235 -0.091534048784716798 0 0.0064829166961633969 -0.090676766038131101 0 0.0072388467731538068 -0.090227602536378002 0 0.0056569129652224246 -0.091328364895505762 0 0.0056929079169235845 -0.090955799695708037 0 0.0064829166961633969 -0.090676766038131101 0 0.0056929079169235845 -0.090955799695708037 0 0.0064829166961633969 -0.090676766038131101 0 0.0062665949522515427 -0.089943164291774666 0 0.0053149379132444536 -0.090058604147837978 0 0.0056929079169235845 -0.090955799695708037 0 0.0062665949522515427 -0.089943164291774666 0 0.0094647773540425181 -0.087419471643801039 0 0.016078317288643777 -0.086900037516508419 0 0.011314386528233794 -0.088229716631835847 0 0.016431441075364504 -0.085374195767430855 0 0.019019239873364825 -0.089166960839281884 0 0.0064829166961633969 -0.090676766038131101 0 0.0062665949522515427 -0.089943164291774666 0 0.0072388467731538068 -0.090227602536378002 0 0.016431441075364504 -0.085374195767430855 0 0.012504019384520114 -0.083184327744305703 0 0.019456938603535784 -0.08084327248373567 0 0.011314386528233794 -0.088229716631835847 0 0.016431441075364504 -0.085374195767430855 0 0.012504019384520114 -0.083184327744305703 0 0.006029111771106886 -0.085996976695910637 0 0.011314386528233794 -0.088229716631835847 0 0.012504019384520114 -0.083184327744305703 0 0.0085946309854361205 -0.087859919639362377 0 0.013064608776589406 -0.085825770673220531 0 0.011350779804752461 -0.084686743446546392 0 0.011201765838574141 -0.086491068980414282 0 0.0135453176068822 -0.085632752410163854 0 0.011201765838574141 -0.086491068980414282 0 0.012865200207802888 -0.087213401119439496 0 0.0135453176068822 -0.085632752410163854 0 0.013064608776589406 -0.085825770673220531 0 0.017457665622287042 -0.084230025038934189 0 0.012865200207802888 -0.087213401119439496 0 0.0135453176068822 -0.085632752410163854 0 0.015742973506596803 -0.086579705612777877 0 0.015481881575108061 -0.083516004323760662 0 0.017457665622287042 -0.084230025038934189 0 0.019054050728372844 -0.078321847233893488 0 0.021045389706952553 -0.079292012376284388 0 0.020719007025037459 -0.07739483990803496 0 0.021382100884188127 -0.078131188488497538 0 0.021045389706952553 -0.079292012376284388 0 0.020719007025037459 -0.07739483990803496 0 0.021215060790197873 -0.081390250750640894 0 0.019003595912838508 -0.080431638989435492 0 0.022090873388071978 -0.079731514561040093 0 0.021382100884188127 -0.078131188488497538 0 0.021045389706952553 -0.079292012376284388 0 0.022090873388071978 -0.079731514561040093 0 0.017457665622287042 -0.084230025038934189 0 0.018109545565171949 -0.083960801764220924 0 0.017618685667575084 -0.084209387287846479 0 0.017457665622287042 -0.084230025038934189 0 0.022090873388071978 -0.079731514561040093 0 0.025043899704019587 -0.084435301492853901 0 0.022532305718595415 -0.076893365610462075 0 0.022084330791745092 -0.067449157853770883 0 0.020352469248904482 -0.071758310450909482 0 0.022532305718595415 -0.076893365610462075 0 0.021001852850110022 -0.075142690672845 0 0.021606691210612899 -0.075835470502429031 0 0.020352469248904482 -0.071758310450909482 0 0.019527018733590081 -0.07431503857340109 0 0.022532305718595415 -0.076893365610462075 0 0.021382100884188127 -0.078131188488497538 0 0.022090873388071978 -0.079731514561040093 0 0.022532305718595415 -0.076893365610462075 0 0.021215060790197873 -0.081390250750640894 0 0.021675753732401631 -0.084644029156362807 0 0.025043899704019587 -0.084435301492853901 0 0.021215060790197873 -0.081390250750640894 0 0.022090873388071978 -0.079731514561040093 0 0.025043899704019587 -0.084435301492853901 0 0.021675753732401631 -0.084644029156362807 0 0.025043899704019587 -0.084435301492853901 0 0.021565422823104897 -0.08676716050854015 0 0.016431441075364504 -0.085374195767430855 0 0.019456938603535784 -0.08084327248373567 0 0.019491871420230351 -0.083789851405548343 0 0.021215060790197873 -0.081390250750640894 0 0.019456938603535784 -0.08084327248373567 0 0.019491871420230351 -0.083789851405548343 0 0.021215060790197873 -0.081390250750640894 0 0.021675753732401631 -0.084644029156362807 0 0.019491871420230351 -0.083789851405548343 0 0.021675753732401631 -0.084644029156362807 0 0.019491871420230351 -0.083789851405548343 0 0.019213321203361937 -0.086745772557136322 0 0.016431441075364504 -0.085374195767430855 0 0.019491871420230351 -0.083789851405548343 0 0.019213321203361937 -0.086745772557136322 0 0.016431441075364504 -0.085374195767430855 0 0.019213321203361937 -0.086745772557136322 0 0.019019239873364825 -0.089166960839281884 0 0.016170791689882929 -0.086940310558710626 0 0.016078317288643777 -0.086900037516508419 0 0.019156787651751064 -0.088710877648103661 0 0.021565422823104897 -0.08676716050854015 0 0.022844886587779743 -0.089194976461364969 0 0.016078317288643777 -0.086900037516508419 0 0.020314714353485825 -0.087926529263742254 0 0.021675753732401631 -0.084644029156362807 0 0.019213321203361937 -0.086745772557136322 0 0.021565422823104897 -0.08676716050854015 0 0.019213321203361937 -0.086745772557136322 0 0.019156787651751064 -0.088710877648103661 0 0.021565422823104897 -0.08676716050854015 0 0.025043899704019587 -0.084435301492853901 0 0.022844886587779743 -0.089194976461364969 0 0.026151305724169759 -0.089594842001378711 0 0.025043899704019587 -0.084435301492853901 0 0.021565422823104897 -0.08676716050854015 0 0.022844886587779743 -0.089194976461364969 0 0.024168555887505789 -0.089252176247479581 0 0.025694470875453471 -0.090542558729037673 0 0.026151305724169759 -0.089594842001378711 0 0.020314714353485825 -0.087926529263742254 0 0.021809715499808778 -0.088275589133111024 0 0.024168555887505789 -0.089252176247479581 0 0.024875051762216657 -0.091175009222131467 0 0.025694470875453471 -0.090542558729037673 0 0.024168555887505789 -0.089252176247479581 0 0.024875051762216657 -0.091175009222131467 0 0.0234369980474619 -0.090965578549398116 0 0.022195863209979592 -0.088850292423322957 0 0.024168555887505789 -0.089252176247479581 0 0.0234369980474619 -0.090965578549398116 0 0.014112102652482746 -0.079589501240810073 0 0.016078317288643777 -0.086900037516508419 0 0.021956267280229917 -0.092653283928672184 0 0.022195863209979592 -0.088850292423322957 0 0.0234369980474619 -0.090965578549398116 0 0.0083429264537352513 -0.054870202205348592 0 0.0087548480769990694 -0.051586501170045929 0 0.012566596770517044 -0.059145730726004639 0 0.0087548480769990694 -0.051586501170045929 0 0.013631094712476198 -0.055971081573358963 0 0.012877239123846347 -0.062537007709782683 0 0.0093622589818495201 -0.05762286749095584 0 0.010916637072266111 -0.06216058555162262 0 0.013631094712476198 -0.055971081573358963 0 0.01480310002268575 -0.053518782101454276 0 0.015905657816488818 -0.056313679152321244 0 0.0087548480769990694 -0.051586501170045929 0 0.013631094712476198 -0.055971081573358963 0 0.012592484786028566 -0.051749436607886383 0 0.013631094712476198 -0.055971081573358963 0 0.012592484786028566 -0.051749436607886383 0 0.01480310002268575 -0.053518782101454276 0 0.014054282790837272 -0.050819409569844771 0 0.012592484786028566 -0.051749436607886383 0 0.01480310002268575 -0.053518782101454276 0 0.014054282790837272 -0.050819409569844771 0 0.01480310002268575 -0.053518782101454276 0 0.018257478963195944 -0.055113621909091824 0 0.025980097422127368 -0.091659373886227594 0 0.025694470875453471 -0.090542558729037673 0 0.026665604337576143 -0.090214667792546221 0 0.025980097422127368 -0.091659373886227594 0 0.024875051762216657 -0.091175009222131467 0 0.025694470875453471 -0.090542558729037673 0 0.025694470875453471 -0.090542558729037673 0 0.026151305724169759 -0.089594842001378711 0 0.026665604337576143 -0.090214667792546221 0 0.018257478963195944 -0.055113621909091824 0 0.015905657816488818 -0.056313679152321244 0 0.016577345424782956 -0.060406367799170392 0 0.01480310002268575 -0.053518782101454276 0 0.018257478963195944 -0.055113621909091824 0 0.015905657816488818 -0.056313679152321244 0 0.022084330791745092 -0.067449157853770883 0 0.018257478963195944 -0.055113621909091824 0 0.016577345424782956 -0.060406367799170392 0 0.013631094712476198 -0.055971081573358963 0 0.015905657816488818 -0.056313679152321244 0 0.016577345424782956 -0.060406367799170392 0 0.025043899704019587 -0.084435301492853901 0 0.026151305724169759 -0.089594842001378711 0 0.026665604337576143 -0.090214667792546221 0 0.021001852850110022 -0.075142690672845 0 0.01818313446903885 -0.072354202493670222 0 0.022084330791745092 -0.067449157853770883 0 0.016577345424782956 -0.060406367799170392 0 0.017536022724583919 -0.064992020543001627 0 0.016577345424782956 -0.060406367799170392 0 0.012877239123846347 -0.062537007709782683 0 0.017536022724583919 -0.064992020543001627 0 0.0076807933237897424 -0.056541751697321785 0 0.0083429264537352513 -0.054870202205348592 0 0.012566596770517044 -0.059145730726004639 0 0.0076807933237897424 -0.056541751697321785 0 0.012566596770517044 -0.059145730726004639 0 0.0097589392740834238 -0.058999759360595393 0 0.013631094712476198 -0.055971081573358963 0 0.016577345424782956 -0.060406367799170392 0 0.012877239123846347 -0.062537007709782683 0 0.012566596770517044 -0.059145730726004639 0 0.0097589392740834238 -0.058999759360595393 0 0.0098861084205671881 -0.061831803018537863 0 0.012566596770517044 -0.059145730726004639 0 0.0098861084205671881 -0.061831803018537863 0 0.016479948343220065 -0.066590771502543653 0 0.0072106590910059123 -0.062242148419137291 0 0.011114203904142014 -0.067832628586245725 0 0.012877239123846347 -0.062537007709782683 0 0.018275980577455303 -0.068106138922919432 0 0.01835215756368996 -0.073679004601886769 0 0.010916637072266111 -0.06216058555162262 0 0.011114203904142014 -0.067832628586245725 0 0.022084330791745092 -0.067449157853770883 0 0.017536022724583919 -0.064992020543001627 0 0.018275980577455303 -0.068106138922919432 0 0.012877239123846347 -0.062537007709782683 0 0.017536022724583919 -0.064992020543001627 0 0.018275980577455303 -0.068106138922919432 0 0.018275980577455303 -0.068106138922919432 0 0.020352469248904482 -0.071758310450909482 0 0.01835215756368996 -0.073679004601886769 0 0.022084330791745092 -0.067449157853770883 0 0.018275980577455303 -0.068106138922919432 0 0.020352469248904482 -0.071758310450909482 0 0.011530272427384265 -0.063315222246211375 0 0.00736813028057106 -0.063075993721970702 0 0.011480880244820515 -0.066841846810479791 0 0.018918904186434788 -0.074067355239272201 0 0.019527018733590081 -0.07431503857340109 0 0.022387745535546708 -0.077189051720052512 0 0.020352469248904482 -0.071758310450909482 0 0.01835215756368996 -0.073679004601886769 0 0.019527018733590081 -0.07431503857340109 0 0.011114203904142014 -0.067832628586245725 0 0.011263180679549456 -0.067942125493607466 0 -0.0016830066262832372 -0.069455080312224693 0 0.0012025379838165155 -0.073519208170809328 0 0.0067645698816570163 -0.059778060907149627 0 0.011530272427384265 -0.063315222246211375 0 0.00736813028057106 -0.063075993721970702 0 -0.010404404158816475 -0.075297282537200985 0 -0.010107349105003372 -0.076301755313515837 0 -0.0092423600563797514 -0.077003265991901257 0 -0.010404404158816475 -0.075297282537200985 0 -0.010107349105003372 -0.076301755313515837 0 -0.010715237670123294 -0.076264370768307124 0 -0.0102544963130594 -0.076972554208113247 0 -0.010178565191536339 -0.077942205761263067 0 -0.0098169565827368188 -0.076930663212918055 0 -0.010715237670123294 -0.076264370768307124 0 -0.0102544963130594 -0.076972554208113247 0 -0.010624531291117791 -0.07709059554567628 0 -0.010107349105003372 -0.076301755313515837 0 -0.010715237670123294 -0.076264370768307124 0 -0.0102544963130594 -0.076972554208113247 0 -0.010107349105003372 -0.076301755313515837 0 -0.0102544963130594 -0.076972554208113247 0 -0.0098169565827368188 -0.076930663212918055 0 -0.0102544963130594 -0.076972554208113247 0 -0.010624531291117791 -0.07709059554567628 0 -0.010178565191536339 -0.077942205761263067 0 -0.011553143192896827 -0.076908783259444613 0 -0.010624531291117791 -0.07709059554567628 0 -0.010178565191536339 -0.077942205761263067 0 -0.0075071239844824913 -0.063396026883988557 0 -0.0096098003853300525 -0.071302832991427964 0 -0.011076800197998633 -0.079866225348461467 0 -0.0094377002504785115 -0.079330161044915776 0 -0.0098169565827368188 -0.076930663212918055 0 -0.0094377002504785115 -0.079330161044915776 0 -0.0093088982545083861 -0.077445796121217644 0 -0.0081239746946439335 -0.079640024049689256 0 -0.0094377002504785115 -0.079330161044915776 0 -0.0087920512588460249 -0.080601332130035994 0 -0.009579050314671567 -0.081002188900241009 0 -0.011076800197998633 -0.079866225348461467 0 -0.0094377002504785115 -0.079330161044915776 0 -0.009579050314671567 -0.081002188900241009 0 -0.0094377002504785115 -0.079330161044915776 0 -0.0098169565827368188 -0.076930663212918055 0 -0.0093088982545083861 -0.077445796121217644 0 0.011530272427384265 -0.063315222246211375 0 0.011480880244820515 -0.066841846810479791 0 0.014107277212957334 -0.068258001166170951 0 0.011114203904142014 -0.067832628586245725 0 0.0069278131854233734 -0.075383815906398532 0 0.0012025379838165155 -0.073519208170809328 0 0.0069278131854233734 -0.075383815906398532 0 -0.0012550364190466749 -0.072963045303958793 0 0.0012025379838165155 -0.073519208170809328 0 -0.010107349105003372 -0.076301755313515837 0 -0.0098169565827368188 -0.076930663212918055 0 -0.0093088982545083861 -0.077445796121217644 0 0.0012025379838165155 -0.073519208170809328 0 0.0037819351050211937 -0.075889312057806538 0 0.0025658615122965056 -0.07494596239278363 0 0.0037839247552830572 -0.075581690860592951 0 0.0042486012763475233 -0.076440114437997711 0 0.022532305718595415 -0.076893365610462075 0 0.022387745535546708 -0.077189051720052512 0 0.020719007025037459 -0.07739483990803496 0 0.019527018733590081 -0.07431503857340109 0 0.022532305718595415 -0.076893365610462075 0 0.022387745535546708 -0.077189051720052512 0 0.020288351494830683 -0.075309357710696898 0 0.022387745535546708 -0.077189051720052512 0 0.020719007025037459 -0.07739483990803496 0 0.021382100884188127 -0.078131188488497538 0 0.022532305718595415 -0.076893365610462075 0 0.020719007025037459 -0.07739483990803496 0 0.0042229673414461814 -0.077870670218806753 0 0.0041874938778227464 -0.077852368906511468 0 0.0041926243057194201 -0.077863824474075707 0 0.009668415290414463 -0.078369520879743956 0 0.0069278131854233734 -0.075383815906398532 0 0.0042229673414461814 -0.077870670218806753 0 0.0041926243057194201 -0.077863824474075707 0 0.0042074970532244554 -0.077886059571974892 0 0.0037819351050211937 -0.075889312057806538 0 0.0042927460789825792 -0.076818943034027198 0 -0.0094377002504785115 -0.079330161044915776 0 -0.0081239746946439335 -0.079640024049689256 0 -0.0087920512588460249 -0.080601332130035994 0 0.0069278131854233734 -0.075383815906398532 0 0.0037819351050211937 -0.075889312057806538 0 -0.0081239746946439335 -0.079640024049689256 0 -0.0087920512588460249 -0.080601332130035994 0 -0.0081946951273504307 -0.081008076067305673 0 0.0037819351050211937 -0.075889312057806538 0 0.0012390350521477344 -0.078155202232134985 0 -0.0087920512588460249 -0.080601332130035994 0 -0.008966381696132052 -0.081479459241380531 0 -0.0081946951273504307 -0.081008076067305673 0 -0.008966381696132052 -0.081479459241380531 0 -0.0081946951273504307 -0.081008076067305673 0 -0.0085581904633761502 -0.081619501489251095 0 0.0042261617310333181 -0.07790203368124364 0 0.0042229673414461814 -0.077870670218806753 0 0.0042074970532244554 -0.077886059571974892 0 0.0038789994052313486 -0.077601171744674902 0 0.0040766944651349632 -0.077787938485749289 0 0.0039990334629547162 -0.07782703857842066 0 0.0040766944651349632 -0.077787938485749289 0 0.0039990334629547162 -0.07782703857842066 0 0.0041052702407149535 -0.077891123068920751 0 -0.0081946951273504307 -0.081008076067305673 0 -0.0082393046421921929 -0.0820298860859906 0 -0.0085581904633761502 -0.081619501489251095 0 0.0012390350521477344 -0.078155202232134985 0 -0.00018188704000655172 -0.080707340520380866 0 0.0042226053826130514 -0.077943519507089484 0 0.0040766944651349632 -0.077787938485749289 0 0.0041052702407149535 -0.077891123068920751 0 0.0039990334629547162 -0.07782703857842066 0 0.0041052702407149535 -0.077891123068920751 0 0.0041123952256168625 -0.078003381171023081 0 0.00441478640354377 -0.077073487190870774 0 0.0042927460789825792 -0.076818943034027198 0 0.0042226053826130514 -0.077943519507089484 0 0.0041052702407149535 -0.077891123068920751 0 0.0041123952256168625 -0.078003381171023081 0 -0.0091613547634618216 -0.082449390187786076 0 -0.0086598437243834269 -0.082130744356366941 0 -0.0090489627534043535 -0.082290102333936813 0 -0.0082393046421921929 -0.0820298860859906 0 -0.0085581904633761502 -0.081619501489251095 0 -0.0086598437243834269 -0.082130744356366941 0 -0.0085581904633761502 -0.081619501489251095 0 -0.0086598437243834269 -0.082130744356366941 0 -0.0088795295608886451 -0.081948380985653949 0 -0.00018188704000655172 -0.080707340520380866 0 -0.0006796378966306782 -0.080796432343996166 0 -0.0086598437243834269 -0.082130744356366941 0 -0.0089100941540157814 -0.082204548664581725 0 -0.0088795295608886451 -0.081948380985653949 0 -0.0089100941540157814 -0.082204548664581725 0 -0.0089487412550696005 -0.082221719360437678 0 -0.0090819816202945877 -0.08227213528837872 0 -0.0086598437243834269 -0.082130744356366941 0 -0.0089100941540157814 -0.082204548664581725 0 -0.0089487412550696005 -0.082221719360437678 0 -0.0086598437243834269 -0.082130744356366941 0 -0.0089487412550696005 -0.082221719360437678 0 -0.0090489627534043535 -0.082290102333936813 0 -0.0089487412550696005 -0.082221719360437678 0 -0.0090489627534043535 -0.082290102333936813 0 -0.009149796884877116 -0.082292822878250058 0 -0.0091613547634618216 -0.082449390187786076 0 -0.0090489627534043535 -0.082290102333936813 0 -0.009192060800450973 -0.082335106723272142 0 -0.0090489627534043535 -0.082290102333936813 0 -0.009149796884877116 -0.082292822878250058 0 -0.009192060800450973 -0.082335106723272142 0 -0.0090819816202945877 -0.08227213528837872 0 -0.009149796884877116 -0.082292822878250058 0 -0.0092186934317694414 -0.082312629122696601 0 -0.0089487412550696005 -0.082221719360437678 0 -0.0090819816202945877 -0.08227213528837872 0 -0.009149796884877116 -0.082292822878250058 0 -0.009361962786034933 -0.082336197953799539 0 -0.0092186934317694414 -0.082312629122696601 0 -0.0092842424101636251 -0.082347318811088088 0 -0.009361962786034933 -0.082336197953799539 0 -0.009149796884877116 -0.082292822878250058 0 -0.0092186934317694414 -0.082312629122696601 0 -0.009361962786034933 -0.082336197953799539 0 -0.0091613547634618216 -0.082449390187786076 0 -0.009192060800450973 -0.082335106723272142 0 -0.009361962786034933 -0.082336197953799539 0 -0.009149796884877116 -0.082292822878250058 0 -0.009192060800450973 -0.082335106723272142 0 -0.008966381696132052 -0.081479459241380531 0 -0.0088795295608886451 -0.081948380985653949 0 -0.0091945475492101331 -0.081994224812167671 0 -0.008966381696132052 -0.081479459241380531 0 -0.0085581904633761502 -0.081619501489251095 0 -0.0088795295608886451 -0.081948380985653949 0 -0.0089100941540157814 -0.082204548664581725 0 -0.0088795295608886451 -0.081948380985653949 0 -0.0090709561977211778 -0.082202005719285903 0 -0.0088795295608886451 -0.081948380985653949 0 -0.0091945475492101331 -0.081994224812167671 0 -0.0090709561977211778 -0.082202005719285903 0 -0.008966381696132052 -0.081479459241380531 0 -0.0091945475492101331 -0.081994224812167671 0 -0.0094585734945826939 -0.081686413093017704 0 -0.0091945475492101331 -0.081994224812167671 0 -0.0094585734945826939 -0.081686413093017704 0 -0.009445308586133256 -0.082088011969847274 0 -0.0094585734945826939 -0.081686413093017704 0 -0.0098449161377725265 -0.081687607040694055 0 -0.009579050314671567 -0.081002188900241009 0 -0.0094585734945826939 -0.081686413093017704 0 -0.0098449161377725265 -0.081687607040694055 0 -0.009445308586133256 -0.082088011969847274 0 -0.0075071239844824913 -0.063396026883988557 0 -0.0021729225424261468 -0.059498504917152473 0 -0.0098646559665349146 -0.08063786549541814 0 -0.0098449161377725265 -0.081687607040694055 0 -0.009579050314671567 -0.081002188900241009 0 -0.0075071239844824913 -0.063396026883988557 0 -0.0061601842047447931 -0.066338813929465321 0 -0.0087920512588460249 -0.080601332130035994 0 -0.008966381696132052 -0.081479459241380531 0 -0.009579050314671567 -0.081002188900241009 0 -0.008966381696132052 -0.081479459241380531 0 -0.0094585734945826939 -0.081686413093017704 0 -0.009579050314671567 -0.081002188900241009 0 -0.0092628000524824436 -0.082431789942661274 0 -0.0092420865126453255 -0.082431689380189674 0 -0.0092426254905308199 -0.082281530808697115 0 -0.0092628000524824436 -0.082431789942661274 0 -0.0092420865126453255 -0.082431689380189674 0 -0.0092418899584134611 -0.082539089206555977 0 -0.0092628000524824436 -0.082431789942661274 0 -0.0092418899584134611 -0.082539089206555977 0 -0.0091626120711998139 -0.082533089624569581 0 -0.0094514347116336529 -0.082304803452149161 0 -0.0092628000524824436 -0.082431789942661274 0 -0.0090619690937890508 -0.082502688352421541 0 -0.0094514347116336529 -0.082304803452149161 0 -0.0098449161377725265 -0.081687607040694055 0 -0.009445308586133256 -0.082088011969847274 0 -0.0094514347116336529 -0.082304803452149161 0 -0.0092628000524824436 -0.082431789942661274 0 -0.009445308586133256 -0.082088011969847274 0 -0.0092628000524824436 -0.082431789942661274 0 -0.009445308586133256 -0.082088011969847274 0 -0.0092426254905308199 -0.082281530808697115 0 -0.0091945475492101331 -0.081994224812167671 0 -0.009445308586133256 -0.082088011969847274 0 -0.0092426254905308199 -0.082281530808697115 0 -0.0092426254905308199 -0.082281530808697115 0 -0.0090709561977211778 -0.082202005719285903 0 -0.0091664679176308109 -0.082364449367850076 0 -0.0091945475492101331 -0.081994224812167671 0 -0.0092426254905308199 -0.082281530808697115 0 -0.0090709561977211778 -0.082202005719285903 0 -0.0089100941540157814 -0.082204548664581725 0 -0.0090709561977211778 -0.082202005719285903 0 -0.0090806986958630355 -0.082302521396582451 0 -0.0090709561977211778 -0.082202005719285903 0 -0.0090806986958630355 -0.082302521396582451 0 -0.0091664679176308109 -0.082364449367850076 0 -0.0091664679176308109 -0.082364449367850076 0 -0.0091983845568229822 -0.082402504728242967 0 -0.0092573216560151838 -0.082478872807108777 0 -0.0090806986958630355 -0.082302521396582451 0 -0.0091664679176308109 -0.082364449367850076 0 -0.0091983845568229822 -0.082402504728242967 0 -0.0092420865126453255 -0.082431689380189674 0 -0.0092426254905308199 -0.082281530808697115 0 -0.0091664679176308109 -0.082364449367850076 0 -0.0090819816202945877 -0.08227213528837872 0 -0.0092186934317694414 -0.082312629122696601 0 -0.0092842424101636251 -0.082347318811088088 0 -0.0090819816202945877 -0.08227213528837872 0 -0.0092842424101636251 -0.082347318811088088 0 -0.0091235081408426351 -0.082318448241098449 0 -0.0092842424101636251 -0.082347318811088088 0 -0.0091235081408426351 -0.082318448241098449 0 -0.0092528802339308051 -0.082399590558353164 0 -0.0089100941540157814 -0.082204548664581725 0 -0.0090819816202945877 -0.08227213528837872 0 -0.0091235081408426351 -0.082318448241098449 0 -0.0089100941540157814 -0.082204548664581725 0 -0.0090806986958630355 -0.082302521396582451 0 -0.0091235081408426351 -0.082318448241098449 0 -0.0090806986958630355 -0.082302521396582451 0 -0.0091235081408426351 -0.082318448241098449 0 -0.0091983845568229822 -0.082402504728242967 0 -0.0091983845568229822 -0.082402504728242967 0 -0.009340380284902066 -0.082512024527911065 0 -0.0092573216560151838 -0.082478872807108777 0 -0.0091983845568229822 -0.082402504728242967 0 -0.0092528802339308051 -0.082399590558353164 0 -0.009340380284902066 -0.082512024527911065 0 -0.0091235081408426351 -0.082318448241098449 0 -0.0091983845568229822 -0.082402504728242967 0 -0.0092528802339308051 -0.082399590558353164 0 -0.0093688735991087155 -0.08245132244474096 0 -0.0094523305576753661 -0.082546550921889172 0 -0.009340380284902066 -0.082512024527911065 0 -0.0092842424101636251 -0.082347318811088088 0 -0.0092528802339308051 -0.082399590558353164 0 -0.0093688735991087155 -0.08245132244474096 0 -0.0092528802339308051 -0.082399590558353164 0 -0.0093688735991087155 -0.08245132244474096 0 -0.009340380284902066 -0.082512024527911065 0 -0.0093688735991087155 -0.08245132244474096 0 -0.0094523305576753661 -0.082546550921889172 0 -0.0094705732037755289 -0.082466785674764564 0 -0.0092842424101636251 -0.082347318811088088 0 -0.0093688735991087155 -0.08245132244474096 0 -0.0094705732037755289 -0.082466785674764564 0 -0.0095137845336561114 -0.082654409089728209 0 -0.0094523305576753661 -0.082546550921889172 0 -0.009340380284902066 -0.082512024527911065 0 -0.0095137845336561114 -0.082654409089728209 0 -0.009340380284902066 -0.082512024527911065 0 -0.0094423521814190441 -0.082640895266435463 0 -0.009340380284902066 -0.082512024527911065 0 -0.0093439989038813561 -0.08257693398957873 0 -0.0094423521814190441 -0.082640895266435463 0 -0.009340380284902066 -0.082512024527911065 0 -0.0093439989038813561 -0.08257693398957873 0 -0.0092573216560151838 -0.082478872807108777 0 -0.0094423521814190441 -0.082640895266435463 0 -0.0095569000951739747 -0.082757774277368926 0 -0.0094312280517753928 -0.082660024269577873 0 -0.0093439989038813561 -0.08257693398957873 0 -0.0094423521814190441 -0.082640895266435463 0 -0.0094312280517753928 -0.082660024269577873 0 -0.0095137845336561114 -0.082654409089728209 0 -0.0094423521814190441 -0.082640895266435463 0 -0.0095569000951739747 -0.082757774277368926 0 -0.0095137845336561114 -0.082654409089728209 0 -0.0095569000951739747 -0.082757774277368926 0 -0.0096371210884139344 -0.082781040295604139 0 -0.0092420865126453255 -0.082431689380189674 0 -0.0092418899584134611 -0.082539089206555977 0 -0.0092700871083126815 -0.082522252631795912 0 -0.0092420865126453255 -0.082431689380189674 0 -0.0091664679176308109 -0.082364449367850076 0 -0.0092700871083126815 -0.082522252631795912 0 -0.0093439989038813561 -0.08257693398957873 0 -0.0092700871083126815 -0.082522252631795912 0 -0.0092573216560151838 -0.082478872807108777 0 -0.0091664679176308109 -0.082364449367850076 0 -0.0092700871083126815 -0.082522252631795912 0 -0.0092573216560151838 -0.082478872807108777 0 -0.0093439989038813561 -0.08257693398957873 0 -0.0093407165285950642 -0.082608182089675478 0 -0.0094312280517753928 -0.082660024269577873 0 -0.0093439989038813561 -0.08257693398957873 0 -0.0092700871083126815 -0.082522252631795912 0 -0.0093407165285950642 -0.082608182089675478 0 -0.0092418899584134611 -0.082539089206555977 0 -0.0092700871083126815 -0.082522252631795912 0 -0.0093407165285950642 -0.082608182089675478 0 -0.0092418899584134611 -0.082539089206555977 0 -0.0093407165285950642 -0.082608182089675478 0 -0.0092463413438682984 -0.082570533790212161 0 -0.0093407165285950642 -0.082608182089675478 0 -0.0093679690284052472 -0.082588183215879268 0 -0.0092463413438682984 -0.082570533790212161 0 -0.0093407165285950642 -0.082608182089675478 0 -0.0093679690284052472 -0.082588183215879268 0 -0.0094786844641229651 -0.082676477381377539 0 -0.0093679690284052472 -0.082588183215879268 0 -0.0094786844641229651 -0.082676477381377539 0 -0.0094533043277394892 -0.082499557479823182 0 -0.0093679690284052472 -0.082588183215879268 0 -0.0092964668525102791 -0.082503305089768539 0 -0.0092463413438682984 -0.082570533790212161 0 -0.0093407165285950642 -0.082608182089675478 0 -0.0094312280517753928 -0.082660024269577873 0 -0.0094786844641229651 -0.082676477381377539 0 -0.0095569000951739747 -0.082757774277368926 0 -0.0094312280517753928 -0.082660024269577873 0 -0.0094786844641229651 -0.082676477381377539 0 -0.0094786844641229651 -0.082676477381377539 0 -0.0095194167276062506 -0.082631952977577361 0 -0.0096469472085983846 -0.08285858208319874 0 -0.0095569000951739747 -0.082757774277368926 0 -0.0094786844641229651 -0.082676477381377539 0 -0.0096469472085983846 -0.08285858208319874 0 -0.0095194167276062506 -0.082631952977577361 0 -0.0095055500615467622 -0.082683851205724426 0 -0.0096469472085983846 -0.08285858208319874 0 -0.0094786844641229651 -0.082676477381377539 0 -0.0095194167276062506 -0.082631952977577361 0 -0.0094533043277394892 -0.082499557479823182 0 -0.0095194167276062506 -0.082631952977577361 0 -0.0095055500615467622 -0.082683851205724426 0 -0.0096113730507962521 -0.082398191970992726 0 -0.0088766116351546246 -0.081303502105210423 0 -0.0087374888550798609 -0.081164375831677293 0 -0.0095194167276062506 -0.082631952977577361 0 -0.0094533043277394892 -0.082499557479823182 0 -0.0096113730507962521 -0.082398191970992726 0 -0.0092964668525102791 -0.082503305089768539 0 -0.0094533043277394892 -0.082499557479823182 0 -0.0092938299884633962 -0.082258698623980983 0 -0.0093679690284052472 -0.082588183215879268 0 -0.0092964668525102791 -0.082503305089768539 0 -0.0094533043277394892 -0.082499557479823182 0 -0.0094533043277394892 -0.082499557479823182 0 -0.0094236288895027647 -0.082267848289215365 0 -0.0096113730507962521 -0.082398191970992726 0 -0.0094533043277394892 -0.082499557479823182 0 -0.0094236288895027647 -0.082267848289215365 0 -0.0092938299884633962 -0.082258698623980983 0 -0.0092938299884633962 -0.082258698623980983 0 -0.0090500614870171418 -0.082520169805064006 0 -0.0090421611670627646 -0.082030523712271666 0 -0.0090500614870171418 -0.082520169805064006 0 -0.0085154348697987544 -0.082467247140163763 0 -0.0090421611670627646 -0.082030523712271666 0 -0.0092964668525102791 -0.082503305089768539 0 -0.0092938299884633962 -0.082258698623980983 0 -0.0090500614870171418 -0.082520169805064006 0 -0.0090500614870171418 -0.082520169805064006 0 -0.0092463413438682984 -0.082570533790212161 0 -0.0091626120711998139 -0.082533089624569581 0 -0.0092964668525102791 -0.082503305089768539 0 -0.0090500614870171418 -0.082520169805064006 0 -0.0092463413438682984 -0.082570533790212161 0 -0.0090500614870171418 -0.082520169805064006 0 -0.0091626120711998139 -0.082533089624569581 0 -0.0090619690937890508 -0.082502688352421541 0 -0.0092418899584134611 -0.082539089206555977 0 -0.0092463413438682984 -0.082570533790212161 0 -0.0091626120711998139 -0.082533089624569581 0 -0.0092628000524824436 -0.082431789942661274 0 -0.0091626120711998139 -0.082533089624569581 0 -0.0090619690937890508 -0.082502688352421541 0 -0.0092033208742059343 -0.082511905184435339 0 -0.0090619690937890508 -0.082502688352421541 0 -0.0085154348697987544 -0.082467247140163763 0 -0.0090500614870171418 -0.082520169805064006 0 -0.0090619690937890508 -0.082502688352421541 0 -0.0085154348697987544 -0.082467247140163763 0 -0.0070079776798437935 -0.081496896825294873 0 -0.0085154348697987544 -0.082467247140163763 0 -0.0082783819114462202 -0.080733375495951623 0 -0.0085154348697987544 -0.082467247140163763 0 -0.0090421611670627646 -0.082030523712271666 0 -0.0082783819114462202 -0.080733375495951623 0 -0.0070541002171559336 -0.080428682260520648 0 -0.0070079776798437935 -0.081496896825294873 0 -0.0082783819114462202 -0.080733375495951623 0 -0.0090421611670627646 -0.082030523712271666 0 -0.0092599908854668848 -0.08131487575509555 0 -0.0093350313355209016 -0.081988161133046106 0 -0.0092938299884633962 -0.082258698623980983 0 -0.0090421611670627646 -0.082030523712271666 0 -0.0093350313355209016 -0.081988161133046106 0 -0.0090421611670627646 -0.082030523712271666 0 -0.0092599908854668848 -0.08131487575509555 0 -0.0082783819114462202 -0.080733375495951623 0 -0.0073082142513044238 -0.079799924401401545 0 -0.0059436721768408186 -0.079448735867096484 0 -0.006723183714871005 -0.078984082556647406 0 -0.0074209688186876906 -0.080399426891350489 0 -0.0059901653242503952 -0.078971783243594773 0 -0.0082984533059036296 -0.080567076130285228 0 -0.0061238334586939652 -0.079339698641340967 0 -0.0079507132666422568 -0.080658315728333763 0 -0.0073082142513044238 -0.079799924401401545 0 -0.0059436721768408186 -0.079448735867096484 0 -0.0078094373189974888 -0.08137944366245603 0 -0.0092599908854668848 -0.08131487575509555 0 -0.0082783819114462202 -0.080733375495951623 0 -0.0077379670573183732 -0.079801418604651814 0 -0.0074209688186876906 -0.080399426891350489 0 -0.0059901653242503952 -0.078971783243594773 0 -0.0050904985684808342 -0.07920855844042736 0 -0.0079230439066597276 -0.080373899092153811 0 -0.0060816485865107456 -0.078864943157882159 0 -0.0070541002171559336 -0.080428682260520648 0 -0.0082783819114462202 -0.080733375495951623 0 -0.0072323982174306032 -0.078928053794686967 0 -0.0064522880476193577 -0.07923771435795221 0 -0.0060816485865107456 -0.078864943157882159 0 -0.005493225018002779 -0.077742885969643002 0 -0.0066873887720269032 -0.078189797896840135 0 -0.0064189278999036703 -0.076771497205661607 0 -0.005493225018002779 -0.077742885969643002 0 -0.0062027604717014061 -0.078618486321083786 0 -0.0066873887720269032 -0.078189797896840135 0 -0.0059436721768408186 -0.079448735867096484 0 -0.0062027604717014061 -0.078618486321083786 0 -0.006723183714871005 -0.078984082556647406 0 -0.0059436721768408186 -0.079448735867096484 0 -0.005493225018002779 -0.077742885969643002 0 -0.0062027604717014061 -0.078618486321083786 0 -0.006723183714871005 -0.078984082556647406 0 -0.0074705589445617686 -0.078792113413897261 0 -0.0066873887720269032 -0.078189797896840135 0 -0.0062027604717014061 -0.078618486321083786 0 -0.006723183714871005 -0.078984082556647406 0 -0.0066873887720269032 -0.078189797896840135 0 -0.0073082142513044238 -0.079799924401401545 0 -0.0074705589445617686 -0.078792113413897261 0 -0.0082957851479987348 -0.07961005322128234 0 -0.0073082142513044238 -0.079799924401401545 0 -0.006723183714871005 -0.078984082556647406 0 -0.0074705589445617686 -0.078792113413897261 0 -0.0074705589445617686 -0.078792113413897261 0 -0.0075869706567008987 -0.077598611863252939 0 -0.0082803068475627278 -0.078419704553180383 0 -0.0074705589445617686 -0.078792113413897261 0 -0.0066873887720269032 -0.078189797896840135 0 -0.0075869706567008987 -0.077598611863252939 0 -0.0075869706567008987 -0.077598611863252939 0 -0.0075820574566352345 -0.076102637626794395 0 -0.0064189278999036703 -0.076771497205661607 0 -0.0066873887720269032 -0.078189797896840135 0 -0.0075869706567008987 -0.077598611863252939 0 -0.0064189278999036703 -0.076771497205661607 0 -0.0075820574566352345 -0.076102637626794395 0 -0.0064189278999036703 -0.076771497205661607 0 -0.006961262641441872 -0.07498456964454471 0 -0.0052127214168036255 -0.076709480377620515 0 -0.0064189278999036703 -0.076771497205661607 0 -0.0055699712075070445 -0.074901256070191033 0 -0.005493225018002779 -0.077742885969643002 0 -0.0052127214168036255 -0.076709480377620515 0 -0.0064189278999036703 -0.076771497205661607 0 -0.0096822685410440194 -0.078327965606770897 0 -0.0088376933857617808 -0.076922024581921419 0 -0.0098761875601295346 -0.076919957823766316 0 -0.0096822685410440194 -0.078327965606770897 0 -0.0088376933857617808 -0.076922024581921419 0 -0.0091264239225848243 -0.079055444628867391 0 -0.0088376933857617808 -0.076922024581921419 0 -0.0082803068475627278 -0.078419704553180383 0 -0.0091264239225848243 -0.079055444628867391 0 -0.0075869706567008987 -0.077598611863252939 0 -0.0075820574566352345 -0.076102637626794395 0 -0.0088376933857617808 -0.076922024581921419 0 -0.0075869706567008987 -0.077598611863252939 0 -0.0088376933857617808 -0.076922024581921419 0 -0.0082803068475627278 -0.078419704553180383 0 -0.0074705589445617686 -0.078792113413897261 0 -0.0082803068475627278 -0.078419704553180383 0 -0.0082957851479987348 -0.07961005322128234 0 -0.0082803068475627278 -0.078419704553180383 0 -0.0082957851479987348 -0.07961005322128234 0 -0.0091264239225848243 -0.079055444628867391 0 -0.0091264239225848243 -0.079055444628867391 0 -0.0095288405314236466 -0.080360036259683451 0 -0.01000801441533823 -0.079646165171613451 0 -0.0082957851479987348 -0.07961005322128234 0 -0.0091264239225848243 -0.079055444628867391 0 -0.0090337203171011165 -0.080220935845584332 0 -0.0096822685410440194 -0.078327965606770897 0 -0.0091264239225848243 -0.079055444628867391 0 -0.01000801441533823 -0.079646165171613451 0 -0.0091264239225848243 -0.079055444628867391 0 -0.0095288405314236466 -0.080360036259683451 0 -0.0090337203171011165 -0.080220935845584332 0 -0.0095288405314236466 -0.080360036259683451 0 -0.0090337203171011165 -0.080220935845584332 0 -0.0092505375659956944 -0.081256725256181925 0 -0.0090337203171011165 -0.080220935845584332 0 -0.0092505375659956944 -0.081256725256181925 0 -0.0085440810210739414 -0.080524477258333074 0 -0.0092505375659956944 -0.081256725256181925 0 -0.0085440810210739414 -0.080524477258333074 0 -0.0084775754468143297 -0.081149678481914955 0 -0.0073082142513044238 -0.079799924401401545 0 -0.0082957851479987348 -0.07961005322128234 0 -0.0080391876002894359 -0.080472342675103004 0 -0.0082957851479987348 -0.07961005322128234 0 -0.0085440810210739414 -0.080524477258333074 0 -0.0080391876002894359 -0.080472342675103004 0 -0.0082957851479987348 -0.07961005322128234 0 -0.0090337203171011165 -0.080220935845584332 0 -0.0085440810210739414 -0.080524477258333074 0 -0.0085440810210739414 -0.080524477258333074 0 -0.0084775754468143297 -0.081149678481914955 0 -0.0080391876002894359 -0.080472342675103004 0 -0.0084775754468143297 -0.081149678481914955 0 -0.0080391876002894359 -0.080472342675103004 0 -0.0078094373189974888 -0.08137944366245603 0 -0.0073082142513044238 -0.079799924401401545 0 -0.0080391876002894359 -0.080472342675103004 0 -0.0078094373189974888 -0.08137944366245603 0 -0.0074209688186876906 -0.080399426891350489 0 -0.0082984533059036296 -0.080567076130285228 0 -0.0097464938987829874 -0.081567853056004169 0 -0.0094236288895027647 -0.082267848289215365 0 -0.0093350313355209016 -0.081988161133046106 0 -0.0096113730507962521 -0.082398191970992726 0 -0.0078094373189974888 -0.08137944366245603 0 -0.0089069860004752834 -0.081794007896640084 0 -0.0088590934655770788 -0.082311572621241724 0 -0.0084775754468143297 -0.081149678481914955 0 -0.0078094373189974888 -0.08137944366245603 0 -0.0089069860004752834 -0.081794007896640084 0 -0.0079230439066597276 -0.080373899092153811 0 -0.0087374888550798609 -0.081164375831677293 0 -0.0092599908854668848 -0.08131487575509555 0 -0.0093350313355209016 -0.081988161133046106 0 -0.0096113730507962521 -0.082398191970992726 0 -0.0079507132666422568 -0.080658315728333763 0 -0.0087374888550798609 -0.081164375831677293 0 -0.0094236288895027647 -0.082267848289215365 0 -0.0092938299884633962 -0.082258698623980983 0 -0.0093350313355209016 -0.081988161133046106 0 -0.0092505375659956944 -0.081256725256181925 0 -0.0094068722189969856 -0.082181292839696024 0 -0.0097852772613681131 -0.082351596114647596 0 -0.0092505375659956944 -0.081256725256181925 0 -0.0089069860004752834 -0.081794007896640084 0 -0.0094068722189969856 -0.082181292839696024 0 -0.0092505375659956944 -0.081256725256181925 0 -0.0084775754468143297 -0.081149678481914955 0 -0.0089069860004752834 -0.081794007896640084 0 -0.0095055500615467622 -0.082683851205724426 0 -0.0089069860004752834 -0.081794007896640084 0 -0.0088590934655770788 -0.082311572621241724 0 -0.0095055500615467622 -0.082683851205724426 0 -0.0094068722189969856 -0.082181292839696024 0 -0.0097852772613681131 -0.082351596114647596 0 -0.0095055500615467622 -0.082683851205724426 0 -0.0089069860004752834 -0.081794007896640084 0 -0.0094068722189969856 -0.082181292839696024 0 -0.0097852772613681131 -0.082351596114647596 0 -0.010237994235948811 -0.083078273994755827 0 -0.010037352419355708 -0.081496888070775889 0 -0.0097852772613681131 -0.082351596114647596 0 -0.010237994235948811 -0.083078273994755827 0 -0.0098945847499232308 -0.083018431781630306 0 -0.010237994235948811 -0.083078273994755827 0 -0.010705508933508684 -0.082863361173148312 0 -0.010635473393452886 -0.084274778895352606 0 -0.010237994235948811 -0.083078273994755827 0 -0.010037352419355708 -0.081496888070775889 0 -0.010705508933508684 -0.082863361173148312 0 -0.010037352419355708 -0.081496888070775889 0 -0.010737838879561409 -0.08027545902989347 0 -0.010705508933508684 -0.082863361173148312 0 -0.0092505375659956944 -0.081256725256181925 0 -0.0097852772613681131 -0.082351596114647596 0 -0.010037352419355708 -0.081496888070775889 0 -0.0095288405314236466 -0.080360036259683451 0 -0.0092505375659956944 -0.081256725256181925 0 -0.010037352419355708 -0.081496888070775889 0 -0.010037352419355708 -0.081496888070775889 0 -0.01000801441533823 -0.079646165171613451 0 -0.010737838879561409 -0.08027545902989347 0 -0.0095288405314236466 -0.080360036259683451 0 -0.010037352419355708 -0.081496888070775889 0 -0.01000801441533823 -0.079646165171613451 0 -0.01000801441533823 -0.079646165171613451 0 -0.010737838879561409 -0.08027545902989347 0 -0.010568806694011144 -0.078087622728941083 0 -0.010737838879561409 -0.08027545902989347 0 -0.010568806694011144 -0.078087622728941083 0 -0.011808892721600572 -0.078456117420322644 0 -0.0096822685410440194 -0.078327965606770897 0 -0.01000801441533823 -0.079646165171613451 0 -0.010568806694011144 -0.078087622728941083 0 -0.0096822685410440194 -0.078327965606770897 0 -0.010568806694011144 -0.078087622728941083 0 -0.0098761875601295346 -0.076919957823766316 0 -0.01334937551311628 -0.078794733702229919 0 -0.011808892721600572 -0.078456117420322644 0 -0.011846228961201809 -0.080923584980865812 0 -0.010737838879561409 -0.08027545902989347 0 -0.011808892721600572 -0.078456117420322644 0 -0.011846228961201809 -0.080923584980865812 0 -0.010737838879561409 -0.08027545902989347 0 -0.011846228961201809 -0.080923584980865812 0 -0.010705508933508684 -0.082863361173148312 0 -0.011846228961201809 -0.080923584980865812 0 -0.011316253663874421 -0.085404960808060759 0 -0.014816377162001971 -0.080612278341119212 0 -0.01334937551311628 -0.078794733702229919 0 -0.011846228961201809 -0.080923584980865812 0 -0.014816377162001971 -0.080612278341119212 0 -0.010347921754639944 -0.085345493795180902 0 -0.0097171537776725783 -0.085506053476093913 0 -0.011846228961201809 -0.080923584980865812 0 -0.010705508933508684 -0.082863361173148312 0 -0.011316253663874421 -0.085404960808060759 0 -0.010705508933508684 -0.082863361173148312 0 -0.010635473393452886 -0.084274778895352606 0 -0.011316253663874421 -0.085404960808060759 0 -0.010635473393452886 -0.084274778895352606 0 -0.011316253663874421 -0.085404960808060759 0 -0.009199828166543883 -0.084795623505047088 0 -0.010635473393452886 -0.084274778895352606 0 -0.009199828166543883 -0.084795623505047088 0 -0.0099407565073107388 -0.083838419396407654 0 -0.0091003056548059191 -0.08376622613097312 0 -0.0099407565073107388 -0.083838419396407654 0 -0.0093443839520721203 -0.083176283691231021 0 -0.009199828166543883 -0.084795623505047088 0 -0.0091003056548059191 -0.08376622613097312 0 -0.0099407565073107388 -0.083838419396407654 0 -0.0099407565073107388 -0.083838419396407654 0 -0.010198879374606564 -0.083554085716637916 0 -0.0099350782350366134 -0.083309269324423799 0 -0.0099407565073107388 -0.083838419396407654 0 -0.0093443839520721203 -0.083176283691231021 0 -0.0097342609664095893 -0.083209781715765263 0 -0.0099407565073107388 -0.083838419396407654 0 -0.0099350782350366134 -0.083309269324423799 0 -0.0097342609664095893 -0.083209781715765263 0 -0.010635473393452886 -0.084274778895352606 0 -0.0099407565073107388 -0.083838419396407654 0 -0.010198879374606564 -0.083554085716637916 0 -0.010237994235948811 -0.083078273994755827 0 -0.010198879374606564 -0.083554085716637916 0 -0.0098945847499232308 -0.083018431781630306 0 -0.010237994235948811 -0.083078273994755827 0 -0.010635473393452886 -0.084274778895352606 0 -0.010198879374606564 -0.083554085716637916 0 -0.010198879374606564 -0.083554085716637916 0 -0.0098945847499232308 -0.083018431781630306 0 -0.0098738331928144383 -0.083110591610252388 0 -0.0098945847499232308 -0.083018431781630306 0 -0.0096469472085983846 -0.08285858208319874 0 -0.0098738331928144383 -0.083110591610252388 0 -0.0095055500615467622 -0.082683851205724426 0 -0.0097852772613681131 -0.082351596114647596 0 -0.0098945847499232308 -0.083018431781630306 0 -0.0095055500615467622 -0.082683851205724426 0 -0.0098945847499232308 -0.083018431781630306 0 -0.0096469472085983846 -0.08285858208319874 0 -0.0096469472085983846 -0.08285858208319874 0 -0.0098738331928144383 -0.083110591610252388 0 -0.0096998282956789385 -0.082896857274840696 0 -0.0098738331928144383 -0.083110591610252388 0 -0.0097457394175376796 -0.082907213953413883 0 -0.0096998282956789385 -0.082896857274840696 0 -0.0098738331928144383 -0.083110591610252388 0 -0.0097457394175376796 -0.082907213953413883 0 -0.0098014321256324043 -0.082961651784474996 0 -0.0095569000951739747 -0.082757774277368926 0 -0.0096469472085983846 -0.08285858208319874 0 -0.0096998282956789385 -0.082896857274840696 0 -0.0095569000951739747 -0.082757774277368926 0 -0.0096998282956789385 -0.082896857274840696 0 -0.0096371210884139344 -0.082781040295604139 0 -0.0097457394175376796 -0.082907213953413883 0 -0.0096998282956789385 -0.082896857274840696 0 -0.0096371210884139344 -0.082781040295604139 0 -0.010198879374606564 -0.083554085716637916 0 -0.0098738331928144383 -0.083110591610252388 0 -0.0099350782350366134 -0.083309269324423799 0 -0.0098738331928144383 -0.083110591610252388 0 -0.0099350782350366134 -0.083309269324423799 0 -0.0098014321256324043 -0.082961651784474996 0 -0.0099350782350366134 -0.083309269324423799 0 -0.0097238744705667977 -0.082851231931190941 0 -0.0097342609664095893 -0.083209781715765263 0 -0.0099350782350366134 -0.083309269324423799 0 -0.0098014321256324043 -0.082961651784474996 0 -0.0097238744705667977 -0.082851231931190941 0 -0.0098014321256324043 -0.082961651784474996 0 -0.0097069148440068094 -0.082707664951961316 0 -0.0096906096826584309 -0.082769414857186974 0 -0.0098014321256324043 -0.082961651784474996 0 -0.0097069148440068094 -0.082707664951961316 0 -0.0097238744705667977 -0.082851231931190941 0 -0.0097069148440068094 -0.082707664951961316 0 -0.0097238744705667977 -0.082851231931190941 0 -0.0096623690795338557 -0.082586548849628683 0 -0.0095137845336561114 -0.082654409089728209 0 -0.0096371210884139344 -0.082781040295604139 0 -0.0095693811505693799 -0.08264269131021304 0 -0.0096371210884139344 -0.082781040295604139 0 -0.0096906096826584309 -0.082769414857186974 0 -0.0095693811505693799 -0.08264269131021304 0 -0.0097457394175376796 -0.082907213953413883 0 -0.0098014321256324043 -0.082961651784474996 0 -0.0096906096826584309 -0.082769414857186974 0 -0.0097457394175376796 -0.082907213953413883 0 -0.0096371210884139344 -0.082781040295604139 0 -0.0096906096826584309 -0.082769414857186974 0 -0.0097069148440068094 -0.082707664951961316 0 -0.0096906096826584309 -0.082769414857186974 0 -0.0096161218615099537 -0.082597067131198534 0 -0.0096906096826584309 -0.082769414857186974 0 -0.0095693811505693799 -0.08264269131021304 0 -0.0096161218615099537 -0.082597067131198534 0 -0.0095137845336561114 -0.082654409089728209 0 -0.0094523305576753661 -0.082546550921889172 0 -0.0095693811505693799 -0.08264269131021304 0 -0.0094523305576753661 -0.082546550921889172 0 -0.0095693811505693799 -0.08264269131021304 0 -0.0094705732037755289 -0.082466785674764564 0 -0.0095693811505693799 -0.08264269131021304 0 -0.0094705732037755289 -0.082466785674764564 0 -0.0096161218615099537 -0.082597067131198534 0 -0.0094705732037755289 -0.082466785674764564 0 -0.0095672273281249779 -0.08246384383969918 0 -0.0096161218615099537 -0.082597067131198534 0 -0.0095672273281249779 -0.08246384383969918 0 -0.0096161218615099537 -0.082597067131198534 0 -0.0096479409857356032 -0.082489490851024666 0 -0.0096020605735778752 -0.082334584501575006 0 -0.0095672273281249779 -0.08246384383969918 0 -0.0096479409857356032 -0.082489490851024666 0 -0.0096020605735778752 -0.082334584501575006 0 -0.0095672273281249779 -0.08246384383969918 0 -0.0094584961086850074 -0.082382477562594578 0 -0.0094705732037755289 -0.082466785674764564 0 -0.0095672273281249779 -0.08246384383969918 0 -0.0094584961086850074 -0.082382477562594578 0 -0.009361962786034933 -0.082336197953799539 0 -0.0092842424101636251 -0.082347318811088088 0 -0.0094584961086850074 -0.082382477562594578 0 -0.0092842424101636251 -0.082347318811088088 0 -0.0094705732037755289 -0.082466785674764564 0 -0.0094584961086850074 -0.082382477562594578 0 -0.0097238744705667977 -0.082851231931190941 0 -0.0096623690795338557 -0.082586548849628683 0 -0.0095316848178434669 -0.082605618805464048 0 -0.0096623690795338557 -0.082586548849628683 0 -0.0096156835127342802 -0.082313729207586228 0 -0.0095316848178434669 -0.082605618805464048 0 -0.0097069148440068094 -0.082707664951961316 0 -0.0096623690795338557 -0.082586548849628683 0 -0.0096479409857356032 -0.082489490851024666 0 -0.0097069148440068094 -0.082707664951961316 0 -0.0096161218615099537 -0.082597067131198534 0 -0.0096479409857356032 -0.082489490851024666 0 -0.0096020605735778752 -0.082334584501575006 0 -0.0096479409857356032 -0.082489490851024666 0 -0.0096156835127342802 -0.082313729207586228 0 -0.0096623690795338557 -0.082586548849628683 0 -0.0096479409857356032 -0.082489490851024666 0 -0.0096156835127342802 -0.082313729207586228 0 -0.0093864296991333397 -0.082124720668609194 0 -0.0095316848178434669 -0.082605618805464048 0 -0.0089824614471584185 -0.082405899114340944 0 -0.0093864296991333397 -0.082124720668609194 0 -0.0096156835127342802 -0.082313729207586228 0 -0.0095316848178434669 -0.082605618805464048 0 -0.0095316848178434669 -0.082605618805464048 0 -0.0089824614471584185 -0.082405899114340944 0 -0.0093443839520721203 -0.083176283691231021 0 -0.0089824614471584185 -0.082405899114340944 0 -0.0086704495494207036 -0.08314736161205033 0 -0.0078116861121610946 -0.082657939740227435 0 -0.0089824614471584185 -0.082405899114340944 0 -0.0086704495494207036 -0.08314736161205033 0 -0.0093443839520721203 -0.083176283691231021 0 -0.0091003056548059191 -0.08376622613097312 0 -0.0086704495494207036 -0.08314736161205033 0 -0.0093443839520721203 -0.083176283691231021 0 -0.0097238744705667977 -0.082851231931190941 0 -0.0095316848178434669 -0.082605618805464048 0 -0.0097342609664095893 -0.083209781715765263 0 -0.0095316848178434669 -0.082605618805464048 0 -0.0093443839520721203 -0.083176283691231021 0 -0.0097342609664095893 -0.083209781715765263 0 -0.0068890319411749534 -0.083733998685377078 0 -0.005911987518542521 -0.082820578070420411 0 -0.0058210880691997842 -0.084778674816536559 0 -0.0068890319411749534 -0.083733998685377078 0 -0.0078116861121610946 -0.082657939740227435 0 -0.005911987518542521 -0.082820578070420411 0 -0.0068890319411749534 -0.083733998685377078 0 -0.0080167337140269971 -0.083827185366827053 0 -0.0078116861121610946 -0.082657939740227435 0 -0.0086704495494207036 -0.08314736161205033 0 -0.0080167337140269971 -0.083827185366827053 0 -0.0078116861121610946 -0.082657939740227435 0 -0.0091003056548059191 -0.08376622613097312 0 -0.0086704495494207036 -0.08314736161205033 0 -0.0080167337140269971 -0.083827185366827053 0 -0.0080562936811019899 -0.081763745858372691 0 -0.0089824614471584185 -0.082405899114340944 0 -0.0078116861121610946 -0.082657939740227435 0 -0.0080562936811019899 -0.081763745858372691 0 -0.0078116861121610946 -0.082657939740227435 0 -0.0068793685883069642 -0.081839632191063591 0 -0.0078116861121610946 -0.082657939740227435 0 -0.0068793685883069642 -0.081839632191063591 0 -0.005911987518542521 -0.082820578070420411 0 -0.0047793064623959467 -0.080737562749471151 0 -0.0068793685883069642 -0.081839632191063591 0 -0.005911987518542521 -0.082820578070420411 0 -0.0047793064623959467 -0.080737562749471151 0 -0.005911987518542521 -0.082820578070420411 0 -0.0032054751358988635 -0.083137170237090163 0 -0.00078857064492146242 -0.08648001314151478 0 -0.0010054677555496956 -0.088788917939400094 0 -9.4656649792619e-05 -0.094405575138463982 0 -0.00068347530385900058 -0.094312262078055431 0 -0.00033728187881956479 -0.094804190698397739 0 -0.00068347530385900058 -0.094312262078055431 0 -0.00033728187881956479 -0.094804190698397739 0 -0.00040283779760104469 -0.094877310494005537 0 -0.005911987518542521 -0.082820578070420411 0 -0.0058210880691997842 -0.084778674816536559 0 -0.0040362908838786826 -0.084767280494936564 0 -0.005911987518542521 -0.082820578070420411 0 -0.0032054751358988635 -0.083137170237090163 0 -0.0040362908838786826 -0.084767280494936564 0 -0.0058210880691997842 -0.084778674816536559 0 -0.0035399088837026029 -0.087190668430577101 0 -0.0056936988432373988 -0.086440635673035185 0 -0.0058210880691997842 -0.084778674816536559 0 -0.0040362908838786826 -0.084767280494936564 0 -0.0035399088837026029 -0.087190668430577101 0 -0.0040362908838786826 -0.084767280494936564 0 -0.0035399088837026029 -0.087190668430577101 0 -0.0012734078680360008 -0.086561436497435792 0 -0.0010054677555496956 -0.088788917939400094 0 -0.0006504632363321007 -0.090710982023366374 0 -0.0032054751358988635 -0.083137170237090163 0 -0.0040362908838786826 -0.084767280494936564 0 -0.0012734078680360008 -0.086561436497435792 0 -0.0035399088837026029 -0.087190668430577101 0 -0.0017872298858662833 -0.0895175354905592 0 -0.00097300316569432312 -0.08799007301815108 0 -0.0014482082856265509 -0.090402302300476758 0 -0.0006504632363321007 -0.090710982023366374 0 -0.0035399088837026029 -0.087190668430577101 0 -0.0046574334442320451 -0.088343949539060829 0 -0.0026261987712523729 -0.089722586968647267 0 -0.0035399088837026029 -0.087190668430577101 0 -0.0017872298858662833 -0.0895175354905592 0 -0.0026261987712523729 -0.089722586968647267 0 -0.0035399088837026029 -0.087190668430577101 0 -0.0056936988432373988 -0.086440635673035185 0 -0.0046574334442320451 -0.088343949539060829 0 -0.0056936988432373988 -0.086440635673035185 0 -0.0072180724601160554 -0.085111091319916871 0 -0.007031364391601673 -0.086802455553736335 0 -0.0056936988432373988 -0.086440635673035185 0 -0.007031364391601673 -0.086802455553736335 0 -0.0046574334442320451 -0.088343949539060829 0 -0.0068890319411749534 -0.083733998685377078 0 -0.0080167337140269971 -0.083827185366827053 0 -0.0072180724601160554 -0.085111091319916871 0 -0.0068890319411749534 -0.083733998685377078 0 -0.0058210880691997842 -0.084778674816536559 0 -0.0072180724601160554 -0.085111091319916871 0 -0.0058210880691997842 -0.084778674816536559 0 -0.0056936988432373988 -0.086440635673035185 0 -0.0072180724601160554 -0.085111091319916871 0 -0.009199828166543883 -0.084795623505047088 0 -0.0091003056548059191 -0.08376622613097312 0 -0.0080167337140269971 -0.083827185366827053 0 -0.009199828166543883 -0.084795623505047088 0 -0.0080167337140269971 -0.083827185366827053 0 -0.0072180724601160554 -0.085111091319916871 0 -0.009199828166543883 -0.084795623505047088 0 -0.0072180724601160554 -0.085111091319916871 0 -0.007031364391601673 -0.086802455553736335 0 -0.011316253663874421 -0.085404960808060759 0 -0.007031364391601673 -0.086802455553736335 0 -0.0071957060059854678 -0.089153947992644783 0 -0.011316253663874421 -0.085404960808060759 0 -0.009199828166543883 -0.084795623505047088 0 -0.007031364391601673 -0.086802455553736335 0 -0.007031364391601673 -0.086802455553736335 0 -0.0071957060059854678 -0.089153947992644783 0 -0.0051577502747978702 -0.08959766628519264 0 -0.007031364391601673 -0.086802455553736335 0 -0.0051577502747978702 -0.08959766628519264 0 -0.0046574334442320451 -0.088343949539060829 0 -0.0071957060059854678 -0.089153947992644783 0 -0.0048773334735558215 -0.091976261627472786 0 -0.0051577502747978702 -0.08959766628519264 0 -0.011316253663874421 -0.085404960808060759 0 -0.0071957060059854678 -0.089153947992644783 0 -0.0089953921826222746 -0.092244968596805255 0 -0.0071957060059854678 -0.089153947992644783 0 -0.0089953921826222746 -0.092244968596805255 0 -0.0048773334735558215 -0.091976261627472786 0 -0.0048773334735558215 -0.091976261627472786 0 -0.0030399817652900234 -0.094696107250539993 0 -0.0065852848709434426 -0.095886814375149204 0 -0.0089953921826222746 -0.092244968596805255 0 -0.0048773334735558215 -0.091976261627472786 0 -0.0065852848709434426 -0.095886814375149204 0 -0.0097171537776725783 -0.085506053476093913 0 -0.0069915825153289155 -0.085980000851371877 0 -0.01334937551311628 -0.078794733702229919 0 -0.014816377162001971 -0.080612278341119212 0 -0.016220405229648131 -0.077487659698227504 0 -0.0030399817652900234 -0.094696107250539993 0 -0.0026137094430681565 -0.093096763970119387 0 -0.0015463088811487704 -0.094250931718831837 0 -0.0048773334735558215 -0.091976261627472786 0 -0.0030399817652900234 -0.094696107250539993 0 -0.0026137094430681565 -0.093096763970119387 0 -0.0048773334735558215 -0.091976261627472786 0 -0.0026137094430681565 -0.093096763970119387 0 -0.0026939323771468966 -0.09119134450225766 0 -0.0026137094430681565 -0.093096763970119387 0 -0.0026939323771468966 -0.09119134450225766 0 -0.001580017398637879 -0.092949039836280348 0 -0.0026137094430681565 -0.093096763970119387 0 -0.001580017398637879 -0.092949039836280348 0 -0.0015463088811487704 -0.094250931718831837 0 -0.0048773334735558215 -0.091976261627472786 0 -0.0026939323771468966 -0.09119134450225766 0 -0.0051577502747978702 -0.08959766628519264 0 -0.0026939323771468966 -0.09119134450225766 0 -0.0051577502747978702 -0.08959766628519264 0 -0.0046574334442320451 -0.088343949539060829 0 -0.0026939323771468966 -0.09119134450225766 0 -0.0026261987712523729 -0.089722586968647267 0 -0.0011861576224288012 -0.091189209737975632 0 -0.0026939323771468966 -0.09119134450225766 0 -0.0046574334442320451 -0.088343949539060829 0 -0.0026261987712523729 -0.089722586968647267 0 -0.0017872298858662833 -0.0895175354905592 0 -0.0026261987712523729 -0.089722586968647267 0 -0.0011861576224288012 -0.091189209737975632 0 -0.0011861576224288012 -0.091189209737975632 0 -0.00050775141828930724 -0.092109144906824494 0 -0.00048515323391434779 -0.090938343527607088 0 -0.0011861576224288012 -0.091189209737975632 0 -0.00050775141828930724 -0.092109144906824494 0 -0.00089886863187386501 -0.092433388112812459 0 -0.00050775141828930724 -0.092109144906824494 0 -0.00089886863187386501 -0.092433388112812459 0 -0.00018127116508259895 -0.093433214093699424 0 -0.00050775141828930724 -0.092109144906824494 0 -0.00018127116508259895 -0.093433214093699424 0 -0.00031131468970001019 -0.09287842548627244 0 -0.00050775141828930724 -0.092109144906824494 0 -0.00031131468970001019 -0.09287842548627244 0 -0.00048515323391434779 -0.090938343527607088 0 -0.00089886863187386501 -0.092433388112812459 0 -0.00063934924925188247 -0.093734939339328277 0 -0.00018127116508259895 -0.093433214093699424 0 -0.0026939323771468966 -0.09119134450225766 0 -0.0011861576224288012 -0.091189209737975632 0 -0.00089886863187386501 -0.092433388112812459 0 -0.0026939323771468966 -0.09119134450225766 0 -0.00089886863187386501 -0.092433388112812459 0 -0.001580017398637879 -0.092949039836280348 0 -0.001580017398637879 -0.092949039836280348 0 -0.00063934924925188247 -0.093734939339328277 0 -0.0015463088811487704 -0.094250931718831837 0 -0.00089886863187386501 -0.092433388112812459 0 -0.001580017398637879 -0.092949039836280348 0 -0.00063934924925188247 -0.093734939339328277 0 -0.00063934924925188247 -0.093734939339328277 0 -0.00085510399436608683 -0.094428759505312349 0 -0.00031454751308080347 -0.094649083778458654 0 -0.00063934924925188247 -0.093734939339328277 0 -0.00085510399436608683 -0.094428759505312349 0 -0.0015463088811487704 -0.094250931718831837 0 2.6666670291244828e-08 -0.094999580811261766 0 -0.000141476895230464 -0.094323801446042979 0 -0.00031454751308080347 -0.094649083778458654 0 -0.00063934924925188247 -0.093734939339328277 0 -0.000141476895230464 -0.094323801446042979 0 -0.00031454751308080347 -0.094649083778458654 0 -0.00063934924925188247 -0.093734939339328277 0 -0.000141476895230464 -0.094323801446042979 0 -0.00018127116508259895 -0.093433214093699424 0 2.6666670291244828e-08 -0.094999580811261766 0 -0.000141476895230464 -0.094323801446042979 0 1.0666963813143226e-07 -0.094998808779493044 0 -0.00018127116508259895 -0.093433214093699424 0 -1.5283064761242855e-07 -0.094997988962570334 0 -0.00031131468970001019 -0.09287842548627244 0 1.0666963813143226e-07 -0.094998808779493044 0 -0.00018127116508259895 -0.093433214093699424 0 -1.5283064761242855e-07 -0.094997988962570334 0 -0.000141476895230464 -0.094323801446042979 0 1.0666963813143226e-07 -0.094998808779493044 0 -0.00018127116508259895 -0.093433214093699424 0 -1.5283064761242855e-07 -0.094997988962570334 0 -0.00041380462646359111 -0.093315861608823505 0 -0.00031131468970001019 -0.09287842548627244 0 -1.5283064761242855e-07 -0.094997988962570334 0 -1.7592204514765503e-07 -0.094998646270678708 0 -0.00041380462646359111 -0.093315861608823505 0 -1.1442485677735764e-06 -0.094997264545843535 0 -0.00060508990109345469 -0.093281356520010822 0 1.7483913325549922e-08 -0.095000117340820492 0 -8.2313709477989714e-05 -0.095037185863971169 0 -5.6817782275945778e-05 -0.094967919495043365 0 -0.00041380462646359111 -0.093315861608823505 0 -0.00031131468970001019 -0.09287842548627244 0 -0.00048515323391434779 -0.090938343527607088 0 -0.00041380462646359111 -0.093315861608823505 0 -0.00048515323391434779 -0.090938343527607088 0 -0.00016457291786475708 -0.091584777044430243 0 -0.0017872298858662833 -0.0895175354905592 0 -0.0011861576224288012 -0.091189209737975632 0 -0.00048515323391434779 -0.090938343527607088 0 -0.00067746687985814299 -0.090622241703121206 0 -0.0006504632363321007 -0.090710982023366374 0 -0.0017872298858662833 -0.0895175354905592 0 -0.00048515323391434779 -0.090938343527607088 0 -0.00097300316569432312 -0.08799007301815108 0 -0.00060508990109345469 -0.093281356520010822 0 -0.0006504632363321007 -0.090710982023366374 0 -8.2313709477989714e-05 -0.095037185863971169 0 -0.00027312415791552101 -0.095090346455205532 0 -0.00020798066740502014 -0.094945844090767784 0 -8.2313709477989714e-05 -0.095037185863971169 0 -0.00011645245424792775 -0.094958141216497982 0 -0.00020798066740502014 -0.094945844090767784 0 -0.00011645245424792775 -0.094958141216497982 0 -0.00020798066740502014 -0.094945844090767784 0 -0.00012625178531101139 -0.094877782311545089 0 -0.00033728187881956479 -0.094804190698397739 0 -0.00040283779760104469 -0.094877310494005537 0 -0.00020798066740502014 -0.094945844090767784 0 -0.00040283779760104469 -0.094877310494005537 0 -0.00027312415791552101 -0.095090346455205532 0 -0.00020798066740502014 -0.094945844090767784 0 -0.00033728187881956479 -0.094804190698397739 0 -0.00020798066740502014 -0.094945844090767784 0 -0.00012625178531101139 -0.094877782311545089 0 -0.00015625539137632485 -0.094744421126214132 0 1.2783248413914438e-05 -0.094704034416322011 0 -9.4656649792619e-05 -0.094405575138463982 0 -0.00033728187881956479 -0.094804190698397739 0 0.00023801991293671566 -0.094714602759377084 0 0.00048414681565679359 -0.094496153673417793 0 -9.4656649792619e-05 -0.094405575138463982 0 0.00023801991293671566 -0.094714602759377084 0 1.2783248413914438e-05 -0.094704034416322011 0 0.00018096569324692124 -0.094596937471768547 0 0.00048414681565679359 -0.094496153673417793 0 0.00023801991293671566 -0.094714602759377084 0 0.00080060296946959876 -0.09463362394422338 0 -0.00012625178531101139 -0.094877782311545089 0 -1.7653405185851957e-05 -0.094948222066658067 0 -5.6817782275945778e-05 -0.094967919495043365 0 0.00045069762740817913 -0.093041725963312644 0 0.00018096569324692124 -0.094596937471768547 0 0.00045069762740817913 -0.093041725963312644 0 6.5129734740585724e-07 -0.094996476550573569 0 2.4299646480840051e-05 -0.094987454255894208 0 9.2238940894297235e-06 -0.09499193844544368 0 -1.6255091744888258e-09 -0.095000011521896036 0 0.00018096569324692124 -0.094596937471768547 0 3.0676860895409491e-07 -0.094998064037158436 0 4.4227608525961766e-07 -0.094999206927340263 0 1.8218998667478486e-10 -0.094999999556262898 0 -8.567629088938586e-12 -0.094999999648447297 0 9.2238940894297235e-06 -0.09499193844544368 0 -1.6255091744888258e-09 -0.095000011521896036 0 2.9159384949237358e-09 -0.094999984132790288 0 -1.7653405185851957e-05 -0.094948222066658067 0 -2.8761139424676019e-08 -0.094999798543624323 0 -1.8663483927563255e-05 -0.094981262572733371 0 0.00018096569324692124 -0.094596937471768547 0 8.1516571073979896e-07 -0.094998125955296817 0 1.7483913325549922e-08 -0.095000117340820492 0 -2.8761139424676019e-08 -0.094999798543624323 0 -1.8663483927563255e-05 -0.094981262572733371 0 1.7483913325549922e-08 -0.095000117340820492 0 -1.8663483927563255e-05 -0.094981262572733371 0 -5.6817782275945778e-05 -0.094967919495043365 0 -1.7653405185851957e-05 -0.094948222066658067 0 -1.8663483927563255e-05 -0.094981262572733371 0 -5.6817782275945778e-05 -0.094967919495043365 0 -8.2313709477989714e-05 -0.095037185863971169 0 -0.00011645245424792775 -0.094958141216497982 0 -5.6817782275945778e-05 -0.094967919495043365 0 -0.00011645245424792775 -0.094958141216497982 0 -0.00012625178531101139 -0.094877782311545089 0 -5.6817782275945778e-05 -0.094967919495043365 0 -6.0086306506904025e-05 -0.095003367397747812 0 -0.00014671671805501811 -0.094680469594134203 0 0.00017939416637492321 -0.094563562462981157 0 -6.0086306506904025e-05 -0.095003367397747812 0 -0.00011273707526721228 -0.094982209541298865 0 -0.00014671671805501811 -0.094680469594134203 0 -0.00011273707526721228 -0.094982209541298865 0 1.2151134303225156e-07 -0.09500014985433855 0 -0.00014671671805501811 -0.094680469594134203 0 -0.00011273707526721228 -0.094982209541298865 0 1.2151134303225156e-07 -0.09500014985433855 0 -2.6216510608560444e-07 -0.095000106600564627 0 1.2151134303225156e-07 -0.09500014985433855 0 -0.00014671671805501811 -0.094680469594134203 0 -0.00025506350077871887 -0.094409876718706209 0 -0.00014671671805501811 -0.094680469594134203 0 2.2481909938025743e-05 -0.094011101051119525 0 -0.00025506350077871887 -0.094409876718706209 0 -0.00014671671805501811 -0.094680469594134203 0 0.00017939416637492321 -0.094563562462981157 0 2.2481909938025743e-05 -0.094011101051119525 0 0.00017939416637492321 -0.094563562462981157 0 0.00083368968070838807 -0.093557347417382433 0 2.2481909938025743e-05 -0.094011101051119525 0 0.00017939416637492321 -0.094563562462981157 0 0.00079256072624722912 -0.094860258647762874 0 0.00083368968070838807 -0.093557347417382433 0 0.00079256072624722912 -0.094860258647762874 0 0.00179946650547327 -0.094247714704883315 0 0.00083368968070838807 -0.093557347417382433 0 0.00068993329624165815 -0.093378908417406342 0 0.0002429034135072832 -0.092267688751869428 0 0.00079256072624722912 -0.094860258647762874 0 0.00030859671778866397 -0.095228816827033644 0 0.00067960454550025466 -0.095282144675201713 0 0.00017939416637492321 -0.094563562462981157 0 0.00079256072624722912 -0.094860258647762874 0 0.00023413455500953076 -0.095000060724170665 0 0.00079256072624722912 -0.094860258647762874 0 0.00023413455500953076 -0.095000060724170665 0 0.00030859671778866397 -0.095228816827033644 0 -6.0086306506904025e-05 -0.095003367397747812 0 0.00017939416637492321 -0.094563562462981157 0 0.00023413455500953076 -0.095000060724170665 0 -6.0086306506904025e-05 -0.095003367397747812 0 0.00023413455500953076 -0.095000060724170665 0 -1.4034588185707313e-05 -0.095252924990655949 0 -1.4034588185707313e-05 -0.095252924990655949 0 -0.00020702484622038146 -0.095569094072127006 0 -0.00015542404228663611 -0.095283420055987778 0 -6.0086306506904025e-05 -0.095003367397747812 0 -1.4034588185707313e-05 -0.095252924990655949 0 -0.00015542404228663611 -0.095283420055987778 0 0.00030859671778866397 -0.095228816827033644 0 -0.00020702484622038146 -0.095569094072127006 0 0.00066436038758783782 -0.095367718942982502 0 -0.00038955781960861889 -0.092872931038234532 0 1.864870663408221e-05 -0.09222541502903743 0 0.00030859671778866397 -0.095228816827033644 0 0.00066436038758783782 -0.095367718942982502 0 0.00067960454550025466 -0.095282144675201713 0 0.00023413455500953076 -0.095000060724170665 0 -1.4034588185707313e-05 -0.095252924990655949 0 0.00030859671778866397 -0.095228816827033644 0 -1.4034588185707313e-05 -0.095252924990655949 0 0.00030859671778866397 -0.095228816827033644 0 -0.00020702484622038146 -0.095569094072127006 0 -0.00020702484622038146 -0.095569094072127006 0 -0.0009256142491891442 -0.095591469064812237 0 -0.00045824062048341135 -0.095711675618491532 0 -0.00020702484622038146 -0.095569094072127006 0 -0.00043318548077650069 -0.095467613763005846 0 -0.0009256142491891442 -0.095591469064812237 0 -0.00020702484622038146 -0.095569094072127006 0 -0.00015542404228663611 -0.095283420055987778 0 -0.00043318548077650069 -0.095467613763005846 0 -0.00015542404228663611 -0.095283420055987778 0 -0.00028494596527904549 -0.095270024074160062 0 -0.00012072217314110898 -0.095168873223282713 0 -6.0086306506904025e-05 -0.095003367397747812 0 -0.00011273707526721228 -0.094982209541298865 0 -0.00015542404228663611 -0.095283420055987778 0 -0.00011273707526721228 -0.094982209541298865 0 -0.00015542404228663611 -0.095283420055987778 0 -2.6216510608560444e-07 -0.095000106600564627 0 -0.00015542404228663611 -0.095283420055987778 0 -2.6216510608560444e-07 -0.095000106600564627 0 -0.00012072217314110898 -0.095168873223282713 0 -2.6216510608560444e-07 -0.095000106600564627 0 -5.7426026111960142e-08 -0.095000346134105379 0 -0.00012072217314110898 -0.095168873223282713 0 -5.7426026111960142e-08 -0.095000346134105379 0 -0.00012072217314110898 -0.095168873223282713 0 -0.00011697718343993886 -0.095092503310122506 0 -0.00028494596527904549 -0.095270024074160062 0 -0.00012072217314110898 -0.095168873223282713 0 -0.00011697718343993886 -0.095092503310122506 0 -0.00028494596527904549 -0.095270024074160062 0 -0.00011697718343993886 -0.095092503310122506 0 -0.00028418547951267875 -0.095039330967357574 0 -5.7426026111960142e-08 -0.095000346134105379 0 -0.00011697718343993886 -0.095092503310122506 0 -9.1686393551632749e-08 -0.095000025824907519 0 -9.1686393551632749e-08 -0.095000025824907519 0 -0.00028418547951267875 -0.095039330967357574 0 -0.00011365768679464523 -0.094915266148238475 0 -0.00011697718343993886 -0.095092503310122506 0 -9.1686393551632749e-08 -0.095000025824907519 0 -0.00028418547951267875 -0.095039330967357574 0 -0.00028418547951267875 -0.095039330967357574 0 -0.00031454751308080347 -0.094649083778458654 0 -0.00011365768679464523 -0.094915266148238475 0 2.6666670291244828e-08 -0.094999580811261766 0 -0.00031454751308080347 -0.094649083778458654 0 -0.00011365768679464523 -0.094915266148238475 0 2.6666670291244828e-08 -0.094999580811261766 0 -9.1686393551632749e-08 -0.095000025824907519 0 -0.00011365768679464523 -0.094915266148238475 0 -0.00085510399436608683 -0.094428759505312349 0 -0.0015463088811487704 -0.094250931718831837 0 -0.00094913312924914048 -0.094934287296669681 0 -0.0015463088811487704 -0.094250931718831837 0 -0.00094913312924914048 -0.094934287296669681 0 -0.0019801789782545359 -0.094958961952113702 0 -0.00085510399436608683 -0.094428759505312349 0 -0.00031454751308080347 -0.094649083778458654 0 -0.00094913312924914048 -0.094934287296669681 0 -0.00028418547951267875 -0.095039330967357574 0 -0.00031454751308080347 -0.094649083778458654 0 -0.00094913312924914048 -0.094934287296669681 0 -0.00028418547951267875 -0.095039330967357574 0 -0.00094913312924914048 -0.094934287296669681 0 -0.00073225014568546027 -0.095270274318426787 0 -0.00094913312924914048 -0.094934287296669681 0 -0.00073225014568546027 -0.095270274318426787 0 -0.0015042396396042382 -0.095258959502298401 0 -0.00073225014568546027 -0.095270274318426787 0 -0.0009256142491891442 -0.095591469064812237 0 -0.0015042396396042382 -0.095258959502298401 0 -0.00028494596527904549 -0.095270024074160062 0 -0.00028418547951267875 -0.095039330967357574 0 -0.00073225014568546027 -0.095270274318426787 0 -0.00015542404228663611 -0.095283420055987778 0 -0.00028494596527904549 -0.095270024074160062 0 -0.00043318548077650069 -0.095467613763005846 0 -0.00028494596527904549 -0.095270024074160062 0 -0.00073225014568546027 -0.095270274318426787 0 -0.00043318548077650069 -0.095467613763005846 0 -0.00073225014568546027 -0.095270274318426787 0 -0.00043318548077650069 -0.095467613763005846 0 -0.0009256142491891442 -0.095591469064812237 0 -0.0009256142491891442 -0.095591469064812237 0 -0.0017976595698639256 -0.095781739466515997 0 -0.0015042396396042382 -0.095258959502298401 0 -0.0040097466971396835 -0.081753990685160829 0 -0.0034181427399400137 -0.08183549166472498 0 -0.0041672981198343844 -0.081481327660648556 0 -0.0038151542222803346 -0.0819395192061112 0 -0.0040097466971396835 -0.081753990685160829 0 -0.0042847913533612886 -0.081894171866616308 0 -0.0038151542222803346 -0.0819395192061112 0 -0.0040097466971396835 -0.081753990685160829 0 -0.0034181427399400137 -0.08183549166472498 0 -0.0034181427399400137 -0.08183549166472498 0 -0.004128209518338484 -0.081137865268467738 0 -0.0041672981198343844 -0.081481327660648556 0 -0.0024438766021326872 -0.089035387446273706 0 -0.0041719131754990998 -0.087876060021753119 0 -0.0034181427399400137 -0.08183549166472498 0 -0.0041360983859827253 -0.080349194787961598 0 -0.004128209518338484 -0.081137865268467738 0 -0.0017976595698639256 -0.095781739466515997 0 -0.0015042396396042382 -0.095258959502298401 0 -0.002567641948137243 -0.095190391691572243 0 -0.0030399817652900234 -0.094696107250539993 0 -0.0019801789782545359 -0.094958961952113702 0 -0.002567641948137243 -0.095190391691572243 0 -0.00094913312924914048 -0.094934287296669681 0 -0.0015042396396042382 -0.095258959502298401 0 -0.0019801789782545359 -0.094958961952113702 0 -0.0015042396396042382 -0.095258959502298401 0 -0.0019801789782545359 -0.094958961952113702 0 -0.002567641948137243 -0.095190391691572243 0 -0.0030399817652900234 -0.094696107250539993 0 -0.0015463088811487704 -0.094250931718831837 0 -0.0019801789782545359 -0.094958961952113702 0 -0.0030399817652900234 -0.094696107250539993 0 -0.0030886669801450384 -0.094795175053037598 0 -0.002567641948137243 -0.095190391691572243 0 -0.0069915825153289155 -0.085980000851371877 0 -0.0088187358715927817 -0.081547074716987078 0 -0.0049445054499659942 -0.078742552072095073 0 -0.0054014261879795928 -0.079860264501999179 0 -0.0064237033568682444 -0.079117612256083755 0 -0.01334937551311628 -0.078794733702229919 0 -0.016220405229648131 -0.077487659698227504 0 -0.013469697350021938 -0.076836553158021167 0 -0.0060488820180405519 -0.087616505294633329 0 -0.0069915825153289155 -0.085980000851371877 0 -0.0054014261879795928 -0.079860264501999179 0 -0.0041360983859827253 -0.080349194787961598 0 -0.0049656559221816681 -0.08066341523976453 0 -0.0069915825153289155 -0.085980000851371877 0 -0.0041719131754990998 -0.087876060021753119 0 -0.0049445054499659942 -0.078742552072095073 0 -0.0054014261879795928 -0.079860264501999179 0 -0.0041360983859827253 -0.080349194787961598 0 -0.0054014261879795928 -0.079860264501999179 0 -0.0059250277176767516 -0.080448816199525999 0 -0.0060541448340655337 -0.0798337841648009 0 -0.0054014261879795928 -0.079860264501999179 0 -0.0059250277176767516 -0.080448816199525999 0 -0.0049656559221816681 -0.08066341523976453 0 -0.0057371941317057246 -0.081046811409326042 0 -0.0049656559221816681 -0.08066341523976453 0 -0.0045117943566140772 -0.081399815016383173 0 -0.0059250277176767516 -0.080448816199525999 0 -0.0057371941317057246 -0.081046811409326042 0 -0.0049656559221816681 -0.08066341523976453 0 -0.0041360983859827253 -0.080349194787961598 0 -0.0049656559221816681 -0.08066341523976453 0 -0.0044325149621578372 -0.080978982394489002 0 -0.0049656559221816681 -0.08066341523976453 0 -0.0044325149621578372 -0.080978982394489002 0 -0.0045117943566140772 -0.081399815016383173 0 -0.0041360983859827253 -0.080349194787961598 0 -0.0044325149621578372 -0.080978982394489002 0 -0.004128209518338484 -0.081137865268467738 0 -0.0044325149621578372 -0.080978982394489002 0 -0.004128209518338484 -0.081137865268467738 0 -0.0044130069201829408 -0.081390091986937224 0 -0.004128209518338484 -0.081137865268467738 0 -0.0041672981198343844 -0.081481327660648556 0 -0.0044130069201829408 -0.081390091986937224 0 -0.0044325149621578372 -0.080978982394489002 0 -0.0044130069201829408 -0.081390091986937224 0 -0.0045117943566140772 -0.081399815016383173 0 -0.0053785889444548157 -0.079449383758759332 0 -0.0053823993622984694 -0.079447374770904702 0 -0.005301712749032979 -0.079496870254959398 0 -0.0053823993622984694 -0.079447374770904702 0 -0.0041672981198343844 -0.081481327660648556 0 -0.0044622991833572542 -0.081378859881828802 0 -0.0043873721588174779 -0.081581722675160007 0 -0.0041672981198343844 -0.081481327660648556 0 -0.0044130069201829408 -0.081390091986937224 0 -0.0045110765318001666 -0.081400124286339762 0 -0.0053823993622984694 -0.079447374770904702 0 -0.0056573991275486006 -0.07925456293917163 0 -0.0044622991833572542 -0.081378859881828802 0 -0.0043873721588174779 -0.081581722675160007 0 -0.0050321724166462979 -0.081401228520877819 0 -0.0047560627598397841 -0.081426202924091612 0 -0.0048724561053951534 -0.081430689610170803 0 -0.0043049977498358649 -0.081976853602280464 0 -0.0045212306169241916 -0.080418809513572123 0 -0.0056573991275486006 -0.07925456293917163 0 -0.0058357809912134156 -0.079018913741117802 0 -0.0046546784485923436 -0.080512508485151291 0 -0.0043873721588174779 -0.081581722675160007 0 -0.0042847913533612886 -0.081894171866616308 0 -0.0050321724166462979 -0.081401228520877819 0 -0.0041180708329953755 -0.08186774545122856 0 -0.0047560627598397841 -0.081426202924091612 0 -0.0043049977498358649 -0.081976853602280464 0 -0.0040097466971396835 -0.081753990685160829 0 -0.0041672981198343844 -0.081481327660648556 0 -0.0043873721588174779 -0.081581722675160007 0 -0.0040097466971396835 -0.081753990685160829 0 -0.0043873721588174779 -0.081581722675160007 0 -0.0042847913533612886 -0.081894171866616308 0 -0.0060630760981836241 -0.079260448529324165 0 -0.0053823993622984694 -0.079447374770904702 0 -0.005889034831005939 -0.079319226332532217 0 -0.0055583717111048446 -0.079423414237057927 0 -0.0057291115840819836 -0.079431065645780369 0 -0.0058357809912134156 -0.079018913741117802 0 -0.0077014631614019747 -0.076168063891081786 0 -0.0049075550467038136 -0.081300826088138933 0 -0.0048999257392301149 -0.081811447048518685 0 -0.0057158076329495936 -0.081326053771807114 0 -0.0071242834163654546 -0.077673513931002774 0 -0.0065964174670919374 -0.078173508751830545 0 -0.0076377861794004439 -0.078221032468721918 0 -0.0060630760981836241 -0.079260448529324165 0 -0.0058357809912134156 -0.079018913741117802 0 -0.0059963597808155257 -0.079338721887237007 0 -0.0060659774254102081 -0.079288200124987579 0 -0.0060484196529342902 -0.079287507681783234 0 -0.0060630760981836241 -0.079260448529324165 0 -0.0056573991275486006 -0.07925456293917163 0 -0.0056573991275486006 -0.07925456293917163 0 -0.0058357809912134156 -0.079018913741117802 0 -0.0049075550467038136 -0.081300826088138933 0 -0.0048999257392301149 -0.081811447048518685 0 -0.0042758318394568173 -0.081932571080413616 0 -0.0055353954887470969 -0.076651342257937349 0 -0.0077014631614019747 -0.076168063891081786 0 -0.0020854043082880989 -0.068345897020935659 0 -0.0033455699373001338 -0.068902452014014487 0 -0.003325439926653333 -0.067587057211453361 0 -0.0055353954887470969 -0.076651342257937349 0 -0.002873388136538662 -0.077754224185585127 0 -0.0020854043082880989 -0.068345897020935659 0 -0.0029157729997346497 -0.070630123042614248 0 -0.0033455699373001338 -0.068902452014014487 0 -0.0047092055297412129 -0.081908659134635381 0 -0.0050476617304675946 -0.082968461168103538 0 -0.0042550584551552875 -0.08288208494342926 0 -0.0050476617304675946 -0.082968461168103538 0 -0.0042550584551552875 -0.08288208494342926 0 -0.0046112906774259266 -0.083394517389898004 0 -0.0042550584551552875 -0.08288208494342926 0 -0.0037153032297458314 -0.082951046356515387 0 -0.003844106244440944 -0.083455717235592516 0 -0.0042550584551552875 -0.08288208494342926 0 -0.0037700392210856556 -0.082470056563817423 0 -0.0037153032297458314 -0.082951046356515387 0 -0.0042550584551552875 -0.08288208494342926 0 -0.004157282583996647 -0.082243095515649442 0 -0.0037700392210856556 -0.082470056563817423 0 -0.0047092055297412129 -0.081908659134635381 0 -0.0042550584551552875 -0.08288208494342926 0 -0.004157282583996647 -0.082243095515649442 0 -0.0055353954887470969 -0.076651342257937349 0 -0.0046160380252187752 -0.077703917004785059 0 -0.0048999257392301149 -0.081811447048518685 0 -0.0042758318394568173 -0.081932571080413616 0 -0.004157282583996647 -0.082243095515649442 0 -0.0046546784485923436 -0.080512508485151291 0 -0.0042812231296609389 -0.080983201871914226 0 -0.0041180708329953755 -0.08186774545122856 0 -0.0043049977498358649 -0.081976853602280464 0 -0.0037700392210856556 -0.082470056563817423 0 -0.0042758318394568173 -0.081932571080413616 0 -0.004157282583996647 -0.082243095515649442 0 -0.0037700392210856556 -0.082470056563817423 0 -0.0041180708329953755 -0.08186774545122856 0 -0.0035474349711514044 -0.082280638132361569 0 -0.0037700392210856556 -0.082470056563817423 0 -0.0038151542222803346 -0.0819395192061112 0 -0.0042847913533612886 -0.081894171866616308 0 -0.0035474349711514044 -0.082280638132361569 0 -0.0034181427399400137 -0.08183549166472498 0 -0.0035474349711514044 -0.082280638132361569 0 -0.0033743359271107935 -0.082671729480226983 0 -0.0045212306169241916 -0.080418809513572123 0 -0.0041431360717238798 -0.080795706778811024 0 -0.0038151542222803346 -0.0819395192061112 0 -0.0034181427399400137 -0.08183549166472498 0 -0.0035474349711514044 -0.082280638132361569 0 -0.0035474349711514044 -0.082280638132361569 0 -0.0037700392210856556 -0.082470056563817423 0 -0.0033743359271107935 -0.082671729480226983 0 -0.0017976595698639256 -0.095781739466515997 0 -0.0011126706198457499 -0.096876806651381236 0 -0.0011746356502889135 -0.096913059677871755 0 -0.0024438766021326872 -0.089035387446273706 0 0.00016017262964192064 -0.091796816476693424 0 -0.0009256142491891442 -0.095591469064812237 0 -0.0017976595698639256 -0.095781739466515997 0 -0.0011126706198457499 -0.096876806651381236 0 -0.0034181427399400137 -0.08183549166472498 0 -0.0028885119700891495 -0.082937390369902247 0 -0.0033743359271107935 -0.082671729480226983 0 -0.00044631164545169726 -0.094708847670468818 0 1.864870663408221e-05 -0.09222541502903743 0 0.00080582370777774364 -0.090962271565671576 0 0.0006516872231699185 -0.091054307282580474 0 0.00076119936233033484 -0.09127103937359933 0 1.864870663408221e-05 -0.09222541502903743 0 0.00016017262964192064 -0.091796816476693424 0 0.0022054662738050712 -0.093423157473536453 0 0.0021695500181845269 -0.093351858407494229 0 0.0025191695502306565 -0.092911457431351735 0 0.00016017262964192064 -0.091796816476693424 0 0.0002429034135072832 -0.092267688751869428 0 1.864870663408221e-05 -0.09222541502903743 0 0.0002429034135072832 -0.092267688751869428 0 -0.0028885119700891495 -0.082937390369902247 0 -0.0037153032297458314 -0.082951046356515387 0 -0.003844106244440944 -0.083455717235592516 0 -0.0028885119700891495 -0.082937390369902247 0 -0.0033743359271107935 -0.082671729480226983 0 -0.0037153032297458314 -0.082951046356515387 0 0.00016017262964192064 -0.091796816476693424 0 9.1995052181893642e-05 -0.088774941063612611 0 -0.0037700392210856556 -0.082470056563817423 0 -0.0033743359271107935 -0.082671729480226983 0 -0.0037153032297458314 -0.082951046356515387 0 0.0022054662738050712 -0.093423157473536453 0 0.0030798691081883019 -0.092934477285755671 0 0.0025191695502306565 -0.092911457431351735 0 0.0030798691081883019 -0.092934477285755671 0 0.0027997372964440573 -0.092507817328577116 0 0.0035175530630852775 -0.092422410013485307 0 0.0030798691081883019 -0.092934477285755671 0 0.0025191695502306565 -0.092911457431351735 0 0.0027997372964440573 -0.092507817328577116 0 0.00079256072624722912 -0.094860258647762874 0 0.0013700868609385723 -0.096026880083207131 0 0.00179946650547327 -0.094247714704883315 0 0.0021695500181845269 -0.093351858407494229 0 0.0025191695502306565 -0.092911457431351735 0 0.002352034039747198 -0.092359683099978718 0 0.0002429034135072832 -0.092267688751869428 0 0.0011319291699721627 -0.092885511358485398 0 0.0025191695502306565 -0.092911457431351735 0 0.002352034039747198 -0.092359683099978718 0 0.0027997372964440573 -0.092507817328577116 0 0.002352034039747198 -0.092359683099978718 0 0.0027997372964440573 -0.092507817328577116 0 0.0028300728061980652 -0.091991520493318643 0 0.0027997372964440573 -0.092507817328577116 0 0.0035175530630852775 -0.092422410013485307 0 0.0028300728061980652 -0.091991520493318643 0 0.0035175530630852775 -0.092422410013485307 0 0.0039004847525113896 -0.091533153563300523 0 0.0028300728061980652 -0.091991520493318643 0 0.0030798691081883019 -0.092934477285755671 0 0.0035175530630852775 -0.092422410013485307 0 0.0040145745803862277 -0.092412120972661285 0 0.0042758642206131587 -0.092403343560567772 0 0.0048156895698061109 -0.091522810486945369 0 0.0039004847525113896 -0.091533153563300523 0 0.0042758642206131587 -0.092403343560567772 0 0.0054526955540126583 -0.092402469180713265 0 0.0048156895698061109 -0.091522810486945369 0 0.0035175530630852775 -0.092422410013485307 0 0.0042758642206131587 -0.092403343560567772 0 0.0039004847525113896 -0.091533153563300523 0 0.00062347244983363597 -0.08600828269396249 0 -0.00013462711220509868 -0.08167922244199298 0 0.0013387768700537483 -0.086429565612001089 0 0.00062347244983363597 -0.08600828269396249 0 -0.0050476617304675946 -0.082968461168103538 0 -0.0046112906774259266 -0.083394517389898004 0 -0.005378755124583994 -0.083979982558014823 0 -0.0047485725683403491 -0.083969249920887334 0 -0.0046112906774259266 -0.083394517389898004 0 -0.005378755124583994 -0.083979982558014823 0 -0.0042550584551552875 -0.08288208494342926 0 -0.003844106244440944 -0.083455717235592516 0 -0.0046112906774259266 -0.083394517389898004 0 9.1995052181893642e-05 -0.088774941063612611 0 0.00062347244983363597 -0.08600828269396249 0 -0.003844106244440944 -0.083455717235592516 0 -0.0047485725683403491 -0.083969249920887334 0 -0.0046112906774259266 -0.083394517389898004 0 -0.004605037633731583 -0.071387104654354383 0 -0.0037129963360300771 -0.072798581827344291 0 -0.0053725028117814003 -0.072793084016432558 0 -0.004605037633731583 -0.071387104654354383 0 -0.0053725028117814003 -0.072793084016432558 0 -0.0057319998705181547 -0.071470301162120609 0 -0.0029157729997346497 -0.070630123042614248 0 -0.004605037633731583 -0.071387104654354383 0 -0.0037129963360300771 -0.072798581827344291 0 -0.002873388136538662 -0.077754224185585127 0 -0.00013462711220509868 -0.08167922244199298 0 -0.00013462711220509868 -0.08167922244199298 0 -0.0012766502367556902 -0.078086836525652348 0 0.010832493282938546 -0.073244227520422756 0 0.0040315743793140095 -0.073390734294786639 0 0.0085815369746896335 -0.07977343317698149 0 -0.0012766502367556902 -0.078086836525652348 0 -0.0039305406910277677 -0.076465322838283084 0 -0.0053725028117814003 -0.072793084016432558 0 -0.0067921202111710681 -0.072918206086620599 0 -0.0057319998705181547 -0.071470301162120609 0 0.0040315743793140095 -0.073390734294786639 0 -0.0022605032062903685 -0.073749592388075644 0 -0.0010189021592586225 -0.078210982377149324 0 -0.0022605032062903685 -0.073749592388075644 0 -0.0079099278746195562 -0.073866488940324063 0 -0.0047380598756497621 -0.078279804123799063 0 -0.0039305406910277677 -0.076465322838283084 0 -0.0054513736276745302 -0.076032265790908757 0 -0.0067921202111710681 -0.072918206086620599 0 -0.0069865782344067512 -0.070955279375554389 0 -0.0076712034984701208 -0.071830880948360862 0 -0.0067921202111710681 -0.072918206086620599 0 -0.0057319998705181547 -0.071470301162120609 0 -0.0069865782344067512 -0.070955279375554389 0 -0.0057319998705181547 -0.071470301162120609 0 -0.0057308935125351341 -0.070064770218186162 0 -0.0069865782344067512 -0.070955279375554389 0 -0.0057308935125351341 -0.070064770218186162 0 -0.0069865782344067512 -0.070955279375554389 0 -0.0077981566945246198 -0.069193645677332188 0 -0.0069865782344067512 -0.070955279375554389 0 -0.0082271667599472745 -0.070137962085770209 0 -0.0076712034984701208 -0.071830880948360862 0 -0.0069865782344067512 -0.070955279375554389 0 -0.0077981566945246198 -0.069193645677332188 0 -0.0082271667599472745 -0.070137962085770209 0 -0.0077981566945246198 -0.069193645677332188 0 -0.0061833661115636533 -0.06862881598176343 0 -0.0071844234496411365 -0.067669883003719053 0 -0.0057308935125351341 -0.070064770218186162 0 -0.0077981566945246198 -0.069193645677332188 0 -0.0061833661115636533 -0.06862881598176343 0 -0.0057308935125351341 -0.070064770218186162 0 -0.0061833661115636533 -0.06862881598176343 0 -0.0050840709034610816 -0.068780404311931831 0 -0.0057308935125351341 -0.070064770218186162 0 -0.0050840709034610816 -0.068780404311931831 0 -0.0042375955976849643 -0.069520823273168358 0 -0.0050840709034610816 -0.068780404311931831 0 -0.0042375955976849643 -0.069520823273168358 0 -0.0041789895921594726 -0.068407903979019899 0 -0.004605037633731583 -0.071387104654354383 0 -0.0057319998705181547 -0.071470301162120609 0 -0.0057308935125351341 -0.070064770218186162 0 -0.004605037633731583 -0.071387104654354383 0 -0.0057308935125351341 -0.070064770218186162 0 -0.0042375955976849643 -0.069520823273168358 0 -0.0029157729997346497 -0.070630123042614248 0 -0.004605037633731583 -0.071387104654354383 0 -0.0042375955976849643 -0.069520823273168358 0 -0.0029157729997346497 -0.070630123042614248 0 -0.0042375955976849643 -0.069520823273168358 0 -0.0033455699373001338 -0.068902452014014487 0 -0.0042375955976849643 -0.069520823273168358 0 -0.0033455699373001338 -0.068902452014014487 0 -0.0041789895921594726 -0.068407903979019899 0 -0.0077014631614019747 -0.076168063891081786 0 -0.0094579454187427251 -0.072833800244424318 0 -0.0033455699373001338 -0.068902452014014487 0 -0.0041789895921594726 -0.068407903979019899 0 -0.003325439926653333 -0.067587057211453361 0 -0.0041789895921594726 -0.068407903979019899 0 -0.003325439926653333 -0.067587057211453361 0 -0.0051485342568316408 -0.067600722909025635 0 -0.017903194009287686 -0.06898211830714808 0 -0.015667562462550882 -0.06883478481591157 0 -0.015999982448943042 -0.070125117618657182 0 -0.0061833661115636533 -0.06862881598176343 0 -0.0050840709034610816 -0.068780404311931831 0 -0.0051485342568316408 -0.067600722909025635 0 -0.0050840709034610816 -0.068780404311931831 0 -0.0041789895921594726 -0.068407903979019899 0 -0.0051485342568316408 -0.067600722909025635 0 -0.0089299073281478847 -0.077464902471994279 0 -0.008708455464343734 -0.077179955323063099 0 -0.010220782821676152 -0.076718535993230225 0 -0.0079302350437921477 -0.078194981767033836 0 -0.010034634923220074 -0.076805344431778971 0 -0.0071188278882624257 -0.080481470294915564 0 -0.0079117161450647771 -0.079910273886757158 0 -0.0083034232769120253 -0.080125837726288521 0 -0.010666679379432092 -0.075334915420850843 0 -0.010034634923220074 -0.076805344431778971 0 -0.015667562462550882 -0.06883478481591157 0 -0.015999982448943042 -0.070125117618657182 0 -0.014442937954571701 -0.069830877606964811 0 -0.0071188278882624257 -0.080481470294915564 0 -0.0067218755818361604 -0.080347053961318513 0 -0.0074585835586123295 -0.079855566475489095 0 -0.0059442806842919232 -0.080828490417584914 0 -0.0071188278882624257 -0.080481470294915564 0 -0.0067218755818361604 -0.080347053961318513 0 -0.0060630760981836241 -0.079260448529324165 0 -0.0079302350437921477 -0.078194981767033836 0 -0.0077014631614019747 -0.076168063891081786 0 -0.010666679379432092 -0.075334915420850843 0 -0.0071242834163654546 -0.077673513931002774 0 -0.0076377861794004439 -0.078221032468721918 0 -0.008708455464343734 -0.077179955323063099 0 -0.0076377861794004439 -0.078221032468721918 0 -0.0089299073281478847 -0.077464902471994279 0 -0.008708455464343734 -0.077179955323063099 0 -0.0060630760981836241 -0.079260448529324165 0 -0.0062967913337460902 -0.079503163380394995 0 -0.0059250277176767516 -0.080448816199525999 0 -0.0065427406346228898 -0.080298090842533962 0 -0.0062235017706969396 -0.080145065195033616 0 -0.0060630760981836241 -0.079260448529324165 0 -0.0062182198794372666 -0.079533382481465353 0 -0.0059250277176767516 -0.080448816199525999 0 -0.0057371941317057246 -0.081046811409326042 0 -0.0065427406346228898 -0.080298090842533962 0 -0.0059942692738624726 -0.080789102925198267 0 -0.006733772786973246 -0.080323969986266952 0 -0.0066552752129481639 -0.080167005479923018 0 -0.0059250277176767516 -0.080448816199525999 0 -0.0062235017706969396 -0.080145065195033616 0 -0.0060541448340655337 -0.0798337841648009 0 -0.0063749868389852147 -0.080001970410783108 0 -0.0060541448340655337 -0.0798337841648009 0 -0.0067128060746923634 -0.079668982713713463 0 -0.0054014261879795928 -0.079860264501999179 0 -0.0060541448340655337 -0.0798337841648009 0 -0.0064237033568682444 -0.079117612256083755 0 -0.0065427406346228898 -0.080298090842533962 0 -0.0062235017706969396 -0.080145065195033616 0 -0.0063749868389852147 -0.080001970410783108 0 -0.0062235017706969396 -0.080145065195033616 0 -0.0063749868389852147 -0.080001970410783108 0 -0.0060541448340655337 -0.0798337841648009 0 -0.0060541448340655337 -0.0798337841648009 0 -0.0067128060746923634 -0.079668982713713463 0 -0.0064237033568682444 -0.079117612256083755 0 -0.0067128060746923634 -0.079668982713713463 0 -0.0073346778179271205 -0.079510952254704531 0 -0.0064237033568682444 -0.079117612256083755 0 -0.0065427406346228898 -0.080298090842533962 0 -0.0067128060746923634 -0.079668982713713463 0 -0.0073346778179271205 -0.079510952254704531 0 -0.0065427406346228898 -0.080298090842533962 0 -0.0063749868389852147 -0.080001970410783108 0 -0.0067128060746923634 -0.079668982713713463 0 -0.006733772786973246 -0.080323969986266952 0 -0.0066552752129481639 -0.080167005479923018 0 -0.0074585835586123295 -0.079855566475489095 0 -0.0062182198794372666 -0.079533382481465353 0 -0.0064167784137910324 -0.079472062377904176 0 -0.0062967913337460902 -0.079503163380394995 0 -0.0064858351842399702 -0.079491463876695256 0 -0.0073346778179271205 -0.079510952254704531 0 -0.0064237033568682444 -0.079117612256083755 0 -0.0078754016235139061 -0.079468547734203157 0 -0.0066552752129481639 -0.080167005479923018 0 -0.0074585835586123295 -0.079855566475489095 0 -0.0073346778179271205 -0.079510952254704531 0 -0.0071188278882624257 -0.080481470294915564 0 -0.0074585835586123295 -0.079855566475489095 0 -0.0079117161450647771 -0.079910273886757158 0 -0.0074585835586123295 -0.079855566475489095 0 -0.0078754016235139061 -0.079468547734203157 0 -0.0079117161450647771 -0.079910273886757158 0 -0.0074585835586123295 -0.079855566475489095 0 -0.0073346778179271205 -0.079510952254704531 0 -0.0078754016235139061 -0.079468547734203157 0 -0.0088187358715927817 -0.081547074716987078 0 -0.0094120067702361098 -0.078982281512286243 0 -0.011808892721600572 -0.078456117420322644 0 -0.013469697350021938 -0.076836553158021167 0 -0.011395143797883606 -0.076222173133088905 0 -0.01334937551311628 -0.078794733702229919 0 -0.011808892721600572 -0.078456117420322644 0 -0.013469697350021938 -0.076836553158021167 0 -0.010568806694011144 -0.078087622728941083 0 -0.010382970634348065 -0.076502912819499766 0 -0.0098761875601295346 -0.076919957823766316 0 -0.010382970634348065 -0.076502912819499766 0 -0.0098761875601295346 -0.076919957823766316 0 -0.0099519118096279575 -0.07575977599597368 0 -0.010568806694011144 -0.078087622728941083 0 -0.010382970634348065 -0.076502912819499766 0 -0.011395143797883606 -0.076222173133088905 0 -0.010568806694011144 -0.078087622728941083 0 -0.011808892721600572 -0.078456117420322644 0 -0.011395143797883606 -0.076222173133088905 0 -0.010382970634348065 -0.076502912819499766 0 -0.011395143797883606 -0.076222173133088905 0 -0.010151943115645476 -0.075605178893214317 0 -0.0094120067702361098 -0.078982281512286243 0 -0.0099985512824761064 -0.077102872795130589 0 -0.0078754016235139061 -0.079468547734203157 0 -0.0085414357473309593 -0.079983412646087382 0 -0.0092380494230688212 -0.079823778861191991 0 -0.0078754016235139061 -0.079468547734203157 0 -0.0079117161450647771 -0.079910273886757158 0 -0.0085414357473309593 -0.079983412646087382 0 -0.0079117161450647771 -0.079910273886757158 0 -0.0083034232769120253 -0.080125837726288521 0 -0.0085414357473309593 -0.079983412646087382 0 -0.010034634923220074 -0.076805344431778971 0 -0.0099481142433300654 -0.076878278776300837 0 -0.0083081480985610322 -0.080122537674929079 0 -0.0085414357473309593 -0.079983412646087382 0 -0.0092380494230688212 -0.079823778861191991 0 -0.010034634923220074 -0.076805344431778971 0 -0.0099985512824761064 -0.077102872795130589 0 -0.010382970634348065 -0.076502912819499766 0 -0.010151943115645476 -0.075605178893214317 0 -0.0099519118096279575 -0.07575977599597368 0 -0.011820488359896051 -0.071972708481150893 0 -0.012074002696272153 -0.072060674847363518 0 -0.011446371862905723 -0.071045372312292882 0 -0.010013053350872247 -0.07708756391110741 0 -0.0099985512824761064 -0.077102872795130589 0 -0.013914604578808261 -0.071434190958247101 0 -0.012074002696272153 -0.072060674847363518 0 -0.012659026318505186 -0.070471967516410591 0 -0.012074002696272153 -0.072060674847363518 0 -0.011446371862905723 -0.071045372312292882 0 -0.012659026318505186 -0.070471967516410591 0 -0.011446371862905723 -0.071045372312292882 0 -0.012659026318505186 -0.070471967516410591 0 -0.01142223978722382 -0.069784132326967979 0 -0.012659026318505186 -0.070471967516410591 0 -0.01142223978722382 -0.069784132326967979 0 -0.013261164252657175 -0.068554940539127016 0 -0.015999982448943042 -0.070125117618657182 0 -0.013914604578808261 -0.071434190958247101 0 -0.014442937954571701 -0.069830877606964811 0 -0.013914604578808261 -0.071434190958247101 0 -0.012659026318505186 -0.070471967516410591 0 -0.014442937954571701 -0.069830877606964811 0 -0.012659026318505186 -0.070471967516410591 0 -0.014442937954571701 -0.069830877606964811 0 -0.013261164252657175 -0.068554940539127016 0 -0.015667562462550882 -0.06883478481591157 0 -0.014442937954571701 -0.069830877606964811 0 -0.013261164252657175 -0.068554940539127016 0 -0.0061833661115636533 -0.06862881598176343 0 -0.0051485342568316408 -0.067600722909025635 0 -0.0071844234496411365 -0.067669883003719053 0 -0.0094579454187427251 -0.072833800244424318 0 -0.0097772170001349627 -0.071208314895610039 0 -0.01142223978722382 -0.069784132326967979 0 -0.013261164252657175 -0.068554940539127016 0 -0.0098420854720247739 -0.068313385371757324 0 -0.0077981566945246198 -0.069193645677332188 0 -0.0071844234496411365 -0.067669883003719053 0 -0.0098420854720247739 -0.068313385371757324 0 -0.0097772170001349627 -0.071208314895610039 0 -0.0097393245556064937 -0.07073183330522731 0 -0.0098420854720247739 -0.068313385371757324 0 -0.0096781832966987228 -0.069061794741737265 0 -0.0097200088000861679 -0.068151211173876555 0 -0.0098420854720247739 -0.068313385371757324 0 -0.0096781832966987228 -0.069061794741737265 0 -0.010348465444486168 -0.070128850823132846 0 -0.0096781832966987228 -0.069061794741737265 0 -0.0092506515399125109 -0.06900296190345083 0 -0.0097200088000861679 -0.068151211173876555 0 -0.0096781832966987228 -0.069061794741737265 0 -0.0092746843236184463 -0.071414460667617197 0 -0.0092506515399125109 -0.06900296190345083 0 -0.0096781832966987228 -0.069061794741737265 0 -0.0092746843236184463 -0.071414460667617197 0 -0.010348465444486168 -0.070128850823132846 0 -0.01142223978722382 -0.069784132326967979 0 -0.0098420854720247739 -0.068313385371757324 0 -0.010348465444486168 -0.070128850823132846 0 -0.011446371862905723 -0.071045372312292882 0 -0.01142223978722382 -0.069784132326967979 0 -0.010348465444486168 -0.070128850823132846 0 -0.0092746843236184463 -0.071414460667617197 0 -0.010348465444486168 -0.070128850823132846 0 -0.010494789529006166 -0.071635554879723728 0 -0.011446371862905723 -0.071045372312292882 0 -0.010348465444486168 -0.070128850823132846 0 -0.010494789529006166 -0.071635554879723728 0 -0.011820488359896051 -0.071972708481150893 0 -0.011446371862905723 -0.071045372312292882 0 -0.010494789529006166 -0.071635554879723728 0 -0.011820488359896051 -0.071972708481150893 0 -0.010494789529006166 -0.071635554879723728 0 -0.0093289654246201635 -0.074123089850616095 0 -0.0099985512824761064 -0.077102872795130589 0 -0.0099083120312351714 -0.076370304419612692 0 -0.010151943115645476 -0.075605178893214317 0 -0.0093289654246201635 -0.074123089850616095 0 -0.0099519118096279575 -0.07575977599597368 0 -0.011820488359896051 -0.071972708481150893 0 -0.012137582063336358 -0.071970611453680833 0 -0.0093289654246201635 -0.074123089850616095 0 -0.0092746843236184463 -0.071414460667617197 0 -0.0093289654246201635 -0.074123089850616095 0 -0.0080960236100473641 -0.074410420670011176 0 -0.0092746843236184463 -0.071414460667617197 0 -0.010494789529006166 -0.071635554879723728 0 -0.0093289654246201635 -0.074123089850616095 0 -0.0088376933857617808 -0.076922024581921419 0 -0.0093289654246201635 -0.074123089850616095 0 -0.0080960236100473641 -0.074410420670011176 0 -0.0075820574566352345 -0.076102637626794395 0 -0.0088376933857617808 -0.076922024581921419 0 -0.0080960236100473641 -0.074410420670011176 0 -0.0093289654246201635 -0.074123089850616095 0 -0.0098761875601295346 -0.076919957823766316 0 -0.0099519118096279575 -0.07575977599597368 0 -0.0088376933857617808 -0.076922024581921419 0 -0.0093289654246201635 -0.074123089850616095 0 -0.0098761875601295346 -0.076919957823766316 0 -0.0055699712075070445 -0.074901256070191033 0 -0.006961262641441872 -0.07498456964454471 0 -0.0071050678821657481 -0.07270547703355848 0 -0.0064189278999036703 -0.076771497205661607 0 -0.0055699712075070445 -0.074901256070191033 0 -0.006961262641441872 -0.07498456964454471 0 -0.006961262641441872 -0.07498456964454471 0 -0.0080960236100473641 -0.074410420670011176 0 -0.0071050678821657481 -0.07270547703355848 0 -0.0075820574566352345 -0.076102637626794395 0 -0.006961262641441872 -0.07498456964454471 0 -0.0080960236100473641 -0.074410420670011176 0 -0.0092746843236184463 -0.071414460667617197 0 -0.0080960236100473641 -0.074410420670011176 0 -0.0071050678821657481 -0.07270547703355848 0 -0.0055699712075070445 -0.074901256070191033 0 -0.0071050678821657481 -0.07270547703355848 0 -0.0050564612740110777 -0.07202050052741632 0 -0.0071050678821657481 -0.07270547703355848 0 -0.007180446711980583 -0.06894823927469601 0 -0.0050564612740110777 -0.07202050052741632 0 -0.0071050678821657481 -0.07270547703355848 0 -0.0092506515399125109 -0.06900296190345083 0 -0.007180446711980583 -0.06894823927469601 0 -0.0092746843236184463 -0.071414460667617197 0 -0.0071050678821657481 -0.07270547703355848 0 -0.0092506515399125109 -0.06900296190345083 0 -0.0092506515399125109 -0.06900296190345083 0 -0.007180446711980583 -0.06894823927469601 0 -0.010551694707711261 -0.066444724089515517 0 -0.007180446711980583 -0.06894823927469601 0 -0.010551694707711261 -0.066444724089515517 0 -0.0061310185800447928 -0.064187709762679415 0 -0.010608029182305955 -0.059021030451486919 0 -0.0061310185800447928 -0.064187709762679415 0 -0.0063630860707079122 -0.058192669692584464 0 -0.010551694707711261 -0.066444724089515517 0 -0.010608029182305955 -0.059021030451486919 0 -0.0061310185800447928 -0.064187709762679415 0 -0.010551694707711261 -0.066444724089515517 0 -0.0096431853634409634 -0.070643576929877036 0 -0.013279479573237826 -0.071041009526883123 0 -0.011247968556559542 -0.065988635686610606 0 -0.011267479822990437 -0.065585386158265938 0 -0.0092506515399125109 -0.06900296190345083 0 -0.010551694707711261 -0.066444724089515517 0 -0.0097200088000861679 -0.068151211173876555 0 -0.0077981566945246198 -0.069193645677332188 0 -0.0098420854720247739 -0.068313385371757324 0 -0.0097200088000861679 -0.068151211173876555 0 -0.0077981566945246198 -0.069193645677332188 0 -0.0097200088000861679 -0.068151211173876555 0 -0.0082271667599472745 -0.070137962085770209 0 -0.0097200088000861679 -0.068151211173876555 0 -0.0082271667599472745 -0.070137962085770209 0 -0.0096431853634409634 -0.070643576929877036 0 -0.010551694707711261 -0.066444724089515517 0 -0.0097200088000861679 -0.068151211173876555 0 -0.0096431853634409634 -0.070643576929877036 0 -0.0096431853634409634 -0.070643576929877036 0 -0.0076712034984701208 -0.071830880948360862 0 -0.0079099278746195562 -0.073866488940324063 0 -0.0082271667599472745 -0.070137962085770209 0 -0.0096431853634409634 -0.070643576929877036 0 -0.0076712034984701208 -0.071830880948360862 0 -0.0067921202111710681 -0.072918206086620599 0 -0.0076712034984701208 -0.071830880948360862 0 -0.0079099278746195562 -0.073866488940324063 0 -0.0079099278746195562 -0.073866488940324063 0 -0.011025818351946208 -0.07558656430642377 0 -0.0080753120359670621 -0.078091916312524587 0 -0.0096431853634409634 -0.070643576929877036 0 -0.0079099278746195562 -0.073866488940324063 0 -0.011025818351946208 -0.07558656430642377 0 -0.011025818351946208 -0.07558656430642377 0 -0.014906577604344608 -0.076113997221784177 0 -0.013279479573237826 -0.071041009526883123 0 -0.010962580495241183 -0.065288911242150874 0 -0.011267479822990437 -0.065585386158265938 0 -0.0096994954362202759 -0.053476797439728545 0 -0.010608029182305955 -0.059021030451486919 0 -0.0063630860707079122 -0.058192669692584464 0 -0.0096431853634409634 -0.070643576929877036 0 -0.011025818351946208 -0.07558656430642377 0 -0.013279479573237826 -0.071041009526883123 0 -0.01224258640881646 -0.082072446360527851 0 -0.015672643441200566 -0.081772185128745442 0 -0.01260143756200155 -0.078980137601495651 0 -0.01224258640881646 -0.082072446360527851 0 -0.01260143756200155 -0.078980137601495651 0 -0.0099928903326430389 -0.08007824801276002 0 -0.010962580495241183 -0.065288911242150874 0 -0.0098768001926435259 -0.06517061634085923 0 -0.014906577604344608 -0.076113997221784177 0 -0.015672643441200566 -0.081772185128745442 0 -0.01260143756200155 -0.078980137601495651 0 -0.0096994954362202759 -0.053476797439728545 0 -0.0086710730280878476 -0.048730018050276332 0 -0.005528279723959262 -0.050110107629419073 0 -0.011025818351946208 -0.07558656430642377 0 -0.014906577604344608 -0.076113997221784177 0 -0.01260143756200155 -0.078980137601495651 0 -0.011025818351946208 -0.07558656430642377 0 -0.01260143756200155 -0.078980137601495651 0 -0.0099928903326430389 -0.08007824801276002 0 -0.011025818351946208 -0.07558656430642377 0 -0.0080753120359670621 -0.078091916312524587 0 -0.0099928903326430389 -0.08007824801276002 0 -0.0080753120359670621 -0.078091916312524587 0 -0.0061558192880917222 -0.082673784172370715 0 -0.0047380598756497621 -0.078279804123799063 0 -0.0079099278746195562 -0.073866488940324063 0 -0.0080753120359670621 -0.078091916312524587 0 -0.0047380598756497621 -0.078279804123799063 0 -0.0080753120359670621 -0.078091916312524587 0 -0.0061558192880917222 -0.082673784172370715 0 -0.0099928903326430389 -0.08007824801276002 0 -0.0061558192880917222 -0.082673784172370715 0 -0.0099928903326430389 -0.08007824801276002 0 -0.0092806750775547148 -0.083526306893265193 0 -0.01224258640881646 -0.082072446360527851 0 -0.0099928903326430389 -0.08007824801276002 0 -0.0092806750775547148 -0.083526306893265193 0 -0.0092806750775547148 -0.083526306893265193 0 -0.0075997737944274221 -0.086459497430111845 0 -0.012873734680274109 -0.085004911166280561 0 -0.0077359604478184265 -0.085800374392167922 0 -0.0098627204808089813 -0.085530989478449629 0 -0.0075997737944274221 -0.086459497430111845 0 -0.0049865683819690218 -0.085266695433119502 0 -0.0023175633620638255 -0.087295599451366154 0 -0.0061558192880917222 -0.082673784172370715 0 -0.0069026833706655856 -0.084554438535639501 0 -0.0049865683819690218 -0.085266695433119502 0 -0.0092806750775547148 -0.083526306893265193 0 -0.0069026833706655856 -0.084554438535639501 0 -0.0075997737944274221 -0.086459497430111845 0 -0.0061558192880917222 -0.082673784172370715 0 -0.0092806750775547148 -0.083526306893265193 0 -0.0069026833706655856 -0.084554438535639501 0 -0.0069026833706655856 -0.084554438535639501 0 -0.0075997737944274221 -0.086459497430111845 0 -0.0049865683819690218 -0.085266695433119502 0 -0.0077359604478184265 -0.085800374392167922 0 -0.0038736887402513118 -0.086195462044908008 0 -0.0091557324927624417 -0.085363827569468115 0 -0.0089413357300196852 -0.086529898160113666 0 -0.0073986361431962171 -0.086670355452409698 0 -0.0040000266873527575 -0.076717199993787497 0 -0.0047122341285370205 -0.073951041428944875 0 -0.0089413357300196852 -0.086529898160113666 0 -0.0077860060241091433 -0.088048498146204052 0 -0.0073986361431962171 -0.086670355452409698 0 -0.0091557324927624417 -0.085363827569468115 0 -0.011178281480207664 -0.086377023042499224 0 -0.012873734680274109 -0.085004911166280561 0 -0.0089413357300196852 -0.086529898160113666 0 -0.011178281480207664 -0.086377023042499224 0 -0.011899884149862056 -0.089300156826643148 0 -0.0091557324927624417 -0.085363827569468115 0 -0.0089413357300196852 -0.086529898160113666 0 -0.011178281480207664 -0.086377023042499224 0 -0.013582099095763607 -0.087428864222244426 0 -0.012873734680274109 -0.085004911166280561 0 -0.015788026727590981 -0.086317928405203734 0 -0.011178281480207664 -0.086377023042499224 0 -0.013582099095763607 -0.087428864222244426 0 -0.011899884149862056 -0.089300156826643148 0 -0.011178281480207664 -0.086377023042499224 0 -0.013582099095763607 -0.087428864222244426 0 -0.012873734680274109 -0.085004911166280561 0 -0.01224258640881646 -0.082072446360527851 0 -0.0092806750775547148 -0.083526306893265193 0 -0.012873734680274109 -0.085004911166280561 0 -0.01224258640881646 -0.082072446360527851 0 -0.015672643441200566 -0.081772185128745442 0 -0.012873734680274109 -0.085004911166280561 0 -0.0098768001926435259 -0.06517061634085923 0 -0.0073062374073921141 -0.063982116465527164 0 -0.015672643441200566 -0.081772185128745442 0 -0.012873734680274109 -0.085004911166280561 0 -0.015788026727590981 -0.086317928405203734 0 -0.0086710730280878476 -0.048730018050276332 0 -0.0070044449949557778 -0.043594348063715448 0 -0.0062176562589181727 -0.046447800631310168 0 -0.0073062374073921141 -0.063982116465527164 0 -0.0015974429624990311 -0.057198800307632892 0 -0.0070044449949557778 -0.043594348063715448 0 -0.0048204952183237369 -0.038800617282196498 0 -0.0046676453000092169 -0.04073002704228168 0 -0.013582099095763607 -0.087428864222244426 0 -0.015788026727590981 -0.086317928405203734 0 -0.016124368711922039 -0.09006292320901263 0 -0.005360058715264163 -0.066902704190820422 0 -0.0015974429624990311 -0.057198800307632892 0 -0.013582099095763607 -0.087428864222244426 0 -0.011899884149862056 -0.089300156826643148 0 -0.016124368711922039 -0.09006292320901263 0 -0.00073204514824049796 -0.049579035963331693 0 -0.00057113635874027162 -0.049078555898569257 0 -0.00058260603254930846 -0.050194815502291441 0 -0.00073204514824049796 -0.049579035963331693 0 0.00012704317751606212 -0.050245563422008366 0 -0.00057113635874027162 -0.049078555898569257 0 0.00012704317751606212 -0.050245563422008366 0 -0.00057113635874027162 -0.049078555898569257 0 0.00023746665641701621 -0.046197141265835046 0 -0.0015974429624990311 -0.057198800307632892 0 -0.00041985933296480001 -0.04908597241564177 0 -0.00057113635874027162 -0.049078555898569257 0 -0.00036051635792473213 -0.04876873986367506 0 0.00023746665641701621 -0.046197141265835046 0 -0.00057113635874027162 -0.049078555898569257 0 -0.00036051635792473213 -0.04876873986367506 0 -0.00058260603254930846 -0.050194815502291441 0 -0.00036051635792473213 -0.04876873986367506 0 -0.00058260603254930846 -0.050194815502291441 0 -0.00036125790276952149 -0.051203144587366342 0 -0.00036125790276952149 -0.051203144587366342 0 -1.0427214736379368e-07 -0.048997715100216423 0 -3.5954957076555038e-07 -0.054687232074270835 0 -0.00036051635792473213 -0.04876873986367506 0 -1.0427214736379368e-07 -0.048997715100216423 0 0.00023746665641701621 -0.046197141265835046 0 -0.00036051635792473213 -0.04876873986367506 0 -0.00036125790276952149 -0.051203144587366342 0 -1.0427214736379368e-07 -0.048997715100216423 0 0.00031442353225913302 -0.057502829407177783 0 -3.5954957076555038e-07 -0.054687232074270835 0 1.3589104614537e-06 -0.060383263803239905 0 0.0016619136719767565 -0.053902608677824648 0 0.00031442353225913302 -0.057502829407177783 0 -3.0240585581443424e-05 -0.053175098701942661 0 0.0016619136719767565 -0.053902608677824648 0 0.00031442353225913302 -0.057502829407177783 0 0.0040185954326369009 -0.054763309565757555 0 -0.00036125790276952149 -0.051203144587366342 0 -3.5954957076555038e-07 -0.054687232074270835 0 -3.0240585581443424e-05 -0.053175098701942661 0 0.00031442353225913302 -0.057502829407177783 0 -3.5954957076555038e-07 -0.054687232074270835 0 -3.0240585581443424e-05 -0.053175098701942661 0 -0.00058260603254930846 -0.050194815502291441 0 -0.00036125790276952149 -0.051203144587366342 0 -3.0240585581443424e-05 -0.053175098701942661 0 -0.00058260603254930846 -0.050194815502291441 0 -3.0240585581443424e-05 -0.053175098701942661 0 -2.9677742922091234e-05 -0.050690252122943556 0 -3.0240585581443424e-05 -0.053175098701942661 0 0.0014078140031128928 -0.051685375501993321 0 -2.9677742922091234e-05 -0.050690252122943556 0 0.0016619136719767565 -0.053902608677824648 0 -3.0240585581443424e-05 -0.053175098701942661 0 0.0014078140031128928 -0.051685375501993321 0 0.0016619136719767565 -0.053902608677824648 0 0.0014078140031128928 -0.051685375501993321 0 0.0034602441518450451 -0.052513825130169632 0 0.0014078140031128928 -0.051685375501993321 0 0.0010183653064619275 -0.050079674876520881 0 0.0038501222360054384 -0.050385402814217987 0 0.0010183653064619275 -0.050079674876520881 0 0.0019099042088528203 -0.048431097196494265 0 0.0038501222360054384 -0.050385402814217987 0 0.0014078140031128928 -0.051685375501993321 0 0.0010183653064619275 -0.050079674876520881 0 -2.9677742922091234e-05 -0.050690252122943556 0 -0.00073204514824049796 -0.049579035963331693 0 0.0010183653064619275 -0.050079674876520881 0 -2.9677742922091234e-05 -0.050690252122943556 0 -0.00073204514824049796 -0.049579035963331693 0 -0.00058260603254930846 -0.050194815502291441 0 -2.9677742922091234e-05 -0.050690252122943556 0 -0.005360058715264163 -0.066902704190820422 0 -0.0047122341285370205 -0.073951041428944875 0 -0.0089413357300196852 -0.086529898160113666 0 -0.011899884149862056 -0.089300156826643148 0 -0.0076297786183708036 -0.088434772548585547 0 -0.00073204514824049796 -0.049579035963331693 0 0.0010183653064619275 -0.050079674876520881 0 0.0019099042088528203 -0.048431097196494265 0 -0.0047122341285370205 -0.073951041428944875 0 -0.0029005564245578371 -0.067138881419738505 0 -0.0026630096331056469 -0.073935878992234638 0 -0.0031404469907823094 -0.074030513244369073 0 -0.0029775704405096077 -0.073453461440699391 0 -0.0047122341285370205 -0.073951041428944875 0 -0.0048527613014508501 -0.077052549348718566 0 -0.0077860060241091433 -0.088048498146204052 0 -0.0053880770258166108 -0.087494665411696815 0 -0.0073986361431962171 -0.086670355452409698 0 -0.0031404469907823094 -0.074030513244369073 0 -0.0033011894027276385 -0.073707316123326136 0 -0.0036272706476299073 -0.074130839663762951 0 -0.0031404469907823094 -0.074030513244369073 0 -0.0033011894027276385 -0.073707316123326136 0 -0.0029775704405096077 -0.073453461440699391 0 -0.0033011894027276385 -0.073707316123326136 0 -0.0033477707525052464 -0.073375126034534749 0 -0.0036138123879095392 -0.07363166211934212 0 -0.0033011894027276385 -0.073707316123326136 0 -0.0033477707525052464 -0.073375126034534749 0 -0.0029775704405096077 -0.073453461440699391 0 0.0034602441518450451 -0.052513825130169632 0 0.0062641204334379988 -0.053298468437216001 0 0.0040185954326369009 -0.054763309565757555 0 0.0038501222360054384 -0.050385402814217987 0 0.0034602441518450451 -0.052513825130169632 0 0.0062641204334379988 -0.053298468437216001 0 0.0014078140031128928 -0.051685375501993321 0 0.0038501222360054384 -0.050385402814217987 0 0.0034602441518450451 -0.052513825130169632 0 0.0016619136719767565 -0.053902608677824648 0 0.0034602441518450451 -0.052513825130169632 0 0.0040185954326369009 -0.054763309565757555 0 -0.0029005564245578371 -0.067138881419738505 0 -0.00022494902649551935 -0.066298242275712682 0 -0.0033477707525052464 -0.073375126034534749 0 -0.0032911170499947762 -0.072967027380566124 0 -0.0035981551534130822 -0.073132468578315651 0 -0.0033477707525052464 -0.073375126034534749 0 -0.0029775704405096077 -0.073453461440699391 0 -0.0032911170499947762 -0.072967027380566124 0 -0.00022494902649551935 -0.066298242275712682 0 -0.00099561027544551608 -0.072153990499289375 0 -0.00022494902649551935 -0.066298242275712682 0 0.0012905681426106845 -0.063571335164835582 0 -0.00022494902649551935 -0.066298242275712682 0 -5.8462512581319617e-05 -0.066372481859848412 0 1.3589104614537e-06 -0.060383263803239905 0 -0.00016070214599150782 -0.061610558815052396 0 7.5651738184082501e-06 -0.065728393406662047 0 1.3589104614537e-06 -0.060383263803239905 0 7.5651738184082501e-06 -0.065728393406662047 0 -1.8984396143061102e-07 -0.066067002650980006 0 0.00013022438191931599 -0.062654703055926908 0 -0.00016070214599150782 -0.061610558815052396 0 7.5651738184082501e-06 -0.065728393406662047 0 0.0012772676722499652 -0.062919251703332707 0 0.0012905681426106845 -0.063571335164835582 0 0.00031442353225913302 -0.057502829407177783 0 1.3589104614537e-06 -0.060383263803239905 0 -0.00016070214599150782 -0.061610558815052396 0 -2.2851590576508311e-06 -0.070633029411264148 0 -0.00024050491424340575 -0.069888834039496403 0 3.8319071416482801e-06 -0.066081027140408935 0 -2.2851590576508311e-06 -0.070633029411264148 0 -0.00024050491424340575 -0.069888834039496403 0 -0.0005796792216199593 -0.071752304937291622 0 0.00042125059521916722 -0.067294594976087627 0 0.00082172139456602013 -0.067877189653253581 0 0.00083061652326403784 -0.067083725710963271 0 -0.00024050491424340575 -0.069888834039496403 0 0.00025911829358641957 -0.066608190795706845 0 0.0011707096648951633 -0.07126968553308885 0 -0.00024050491424340575 -0.069888834039496403 0 0.00025911829358641957 -0.066608190795706845 0 3.8319071416482801e-06 -0.066081027140408935 0 -5.8462512581319617e-05 -0.066372481859848412 0 -0.00099561027544551608 -0.072153990499289375 0 -5.8462512581319617e-05 -0.066372481859848412 0 -1.7979186183809746e-06 -0.066078213476680955 0 -0.00024050491424340575 -0.069888834039496403 0 0.0011707096648951633 -0.07126968553308885 0 -0.00039588171886590577 -0.071782287213533622 0 -0.00099561027544551608 -0.072153990499289375 0 -0.00089455725133042948 -0.077587090013629414 0 -0.00039588171886590577 -0.071782287213533622 0 -0.00046352218862059913 -0.071643462699909663 0 -0.0005796792216199593 -0.071752304937291622 0 -0.00024050491424340575 -0.069888834039496403 0 -0.00039588171886590577 -0.071782287213533622 0 -0.0005796792216199593 -0.071752304937291622 0 -0.00089455725133042948 -0.077587090013629414 0 0.00034315247631947952 -0.082150045670496177 0 -0.0030299634884876207 -0.086369835030594796 0 -0.0030213965544073425 -0.086427563163523152 0 -0.0030827382827081653 -0.086403552201276212 0 -0.0033477707525052464 -0.073375126034534749 0 -0.0035981551534130822 -0.073132468578315651 0 -0.0036138123879095392 -0.07363166211934212 0 -0.00099561027544551608 -0.072153990499289375 0 -0.0030520467660974057 -0.077482120767837406 0 -0.0029706438872454002 -0.08631046512506256 0 -0.0030299634884876207 -0.086369835030594796 0 -0.0029944588928457563 -0.086423547408253143 0 -0.0030299634884876207 -0.086369835030594796 0 -0.0030213965544073425 -0.086427563163523152 0 -0.0029944588928457563 -0.086423547408253143 0 -0.0033011894027276385 -0.073707316123326136 0 -0.0036138123879095392 -0.07363166211934212 0 -0.0036272706476299073 -0.074130839663762951 0 -0.0029944588928457563 -0.086423547408253143 0 -0.0030362565452331444 -0.086449827018156761 0 -0.0030891039689135559 -0.086433608978064458 0 -0.0030520467660974057 -0.077482120767837406 0 -0.0049727376047158925 -0.078885594331853034 0 -0.0030213965544073425 -0.086427563163523152 0 -0.0029944588928457563 -0.086423547408253143 0 -0.0030362565452331444 -0.086449827018156761 0 -0.0030362565452331444 -0.086449827018156761 0 -0.0030049760797485575 -0.086481935755068046 0 -0.0030928326186122684 -0.086430547146143039 0 -0.0030362565452331444 -0.086449827018156761 0 -0.0030891039689135559 -0.086433608978064458 0 -0.0030928326186122684 -0.086430547146143039 0 -0.0030213965544073425 -0.086427563163523152 0 -0.0030049760797485575 -0.086481935755068046 0 -0.0030827382827081653 -0.086403552201276212 0 0.001297220810792609 -0.085426006725385584 0 0.00034315247631947952 -0.082150045670496177 0 -0.0030213965544073425 -0.086427563163523152 0 -0.0030362565452331444 -0.086449827018156761 0 -0.0030049760797485575 -0.086481935755068046 0 0.0055804751568234333 -0.089035700057044795 0 0.0051222791661058725 -0.08914136488640062 0 0.004924323673864011 -0.088584820133191758 0 0.0055974424356587662 -0.088295040529226362 0 0.0055804751568234333 -0.089035700057044795 0 0.004924323673864011 -0.088584820133191758 0 0.0055974424356587662 -0.088295040529226362 0 0.0055804751568234333 -0.089035700057044795 0 0.0062578974093496255 -0.08911791745556169 0 0.0055804751568234333 -0.089035700057044795 0 0.0056335981394462706 -0.088850358201500723 0 0.0051222791661058725 -0.08914136488640062 0 0.0056335981394462706 -0.088850358201500723 0 0.0051045568942370868 -0.08937533974434371 0 0.0051222791661058725 -0.08914136488640062 0 0.0056335981394462706 -0.088850358201500723 0 0.0051045568942370868 -0.08937533974434371 0 0.0054398353744903568 -0.089032902416673568 0 0.0058542469800157478 -0.087617575854669186 0 0.004957440142209041 -0.088786973645061384 0 0.0023166846069743023 -0.088681250836635445 0 0.0056335981394462706 -0.088850358201500723 0 0.0058542469800157478 -0.087617575854669186 0 0.0054398353744903568 -0.089032902416673568 0 0.0056335981394462706 -0.088850358201500723 0 0.0058542469800157478 -0.087617575854669186 0 0.004957440142209041 -0.088786973645061384 0 0.0056335981394462706 -0.088850358201500723 0 0.004957440142209041 -0.088786973645061384 0 0.005165474215229374 -0.089734991661489599 0 0.00089429089368459112 -0.086497279850595479 0 0.00063192079272400049 -0.086219495928652246 0 0.004957440142209041 -0.088786973645061384 0 0.005165474215229374 -0.089734991661489599 0 0.0023166846069743023 -0.088681250836635445 0 0.0055804751568234333 -0.089035700057044795 0 0.0056335981394462706 -0.088850358201500723 0 0.005165474215229374 -0.089734991661489599 0 0.0020127729524449679 -0.086778947663698106 0 0.00089429089368459112 -0.086497279850595479 0 -0.0030049760797485575 -0.086481935755068046 0 -0.0030290817051079775 -0.086208257492744647 0 -0.0030928326186122684 -0.086430547146143039 0 0.001297220810792609 -0.085426006725385584 0 0.00089429089368459112 -0.086497279850595479 0 -0.0049626839542227918 -0.079094680286818847 0 -0.0049727376047158925 -0.078885594331853034 0 -0.0030290817051079775 -0.086208257492744647 0 -0.0031859124106221994 -0.086468505413582697 0 -0.0030928326186122684 -0.086430547146143039 0 -0.0031859124106221994 -0.086468505413582697 0 -0.0031142301269521636 -0.086438404352198045 0 -0.0030928326186122684 -0.086430547146143039 0 -0.0049727376047158925 -0.078885594331853034 0 -0.0049661351637094306 -0.078900592307288978 0 0.00089429089368459112 -0.086497279850595479 0 -0.0038736887402513118 -0.086195462044908008 0 -0.0048527613014508501 -0.077052549348718566 0 -0.0049727376047158925 -0.078885594331853034 0 -0.0053880770258166108 -0.087494665411696815 0 -0.0031859124106221994 -0.086468505413582697 0 -0.0031908685286232475 -0.086959013610820896 0 -0.0030290817051079775 -0.086208257492744647 0 -0.0031859124106221994 -0.086468505413582697 0 -0.0058541584455717756 -0.085769165868310501 0 -0.0053880770258166108 -0.087494665411696815 0 -0.0031859124106221994 -0.086468505413582697 0 -0.0058541584455717756 -0.085769165868310501 0 -0.0053880770258166108 -0.087494665411696815 0 -0.0073986361431962171 -0.086670355452409698 0 -0.0058541584455717756 -0.085769165868310501 0 -0.0091557324927624417 -0.085363827569468115 0 -0.0073986361431962171 -0.086670355452409698 0 -0.0058541584455717756 -0.085769165868310501 0 -0.0061558192880917222 -0.082673784172370715 0 -0.0049865683819690218 -0.085266695433119502 0 -0.0025672266705408127 -0.084940095308290747 0 -0.0049865683819690218 -0.085266695433119502 0 -0.0023175633620638255 -0.087295599451366154 0 -0.0025672266705408127 -0.084940095308290747 0 0.0021974095732186973 -0.087789215847565424 0 -0.0023175633620638255 -0.087295599451366154 0 -8.059056825093471e-05 -0.085320288279709028 0 -0.0023175633620638255 -0.087295599451366154 0 -0.0025672266705408127 -0.084940095308290747 0 -8.059056825093471e-05 -0.085320288279709028 0 -0.0025672266705408127 -0.084940095308290747 0 -8.059056825093471e-05 -0.085320288279709028 0 -0.0021616213587421864 -0.083067749526700665 0 0.00063192079272400049 -0.086219495928652246 0 -2.4151032669258598e-05 -0.085507957886985828 0 0.0058542469800157478 -0.087617575854669186 0 0.0023166846069743023 -0.088681250836635445 0 0.0028082065854183008 -0.081453238851237855 0 0.0023166846069743023 -0.088681250836635445 0 0.0028082065854183008 -0.081453238851237855 0 -0.0021616213587421864 -0.083067749526700665 0 -0.0061558192880917222 -0.082673784172370715 0 -0.0025672266705408127 -0.084940095308290747 0 -0.0021616213587421864 -0.083067749526700665 0 -0.0061558192880917222 -0.082673784172370715 0 -0.0021616213587421864 -0.083067749526700665 0 -0.0047380598756497621 -0.078279804123799063 0 -0.0022605032062903685 -0.073749592388075644 0 -0.0047380598756497621 -0.078279804123799063 0 -0.0010189021592586225 -0.078210982377149324 0 -0.0021616213587421864 -0.083067749526700665 0 -0.0047380598756497621 -0.078279804123799063 0 -0.0010189021592586225 -0.078210982377149324 0 0.0028082065854183008 -0.081453238851237855 0 -0.0021616213587421864 -0.083067749526700665 0 -0.0010189021592586225 -0.078210982377149324 0 0.0040315743793140095 -0.073390734294786639 0 0.0028082065854183008 -0.081453238851237855 0 -0.0010189021592586225 -0.078210982377149324 0 0.0040315743793140095 -0.073390734294786639 0 0.0028082065854183008 -0.081453238851237855 0 0.0085815369746896335 -0.07977343317698149 0 -0.00013462711220509868 -0.08167922244199298 0 0.0023153066706369891 -0.083689938415442852 0 0.0060022437378896096 -0.090765669502099591 0 0.0048345491407586977 -0.090349758370714586 0 0.0048156895698061109 -0.091522810486945369 0 0.0054526955540126583 -0.092402469180713265 0 0.0060022437378896096 -0.090765669502099591 0 0.0048156895698061109 -0.091522810486945369 0 0.0051045568942370868 -0.08937533974434371 0 0.0048345491407586977 -0.090349758370714586 0 0.0054398353744903568 -0.089032902416673568 0 0.0060022437378896096 -0.090765669502099591 0 0.0048345491407586977 -0.090349758370714586 0 0.0054398353744903568 -0.089032902416673568 0 0.0058542469800157478 -0.087617575854669186 0 0.0028082065854183008 -0.081453238851237855 0 0.0085815369746896335 -0.07977343317698149 0 0.0027647340772027343 -0.084925828069656498 0 0.0023153066706369891 -0.083689938415442852 0 0.0058542469800157478 -0.087617575854669186 0 0.0060022437378896096 -0.090765669502099591 0 0.0054398353744903568 -0.089032902416673568 0 0.0032283384098929398 -0.091272969322264377 0 0.0041094381659753905 -0.090452696117830828 0 0.0031868132014062117 -0.090443781168091084 0 0.0051045568942370868 -0.08937533974434371 0 0.0048345491407586977 -0.090349758370714586 0 0.0041094381659753905 -0.090452696117830828 0 0.0048345491407586977 -0.090349758370714586 0 0.0041094381659753905 -0.090452696117830828 0 0.0039004847525113896 -0.091533153563300523 0 0.0048345491407586977 -0.090349758370714586 0 0.0048156895698061109 -0.091522810486945369 0 0.0039004847525113896 -0.091533153563300523 0 0.0032283384098929398 -0.091272969322264377 0 0.0041094381659753905 -0.090452696117830828 0 0.0039004847525113896 -0.091533153563300523 0 0.0032283384098929398 -0.091272969322264377 0 0.0039004847525113896 -0.091533153563300523 0 0.0028300728061980652 -0.091991520493318643 0 0.0032283384098929398 -0.091272969322264377 0 0.0028300728061980652 -0.091991520493318643 0 0.0022898109633541419 -0.091852344870649499 0 0.00179946650547327 -0.094247714704883315 0 0.0022898109633541419 -0.091852344870649499 0 0.00083368968070838807 -0.093557347417382433 0 0.002352034039747198 -0.092359683099978718 0 0.0028300728061980652 -0.091991520493318643 0 0.0022898109633541419 -0.091852344870649499 0 0.0011319291699721627 -0.092885511358485398 0 0.0014696953647008965 -0.09240175212412241 0 0.0022898109633541419 -0.091852344870649499 0 0.0021053758854157503 -0.09086225904253345 0 0.0012420205130519331 -0.091841009109277991 0 0.0022898109633541419 -0.091852344870649499 0 0.0012420205130519331 -0.091841009109277991 0 0.00083368968070838807 -0.093557347417382433 0 0.0022898109633541419 -0.091852344870649499 0 0.0031868132014062117 -0.090443781168091084 0 0.0021053758854157503 -0.09086225904253345 0 0.0032283384098929398 -0.091272969322264377 0 0.0022898109633541419 -0.091852344870649499 0 0.0031868132014062117 -0.090443781168091084 0 0.0031868132014062117 -0.090443781168091084 0 0.0021053758854157503 -0.09086225904253345 0 0.002271321272328224 -0.089753672891282152 0 0.0021053758854157503 -0.09086225904253345 0 0.0013264019149566856 -0.090356739266851283 0 0.002271321272328224 -0.089753672891282152 0 0.0021053758854157503 -0.09086225904253345 0 0.0013264019149566856 -0.090356739266851283 0 0.0012420205130519331 -0.091841009109277991 0 0.0011653394771581932 -0.089339293376795623 0 0.002271321272328224 -0.089753672891282152 0 0.0017924019786301373 -0.088390152890451948 0 0.0013264019149566856 -0.090356739266851283 0 0.0011653394771581932 -0.089339293376795623 0 0.002271321272328224 -0.089753672891282152 0 0.0013264019149566856 -0.090356739266851283 0 0.0011653394771581932 -0.089339293376795623 0 0.00075093841978428647 -0.089859081830964721 0 0.0031868132014062117 -0.090443781168091084 0 0.002271321272328224 -0.089753672891282152 0 0.0035055141048601249 -0.088937978233548529 0 0.002271321272328224 -0.089753672891282152 0 0.0035055141048601249 -0.088937978233548529 0 0.0017924019786301373 -0.088390152890451948 0 0.0035055141048601249 -0.088937978233548529 0 0.0044403200031024135 -0.089439468846626596 0 0.004924323673864011 -0.088584820133191758 0 0.0031868132014062117 -0.090443781168091084 0 0.0035055141048601249 -0.088937978233548529 0 0.0044403200031024135 -0.089439468846626596 0 0.0041094381659753905 -0.090452696117830828 0 0.0031868132014062117 -0.090443781168091084 0 0.0044403200031024135 -0.089439468846626596 0 0.0051045568942370868 -0.08937533974434371 0 0.0041094381659753905 -0.090452696117830828 0 0.0044403200031024135 -0.089439468846626596 0 0.0051045568942370868 -0.08937533974434371 0 0.0044403200031024135 -0.089439468846626596 0 0.0051222791661058725 -0.08914136488640062 0 0.0044403200031024135 -0.089439468846626596 0 0.0051222791661058725 -0.08914136488640062 0 0.004924323673864011 -0.088584820133191758 0 0.0055974424356587662 -0.088295040529226362 0 0.004924323673864011 -0.088584820133191758 0 0.0050017776833652305 -0.087466579435653072 0 0.004924323673864011 -0.088584820133191758 0 0.0042632889662399176 -0.087736111360134525 0 0.0050017776833652305 -0.087466579435653072 0 0.0035055141048601249 -0.088937978233548529 0 0.004924323673864011 -0.088584820133191758 0 0.0042632889662399176 -0.087736111360134525 0 0.0035055141048601249 -0.088937978233548529 0 0.0042632889662399176 -0.087736111360134525 0 0.0022533963424775055 -0.086650436802537673 0 0.0042632889662399176 -0.087736111360134525 0 0.0044152062785350428 -0.083637595853816166 0 0.0022533963424775055 -0.086650436802537673 0 0.0042632889662399176 -0.087736111360134525 0 0.0067173373434530406 -0.086482029888698325 0 0.0044152062785350428 -0.083637595853816166 0 0.00034315247631947952 -0.082150045670496177 0 0.0003297214204085566 -0.079789976417123765 0 0.0013474838686518371 -0.082700813685818761 0 0.00034315247631947952 -0.082150045670496177 0 -0.00046352218862059913 -0.071643462699909663 0 -0.0005796792216199593 -0.071752304937291622 0 0.00024691075628189787 -0.072745005475538166 0 0.00024691075628189787 -0.072745005475538166 0 -1.039564913352791e-06 -0.074996741509948103 0 2.8090302050768931e-06 -0.079351778228541975 0 -0.0005796792216199593 -0.071752304937291622 0 0.00024691075628189787 -0.072745005475538166 0 -1.039564913352791e-06 -0.074996741509948103 0 -2.2851590576508311e-06 -0.070633029411264148 0 -0.0005796792216199593 -0.071752304937291622 0 -1.039564913352791e-06 -0.074996741509948103 0 -0.00032369225261019821 -0.08257998637860603 0 5.8124539368343143e-06 -0.079370413450222069 0 0.00015742176397439721 -0.083566416156541062 0 -0.00032369225261019821 -0.08257998637860603 0 5.8124539368343143e-06 -0.079370413450222069 0 -4.1430428371032705e-06 -0.083992500394453384 0 5.8124539368343143e-06 -0.079370413450222069 0 0.0014757050490622934 -0.083977158051765768 0 0.00015742176397439721 -0.083566416156541062 0 0.0044152062785350428 -0.083637595853816166 0 5.8124539368343143e-06 -0.079370413450222069 0 0.0014757050490622934 -0.083977158051765768 0 0.0003297214204085566 -0.079789976417123765 0 -6.9983250133175502e-08 -0.079357702919818932 0 0.0044152062785350428 -0.083637595853816166 0 0.0014757050490622934 -0.083977158051765768 0 0.0022533963424775055 -0.086650436802537673 0 0.0014757050490622934 -0.083977158051765768 0 0.00058069478292755328 -0.084925973103489025 0 0.00015742176397439721 -0.083566416156541062 0 -0.00032369225261019821 -0.08257998637860603 0 0.00015742176397439721 -0.083566416156541062 0 -0.00075803746721062461 -0.083284263508896395 0 0.00058069478292755328 -0.084925973103489025 0 0.00015742176397439721 -0.083566416156541062 0 -0.00075803746721062461 -0.083284263508896395 0 0.00058069478292755328 -0.084925973103489025 0 0.00017632863113910838 -0.086897976273624028 0 0.0022533963424775055 -0.086650436802537673 0 0.00058069478292755328 -0.084925973103489025 0 0.00017632863113910838 -0.086897976273624028 0 -0.00075803746721062461 -0.083284263508896395 0 0.0014757050490622934 -0.083977158051765768 0 0.00058069478292755328 -0.084925973103489025 0 0.0022533963424775055 -0.086650436802537673 0 0.0035055141048601249 -0.088937978233548529 0 0.0022533963424775055 -0.086650436802537673 0 0.0017924019786301373 -0.088390152890451948 0 0.00017632863113910838 -0.086897976273624028 0 0.0022533963424775055 -0.086650436802537673 0 0.0017924019786301373 -0.088390152890451948 0 0.00017632863113910838 -0.086897976273624028 0 0.0017924019786301373 -0.088390152890451948 0 0.00065542456648660995 -0.088373395498474658 0 0.0011653394771581932 -0.089339293376795623 0 0.0017924019786301373 -0.088390152890451948 0 0.00065542456648660995 -0.088373395498474658 0 0.00065542456648660995 -0.088373395498474658 0 0.00026681649939582831 -0.089210757346881719 0 -0.00052696690299412242 -0.088376868703331127 0 0.0011653394771581932 -0.089339293376795623 0 0.00065542456648660995 -0.088373395498474658 0 0.00026681649939582831 -0.089210757346881719 0 0.00069352485887178321 -0.089847523150912934 0 0.00043401491471313714 -0.090109295105354578 0 0.00051982258951259984 -0.089769370094988546 0 0.00026681649939582831 -0.089210757346881719 0 0.0005961822060844221 -0.089677241763858245 0 0.00051982258951259984 -0.089769370094988546 0 0.0005961822060844221 -0.089677241763858245 0 0.00069352485887178321 -0.089847523150912934 0 0.00051982258951259984 -0.089769370094988546 0 -0.00018969220892824397 -0.089402940554682467 0 -0.00022103424191745929 -0.08938655644276948 0 0.0005961822060844221 -0.089677241763858245 0 0.00076074353186880532 -0.089860560437537956 0 0.00069352485887178321 -0.089847523150912934 0 0.00026681649939582831 -0.089210757346881719 0 0.0005961822060844221 -0.089677241763858245 0 0.00076074353186880532 -0.089860560437537956 0 0.00017632863113910838 -0.086897976273624028 0 0.00065542456648660995 -0.088373395498474658 0 -0.00052696690299412242 -0.088376868703331127 0 0.00069352485887178321 -0.089847523150912934 0 0.00015417512006484733 -0.090602795138358158 0 0.0002136879914292779 -0.089665400866616618 0 -0.00022103424191745929 -0.08938655644276948 0 -0.00034204980615152361 -0.090594734977583205 0 0.00069352485887178321 -0.089847523150912934 0 0.00015417512006484733 -0.090602795138358158 0 0.00049028423993741597 -0.092471965481744689 0 0.00076074353186880532 -0.089860560437537956 0 0.00069352485887178321 -0.089847523150912934 0 0.0002136879914292779 -0.089665400866616618 0 0.00022801788765808851 -0.089609171378898844 0 -0.00014683467217224629 -0.089314634150264485 0 0.000371931539904339 -0.08927539624140024 0 -0.00022103424191745929 -0.08938655644276948 0 -0.00010324304007959272 -0.087555419527515568 0 1.2149556394236206e-06 -0.085318423989475131 0 -4.415958734601729e-05 -0.084691807213995149 0 0.00017632863113910838 -0.086897976273624028 0 -0.00052696690299412242 -0.088376868703331127 0 -0.00054030154888096941 -0.08571208038985291 0 -0.00054030154888096941 -0.08571208038985291 0 -0.00017410614416779038 -0.085498846818999955 0 -2.9893167049675123e-06 -0.085785066243873595 0 0.00017632863113910838 -0.086897976273624028 0 -0.00054030154888096941 -0.08571208038985291 0 -0.00017410614416779038 -0.085498846818999955 0 0.000371931539904339 -0.08927539624140024 0 -0.00052487620470522127 -0.089110953197055767 0 1.9592196843721008e-06 -0.085806050533736411 0 -0.00014683467217224629 -0.089314634150264485 0 0.000371931539904339 -0.08927539624140024 0 -0.00052487620470522127 -0.089110953197055767 0 -0.00052487620470522127 -0.089110953197055767 0 -1.9581406987562683e-06 -0.089002659168733858 0 1.9592196843721008e-06 -0.085806050533736411 0 -4.415958734601729e-05 -0.084691807213995149 0 -2.4545670298022335e-07 -0.084003905428685702 0 -0.00017410614416779038 -0.085498846818999955 0 -2.9893167049675123e-06 -0.085785066243873595 0 2.7802840117626769e-06 -0.084016536829268462 0 -0.00010324304007959272 -0.087555419527515568 0 -2.6340330132568507e-07 -0.085800078301111221 0 -0.00032369225261019821 -0.08257998637860603 0 -0.00075803746721062461 -0.083284263508896395 0 -4.1430428371032705e-06 -0.083992500394453384 0 2.4235937182817039e-05 -0.09432900866915539 0 2.4910334631234736e-06 -0.092216260973960684 0 0.0013157770332720311 -0.096506016701499567 0 2.4235937182817039e-05 -0.09432900866915539 0 -5.4784576095756e-07 -0.094996278679884305 0 -1.4035395628013761e-06 -0.094999959880182477 0 -2.0830990942628257e-07 -0.092209348403301569 0 -0.00022850312874367492 -0.092599379497596931 0 2.4235937182817039e-05 -0.09432900866915539 0 -5.4784576095756e-07 -0.094996278679884305 0 2.4910334631234736e-06 -0.092216260973960684 0 1.9473095104596051e-06 -0.092202913056833424 0 -0.0003596529527737842 -0.089994617024146364 0 0.0001277754865517052 -0.088678533705967344 0 -0.00052487620470522127 -0.089110953197055767 0 -1.9581406987562683e-06 -0.089002659168733858 0 -0.0003596529527737842 -0.089994617024146364 0 -1.9581406987562683e-06 -0.089002659168733858 0 1.9473095104596051e-06 -0.092202913056833424 0 -0.0003596529527737842 -0.089994617024146364 0 -0.00014683467217224629 -0.089314634150264485 0 -0.00052487620470522127 -0.089110953197055767 0 0.0001277754865517052 -0.088678533705967344 0 -0.00052487620470522127 -0.089110953197055767 0 -0.0003596529527737842 -0.089994617024146364 0 0.0001277754865517052 -0.088678533705967344 0 -1.7148852202702204e-05 -0.09500598472152641 0 4.9633285465203637e-08 -0.094999952115196781 0 -1.1590723329933327e-07 -0.095000127457224831 0 2.4235937182817039e-05 -0.09432900866915539 0 0.0013157770332720311 -0.096506016701499567 0 -1.4035395628013761e-06 -0.094999959880182477 0 -0.00022850312874367492 -0.092599379497596931 0 1.5237865098645396e-06 -0.094995864729858798 0 -1.7148852202702204e-05 -0.09500598472152641 0 -1.1590723329933327e-07 -0.095000127457224831 0 -0.00012005055517423761 -0.095069962906886518 0 -0.00034204980615152361 -0.090594734977583205 0 -0.00022850312874367492 -0.092599379497596931 0 -0.00022850312874367492 -0.092599379497596931 0 -0.00037943347813655399 -0.092916602510190918 0 0.0002136879914292779 -0.089665400866616618 0 -0.0011922476773990845 -0.088628357168533498 0 -0.001153515686845666 -0.090768043906209503 0 0.00015417512006484733 -0.090602795138358158 0 -0.001153515686845666 -0.090768043906209503 0 0.00049028423993741597 -0.092471965481744689 0 0.00015417512006484733 -0.090602795138358158 0 0.0002136879914292779 -0.089665400866616618 0 -0.001153515686845666 -0.090768043906209503 0 -1.1590723329933327e-07 -0.095000127457224831 0 -0.00012005055517423761 -0.095069962906886518 0 1.0615683988647987e-07 -0.094999926930048412 0 -0.00012005055517423761 -0.095069962906886518 0 -0.00010602646336709417 -0.09481705526173205 0 -0.00031598142517622404 -0.094356101654665611 0 1.0615683988647987e-07 -0.094999926930048412 0 -0.00010602646336709417 -0.09481705526173205 0 -0.00014298005361537699 -0.094780493775101685 0 -0.00012005055517423761 -0.095069962906886518 0 1.0615683988647987e-07 -0.094999926930048412 0 -0.00010602646336709417 -0.09481705526173205 0 1.0615683988647987e-07 -0.094999926930048412 0 -4.3475788315364776e-07 -0.094999524787018771 0 -0.00014298005361537699 -0.094780493775101685 0 -4.3475788315364776e-07 -0.094999524787018771 0 -0.00014298005361537699 -0.094780493775101685 0 -0.00035557402139194713 -0.09492602229745252 0 -0.00010602646336709417 -0.09481705526173205 0 -0.00014298005361537699 -0.094780493775101685 0 -0.00031598142517622404 -0.094356101654665611 0 -0.00014298005361537699 -0.094780493775101685 0 -0.00035557402139194713 -0.09492602229745252 0 -0.00031598142517622404 -0.094356101654665611 0 -0.00010550814213880097 -0.092187815589341929 0 -0.00077573826640507052 -0.0925402644804207 0 -0.0001262010748536707 -0.090451179999446171 0 0.00010619620735867195 -0.093633804676601526 0 0.00039950057521587391 -0.092361041628132745 0 -0.00035557402139194713 -0.09492602229745252 0 -0.00031598142517622404 -0.094356101654665611 0 0.00049028423993741597 -0.092471965481744689 0 -0.00010550814213880097 -0.092187815589341929 0 -0.00077573826640507052 -0.0925402644804207 0 -0.00034479059583933624 -0.092946588112313683 0 -0.00037943347813655399 -0.092916602510190918 0 -0.0003786210137461862 -0.093446081061359224 0 -0.001153515686845666 -0.090768043906209503 0 -0.00031598142517622404 -0.094356101654665611 0 0.00049028423993741597 -0.092471965481744689 0 0.00063799134268051707 -0.091712498994453731 0 0.00039950057521587391 -0.092361041628132745 0 0.00069352485887178321 -0.089847523150912934 0 0.00043401491471313714 -0.090109295105354578 0 -0.0001262010748536707 -0.090451179999446171 0 0.00043401491471313714 -0.090109295105354578 0 -0.0001262010748536707 -0.090451179999446171 0 0.00027459344674276583 -0.091217070456384761 0 0.00026681649939582831 -0.089210757346881719 0 0.00075093841978428647 -0.089859081830964721 0 0.00051982258951259984 -0.089769370094988546 0 0.0011653394771581932 -0.089339293376795623 0 0.00026681649939582831 -0.089210757346881719 0 0.00075093841978428647 -0.089859081830964721 0 0.00043401491471313714 -0.090109295105354578 0 0.00075093841978428647 -0.089859081830964721 0 0.00051982258951259984 -0.089769370094988546 0 0.00043401491471313714 -0.090109295105354578 0 0.00075093841978428647 -0.089859081830964721 0 0.00072875819518267398 -0.090984975757870679 0 0.0013264019149566856 -0.090356739266851283 0 0.00075093841978428647 -0.089859081830964721 0 0.00072875819518267398 -0.090984975757870679 0 0.00072875819518267398 -0.090984975757870679 0 0.00039717301714874533 -0.092234458586970963 0 0.0012420205130519331 -0.091841009109277991 0 0.0013264019149566856 -0.090356739266851283 0 0.00072875819518267398 -0.090984975757870679 0 0.0012420205130519331 -0.091841009109277991 0 -0.00010550814213880097 -0.092187815589341929 0 -0.0001262010748536707 -0.090451179999446171 0 0.00027459344674276583 -0.091217070456384761 0 0.00043401491471313714 -0.090109295105354578 0 0.00072875819518267398 -0.090984975757870679 0 0.00027459344674276583 -0.091217070456384761 0 0.00072875819518267398 -0.090984975757870679 0 0.00027459344674276583 -0.091217070456384761 0 0.00039717301714874533 -0.092234458586970963 0 -0.00010550814213880097 -0.092187815589341929 0 0.00027459344674276583 -0.091217070456384761 0 0.00039717301714874533 -0.092234458586970963 0 -0.00010550814213880097 -0.092187815589341929 0 0.00039717301714874533 -0.092234458586970963 0 -0.00013383580057470436 -0.09336218233040415 0 0.00039717301714874533 -0.092234458586970963 0 0.00044936642340204317 -0.093097132129154575 0 -0.00013383580057470436 -0.09336218233040415 0 0.00039717301714874533 -0.092234458586970963 0 0.0012420205130519331 -0.091841009109277991 0 0.00044936642340204317 -0.093097132129154575 0 0.0012420205130519331 -0.091841009109277991 0 0.00083368968070838807 -0.093557347417382433 0 0.00044936642340204317 -0.093097132129154575 0 0.00083368968070838807 -0.093557347417382433 0 0.00044936642340204317 -0.093097132129154575 0 2.2481909938025743e-05 -0.094011101051119525 0 0.00044936642340204317 -0.093097132129154575 0 2.2481909938025743e-05 -0.094011101051119525 0 -0.00013383580057470436 -0.09336218233040415 0 2.2481909938025743e-05 -0.094011101051119525 0 -0.00025506350077871887 -0.094409876718706209 0 -0.00013383580057470436 -0.09336218233040415 0 -0.00025506350077871887 -0.094409876718706209 0 -0.00013383580057470436 -0.09336218233040415 0 -0.00034008799496911159 -0.0937423829843885 0 1.2151134303225156e-07 -0.09500014985433855 0 -0.00025506350077871887 -0.094409876718706209 0 -1.9823463294151794e-06 -0.094996629907776617 0 -0.00025506350077871887 -0.094409876718706209 0 -1.9823463294151794e-06 -0.094996629907776617 0 -0.00034008799496911159 -0.0937423829843885 0 0.00010619620735867195 -0.093633804676601526 0 -3.7288671646193085e-07 -0.094997772595728988 0 -0.00077573826640507052 -0.0925402644804207 0 -1.9823463294151794e-06 -0.094996629907776617 0 -0.00034008799496911159 -0.0937423829843885 0 -4.3475788315364776e-07 -0.094999524787018771 0 -0.00035557402139194713 -0.09492602229745252 0 1.4013221137855011e-07 -0.094999937278623423 0 -0.00077573826640507052 -0.0925402644804207 0 -0.00034479059583933624 -0.092946588112313683 0 -0.00034008799496911159 -0.0937423829843885 0 -0.00010550814213880097 -0.092187815589341929 0 -0.00034479059583933624 -0.092946588112313683 0 -0.00013383580057470436 -0.09336218233040415 0 -0.00034479059583933624 -0.092946588112313683 0 -0.00013383580057470436 -0.09336218233040415 0 -0.00034008799496911159 -0.0937423829843885 0 0.013569919643259059 -0.040138279296144115 0 0.01258274050665106 -0.038151853261698655 0 0.019150184882679017 -0.05702778485375902 0 0.019097650260809642 -0.057389587990049902 0 0.019830736104187303 -0.05972588138607661 0 0.019097650260809642 -0.057389587990049902 0 0.019830736104187303 -0.05972588138607661 0 0.01876514748529011 -0.058359204927623802 0 0.011226231360744129 -0.020798752095750751 0 0.0056058460867604871 -0.019023211768123854 0 0.0086534673262623624 -0.014729864890349255 0 0.0056058460867604871 -0.019023211768123854 0 0.0056760540142151723 -0.024752514137331143 0 0.00039000783874917953 -0.019860535426891455 0 0.0086534673262623624 -0.014729864890349255 0 0.0029041516175979257 -0.014414852874235034 0 0.004775507160465005 -0.011259475058524301 0 0.0056058460867604871 -0.019023211768123854 0 0.0024875312522678683 -0.017278623837084714 0 0.0029041516175979257 -0.014414852874235034 0 0.0056058460867604871 -0.019023211768123854 0 0.0086534673262623624 -0.014729864890349255 0 0.0029041516175979257 -0.014414852874235034 0 0.019830736104187303 -0.05972588138607661 0 0.018379553367829531 -0.058959661636624923 0 0.01876514748529011 -0.058359204927623802 0 0.019830736104187303 -0.05972588138607661 0 0.018379553367829531 -0.058959661636624923 0 0.01879006631371365 -0.060402807275468907 0 0.018379553367829531 -0.058959661636624923 0 0.016378590827629762 -0.058374377743933371 0 0.01879006631371365 -0.060402807275468907 0 0.017154940400257061 -0.05740138216746634 0 0.018854412121759461 -0.056633073288983184 0 0.01610720973191479 -0.060013068307313573 0 0.015415442979482736 -0.063922458640023314 0 0.01910066225444576 -0.063986287652760779 0 0.01610720973191479 -0.060013068307313573 0 0.015415442979482736 -0.063922458640023314 0 0.012666755109885169 -0.061682228897606259 0 0.01610720973191479 -0.060013068307313573 0 0.012666755109885169 -0.061682228897606259 0 0.012729399424232008 -0.055428939535974359 0 0.017154940400257061 -0.05740138216746634 0 0.015479660560457614 -0.056222313016401945 0 0.016378590827629762 -0.058374377743933371 0 0.017687817936297194 -0.056735708393549335 0 0.016178589799311336 -0.055388650703895363 0 0.019097650260809642 -0.057389587990049902 0 0.01876514748529011 -0.058359204927623802 0 0.018393207511316834 -0.057636213853678675 0 0.018379553367829531 -0.058959661636624923 0 0.01793918718007545 -0.058043159960218131 0 0.01876514748529011 -0.058359204927623802 0 0.01793918718007545 -0.058043159960218131 0 0.01876514748529011 -0.058359204927623802 0 0.018393207511316834 -0.057636213853678675 0 0.018379553367829531 -0.058959661636624923 0 0.016378590827629762 -0.058374377743933371 0 0.01793918718007545 -0.058043159960218131 0 0.016378590827629762 -0.058374377743933371 0 0.01793918718007545 -0.058043159960218131 0 0.017687817936297194 -0.056735708393549335 0 0.01793918718007545 -0.058043159960218131 0 0.017687817936297194 -0.056735708393549335 0 0.018393207511316834 -0.057636213853678675 0 0.019097650260809642 -0.057389587990049902 0 0.017687817936297194 -0.056735708393549335 0 0.018393207511316834 -0.057636213853678675 0 0.017687817936297194 -0.056735708393549335 0 0.016178589799311336 -0.055388650703895363 0 0.018303344001054329 -0.05307788668710671 0 0.019097650260809642 -0.057389587990049902 0 0.017687817936297194 -0.056735708393549335 0 0.018303344001054329 -0.05307788668710671 0 0.019150184882679017 -0.05702778485375902 0 0.019097650260809642 -0.057389587990049902 0 0.018101660952755661 -0.05393513404967739 0 0.017168229536876169 -0.052067705735546262 0 0.014281474985952438 -0.044177787287182968 0 0.013569919643259059 -0.040138279296144115 0 0.014281474985952438 -0.044177787287182968 0 0.016378590827629762 -0.058374377743933371 0 0.016178589799311336 -0.055388650703895363 0 0.012729399424232008 -0.055428939535974359 0 0.016178589799311336 -0.055388650703895363 0 0.015198774288267099 -0.052569255316072733 0 0.012729399424232008 -0.055428939535974359 0 0.016178589799311336 -0.055388650703895363 0 0.015198774288267099 -0.052569255316072733 0 0.018303344001054329 -0.05307788668710671 0 0.015198774288267099 -0.052569255316072733 0 0.012013577111294922 -0.051959626345500193 0 0.013980361038985855 -0.04921397489871409 0 0.015198774288267099 -0.052569255316072733 0 0.018303344001054329 -0.05307788668710671 0 0.017599687929783558 -0.049705996478383675 0 0.014281474985952438 -0.044177787287182968 0 0.011006400689660837 -0.038985150606801557 0 0.013787477786720362 -0.02696816801510702 0 0.01105943264282435 -0.029644387009745907 0 0.015256661636682853 -0.031088037176880755 0 0.01105943264282435 -0.029644387009745907 0 0.010140835267163063 -0.025138444310575103 0 0.0056760540142151723 -0.024752514137331143 0 0.013787477786720362 -0.02696816801510702 0 0.01105943264282435 -0.029644387009745907 0 0.010140835267163063 -0.025138444310575103 0 0.0072471647342410295 -0.031542569642339056 0 0.0056458289696285557 -0.027051645932390213 0 0.011226231360744129 -0.020798752095750751 0 0.010140835267163063 -0.025138444310575103 0 0.0056760540142151723 -0.024752514137331143 0 0.011226231360744129 -0.020798752095750751 0 0.013787477786720362 -0.02696816801510702 0 0.010140835267163063 -0.025138444310575103 0 0.011226231360744129 -0.020798752095750751 0 0.0056058460867604871 -0.019023211768123854 0 0.0056760540142151723 -0.024752514137331143 0 0.0032041025100193088 -0.03440194814040972 0 0.0042823344206761706 -0.035091313332363518 0 0.0042749614861151367 -0.034254153935424171 0 0.0042823344206761706 -0.035091313332363518 0 0.0049919667030555639 -0.034605690283654074 0 0.0042749614861151367 -0.034254153935424171 0 0.0051376310420907286 -0.033693124426855396 0 0.0053338004847096263 -0.033985473516405511 0 0.0052342901075013984 -0.031170791754643375 0 -0.00040585588775967968 -0.00028554917928299417 0 -0.00062102899152602115 -0.00071207504539308225 0 -0.00035630565009565912 -0.00090447871726146117 0 -0.00062102899152602115 -0.00071207504539308225 0 -0.00049799449441223162 -0.00027179249305140014 0 -0.00098967054393742852 -0.0011053657455019491 0 -0.00049799449441223162 -0.00027179249305140014 0 0.0014901270805167156 0.0010724925686823581 0 0.0010484135591412595 0.0044230096372484583 0 -0.00049799449441223162 -0.00027179249305140014 0 0.00077675591998449501 0.00474096055634149 0 0.0010484135591412595 0.0044230096372484583 0 -0.000382355937801896 0.0011041271578054697 0 -0.00018222371801168024 0.001714542341911311 0 -0.00062102899152602115 -0.00071207504539308225 0 -0.00053293738919443008 -0.00099338774199862214 0 -0.00035630565009565912 -0.00090447871726146117 0 -0.00062102899152602115 -0.00071207504539308225 0 -0.0007103554480002598 -0.00098832293100000975 0 -0.00053293738919443008 -0.00099338774199862214 0 -0.00040585588775967968 -0.00028554917928299417 0 -0.00062102899152602115 -0.00071207504539308225 0 -0.00049799449441223162 -0.00027179249305140014 0 -0.00049799449441223162 -0.00027179249305140014 0 0.0014901270805167156 0.0010724925686823581 0 0.00091429219442735359 -0.0018471726072198495 0 -0.00049799449441223162 -0.00027179249305140014 0 -0.00062421653800042104 -0.0012305212259441445 0 0.00091429219442735359 -0.0018471726072198495 0 0.0042823344206761706 -0.035091313332363518 0 0.0051094633362612808 -0.035689391809547964 0 0.0053507322006285211 -0.036051852775111921 0 0.0053338004847096263 -0.033985473516405511 0 0.0051094633362612808 -0.035689391809547964 0 0.0053507322006285211 -0.036051852775111921 0 0.0038565871177646399 -0.030239540727391243 0 0.0041804404815444784 -0.032991808580915341 0 0.0056458289696285557 -0.027051645932390213 0 0.0011063606829573849 -0.017694695213196495 0 0.0042823344206761706 -0.035091313332363518 0 0.0049919667030555639 -0.034605690283654074 0 0.0051094633362612808 -0.035689391809547964 0 0.001974088163617342 -0.017609021732327146 0 0.0011063606829573849 -0.017694695213196495 0 -0.00040585588775967968 -0.00028554917928299417 0 -0.00062421653800042104 -0.0012305212259441445 0 -0.0011910233551155444 -0.0018318301717646858 0 -0.00040585588775967968 -0.00028554917928299417 0 -0.00049799449441223162 -0.00027179249305140014 0 -0.00062421653800042104 -0.0012305212259441445 0 0.0051376310420907286 -0.033693124426855396 0 0.0053338004847096263 -0.033985473516405511 0 0.0051094633362612808 -0.035689391809547964 0 0.0014693987787408806 0.0046111207168428739 0 0.0013242768840997265 0.0047919663211816593 0 0.0017682847559942205 0.0049057971604312724 0 0.0030153730818063178 0.0028062060928494832 0 0.0021714528266062916 0.0036556928428177191 0 0.0014901270805167156 0.0010724925686823581 0 0.0039644174428433727 0.00025267633974352565 0 0.0010484135591412595 0.0044230096372484583 0 0.0014693987787408806 0.0046111207168428739 0 0.0013242768840997265 0.0047919663211816593 0 0.0010484135591412595 0.0044230096372484583 0 0.0014901270805167156 0.0010724925686823581 0 0.0039644174428433727 0.00025267633974352565 0 0.0030973770453424261 -0.0018294371384926828 0 0.0014901270805167156 0.0010724925686823581 0 0.0030973770453424261 -0.0018294371384926828 0 0.00091429219442735359 -0.0018471726072198495 0 0.0039644174428433727 0.00025267633974352565 0 0.0030973770453424261 -0.0018294371384926828 0 0.005697429975377988 -0.0026792533782598739 0 0.0030153730818063178 0.0028062060928494832 0 0.0044862453249614586 0.0017015865651536244 0 0.0030973770453424261 -0.0018294371384926828 0 0.0023975522668929048 -0.0039153569726521628 0 0.005697429975377988 -0.0026792533782598739 0 0.0030973770453424261 -0.0018294371384926828 0 0.0023975522668929048 -0.0039153569726521628 0 0.00091429219442735359 -0.0018471726072198495 0 0.0023975522668929048 -0.0039153569726521628 0 0.00091429219442735359 -0.0018471726072198495 0 0.00053233643777733967 -0.0034225706780998512 0 0.0023975522668929048 -0.0039153569726521628 0 0.00066774485030565527 -0.0051581180248497088 0 0.0018477752287574748 -0.0062634080234740246 0 0.0023975522668929048 -0.0039153569726521628 0 0.0040571544497068051 -0.0056392086105042302 0 0.0018477752287574748 -0.0062634080234740246 0 0.0023975522668929048 -0.0039153569726521628 0 0.00053233643777733967 -0.0034225706780998512 0 0.00066774485030565527 -0.0051581180248497088 0 0.0023975522668929048 -0.0039153569726521628 0 0.0040571544497068051 -0.0056392086105042302 0 0.005697429975377988 -0.0026792533782598739 0 0.0056058460867604871 -0.019023211768123854 0 0.0024875312522678683 -0.017278623837084714 0 0.00039000783874917953 -0.019860535426891455 0 -0.0013280938526203799 -0.0019028604560907948 0 -0.0010246538300123535 -0.0021743136145092514 0 -0.00093423786171344949 -0.0052223812618665899 0 -0.00062421653800042104 -0.0012305212259441445 0 -0.0011910233551155444 -0.0018318301717646858 0 -0.0010246538300123535 -0.0021743136145092514 0 0.0011063606829573849 -0.017694695213196495 0 0.0010099550240002951 -0.017561524784907009 0 -0.00062421653800042104 -0.0012305212259441445 0 -0.00013658919809810617 -0.0023419935743684496 0 0.00091429219442735359 -0.0018471726072198495 0 -0.00062421653800042104 -0.0012305212259441445 0 -0.0010246538300123535 -0.0021743136145092514 0 -0.00013658919809810617 -0.0023419935743684496 0 -0.00013658919809810617 -0.0023419935743684496 0 0.00091429219442735359 -0.0018471726072198495 0 0.00053233643777733967 -0.0034225706780998512 0 -0.0010246538300123535 -0.0021743136145092514 0 -0.00013658919809810617 -0.0023419935743684496 0 -0.00025470302032132801 -0.0030386440968388534 0 -0.0010246538300123535 -0.0021743136145092514 0 -0.00025470302032132801 -0.0030386440968388534 0 -0.00029849966013113723 -0.0040193386909021193 0 -0.00013658919809810617 -0.0023419935743684496 0 -0.00025470302032132801 -0.0030386440968388534 0 0.00053233643777733967 -0.0034225706780998512 0 -0.0010246538300123535 -0.0021743136145092514 0 -0.00029849966013113723 -0.0040193386909021193 0 -0.00093423786171344949 -0.0052223812618665899 0 -0.00025470302032132801 -0.0030386440968388534 0 -0.00029849966013113723 -0.0040193386909021193 0 0.00053233643777733967 -0.0034225706780998512 0 -0.00029849966013113723 -0.0040193386909021193 0 0.00053233643777733967 -0.0034225706780998512 0 0.00066774485030565527 -0.0051581180248497088 0 -0.00029849966013113723 -0.0040193386909021193 0 0.00066774485030565527 -0.0051581180248497088 0 -0.00093423786171344949 -0.0052223812618665899 0 0.0011063606829573849 -0.017694695213196495 0 0.0001474470278807597 -0.011407417712330078 0 0.0024875312522678683 -0.017278623837084714 0 0.00039000783874917953 -0.019860535426891455 0 -0.00012690193199562972 -0.013644436020797688 0 0.0024875312522678683 -0.017278623837084714 0 -0.00012690193199562972 -0.013644436020797688 0 0.0029041516175979257 -0.014414852874235034 0 -0.00012690193199562972 -0.013644436020797688 0 0.0029041516175979257 -0.014414852874235034 0 0.0019199694339509339 -0.011312034232592097 0 0.0029041516175979257 -0.014414852874235034 0 0.0019199694339509339 -0.011312034232592097 0 0.0039402216489126968 -0.011573750430693121 0 -0.00012690193199562972 -0.013644436020797688 0 0.0019199694339509339 -0.011312034232592097 0 9.874386626887243e-05 -0.0084956181077610292 0 0.0019199694339509339 -0.011312034232592097 0 0.0019964611362390892 -0.0093940637031639709 0 0.0031656189964774858 -0.010086204075710599 0 -0.00093423786171344949 -0.0052223812618665899 0 0.00063199994420035837 -0.0068209352850460894 0 9.874386626887243e-05 -0.0084956181077610292 0 0.0001474470278807597 -0.011407417712330078 0 -2.2943897964677273e-05 -0.0099755435102028486 0 0.00063199994420035837 -0.0068209352850460894 0 0.0010371972808301058 -0.0082769666606024635 0 0.0018477752287574748 -0.0062634080234740246 0 0.00066774485030565527 -0.0051581180248497088 0 -0.00093423786171344949 -0.0052223812618665899 0 0.00063199994420035837 -0.0068209352850460894 0 0.00066774485030565527 -0.0051581180248497088 0 0.00063199994420035837 -0.0068209352850460894 0 0.0018477752287574748 -0.0062634080234740246 0 0.0010371972808301058 -0.0082769666606024635 0 0.0022304564192703901 -0.0086944478764882285 0 0.00033841365440171535 -0.0082970525396609072 0 0.00063199994420035837 -0.0068209352850460894 0 9.874386626887243e-05 -0.0084956181077610292 0 0.0010371972808301058 -0.0082769666606024635 0 0.0010371972808301058 -0.0082769666606024635 0 0.00039385910944285808 -0.0083811248784971017 0 0.00033841365440171535 -0.0082970525396609072 0 9.874386626887243e-05 -0.0084956181077610292 0 0.0010371972808301058 -0.0082769666606024635 0 0.00039385910944285808 -0.0083811248784971017 0 0.00039385910944285808 -0.0083811248784971017 0 0.0014102908663308953 -0.0080930841972205302 0 0.00033841365440171535 -0.0082970525396609072 0 9.874386626887243e-05 -0.0084956181077610292 0 0.00039385910944285808 -0.0083811248784971017 0 0.0014102908663308953 -0.0080930841972205302 0 9.874386626887243e-05 -0.0084956181077610292 0 0.0014102908663308953 -0.0080930841972205302 0 0.0019964611362390892 -0.0093940637031639709 0 0.0014102908663308953 -0.0080930841972205302 0 0.0026285828094675576 -0.0086625977922665416 0 0.0019964611362390892 -0.0093940637031639709 0 0.0014102908663308953 -0.0080930841972205302 0 0.0026285828094675576 -0.0086625977922665416 0 0.0022695695428932984 -0.0077790506805404383 0 0.0026285828094675576 -0.0086625977922665416 0 0.0019964611362390892 -0.0093940637031639709 0 0.0031656189964774858 -0.010086204075710599 0 0.0019199694339509339 -0.011312034232592097 0 9.874386626887243e-05 -0.0084956181077610292 0 0.0019964611362390892 -0.0093940637031639709 0 0.0040571544497068051 -0.0056392086105042302 0 0.0029217404928448387 -0.0072205919217394002 0 0.0047492229878929046 -0.0078564850575306017 0 0.0040571544497068051 -0.0056392086105042302 0 0.0018477752287574748 -0.0062634080234740246 0 0.0029217404928448387 -0.0072205919217394002 0 0.0010371972808301058 -0.0082769666606024635 0 0.0029217404928448387 -0.0072205919217394002 0 0.0022304564192703901 -0.0086944478764882285 0 0.0010371972808301058 -0.0082769666606024635 0 0.0018477752287574748 -0.0062634080234740246 0 0.0029217404928448387 -0.0072205919217394002 0 0.0029217404928448387 -0.0072205919217394002 0 0.0022304564192703901 -0.0086944478764882285 0 0.0047492229878929046 -0.0078564850575306017 0 0.0034481450007103048 -0.0084010890477914605 0 0.0047492229878929046 -0.0078564850575306017 0 0.0042892234852837767 -0.008888977246086182 0 0.0049084031053555797 -0.015438134052982706 0 0.0052119921897755871 -0.014185969883428785 0 0.0047492229878929046 -0.0078564850575306017 0 0.0042892234852837767 -0.008888977246086182 0 0.0052890466416315538 -0.0094901037794020981 0 0.0042892234852837767 -0.008888977246086182 0 0.0043362346552710141 -0.0097765458050866425 0 0.0052890466416315538 -0.0094901037794020981 0 0.0042892234852837767 -0.008888977246086182 0 0.0035259117815471292 -0.0094146368882062348 0 0.0043362346552710141 -0.0097765458050866425 0 0.0049084031053555797 -0.015438134052982706 0 0.004923597866695056 -0.019337919421039972 0 0.0034481450007103048 -0.0084010890477914605 0 0.0042892234852837767 -0.008888977246086182 0 0.0035259117815471292 -0.0094146368882062348 0 0.0034481450007103048 -0.0084010890477914605 0 0.0035259117815471292 -0.0094146368882062348 0 0.0025619214563208171 -0.0091814646188641599 0 0.0035259117815471292 -0.0094146368882062348 0 0.0028976587890257024 -0.0096345294790364817 0 0.0025619214563208171 -0.0091814646188641599 0 0.0035259117815471292 -0.0094146368882062348 0 0.0028976587890257024 -0.0096345294790364817 0 0.0029897409812819865 -0.010127466570971955 0 0.0028976587890257024 -0.0096345294790364817 0 0.0029897409812819865 -0.010127466570971955 0 0.0025152398679223861 -0.0098209574297606645 0 0.0030911721536333267 -0.010971579795647205 0 0.0029897409812819865 -0.010127466570971955 0 0.0038202311435001487 -0.010503963065155048 0 0.0030911721536333267 -0.010971579795647205 0 0.0029897409812819865 -0.010127466570971955 0 0.0024100265763008157 -0.010335972608986617 0 0.0035259117815471292 -0.0094146368882062348 0 0.0029897409812819865 -0.010127466570971955 0 0.0038202311435001487 -0.010503963065155048 0 0.0035259117815471292 -0.0094146368882062348 0 0.0038202311435001487 -0.010503963065155048 0 0.0043362346552710141 -0.0097765458050866425 0 0.0038202311435001487 -0.010503963065155048 0 0.0043362346552710141 -0.0097765458050866425 0 0.0047927148369131881 -0.010583017831172868 0 0.0043362346552710141 -0.0097765458050866425 0 0.0047927148369131881 -0.010583017831172868 0 0.0052890466416315538 -0.0094901037794020981 0 0.0014102908663308953 -0.0080930841972205302 0 0.0021402852729288735 -0.0069269190456968301 0 0.00033841365440171535 -0.0082970525396609072 0 0.00091258945805712988 -0.0096587881016888047 0 0.00070436946640454166 -0.0094197602620196882 0 0.0020707165080309383 -0.0089117445782294878 0 0.0058429841939289118 -0.02723640080769598 0 0.004923597866695056 -0.019337919421039972 0 0.0099050069041044138 -0.028498457287350381 0 0.004686426954543489 -0.029658050356934394 0 0.0058831489945456849 -0.023769594452776155 0 0.0049886539765548422 -0.025680724981911231 0 0.0060726575001968505 -0.027395993776110423 0 0.0060726575001968505 -0.027395993776110423 0 0.0064578120192306104 -0.028519783241155169 0 0.004686426954543489 -0.029658050356934394 0 0.0058831489945456849 -0.023769594452776155 0 0.002666204314505087 -0.024747912926193324 0 0.0058429841939289118 -0.02723640080769598 0 0.0064578120192306104 -0.028519783241155169 0 0.0049886539765548422 -0.025680724981911231 0 0.0058429841939289118 -0.02723640080769598 0 0.0021402852729288735 -0.0069269190456968301 0 0.0022695695428932984 -0.0077790506805404383 0 0.0029253473573341098 -0.0075142878003744704 0 0.0014102908663308953 -0.0080930841972205302 0 0.0021402852729288735 -0.0069269190456968301 0 0.0022695695428932984 -0.0077790506805404383 0 0.0034481450007103048 -0.0084010890477914605 0 0.0020707165080309383 -0.0089117445782294878 0 0.0025619214563208171 -0.0091814646188641599 0 0.00091258945805712988 -0.0096587881016888047 0 0.0020707165080309383 -0.0089117445782294878 0 0.0025619214563208171 -0.0091814646188641599 0 0.00088121111536148037 -0.0095938345882947852 0 0.0025619214563208171 -0.0091814646188641599 0 0.0018322879255228321 -0.0099005950861098084 0 0.0049886539765548422 -0.025680724981911231 0 0.0045988077587308654 -0.022273480510715506 0 0.0028976587890257024 -0.0096345294790364817 0 0.0025619214563208171 -0.0091814646188641599 0 0.0025152398679223861 -0.0098209574297606645 0 0.0025619214563208171 -0.0091814646188641599 0 0.0018322879255228321 -0.0099005950861098084 0 0.0025152398679223861 -0.0098209574297606645 0 0.0029897409812819865 -0.010127466570971955 0 0.0025152398679223861 -0.0098209574297606645 0 0.0024100265763008157 -0.010335972608986617 0 0.0018322879255228321 -0.0099005950861098084 0 0.0025152398679223861 -0.0098209574297606645 0 0.0024100265763008157 -0.010335972608986617 0 0.0019939771741958614 -0.010897008929505896 0 0.0030911721536333267 -0.010971579795647205 0 0.0024100265763008157 -0.010335972608986617 0 0.0019939771741958614 -0.010897008929505896 0 0.0018322879255228321 -0.0099005950861098084 0 0.0024100265763008157 -0.010335972608986617 0 0.0019939771741958614 -0.010897008929505896 0 0.00088121111536148037 -0.0095938345882947852 0 0.0018322879255228321 -0.0099005950861098084 0 0.001967185594624523 -0.016770380418035288 0 0.0049886539765548422 -0.025680724981911231 0 0.0041852818225718092 -0.013939859157106898 0 0.0039630637400381724 -0.013978454977327111 0 0.0043091544006915007 -0.014477343571250639 0 0.0061512224191428207 -0.030680676919168856 0 0.003290938984059715 -0.030297489829014548 0 0.0045978778930148021 -0.03345919898030885 0 0.0042026209428977406 -0.022982352826109668 0 0.0060726575001968505 -0.027395993776110423 0 0.0041852818225718092 -0.013939859157106898 0 0.0043091544006915007 -0.014477343571250639 0 0.0044044844320017549 -0.014460298247774842 0 0.0061512224191428207 -0.030680676919168856 0 0.0045978778930148021 -0.03345919898030885 0 0.0080714582564097494 -0.032704238357351034 0 0.0060726575001968505 -0.027395993776110423 0 0.0086576242929093852 -0.040212911899944595 0 0.0086813302105373837 -0.033858854882396518 0 0.0068218974564039732 -0.034102408678228453 0 0.006737002283810749 -0.03431825377613603 0 0.0089570335628120397 -0.030487641419120411 0 0.0061512224191428207 -0.030680676919168856 0 0.0080714582564097494 -0.032704238357351034 0 0.0077791526072030362 -0.040995661347548229 0 0.0086576242929093852 -0.040212911899944595 0 0.0068321813271251504 -0.045741095200728665 0 0.0061624894369993145 -0.042606904593392309 0 0.00539583740533246 -0.043970943558651887 0 0.0068321813271251504 -0.045741095200728665 0 0.0082713129645964143 -0.042136497957072881 0 0.0061624894369993145 -0.042606904593392309 0 0.0077791526072030362 -0.040995661347548229 0 0.0093620249399485947 -0.046237821674106686 0 0.0088203981098985123 -0.040122652008881994 0 0.0086576242929093852 -0.040212911899944595 0 0.0086576242929093852 -0.040212911899944595 0 0.009396404344652623 -0.045601578982372708 0 0.0088203981098985123 -0.040122652008881994 0 0.0093551191838001282 -0.045560328256113905 0 0.0092954495788453682 -0.043259494568701852 0 0.0090491609959456095 -0.043265154099603097 0 0.0090158408374422933 -0.043324899523533598 0 0.0093281798859112756 -0.043176994569816995 0 0.0092954495788453682 -0.043259494568701852 0 0.0090491609959456095 -0.043265154099603097 0 0.0093551191838001282 -0.045560328256113905 0 0.009396404344652623 -0.045601578982372708 0 0.0088203981098985123 -0.040122652008881994 0 0.010052359339643706 -0.038127912941117933 0 0.010677996775798341 -0.044000314803092785 0 0.010556232445969762 -0.041972321694010981 0 0.012324439240646311 -0.03990051548826757 0 0.019314272950212569 -0.072308760851133164 0 0.020674283002337455 -0.069962444618373323 0 0.019032187880845961 -0.069987610926597194 0 0.0093551191838001282 -0.045560328256113905 0 0.009999571992628721 -0.046366814536882323 0 0.010677996775798341 -0.044000314803092785 0 0.0091494395514055016 -0.044464883000462398 0 0.010556232445969762 -0.041972321694010981 0 0.020674283002337455 -0.069962444618373323 0 0.019098779770967047 -0.068423725624884732 0 0.019032187880845961 -0.069987610926597194 0 0.0088203981098985123 -0.040122652008881994 0 0.0064578120192306104 -0.028519783241155169 0 0.0086813302105373837 -0.033858854882396518 0 0.0068218974564039732 -0.034102408678228453 0 0.0085542818947822695 -0.0335503748661901 0 0.0088850695526165174 -0.035685218320824837 0 0.011728836834106358 -0.034809330389441111 0 0.011340164705107687 -0.033860482066418715 0 0.0088850695526165174 -0.035685218320824837 0 0.011340164705107687 -0.033860482066418715 0 0.010165999684541474 -0.032480538807420592 0 0.0080107825481208483 -0.028170479133395859 0 0.007653725486591558 -0.028279531825950117 0 0.0072347019439076591 -0.027258501469025111 0 0.0064578120192306104 -0.028519783241155169 0 0.0070655866025587663 -0.030080233814150748 0 0.0058429841939289118 -0.02723640080769598 0 0.0070655866025587663 -0.030080233814150748 0 0.0070655866025587663 -0.030080233814150748 0 0.010052359339643706 -0.038127912941117933 0 0.0070655866025587663 -0.030080233814150748 0 0.010363253238241568 -0.035177557573976018 0 0.0026285828094675576 -0.0086625977922665416 0 0.0022695695428932984 -0.0077790506805404383 0 0.0029253473573341098 -0.0075142878003744704 0 0.0026285828094675576 -0.0086625977922665416 0 0.0029253473573341098 -0.0075142878003744704 0 0.0042282943715805672 -0.0095000245367426392 0 0.0026285828094675576 -0.0086625977922665416 0 0.0042282943715805672 -0.0095000245367426392 0 0.0031656189964774858 -0.010086204075710599 0 0.011009593913788222 -0.037418037260177395 0 0.010363253238241568 -0.035177557573976018 0 0.011554176253817839 -0.034825815854709313 0 0.012789144928766016 -0.037834068258512536 0 0.0078489298312552983 -0.041415374398837912 0 0.010363253238241568 -0.035177557573976018 0 0.010052359339643706 -0.038127912941117933 0 0.012789144928766016 -0.037834068258512536 0 0.0078489298312552983 -0.041415374398837912 0 0.010236979631239715 -0.044225672492813048 0 0.011009593913788222 -0.037418037260177395 0 0.011489690815904305 -0.041465562615032384 0 0.0082576855802028708 -0.032810598336586713 0 0.010308725580409675 -0.037755144746039304 0 0.010995757801797242 -0.036018476372048767 0 0.011489690815904305 -0.041465562615032384 0 0.010052359339643706 -0.038127912941117933 0 0.009999571992628721 -0.046366814536882323 0 0.011489690815904305 -0.041465562615032384 0 0.010556232445969762 -0.041972321694010981 0 0.01196590125959221 -0.039477935033776661 0 0.012324439240646311 -0.03990051548826757 0 0.020674283002337455 -0.069962444618373323 0 0.022023101652023869 -0.067583288912966263 0 0.020345609363082284 -0.067823071097025275 0 0.020674283002337455 -0.069962444618373323 0 0.020345609363082284 -0.067823071097025275 0 0.019098779770967047 -0.068423725624884732 0 0.020345609363082284 -0.067823071097025275 0 0.019098779770967047 -0.068423725624884732 0 0.018741330380185765 -0.067207870917997764 0 0.020345609363082284 -0.067823071097025275 0 0.019756141575869249 -0.066414938451290456 0 0.018741330380185765 -0.067207870917997764 0 0.022023101652023869 -0.067583288912966263 0 0.020345609363082284 -0.067823071097025275 0 0.019756141575869249 -0.066414938451290456 0 0.020456886893625004 -0.061505275570975557 0 0.020212157950318364 -0.061920901486130817 0 0.01879006631371365 -0.060402807275468907 0 0.011489690815904305 -0.041465562615032384 0 0.018854412121759461 -0.056633073288983184 0 0.022023101652023869 -0.067583288912966263 0 0.019756141575869249 -0.066414938451290456 0 0.01910066225444576 -0.063986287652760779 0 0.019830736104187303 -0.05972588138607661 0 0.020456886893625004 -0.061505275570975557 0 0.01879006631371365 -0.060402807275468907 0 0.01258274050665106 -0.038151853261698655 0 0.011009593913788222 -0.037418037260177395 0 0.0086534673262623624 -0.014729864890349255 0 0.0061439520127776438 -0.0088552502371407309 0 0.004775507160465005 -0.011259475058524301 0 0.012131220360965214 -0.02815833119435306 0 0.01172525472129562 -0.03141992583012012 0 0.0042282943715805672 -0.0095000245367426392 0 0.0039402216489126968 -0.011573750430693121 0 0.0031656189964774858 -0.010086204075710599 0 0.0019199694339509339 -0.011312034232592097 0 0.0039402216489126968 -0.011573750430693121 0 0.0031656189964774858 -0.010086204075710599 0 0.010363253238241568 -0.035177557573976018 0 0.01172525472129562 -0.03141992583012012 0 0.011009593913788222 -0.037418037260177395 0 0.01172525472129562 -0.03141992583012012 0 0.0091776797570380549 -0.036887599152855152 0 0.0096987968841173531 -0.038160962827113391 0 0.011842689488127611 -0.032163499377154424 0 0.015415442979482736 -0.063922458640023314 0 0.016798802059887732 -0.065506017708531025 0 0.014995121263311185 -0.067512469541066558 0 0.015415442979482736 -0.063922458640023314 0 0.012690653823224384 -0.06675976148250419 0 0.012666755109885169 -0.061682228897606259 0 0.015415442979482736 -0.063922458640023314 0 0.014995121263311185 -0.067512469541066558 0 0.012690653823224384 -0.06675976148250419 0 0.015415442979482736 -0.063922458640023314 0 0.01910066225444576 -0.063986287652760779 0 0.016798802059887732 -0.065506017708531025 0 0.01910066225444576 -0.063986287652760779 0 0.018368659035570563 -0.065695326686670247 0 0.016798802059887732 -0.065506017708531025 0 0.019756141575869249 -0.066414938451290456 0 0.018368659035570563 -0.065695326686670247 0 0.018741330380185765 -0.067207870917997764 0 0.019756141575869249 -0.066414938451290456 0 0.01910066225444576 -0.063986287652760779 0 0.018368659035570563 -0.065695326686670247 0 0.018368659035570563 -0.065695326686670247 0 0.016798802059887732 -0.065506017708531025 0 0.017086194668039213 -0.067219626375677605 0 0.017086194668039213 -0.067219626375677605 0 0.018741330380185765 -0.067207870917997764 0 0.017982018961445023 -0.068148678248151059 0 0.018368659035570563 -0.065695326686670247 0 0.017086194668039213 -0.067219626375677605 0 0.018741330380185765 -0.067207870917997764 0 0.019098779770967047 -0.068423725624884732 0 0.018741330380185765 -0.067207870917997764 0 0.017982018961445023 -0.068148678248151059 0 0.019098779770967047 -0.068423725624884732 0 0.017982018961445023 -0.068148678248151059 0 0.01801054401032955 -0.069150109776083366 0 0.017086194668039213 -0.067219626375677605 0 0.016960056077742702 -0.068758592915092662 0 0.016043465377335749 -0.068263585171230962 0 0.017086194668039213 -0.067219626375677605 0 0.017982018961445023 -0.068148678248151059 0 0.016960056077742702 -0.068758592915092662 0 0.017982018961445023 -0.068148678248151059 0 0.016960056077742702 -0.068758592915092662 0 0.01801054401032955 -0.069150109776083366 0 0.016960056077742702 -0.068758592915092662 0 0.016297522650029355 -0.069122485089312916 0 0.016043465377335749 -0.068263585171230962 0 0.015233350760695409 -0.062676446129971961 0 0.013894094876687276 -0.06423844804827504 0 0.016043465377335749 -0.068263585171230962 0 0.014995121263311185 -0.067512469541066558 0 0.015440523272187296 -0.069733564887886831 0 0.013249230949509652 -0.069656757421470747 0 0.011379054326783553 -0.069429882387620517 0 0.011548478899049575 -0.066918795009285131 0 0.014995121263311185 -0.067512469541066558 0 0.015440523272187296 -0.069733564887886831 0 0.012690653823224384 -0.06675976148250419 0 0.016297522650029355 -0.069122485089312916 0 0.016043465377335749 -0.068263585171230962 0 0.015440523272187296 -0.069733564887886831 0 0.016798802059887732 -0.065506017708531025 0 0.017086194668039213 -0.067219626375677605 0 0.014995121263311185 -0.067512469541066558 0 0.017086194668039213 -0.067219626375677605 0 0.016043465377335749 -0.068263585171230962 0 0.014995121263311185 -0.067512469541066558 0 0.013099011850700636 -0.069971537282283017 0 0.013432809172734006 -0.070304600622804567 0 0.013502619348388659 -0.070749851293331306 0 0.013249230949509652 -0.069656757421470747 0 0.013099011850700636 -0.069971537282283017 0 0.011379054326783553 -0.069429882387620517 0 0.013099011850700636 -0.069971537282283017 0 0.011566958815290128 -0.070326835431193016 0 0.011379054326783553 -0.069429882387620517 0 0.016297522650029355 -0.069122485089312916 0 0.015440523272187296 -0.069733564887886831 0 0.016810621887202115 -0.069850075374087411 0 0.013249230949509652 -0.069656757421470747 0 0.013099011850700636 -0.069971537282283017 0 0.013432809172734006 -0.070304600622804567 0 0.013099011850700636 -0.069971537282283017 0 0.012610232806140756 -0.070733807566022072 0 0.013257245834805788 -0.071253846538875579 0 0.013099011850700636 -0.069971537282283017 0 0.012610232806140756 -0.070733807566022072 0 0.011566958815290128 -0.070326835431193016 0 0.012610232806140756 -0.070733807566022072 0 0.012725979306359138 -0.071230114602572683 0 0.013257245834805788 -0.071253846538875579 0 0.012610232806140756 -0.070733807566022072 0 0.011878683049562815 -0.071217878614669716 0 0.011566958815290128 -0.070326835431193016 0 0.012610232806140756 -0.070733807566022072 0 0.012725979306359138 -0.071230114602572683 0 0.011878683049562815 -0.071217878614669716 0 0.013249230949509652 -0.069656757421470747 0 0.013432809172734006 -0.070304600622804567 0 0.013950460045393454 -0.070688455333020567 0 0.015233350760695409 -0.062676446129971961 0 0.010445500668124823 -0.049205208545322669 0 0.015440523272187296 -0.069733564887886831 0 0.017285541969839283 -0.070754262590344535 0 0.018063611197725277 -0.072841978290039577 0 0.019098779770967047 -0.068423725624884732 0 0.019032187880845961 -0.069987610926597194 0 0.01801054401032955 -0.069150109776083366 0 0.019032187880845961 -0.069987610926597194 0 0.01801054401032955 -0.069150109776083366 0 0.017934586568695527 -0.070230091449566892 0 0.015440523272187296 -0.069733564887886831 0 0.016810621887202115 -0.069850075374087411 0 0.017285541969839283 -0.070754262590344535 0 0.017934586568695527 -0.070230091449566892 0 0.016810621887202115 -0.069850075374087411 0 0.017285541969839283 -0.070754262590344535 0 0.016960056077742702 -0.068758592915092662 0 0.01801054401032955 -0.069150109776083366 0 0.016810621887202115 -0.069850075374087411 0 0.01801054401032955 -0.069150109776083366 0 0.017934586568695527 -0.070230091449566892 0 0.016810621887202115 -0.069850075374087411 0 0.016960056077742702 -0.068758592915092662 0 0.016297522650029355 -0.069122485089312916 0 0.016810621887202115 -0.069850075374087411 0 0.019314272950212569 -0.072308760851133164 0 0.019032187880845961 -0.069987610926597194 0 0.018289967711250823 -0.071238307994050787 0 0.017285541969839283 -0.070754262590344535 0 0.018289967711250823 -0.071238307994050787 0 0.018063611197725277 -0.072841978290039577 0 0.017934586568695527 -0.070230091449566892 0 0.017285541969839283 -0.070754262590344535 0 0.018289967711250823 -0.071238307994050787 0 0.019032187880845961 -0.069987610926597194 0 0.017934586568695527 -0.070230091449566892 0 0.018289967711250823 -0.071238307994050787 0 0.019314272950212569 -0.072308760851133164 0 0.018289967711250823 -0.071238307994050787 0 0.018063611197725277 -0.072841978290039577 0 0.010417355611237739 -0.047858638890928069 0 0.010356206050871973 -0.047968646003182888 0 0.0099695777961989213 -0.048057686835234155 0 0.0093551191838001282 -0.045560328256113905 0 0.010445500668124823 -0.049205208545322669 0 0.009396404344652623 -0.045601578982372708 0 0.010445500668124823 -0.049205208545322669 0 0.009737216688110565 -0.046433330432235673 0 0.0048416281635784578 -0.047522401708494505 0 0.0073737024950946348 -0.050643047482479796 0 0.013432809172734006 -0.070304600622804567 0 0.013950460045393454 -0.070688455333020567 0 0.013601880918526568 -0.070577321410209989 0 0.013432809172734006 -0.070304600622804567 0 0.013601880918526568 -0.070577321410209989 0 0.013502619348388659 -0.070749851293331306 0 0.013950460045393454 -0.070688455333020567 0 0.013689416115016265 -0.070686743678844782 0 0.013601880918526568 -0.070577321410209989 0 0.010445500668124823 -0.049205208545322669 0 0.010510421672998397 -0.049462053181577877 0 0.013689416115016265 -0.070686743678844782 0 0.013601880918526568 -0.070577321410209989 0 0.013502619348388659 -0.070749851293331306 0 0.010445500668124823 -0.049205208545322669 0 0.01144089660405018 -0.054750499214340817 0 0.0088448973294849974 -0.048139403180299002 0 0.0068460008810103815 -0.048587490958278114 0 0.0095271286115059216 -0.048980211297521031 0 0.0080498039551180744 -0.051601842518068611 0 0.0068460008810103815 -0.048587490958278114 0 0.0095271286115059216 -0.048980211297521031 0 0.013925577945417638 -0.070652541094654839 0 0.013689416115016265 -0.070686743678844782 0 0.013502619348388659 -0.070749851293331306 0 0.010445500668124823 -0.049205208545322669 0 0.0093620249399485947 -0.046237821674106686 0 0.009396404344652623 -0.045601578982372708 0 0.0093620249399485947 -0.046237821674106686 0 0.013099011850700636 -0.069971537282283017 0 0.013988647757558951 -0.072386622951575538 0 0.013257245834805788 -0.071253846538875579 0 0.013302546974047237 -0.060860416432697538 0 0.01144089660405018 -0.054750499214340817 0 0.012585957905612745 -0.071736013837260942 0 0.012874662441867067 -0.072151918909039658 0 0.011822149212159357 -0.072159141756166667 0 0.012585957905612745 -0.071736013837260942 0 0.012874662441867067 -0.072151918909039658 0 0.013023668486330343 -0.07183207821630333 0 0.012585957905612745 -0.071736013837260942 0 0.012994446686361686 -0.071510979633979566 0 0.013023668486330343 -0.07183207821630333 0 0.012585957905612745 -0.071736013837260942 0 0.011822149212159357 -0.072159141756166667 0 0.011878683049562815 -0.071217878614669716 0 0.012585957905612745 -0.071736013837260942 0 0.012725979306359138 -0.071230114602572683 0 0.011878683049562815 -0.071217878614669716 0 0.012585957905612745 -0.071736013837260942 0 0.012725979306359138 -0.071230114602572683 0 0.012994446686361686 -0.071510979633979566 0 0.013257245834805788 -0.071253846538875579 0 0.013251206991505051 -0.071670218927281454 0 0.013595647575845837 -0.072057863211072368 0 0.013988647757558951 -0.072386622951575538 0 0.013257245834805788 -0.071253846538875579 0 0.013595647575845837 -0.072057863211072368 0 0.012725979306359138 -0.071230114602572683 0 0.013257245834805788 -0.071253846538875579 0 0.012994446686361686 -0.071510979633979566 0 0.013257245834805788 -0.071253846538875579 0 0.013251206991505051 -0.071670218927281454 0 0.012994446686361686 -0.071510979633979566 0 0.013251206991505051 -0.071670218927281454 0 0.012994446686361686 -0.071510979633979566 0 0.013023668486330343 -0.07183207821630333 0 0.013251206991505051 -0.071670218927281454 0 0.013023668486330343 -0.07183207821630333 0 0.013272164362611361 -0.071897297644215791 0 0.013251206991505051 -0.071670218927281454 0 0.013595647575845837 -0.072057863211072368 0 0.013272164362611361 -0.071897297644215791 0 0.013595647575845837 -0.072057863211072368 0 0.013272164362611361 -0.071897297644215791 0 0.013247952151911548 -0.072215481137126933 0 0.012874662441867067 -0.072151918909039658 0 0.013272164362611361 -0.071897297644215791 0 0.013247952151911548 -0.072215481137126933 0 0.012874662441867067 -0.072151918909039658 0 0.013023668486330343 -0.07183207821630333 0 0.013272164362611361 -0.071897297644215791 0 0.0093716244651705482 -0.052877438876991242 0 0.0093367858866136751 -0.05313434479884812 0 0.009493581365184833 -0.053101037992280005 0 0.012874662441867067 -0.072151918909039658 0 0.013247952151911548 -0.072215481137126933 0 0.013153836083612581 -0.072560060072850055 0 0.013595647575845837 -0.072057863211072368 0 0.013247952151911548 -0.072215481137126933 0 0.013153836083612581 -0.072560060072850055 0 0.01144089660405018 -0.054750499214340817 0 0.012053514714380587 -0.057030098791895446 0 0.013988647757558951 -0.072386622951575538 0 0.013595647575845837 -0.072057863211072368 0 0.013153836083612581 -0.072560060072850055 0 0.012053514714380587 -0.057030098791895446 0 0.011492281152010604 -0.058158336062765471 0 0.011382245951647503 -0.073686433824824357 0 0.012605793488838784 -0.072605507802464053 0 0.011451757337462967 -0.072840723997969911 0 0.013153836083612581 -0.072560060072850055 0 0.011451757337462967 -0.072840723997969911 0 0.011822149212159357 -0.072159141756166667 0 0.012874662441867067 -0.072151918909039658 0 0.013153836083612581 -0.072560060072850055 0 0.011822149212159357 -0.072159141756166667 0 0.011451757337462967 -0.072840723997969911 0 0.011822149212159357 -0.072159141756166667 0 0.0097709771784086942 -0.071102646171225567 0 0.011720548401460678 -0.070957470412681106 0 0.011385819800302359 -0.07126784994934042 0 0.009575206566246797 -0.074713119366033448 0 0.010865134083355071 -0.074573527737609668 0 0.0097709771784086942 -0.071102646171225567 0 0.011382245951647503 -0.073686433824824357 0 0.011451757337462967 -0.072840723997969911 0 0.0097709771784086942 -0.071102646171225567 0 0.011822149212159357 -0.072159141756166667 0 0.011878683049562815 -0.071217878614669716 0 0.0097709771784086942 -0.071102646171225567 0 0.011566958815290128 -0.070326835431193016 0 0.0097709771784086942 -0.071102646171225567 0 0.011379054326783553 -0.069429882387620517 0 0.011878683049562815 -0.071217878614669716 0 0.011566958815290128 -0.070326835431193016 0 0.0097709771784086942 -0.071102646171225567 0 0.0097709771784086942 -0.071102646171225567 0 0.011379054326783553 -0.069429882387620517 0 0.0086765959492099594 -0.068765710439309499 0 0.0097709771784086942 -0.071102646171225567 0 0.0061806780429743483 -0.071604995909465854 0 0.0086765959492099594 -0.068765710439309499 0 0.0097709771784086942 -0.071102646171225567 0 0.0078378930907790686 -0.073121872956590173 0 0.0061806780429743483 -0.071604995909465854 0 0.009575206566246797 -0.074713119366033448 0 0.0097709771784086942 -0.071102646171225567 0 0.0078378930907790686 -0.073121872956590173 0 0.0058495413994397562 -0.074966440659776049 0 0.0078378930907790686 -0.073121872956590173 0 0.0061806780429743483 -0.071604995909465854 0 0.0058495413994397562 -0.074966440659776049 0 0.0032118252337098442 -0.072470275948884832 0 0.0061806780429743483 -0.071604995909465854 0 0.0032118252337098442 -0.072470275948884832 0 0.0036082261149141658 -0.070114900683249604 0 0.0061806780429743483 -0.071604995909465854 0 0.0036082261149141658 -0.070114900683249604 0 0.0061806780429743483 -0.071604995909465854 0 0.0055757490804369059 -0.068048342863351957 0 0.0061806780429743483 -0.071604995909465854 0 0.0055757490804369059 -0.068048342863351957 0 0.0086765959492099594 -0.068765710439309499 0 0.0036082261149141658 -0.070114900683249604 0 0.0055757490804369059 -0.068048342863351957 0 0.0027229535532313715 -0.067455723424560604 0 0.0055757490804369059 -0.068048342863351957 0 0.0027229535532313715 -0.067455723424560604 0 0.0056521528195545784 -0.064123551445571053 0 0.0027229535532313715 -0.067455723424560604 0 0.001547606128000429 -0.063608476845720976 0 0.0056521528195545784 -0.064123551445571053 0 0.0055757490804369059 -0.068048342863351957 0 0.00827086492361216 -0.0663381387353493 0 0.0056521528195545784 -0.064123551445571053 0 0.00827086492361216 -0.0663381387353493 0 0.0096328005758514607 -0.063587016205127925 0 0.0056521528195545784 -0.064123551445571053 0 0.00827086492361216 -0.0663381387353493 0 0.011548478899049575 -0.066918795009285131 0 0.0096328005758514607 -0.063587016205127925 0 0.013894094876687276 -0.06423844804827504 0 0.012713734619721388 -0.063690490234907846 0 0.012690653823224384 -0.06675976148250419 0 0.012666755109885169 -0.061682228897606259 0 0.0096328005758514607 -0.063587016205127925 0 0.011379054326783553 -0.069429882387620517 0 0.011548478899049575 -0.066918795009285131 0 0.0086765959492099594 -0.068765710439309499 0 0.00827086492361216 -0.0663381387353493 0 0.011548478899049575 -0.066918795009285131 0 0.0086765959492099594 -0.068765710439309499 0 0.0055757490804369059 -0.068048342863351957 0 0.00827086492361216 -0.0663381387353493 0 0.0086765959492099594 -0.068765710439309499 0 -0.0050564612740110777 -0.07202050052741632 0 -0.0039965250682832435 -0.074620993413564762 0 -0.0025477803270886413 -0.073045084948687181 0 -0.0055699712075070445 -0.074901256070191033 0 -0.0050564612740110777 -0.07202050052741632 0 -0.0039965250682832435 -0.074620993413564762 0 -0.0043958318907438123 -0.075936221429693251 0 -0.0055699712075070445 -0.074901256070191033 0 -0.0039965250682832435 -0.074620993413564762 0 -0.003074647732228218 -0.075357023030321754 0 -0.0037146760121399515 -0.075619870207299128 0 -0.0039965250682832435 -0.074620993413564762 0 -0.003074647732228218 -0.075357023030321754 0 -0.0039965250682832435 -0.074620993413564762 0 -0.0025477803270886413 -0.073045084948687181 0 -0.003074647732228218 -0.075357023030321754 0 -0.0025477803270886413 -0.073045084948687181 0 -0.0013009314606056035 -0.074590829023784902 0 -0.0050564612740110777 -0.07202050052741632 0 -0.0025477803270886413 -0.073045084948687181 0 -0.0022777590556008437 -0.070351532784379389 0 -0.0025477803270886413 -0.073045084948687181 0 -0.0022777590556008437 -0.070351532784379389 0 0.00094208623473822513 -0.071027471465473876 0 -0.0025477803270886413 -0.073045084948687181 0 -0.0013009314606056035 -0.074590829023784902 0 0.00094208623473822513 -0.071027471465473876 0 -0.0013782693679034726 -0.073228526242495165 0 0.0006506478462281433 -0.073199879072540705 0 0.00094208623473822513 -0.071027471465473876 0 -0.0018223524781485316 -0.074249967921725446 0 -0.00067580784991382828 -0.072940642426653338 0 0.0019549715213664082 -0.075032459113007974 0 0.0032118252337098442 -0.072470275948884832 0 0.0006506478462281433 -0.073199879072540705 0 0.0032118252337098442 -0.072470275948884832 0 0.0006506478462281433 -0.073199879072540705 0 0.00094208623473822513 -0.071027471465473876 0 0.0032118252337098442 -0.072470275948884832 0 0.0036082261149141658 -0.070114900683249604 0 0.00094208623473822513 -0.071027471465473876 0 0.0027229535532313715 -0.067455723424560604 0 0.00094208623473822513 -0.071027471465473876 0 -0.00049429864135530144 -0.067358966167731932 0 0.0036082261149141658 -0.070114900683249604 0 0.0027229535532313715 -0.067455723424560604 0 0.00094208623473822513 -0.071027471465473876 0 0.0027229535532313715 -0.067455723424560604 0 -0.00049429864135530144 -0.067358966167731932 0 0.001547606128000429 -0.063608476845720976 0 -0.00049429864135530144 -0.067358966167731932 0 -0.0020557348675304364 -0.06388540244228734 0 0.001547606128000429 -0.063608476845720976 0 -0.0022777590556008437 -0.070351532784379389 0 0.00094208623473822513 -0.071027471465473876 0 -0.00049429864135530144 -0.067358966167731932 0 -0.0022777590556008437 -0.070351532784379389 0 -0.00049429864135530144 -0.067358966167731932 0 -0.0040208474543183513 -0.068248173839290133 0 -0.0050564612740110777 -0.07202050052741632 0 -0.0022777590556008437 -0.070351532784379389 0 -0.0040208474543183513 -0.068248173839290133 0 -0.00049429864135530144 -0.067358966167731932 0 -0.0040208474543183513 -0.068248173839290133 0 -0.0020557348675304364 -0.06388540244228734 0 -0.007180446711980583 -0.06894823927469601 0 -0.0040208474543183513 -0.068248173839290133 0 -0.0061310185800447928 -0.064187709762679415 0 -0.007180446711980583 -0.06894823927469601 0 -0.0050564612740110777 -0.07202050052741632 0 -0.0040208474543183513 -0.068248173839290133 0 -0.0061310185800447928 -0.064187709762679415 0 -0.0037156567888665167 -0.060632755043607316 0 -0.0063630860707079122 -0.058192669692584464 0 -0.0061310185800447928 -0.064187709762679415 0 -0.0037156567888665167 -0.060632755043607316 0 -0.0020557348675304364 -0.06388540244228734 0 -0.0040208474543183513 -0.068248173839290133 0 -0.0061310185800447928 -0.064187709762679415 0 -0.0020557348675304364 -0.06388540244228734 0 -0.0037156567888665167 -0.060632755043607316 0 -0.0020557348675304364 -0.06388540244228734 0 -0.00020590057379689012 -0.059217511903887479 0 -0.0020557348675304364 -0.06388540244228734 0 0.001547606128000429 -0.063608476845720976 0 -0.00020590057379689012 -0.059217511903887479 0 0.001547606128000429 -0.063608476845720976 0 -0.00020590057379689012 -0.059217511903887479 0 0.0038644507114224103 -0.06020312369789331 0 -0.00020590057379689012 -0.059217511903887479 0 0.0038644507114224103 -0.06020312369789331 0 0.002325137582319605 -0.05600241988789105 0 -0.00020590057379689012 -0.059217511903887479 0 -0.00083442443337863144 -0.052919037512280775 0 0.002325137582319605 -0.05600241988789105 0 -0.00083442443337863144 -0.052919037512280775 0 -0.0027249384685180513 -0.056705349083097614 0 -0.0042871221198861487 -0.05413066031736876 0 -0.00020590057379689012 -0.059217511903887479 0 -0.00083442443337863144 -0.052919037512280775 0 -0.0027249384685180513 -0.056705349083097614 0 -0.0037156567888665167 -0.060632755043607316 0 -0.00020590057379689012 -0.059217511903887479 0 -0.0027249384685180513 -0.056705349083097614 0 -0.0037156567888665167 -0.060632755043607316 0 -0.0027249384685180513 -0.056705349083097614 0 -0.0063630860707079122 -0.058192669692584464 0 -0.0027249384685180513 -0.056705349083097614 0 -0.0042871221198861487 -0.05413066031736876 0 -0.0063630860707079122 -0.058192669692584464 0 -0.0096994954362202759 -0.053476797439728545 0 -0.0042871221198861487 -0.05413066031736876 0 -0.0063630860707079122 -0.058192669692584464 0 0.0082979904017298784 -0.059567485838992143 0 0.012666755109885169 -0.061682228897606259 0 0.012729399424232008 -0.055428939535974359 0 0.0082979904017298784 -0.059567485838992143 0 0.0096328005758514607 -0.063587016205127925 0 0.0056521528195545784 -0.064123551445571053 0 0.0082979904017298784 -0.059567485838992143 0 0.012666755109885169 -0.061682228897606259 0 0.0096328005758514607 -0.063587016205127925 0 0.0082979904017298784 -0.059567485838992143 0 0.0056521528195545784 -0.064123551445571053 0 0.0038644507114224103 -0.06020312369789331 0 0.001547606128000429 -0.063608476845720976 0 0.0056521528195545784 -0.064123551445571053 0 0.0038644507114224103 -0.06020312369789331 0 0.0082979904017298784 -0.059567485838992143 0 0.0038644507114224103 -0.06020312369789331 0 0.0057316773233422906 -0.056716824810267075 0 0.0057316773233422906 -0.056716824810267075 0 0.002325137582319605 -0.05600241988789105 0 0.0036048698626536162 -0.051322546716412419 0 0.0038644507114224103 -0.06020312369789331 0 0.0057316773233422906 -0.056716824810267075 0 0.002325137582319605 -0.05600241988789105 0 -0.00083442443337863144 -0.052919037512280775 0 0.002325137582319605 -0.05600241988789105 0 0.0036048698626536162 -0.051322546716412419 0 0.0036048698626536162 -0.051322546716412419 0 0.0083729943815135863 -0.053488444389516596 0 0.0060564303814974419 -0.048387581925996834 0 0.0057316773233422906 -0.056716824810267075 0 0.0036048698626536162 -0.051322546716412419 0 0.0083729943815135863 -0.053488444389516596 0 0.0083729943815135863 -0.053488444389516596 0 0.012013577111294922 -0.051959626345500193 0 0.0098341884837855453 -0.048955158543159127 0 0.0082979904017298784 -0.059567485838992143 0 0.0083729943815135863 -0.053488444389516596 0 0.012729399424232008 -0.055428939535974359 0 0.0082979904017298784 -0.059567485838992143 0 0.0057316773233422906 -0.056716824810267075 0 0.0083729943815135863 -0.053488444389516596 0 0.015198774288267099 -0.052569255316072733 0 0.012729399424232008 -0.055428939535974359 0 0.012013577111294922 -0.051959626345500193 0 0.0083729943815135863 -0.053488444389516596 0 0.012729399424232008 -0.055428939535974359 0 0.012013577111294922 -0.051959626345500193 0 0.011822750514796844 -0.046000512267747526 0 0.0098341884837855453 -0.048955158543159127 0 0.013980361038985855 -0.04921397489871409 0 0.012013577111294922 -0.051959626345500193 0 0.0098341884837855453 -0.048955158543159127 0 0.013980361038985855 -0.04921397489871409 0 0.011822750514796844 -0.046000512267747526 0 0.011501110723224373 -0.041077975017137093 0 0.016368734190291997 -0.046108365606107926 0 0.011822750514796844 -0.046000512267747526 0 0.0068151417208361246 -0.044211296419048793 0 0.011501110723224373 -0.041077975017137093 0 0.011822750514796844 -0.046000512267747526 0 0.0068151417208361246 -0.044211296419048793 0 0.0098341884837855453 -0.048955158543159127 0 0.0083729943815135863 -0.053488444389516596 0 0.0098341884837855453 -0.048955158543159127 0 0.0060564303814974419 -0.048387581925996834 0 0.0068151417208361246 -0.044211296419048793 0 0.0098341884837855453 -0.048955158543159127 0 0.0060564303814974419 -0.048387581925996834 0 0.0036048698626536162 -0.051322546716412419 0 0.0060564303814974419 -0.048387581925996834 0 0.001829943357760197 -0.044436670620339187 0 0.0036048698626536162 -0.051322546716412419 0 0.001829943357760197 -0.044436670620339187 0 -0.00056087955292877202 -0.046770145058615979 0 0.0068151417208361246 -0.044211296419048793 0 0.001829943357760197 -0.044436670620339187 0 0.0027449049266528918 -0.040533294534391417 0 0.0068151417208361246 -0.044211296419048793 0 0.0060564303814974419 -0.048387581925996834 0 0.001829943357760197 -0.044436670620339187 0 0.0068151417208361246 -0.044211296419048793 0 0.0027449049266528918 -0.040533294534391417 0 0.0031453723989113562 -0.035306775834136751 0 0.001829943357760197 -0.044436670620339187 0 0.0027449049266528918 -0.040533294534391417 0 8.7510994395283422e-05 -0.038800346673949694 0 8.7510994395283422e-05 -0.038800346673949694 0 0.0031453723989113562 -0.035306775834136751 0 5.3796054998377283e-05 -0.034844826044832286 0 0.0027449049266528918 -0.040533294534391417 0 8.7510994395283422e-05 -0.038800346673949694 0 0.0031453723989113562 -0.035306775834136751 0 0.0031453723989113562 -0.035306775834136751 0 0.001325541091649865 -0.032208895739349479 0 0.0015642430654726599 -0.032357031192374833 0 0.0031453723989113562 -0.035306775834136751 0 0.001325541091649865 -0.032208895739349479 0 0.0017453627218584702 -0.032087438078619461 0 0.001325541091649865 -0.032208895739349479 0 0.0017453627218584702 -0.032087438078619461 0 0.0015649919069183034 -0.032079455365823351 0 0.0068151417208361246 -0.044211296419048793 0 0.0031453723989113562 -0.035306775834136751 0 0.011501110723224373 -0.041077975017137093 0 0.0057301265257435367 -0.035255987601001418 0 0.0070726475544605899 -0.035910159381027158 0 -0.0086710730280878476 -0.048730018050276332 0 -0.005528279723959262 -0.050110107629419073 0 -0.0062176562589181727 -0.046447800631310168 0 -0.0096994954362202759 -0.053476797439728545 0 -0.0042871221198861487 -0.05413066031736876 0 -0.005528279723959262 -0.050110107629419073 0 -0.0042871221198861487 -0.05413066031736876 0 -0.005528279723959262 -0.050110107629419073 0 -0.0019386754177318486 -0.050277965175378476 0 -0.002553292752040364 -0.047729033143895351 0 -0.0040644778379476292 -0.044337293218424251 0 -0.005528279723959262 -0.050110107629419073 0 -0.0019386754177318486 -0.050277965175378476 0 -0.003552794360589574 -0.045796021248825855 0 -0.0043246501729938807 -0.04540328565127711 0 -0.00056087955292877202 -0.046770145058615979 0 -0.0022766265774394165 -0.041462915329532217 0 -0.0014119620310883941 -0.050007785563040835 0 -0.002553292752040364 -0.047729033143895351 0 -0.00083442443337863144 -0.052919037512280775 0 -0.0043246501729938807 -0.04540328565127711 0 -0.00056087955292877202 -0.046770145058615979 0 -0.00083442443337863144 -0.052919037512280775 0 -0.0042871221198861487 -0.05413066031736876 0 -0.0019386754177318486 -0.050277965175378476 0 -0.00083442443337863144 -0.052919037512280775 0 0.0036048698626536162 -0.051322546716412419 0 -0.00056087955292877202 -0.046770145058615979 0 0.001829943357760197 -0.044436670620339187 0 -0.00056087955292877202 -0.046770145058615979 0 -0.0022766265774394165 -0.041462915329532217 0 0.001829943357760197 -0.044436670620339187 0 8.7510994395283422e-05 -0.038800346673949694 0 -0.0022766265774394165 -0.041462915329532217 0 8.7510994395283422e-05 -0.038800346673949694 0 -0.0017095845462556472 -0.038733305288727926 0 -0.0006051503161312858 -0.037272078118880017 0 8.7510994395283422e-05 -0.038800346673949694 0 -0.0022766265774394165 -0.041462915329532217 0 -0.0017095845462556472 -0.038733305288727926 0 -0.0022766265774394165 -0.041462915329532217 0 -0.0030411706753390227 -0.039989206445397746 0 -0.0017095845462556472 -0.038733305288727926 0 -0.0043246501729938807 -0.04540328565127711 0 -0.0022766265774394165 -0.041462915329532217 0 -0.004206598283657186 -0.041553575269887136 0 -0.0022766265774394165 -0.041462915329532217 0 -0.004206598283657186 -0.041553575269887136 0 -0.0030411706753390227 -0.039989206445397746 0 -0.0070044449949557778 -0.043594348063715448 0 -0.003552794360589574 -0.045796021248825855 0 -0.0046676453000092169 -0.04073002704228168 0 -0.0040644778379476292 -0.044337293218424251 0 -0.004877284757295949 -0.042539473612251001 0 -0.004206598283657186 -0.041553575269887136 0 -0.0046676453000092169 -0.04073002704228168 0 -0.0030411706753390227 -0.039989206445397746 0 -0.005528279723959262 -0.050110107629419073 0 -0.003552794360589574 -0.045796021248825855 0 -0.0062176562589181727 -0.046447800631310168 0 -0.0070044449949557778 -0.043594348063715448 0 -0.003552794360589574 -0.045796021248825855 0 -0.0062176562589181727 -0.046447800631310168 0 0.001407841410123605 -0.03872170446791659 0 -0.0022520973534243863 -0.039378144090066777 0 0.00023746665641701621 -0.046197141265835046 0 -0.0015974429624990311 -0.057198800307632892 0 -0.0012146626083722578 -0.055694470007704534 0 -0.0046676453000092169 -0.04073002704228168 0 -0.0030488108226010072 -0.03988444805408161 0 -0.0030411706753390227 -0.039989206445397746 0 -0.0048204952183237369 -0.038800617282196498 0 -0.0046676453000092169 -0.04073002704228168 0 -0.0030488108226010072 -0.03988444805408161 0 -0.0048204952183237369 -0.038800617282196498 0 -0.0022520973534243863 -0.039378144090066777 0 -0.0030488108226010072 -0.03988444805408161 0 -0.0022520973534243863 -0.039378144090066777 0 -0.0030488108226010072 -0.03988444805408161 0 -0.0021508439764249244 -0.039192667833603236 0 -0.0030488108226010072 -0.03988444805408161 0 -0.0030411706753390227 -0.039989206445397746 0 -0.0021508439764249244 -0.039192667833603236 0 -0.0022520973534243863 -0.039378144090066777 0 -0.0021508439764249244 -0.039192667833603236 0 -0.0014542179637079451 -0.041783959157126516 0 -0.0021508439764249244 -0.039192667833603236 0 -0.00074707232316190478 -0.037508794599452853 0 -0.0011653348674913288 -0.039396440147971695 0 -0.0021508439764249244 -0.039192667833603236 0 -0.0017095845462556472 -0.038733305288727926 0 -0.00074707232316190478 -0.037508794599452853 0 -0.0030411706753390227 -0.039989206445397746 0 -0.0021508439764249244 -0.039192667833603236 0 -0.0017095845462556472 -0.038733305288727926 0 -0.0017095845462556472 -0.038733305288727926 0 -0.00074707232316190478 -0.037508794599452853 0 -0.0006051503161312858 -0.037272078118880017 0 -0.00074707232316190478 -0.037508794599452853 0 -0.00067524428128871549 -0.037194313825193129 0 -0.0011653348674913288 -0.039396440147971695 0 -0.00067524428128871549 -0.037194313825193129 0 -3.0541371908309848e-06 -0.037614251801698258 0 -0.0011653348674913288 -0.039396440147971695 0 -3.0541371908309848e-06 -0.037614251801698258 0 -0.0011653348674913288 -0.039396440147971695 0 -1.4830244511630652e-06 -0.043307547254694025 0 -0.0011653348674913288 -0.039396440147971695 0 -0.0014542179637079451 -0.041783959157126516 0 -1.4830244511630652e-06 -0.043307547254694025 0 -0.0021508439764249244 -0.039192667833603236 0 -0.0011653348674913288 -0.039396440147971695 0 -0.0014542179637079451 -0.041783959157126516 0 -1.0427214736379368e-07 -0.048997715100216423 0 -1.4830244511630652e-06 -0.043307547254694025 0 0.00023746665641701621 -0.046197141265835046 0 -0.0014542179637079451 -0.041783959157126516 0 -1.4830244511630652e-06 -0.043307547254694025 0 0.00023746665641701621 -0.046197141265835046 0 -0.0022520973534243863 -0.039378144090066777 0 -0.0014542179637079451 -0.041783959157126516 0 0.00023746665641701621 -0.046197141265835046 0 0.00056067809017410299 -0.031163948087762468 0 0.0015642430654726599 -0.032357031192374833 0 5.3796054998377283e-05 -0.034844826044832286 0 0.00056067809017410299 -0.031163948087762468 0 0.00068376775974463109 -0.029804085573751016 0 -4.2301699693316341e-05 -0.028644748679131322 0 0.00056067809017410299 -0.031163948087762468 0 0.00068376775974463109 -0.029804085573751016 0 0.0015642430654726599 -0.032357031192374833 0 0.00068376775974463109 -0.029804085573751016 0 0.00011442345177742704 -0.026605796853499012 0 0.0008798360490718856 -0.029721679734517736 0 0.00068376775974463109 -0.029804085573751016 0 0.0015642430654726599 -0.032357031192374833 0 0.0008798360490718856 -0.029721679734517736 0 0.001325541091649865 -0.032208895739349479 0 0.0015642430654726599 -0.032357031192374833 0 0.0008798360490718856 -0.029721679734517736 0 0.0031453723989113562 -0.035306775834136751 0 0.0015642430654726599 -0.032357031192374833 0 5.3796054998377283e-05 -0.034844826044832286 0 8.7510994395283422e-05 -0.038800346673949694 0 5.3796054998377283e-05 -0.034844826044832286 0 -0.0006051503161312858 -0.037272078118880017 0 -0.00074707232316190478 -0.037508794599452853 0 5.3796054998377283e-05 -0.034844826044832286 0 -0.0006051503161312858 -0.037272078118880017 0 -0.00074707232316190478 -0.037508794599452853 0 5.3796054998377283e-05 -0.034844826044832286 0 0.00026907411141994045 -0.03674871438300277 0 0.00056067809017410299 -0.031163948087762468 0 5.3796054998377283e-05 -0.034844826044832286 0 -0.00032834305694316512 -0.029611564536632617 0 -9.6918597216683787e-06 -0.033678177613924165 0 -9.6560462270483228e-06 -0.033066011430697657 0 0.00056067809017410299 -0.031163948087762468 0 -0.00032834305694316512 -0.029611564536632617 0 -4.2301699693316341e-05 -0.028644748679131322 0 -0.00074707232316190478 -0.037508794599452853 0 -0.00067524428128871549 -0.037194313825193129 0 0.00026907411141994045 -0.03674871438300277 0 -0.00067524428128871549 -0.037194313825193129 0 0.00026907411141994045 -0.03674871438300277 0 3.0610492541155397e-06 -0.031934162576078902 0 -0.00067524428128871549 -0.037194313825193129 0 -3.0541371908309848e-06 -0.037614251801698258 0 3.0610492541155397e-06 -0.031934162576078902 0 -9.6560462270483228e-06 -0.033066011430697657 0 -2.249817198142955e-09 -0.031925884847479644 0 -0.00032834305694316512 -0.029611564536632617 0 -1.0690241457581905e-07 -0.031915401065103627 0 -4.2301699693316341e-05 -0.028644748679131322 0 -1.0690241457581905e-07 -0.031915401065103627 0 -8.9274124317527308e-07 -0.027372432474254769 0 -4.2301699693316341e-05 -0.028644748679131322 0 0.00068376775974463109 -0.029804085573751016 0 -4.2301699693316341e-05 -0.028644748679131322 0 0.00011442345177742704 -0.026605796853499012 0 -8.9274124317527308e-07 -0.027372432474254769 0 0.00011442345177742704 -0.026605796853499012 0 7.0047888754139262e-07 -0.02281759044925381 0 -8.9274124317527308e-07 -0.027372432474254769 0 -4.2301699693316341e-05 -0.028644748679131322 0 0.00011442345177742704 -0.026605796853499012 0 0.00011442345177742704 -0.026605796853499012 0 7.0047888754139262e-07 -0.02281759044925381 0 0.0001780041470317542 -0.023454286011510721 0 0.0001780041470317542 -0.023454286011510721 0 -2.5498580640464461e-06 -0.018261240097996838 0 0.0011058991503233738 -0.02279206022790306 0 7.0047888754139262e-07 -0.02281759044925381 0 0.0001780041470317542 -0.023454286011510721 0 -2.5498580640464461e-06 -0.018261240097996838 0 0.0001780041470317542 -0.023454286011510721 0 0.0011058991503233738 -0.02279206022790306 0 0.00080751956105117875 -0.026912811144021186 0 0.00011442345177742704 -0.026605796853499012 0 0.0001780041470317542 -0.023454286011510721 0 0.00080751956105117875 -0.026912811144021186 0 3.1477333433528442e-06 -0.013708100064956612 0 0.0016538174612132192 -0.015338485070302237 0 -2.5498580640464461e-06 -0.018261240097996838 0 1.2701123045303133e-05 -0.013717857614804554 0 0.0011058991503233738 -0.02279206022790306 0 1.2701123045303133e-05 -0.013717857614804554 0 0.0011058991503233738 -0.02279206022790306 0 0.0052607398869943161 -0.023922580296795767 0 0.0016538174612132192 -0.015338485070302237 0 0.0024381008002790409 -0.016455578614909774 0 0.0052607398869943161 -0.023922580296795767 0 0.0025840302693991212 -0.028713047083414017 0 0.0057556643193380956 -0.029096770907368213 0 0.0011058991503233738 -0.02279206022790306 0 0.0052607398869943161 -0.023922580296795767 0 0.0025840302693991212 -0.028713047083414017 0 0.0025840302693991212 -0.028713047083414017 0 0.0057556643193380956 -0.029096770907368213 0 0.0037858310516479541 -0.031165965458040793 0 0.0008798360490718856 -0.029721679734517736 0 0.00080751956105117875 -0.026912811144021186 0 0.0014081815364141075 -0.02983955598449203 0 0.00011442345177742704 -0.026605796853499012 0 0.0008798360490718856 -0.029721679734517736 0 0.00080751956105117875 -0.026912811144021186 0 0.0025840302693991212 -0.028713047083414017 0 0.00080751956105117875 -0.026912811144021186 0 0.0014081815364141075 -0.02983955598449203 0 0.0011058991503233738 -0.02279206022790306 0 0.0025840302693991212 -0.028713047083414017 0 0.00080751956105117875 -0.026912811144021186 0 0.0025840302693991212 -0.028713047083414017 0 0.0014081815364141075 -0.02983955598449203 0 0.0020575402514872677 -0.03117221122630507 0 0.001325541091649865 -0.032208895739349479 0 0.0008798360490718856 -0.029721679734517736 0 0.0014081815364141075 -0.02983955598449203 0 0.001325541091649865 -0.032208895739349479 0 0.0014081815364141075 -0.02983955598449203 0 0.0020575402514872677 -0.03117221122630507 0 0.001325541091649865 -0.032208895739349479 0 0.001883674301153154 -0.032043534709542652 0 0.0020575402514872677 -0.03117221122630507 0 0.001325541091649865 -0.032208895739349479 0 0.001553748572074053 -0.03228867157901251 0 0.001883674301153154 -0.032043534709542652 0 0.004773865343378759 -0.032044050636242806 0 0.0055855819284258562 -0.032627529626707549 0 0.001553748572074053 -0.03228867157901251 0 0.001883674301153154 -0.032043534709542652 0 0.001911245963288766 -0.032598322201589591 0 0.0017453627218584702 -0.032087438078619461 0 0.001581093878991618 -0.03208209664146211 0 0.0015649919069183034 -0.032079455365823351 0 0.001883674301153154 -0.032043534709542652 0 0.0020575402514872677 -0.03117221122630507 0 0.002952090067174199 -0.032371522705472687 0 0.001883674301153154 -0.032043534709542652 0 0.002952090067174199 -0.032371522705472687 0 0.0023008909175054235 -0.032723001575236818 0 0.001883674301153154 -0.032043534709542652 0 0.001911245963288766 -0.032598322201589591 0 0.0023008909175054235 -0.032723001575236818 0 0.0025840302693991212 -0.028713047083414017 0 0.0020575402514872677 -0.03117221122630507 0 0.0037858310516479541 -0.031165965458040793 0 0.0020575402514872677 -0.03117221122630507 0 0.0037858310516479541 -0.031165965458040793 0 0.002952090067174199 -0.032371522705472687 0 0.0057556643193380956 -0.029096770907368213 0 0.0037858310516479541 -0.031165965458040793 0 0.0053368190047702506 -0.031858379639634622 0 0.0024381008002790409 -0.016455578614909774 0 0.0026275418599250324 -0.017343775661683183 0 0.0037858310516479541 -0.031165965458040793 0 0.0042573563969010714 -0.032527156414971746 0 0.0053368190047702506 -0.031858379639634622 0 0.0037858310516479541 -0.031165965458040793 0 0.0042573563969010714 -0.032527156414971746 0 0.002952090067174199 -0.032371522705472687 0 0.002952090067174199 -0.032371522705472687 0 0.0038858838915943788 -0.03338982633836534 0 0.0029110127157521131 -0.033433351588465152 0 0.0042573563969010714 -0.032527156414971746 0 0.002952090067174199 -0.032371522705472687 0 0.0038858838915943788 -0.03338982633836534 0 0.0042573563969010714 -0.032527156414971746 0 0.0050943317426101579 -0.033514858416240342 0 0.0053368190047702506 -0.031858379639634622 0 0.0042573563969010714 -0.032527156414971746 0 0.0038858838915943788 -0.03338982633836534 0 0.0050943317426101579 -0.033514858416240342 0 0.0038858838915943788 -0.03338982633836534 0 0.0042749614861151367 -0.034254153935424171 0 0.0050943317426101579 -0.033514858416240342 0 0.0032041025100193088 -0.03440194814040972 0 0.0038858838915943788 -0.03338982633836534 0 0.0029110127157521131 -0.033433351588465152 0 0.0032041025100193088 -0.03440194814040972 0 0.0038858838915943788 -0.03338982633836534 0 0.0042749614861151367 -0.034254153935424171 0 0.0032041025100193088 -0.03440194814040972 0 0.0018655616257217556 -0.033403433369770225 0 0.0029110127157521131 -0.033433351588465152 0 0.0072471647342410295 -0.031542569642339056 0 0.0085574115886114747 -0.035405352983254132 0 0.01105943264282435 -0.029644387009745907 0 0.015256661636682853 -0.031088037176880755 0 0.016471916037584342 -0.034500311327892427 0 0.011006400689660837 -0.038985150606801557 0 0.0085574115886114747 -0.035405352983254132 0 0.017599687929783558 -0.049705996478383675 0 0.013980361038985855 -0.04921397489871409 0 0.016368734190291997 -0.046108365606107926 0 0.015198774288267099 -0.052569255316072733 0 0.017599687929783558 -0.049705996478383675 0 0.013980361038985855 -0.04921397489871409 0 0.011822750514796844 -0.046000512267747526 0 0.013980361038985855 -0.04921397489871409 0 0.016368734190291997 -0.046108365606107926 0 0.011006400689660837 -0.038985150606801557 0 0.0087954813070393861 -0.036003631274595327 0 0.01033056093991238 -0.038690910124028373 0 0.0093211777509277349 -0.035841112092930276 0 0.0087914739609169738 -0.035363807625465718 0 0.001553748572074053 -0.03228867157901251 0 0.0018655616257217556 -0.033403433369770225 0 0.001911245963288766 -0.032598322201589591 0 0.0015649919069183034 -0.032079455365823351 0 0.0017041455227857275 -0.032178702213048173 0 0.0016760991105402774 -0.032167618082609963 0 0.0055855819284258562 -0.032627529626707549 0 0.0085574115886114747 -0.035405352983254132 0 0.0017453627218584702 -0.032087438078619461 0 0.001581093878991618 -0.03208209664146211 0 0.0015233616840038629 -0.031964450818387682 0 0.0070726475544605899 -0.035910159381027158 0 0.0087954813070393861 -0.036003631274595327 0 0.001581093878991618 -0.03208209664146211 0 0.0015649919069183034 -0.032079455365823351 0 0.0016760991105402774 -0.032167618082609963 0 0.0085574115886114747 -0.035405352983254132 0 0.0087954813070393861 -0.036003631274595327 0 0.0076243435250259867 -0.034377960571648963 0 0.0087954813070393861 -0.036003631274595327 0 0.0018655616257217556 -0.033403433369770225 0 0.0023008909175054235 -0.032723001575236818 0 0.0029110127157521131 -0.033433351588465152 0 0.0018655616257217556 -0.033403433369770225 0 0.001911245963288766 -0.032598322201589591 0 0.0023008909175054235 -0.032723001575236818 0 0.002952090067174199 -0.032371522705472687 0 0.0023008909175054235 -0.032723001575236818 0 0.0029110127157521131 -0.033433351588465152 0 -0.001292302837260265 -0.0024836832052838528 0 -0.00084744613973645989 -0.0019212261168857646 0 -0.00098967054393742852 -0.0011053657455019491 0 -0.001292302837260265 -0.0024836832052838528 0 -0.00084744613973645989 -0.0019212261168857646 0 -0.0006771754971201491 -0.0025510341474631539 0 -0.00011729300528808166 0.0022035491334325345 0 -0.00018222371801168024 0.001714542341911311 0 0.00074824912671068414 0.0062216056139118032 0 0.0014508411521789292 0.005713397526194164 0 0.0010941032596770547 0.0053046078278851817 0 0.00074824912671068414 0.0062216056139118032 0 0.0014508411521789292 0.005713397526194164 0 0.0018120058992932044 0.0062899942498361458 0 0.0014508411521789292 0.005713397526194164 0 0.0016397862556748466 0.0052292529712084758 0 0.0010941032596770547 0.0053046078278851817 0 0.0016397862556748466 0.0052292529712084758 0 0.0013242768840997265 0.0047919663211816593 0 0.0017682847559942205 0.0049057971604312724 0 0.0016397862556748466 0.0052292529712084758 0 0.0013242768840997265 0.0047919663211816593 0 0.0010941032596770547 0.0053046078278851817 0 0.0011080137558736928 0.004789689544569104 0 0.0010941032596770547 0.0053046078278851817 0 0.00077675591998449501 0.00474096055634149 0 0.00074824912671068414 0.0062216056139118032 0 0.0010941032596770547 0.0053046078278851817 0 0.00077675591998449501 0.00474096055634149 0 0.0013242768840997265 0.0047919663211816593 0 0.0011080137558736928 0.004789689544569104 0 0.0010484135591412595 0.0044230096372484583 0 0.0013242768840997265 0.0047919663211816593 0 0.0011080137558736928 0.004789689544569104 0 0.0010941032596770547 0.0053046078278851817 0 -0.00084744613973645989 -0.0019212261168857646 0 -0.00098967054393742852 -0.0011053657455019491 0 -0.00078029834977550274 -0.0013814476806854892 0 0.0011080137558736928 0.004789689544569104 0 0.00077675591998449501 0.00474096055634149 0 0.0010484135591412595 0.0044230096372484583 0 -0.00062102899152602115 -0.00071207504539308225 0 -0.00098967054393742852 -0.0011053657455019491 0 -0.0007103554480002598 -0.00098832293100000975 0 -0.00098967054393742852 -0.0011053657455019491 0 -0.0007841168959907322 -0.0011388227622265766 0 -0.0007103554480002598 -0.00098832293100000975 0 -0.00098967054393742852 -0.0011053657455019491 0 -0.0007841168959907322 -0.0011388227622265766 0 -0.00078029834977550274 -0.0013814476806854892 0 -0.0007841168959907322 -0.0011388227622265766 0 -0.00064353454889913455 -0.0011889281602510185 0 -0.00078029834977550274 -0.0013814476806854892 0 -0.0007841168959907322 -0.0011388227622265766 0 -0.00064353454889913455 -0.0011889281602510185 0 -0.0007103554480002598 -0.00098832293100000975 0 -0.00064353454889913455 -0.0011889281602510185 0 -0.0007103554480002598 -0.00098832293100000975 0 -0.00053293738919443008 -0.00099338774199862214 0 -0.00053293738919443008 -0.00099338774199862214 0 -0.00039066224777529622 -0.0012803882619826354 0 -0.00035630565009565912 -0.00090447871726146117 0 -0.00064353454889913455 -0.0011889281602510185 0 -0.00053293738919443008 -0.00099338774199862214 0 -0.00039066224777529622 -0.0012803882619826354 0 -0.00064353454889913455 -0.0011889281602510185 0 -0.00039066224777529622 -0.0012803882619826354 0 -0.00060910941806136042 -0.0015940627892765487 0 -0.00039066224777529622 -0.0012803882619826354 0 -0.00060910941806136042 -0.0015940627892765487 0 -0.00033905818547579368 -0.0017112808953368502 0 -0.00084744613973645989 -0.0019212261168857646 0 -0.00060910941806136042 -0.0015940627892765487 0 -0.00078029834977550274 -0.0013814476806854892 0 -0.00064353454889913455 -0.0011889281602510185 0 -0.00060910941806136042 -0.0015940627892765487 0 -0.00078029834977550274 -0.0013814476806854892 0 0.0038565871177646399 -0.030239540727391243 0 0.0025745850326315462 -0.017919919073248643 0 -0.00040585588775967968 -0.00028554917928299417 0 -0.00035630565009565912 -0.00090447871726146117 0 0.0003680827239066506 -0.0016824460194947511 0 0.0049919667030555639 -0.034605690283654074 0 0.0042749614861151367 -0.034254153935424171 0 0.0050943317426101579 -0.033514858416240342 0 0.001974088163617342 -0.017609021732327146 0 0.0025745850326315462 -0.017919919073248643 0 -0.00039066224777529622 -0.0012803882619826354 0 -0.00035630565009565912 -0.00090447871726146117 0 0.0003680827239066506 -0.0016824460194947511 0 -0.00039066224777529622 -0.0012803882619826354 0 0.0003680827239066506 -0.0016824460194947511 0 -0.00033905818547579368 -0.0017112808953368502 0 0.0003680827239066506 -0.0016824460194947511 0 -3.7637442756989999e-05 -0.0021224372963002652 0 0.0004657206319038265 -0.0025668551429887244 0 0.0025745850326315462 -0.017919919073248643 0 0.0017372218096403534 -0.008697673302908009 0 0.00027028318741736653 -0.0028912335864462973 0 0.00047829215173820751 -0.003188168509052982 0 0.00038598080887307883 -0.0030761096579290238 0 0.0025745850326315462 -0.017919919073248643 0 0.0026275418599250324 -0.017343775661683183 0 0.0003680827239066506 -0.0016824460194947511 0 -3.7637442756989999e-05 -0.0021224372963002652 0 -0.00033905818547579368 -0.0017112808953368502 0 -3.7637442756989999e-05 -0.0021224372963002652 0 -0.00018216714930631761 -0.0025574833380753868 0 0.0004657206319038265 -0.0025668551429887244 0 -0.00084744613973645989 -0.0019212261168857646 0 -0.00060910941806136042 -0.0015940627892765487 0 -0.00047266372659868623 -0.0020668989659839944 0 -3.7637442756989999e-05 -0.0021224372963002652 0 -0.00047266372659868623 -0.0020668989659839944 0 -0.00033905818547579368 -0.0017112808953368502 0 -0.00060910941806136042 -0.0015940627892765487 0 -0.00047266372659868623 -0.0020668989659839944 0 -0.00033905818547579368 -0.0017112808953368502 0 -3.7637442756989999e-05 -0.0021224372963002652 0 -0.00047266372659868623 -0.0020668989659839944 0 -0.00018216714930631761 -0.0025574833380753868 0 -0.00084744613973645989 -0.0019212261168857646 0 -0.00047266372659868623 -0.0020668989659839944 0 -0.0006771754971201491 -0.0025510341474631539 0 -0.00047266372659868623 -0.0020668989659839944 0 -0.0006771754971201491 -0.0025510341474631539 0 -0.00018216714930631761 -0.0025574833380753868 0 -0.0006771754971201491 -0.0025510341474631539 0 -0.00018216714930631761 -0.0025574833380753868 0 -0.00032209671183619265 -0.0030711863638906282 0 -0.00018216714930631761 -0.0025574833380753868 0 -0.00032209671183619265 -0.0030711863638906282 0 0.00011234594904825467 -0.0029697872060567405 0 -0.0006771754971201491 -0.0025510341474631539 0 -0.00032209671183619265 -0.0030711863638906282 0 -0.00081275251795367846 -0.0030907459881619106 0 0.0004657206319038265 -0.0025668551429887244 0 0.00011234594904825467 -0.0029697872060567405 0 0.00050529223343525286 -0.0033602503580526192 0 0.0017372218096403534 -0.008697673302908009 0 0.0015199060090370655 -0.0066030011491029234 0 0.00047829215173820751 -0.003188168509052982 0 0.00038598080887307883 -0.0030761096579290238 0 0.00050529223343525286 -0.0033602503580526192 0 -0.00018216714930631761 -0.0025574833380753868 0 0.0004657206319038265 -0.0025668551429887244 0 0.00011234594904825467 -0.0029697872060567405 0 -0.00032209671183619265 -0.0030711863638906282 0 0.00011234594904825467 -0.0029697872060567405 0 0.00012260630266432883 -0.0033310222848525403 0 0.00091983809516153639 -0.0039335453320140119 0 0.00050529223343525286 -0.0033602503580526192 0 0.00025423847969003319 -0.0036439215585264452 0 0.00091983809516153639 -0.0039335453320140119 0 0.00047829215173820751 -0.003188168509052982 0 0.00050529223343525286 -0.0033602503580526192 0 0.00050529223343525286 -0.0033602503580526192 0 0.00012260630266432883 -0.0033310222848525403 0 0.00025423847969003319 -0.0036439215585264452 0 0.00011234594904825467 -0.0029697872060567405 0 0.00050529223343525286 -0.0033602503580526192 0 0.00012260630266432883 -0.0033310222848525403 0 0.00012260630266432883 -0.0033310222848525403 0 0.00025423847969003319 -0.0036439215585264452 0 -0.00017885682042170672 -0.0035902964585161272 0 -0.00032209671183619265 -0.0030711863638906282 0 -0.00056446323110142561 -0.003452773752832634 0 -0.00081275251795367846 -0.0030907459881619106 0 -0.00032209671183619265 -0.0030711863638906282 0 -0.00017885682042170672 -0.0035902964585161272 0 -0.00056446323110142561 -0.003452773752832634 0 -0.00032209671183619265 -0.0030711863638906282 0 0.00012260630266432883 -0.0033310222848525403 0 -0.00017885682042170672 -0.0035902964585161272 0 -0.00017885682042170672 -0.0035902964585161272 0 -0.00056446323110142561 -0.003452773752832634 0 -0.00063998652658758131 -0.0039299335107473316 0 -0.00056446323110142561 -0.003452773752832634 0 -0.00089426215326119415 -0.0035388403671945349 0 -0.00063998652658758131 -0.0039299335107473316 0 -0.00089426215326119415 -0.0035388403671945349 0 -0.0010342366238284331 -0.0032780239710223547 0 -0.0010194646849384943 -0.0035589500924987959 0 -0.00089426215326119415 -0.0035388403671945349 0 -0.0010342366238284331 -0.0032780239710223547 0 -0.00081275251795367846 -0.0030907459881619106 0 -0.00056446323110142561 -0.003452773752832634 0 -0.00089426215326119415 -0.0035388403671945349 0 -0.00081275251795367846 -0.0030907459881619106 0 -0.001292302837260265 -0.0024836832052838528 0 -0.0010342366238284331 -0.0032780239710223547 0 -0.00081275251795367846 -0.0030907459881619106 0 -0.001292302837260265 -0.0024836832052838528 0 -0.0006771754971201491 -0.0025510341474631539 0 -0.00081275251795367846 -0.0030907459881619106 0 0.00074824912671068414 0.0062216056139118032 0 0.0015373284643578214 0.0069425248797292281 0 0.0018120058992932044 0.0062899942498361458 0 -0.00011729300528808166 0.0022035491334325345 0 -9.4752783788962922e-05 0.0026538756011458249 0 0.00074824912671068414 0.0062216056139118032 0 0.00088352633360349296 0.0076456913604282407 0 0.0015373284643578214 0.0069425248797292281 0 -0.001292302837260265 -0.0024836832052838528 0 -0.0010342366238284331 -0.0032780239710223547 0 -0.0011172651783023838 -0.0035924851226298844 0 0.00074824912671068414 0.0062216056139118032 0 0.00088352633360349296 0.0076456913604282407 0 0.0007706525655856891 0.0081809474416949177 0 -0.0011172651783023838 -0.0035924851226298844 0 -0.0010194646849384943 -0.0035589500924987959 0 -0.00097784743300034413 -0.0037149633061667078 0 -0.0010342366238284331 -0.0032780239710223547 0 -0.0011172651783023838 -0.0035924851226298844 0 -0.0010194646849384943 -0.0035589500924987959 0 -0.00089426215326119415 -0.0035388403671945349 0 -0.0010194646849384943 -0.0035589500924987959 0 -0.00097784743300034413 -0.0037149633061667078 0 -0.0011172651783023838 -0.0035924851226298844 0 -0.00097784743300034413 -0.0037149633061667078 0 -0.0002589858286605468 -0.0034651473949108714 0 -0.00089426215326119415 -0.0035388403671945349 0 -0.00097784743300034413 -0.0037149633061667078 0 -0.00063998652658758131 -0.0039299335107473316 0 -0.00097784743300034413 -0.0037149633061667078 0 -0.00063998652658758131 -0.0039299335107473316 0 -0.0008475938066607948 -0.0043546364535570342 0 -0.00097784743300034413 -0.0037149633061667078 0 -0.00072273771014448726 -0.0024720625639307017 0 -0.0008475938066607948 -0.0043546364535570342 0 -0.00097784743300034413 -0.0037149633061667078 0 -0.00072273771014448726 -0.0024720625639307017 0 -0.0002589858286605468 -0.0034651473949108714 0 0.00091983809516153639 -0.0039335453320140119 0 -6.3740116390501101e-05 -0.0040430259622685621 0 -0.00018830709757719369 -0.0049004361036198325 0 0.00091983809516153639 -0.0039335453320140119 0 0.00025423847969003319 -0.0036439215585264452 0 -6.3740116390501101e-05 -0.0040430259622685621 0 0.00025423847969003319 -0.0036439215585264452 0 -0.00017885682042170672 -0.0035902964585161272 0 -6.3740116390501101e-05 -0.0040430259622685621 0 -6.3740116390501101e-05 -0.0040430259622685621 0 -0.00063998652658758131 -0.0039299335107473316 0 -0.00018830709757719369 -0.0049004361036198325 0 -0.00017885682042170672 -0.0035902964585161272 0 -6.3740116390501101e-05 -0.0040430259622685621 0 -0.00063998652658758131 -0.0039299335107473316 0 -0.00063998652658758131 -0.0039299335107473316 0 -0.00018830709757719369 -0.0049004361036198325 0 -0.0008475938066607948 -0.0043546364535570342 0 0.0015005260887430549 -0.0064581150519853105 0 0.00091983809516153639 -0.0039335453320140119 0 -0.00018830709757719369 -0.0049004361036198325 0 0.0015005260887430549 -0.0064581150519853105 0 -0.00018830709757719369 -0.0049004361036198325 0 -0.00062529981180418979 -0.0064336309313208538 0 -0.00018830709757719369 -0.0049004361036198325 0 -0.00062529981180418979 -0.0064336309313208538 0 -0.0008475938066607948 -0.0043546364535570342 0 -0.00062529981180418979 -0.0064336309313208538 0 -2.4795778639730441e-06 -0.0086362865466205734 0 -1.389366582277821e-06 -0.0035647901383370783 0 6.1964818828339836e-06 -0.013696257600045903 0 0.0015005260887430549 -0.0064581150519853105 0 -0.00062529981180418979 -0.0064336309313208538 0 6.1964818828339836e-06 -0.013696257600045903 0 -0.00062529981180418979 -0.0064336309313208538 0 -2.4795778639730441e-06 -0.0086362865466205734 0 -0.00062529981180418979 -0.0064336309313208538 0 -0.0008475938066607948 -0.0043546364535570342 0 -1.389366582277821e-06 -0.0035647901383370783 0 -0.00072273771014448726 -0.0024720625639307017 0 -0.0008475938066607948 -0.0043546364535570342 0 -1.389366582277821e-06 -0.0035647901383370783 0 -0.00072273771014448726 -0.0024720625639307017 0 -1.389366582277821e-06 -0.0035647901383370783 0 -2.2149883686894481e-06 0.0015058598248276595 0 -0.00072273771014448726 -0.0024720625639307017 0 -2.2149883686894481e-06 0.0015058598248276595 0 0.00082933377251457176 -0.00073298971776803541 0 -0.00014719210998758171 0.0043126683822526908 0 2.4434986241810109e-07 0.0065731158018014135 0 -2.2149883686894481e-06 0.0015058598248276595 0 0.00082933377251457176 -0.00073298971776803541 0 5.4870026609168412e-06 0.0065676713323218885 0 0.00062489730924371063 0.0090187453571171344 0 2.2740794510500436e-06 0.0065835618320765638 0 -0.00026455497531966196 0.0089309235174855981 0 2.2740794510500436e-06 0.0065835618320765638 0 -2.632462677778745e-06 0.0099351495058316881 0 -0.00026455497531966196 0.0089309235174855981 0 -2.632462677778745e-06 0.0099351495058316881 0 -0.00017634959667226646 0.010103102173268728 0 3.5578199126450925e-06 0.013287441976479301 0 -2.632462677778745e-06 0.0099351495058316881 0 -0.00017634959667226646 0.010103102173268728 0 -0.00026455497531966196 0.0089309235174855981 0 -0.00017634959667226646 0.010103102173268728 0 -6.983083458832533e-05 0.009196814075944899 0 -0.00026455497531966196 0.0089309235174855981 0 -0.00017634959667226646 0.010103102173268728 0 -6.983083458832533e-05 0.009196814075944899 0 0.00050014467827536068 0.0089917031664876572 0 0.00062489730924371063 0.0090187453571171344 0 -0.00026455497531966196 0.0089309235174855981 0 0.00033294186732740896 0.009049060203810964 0 -6.983083458832533e-05 0.009196814075944899 0 -0.00026455497531966196 0.0089309235174855981 0 0.00033294186732740896 0.009049060203810964 0 0.00033294186732740896 0.009049060203810964 0 0.00026220886381380054 0.00896160624676701 0 0.00038022586952870158 0.0088211723493006843 0 -6.983083458832533e-05 0.009196814075944899 0 0.00033294186732740896 0.009049060203810964 0 0.00026220886381380054 0.00896160624676701 0 0.00026220886381380054 0.00896160624676701 0 0.00050519899984692725 0.0088219670086026099 0 0.00050014467827536068 0.0089917031664876572 0 -6.983083458832533e-05 0.009196814075944899 0 0.00026220886381380054 0.00896160624676701 0 0.00050014467827536068 0.0089917031664876572 0 0.00026220886381380054 0.00896160624676701 0 0.00050519899984692725 0.0088219670086026099 0 0.00038022586952870158 0.0088211723493006843 0 0.00050519899984692725 0.0088219670086026099 0 0.00038022586952870158 0.0088211723493006843 0 0.00045439823777989837 0.008714587236874077 0 0.00033294186732740896 0.009049060203810964 0 0.00038022586952870158 0.0088211723493006843 0 0.00046619440135907262 0.0087251205280671831 0 0.00038022586952870158 0.0088211723493006843 0 0.00046619440135907262 0.0087251205280671831 0 0.00044629347083485603 0.008711746100628576 0 0.00033294186732740896 0.009049060203810964 0 0.00046619440135907262 0.0087251205280671831 0 0.00046865385641610408 0.00879067306626421 0 -9.4752783788962922e-05 0.0026538756011458249 0 -0.00010202444626949552 0.0032298451812565469 0 0.00046619440135907262 0.0087251205280671831 0 0.00046865385641610408 0.00879067306626421 0 0.00060421483653106593 0.0085283254340295361 0 0.0007706525655856891 0.0081809474416949177 0 0.00046865385641610408 0.00879067306626421 0 0.00060421483653106593 0.0085283254340295361 0 -0.00072273771014448726 -0.0024720625639307017 0 0.00082933377251457176 -0.00073298971776803541 0 -0.0002589858286605468 -0.0034651473949108714 0 -0.00014719210998758171 0.0043126683822526908 0 -0.00010202444626949552 0.0032298451812565469 0 0.00062489730924371063 0.0090187453571171344 0 0.00033294186732740896 0.009049060203810964 0 0.00046865385641610408 0.00879067306626421 0 -0.00040567412412390914 0.020198460883837629 0 0.00034677819304104539 0.019594290318045677 0 0.00079482353319080201 0.02025352369569243 0 -1.1072430537889946e-06 0.021710829029235258 0 -0.00040567412412390914 0.020198460883837629 0 0.00079482353319080201 0.02025352369569243 0 5.0863763138214247e-06 0.021729884302146684 0 0.0027845115109350017 0.025431511387911342 0 5.2298351888061552e-07 0.019017673127321014 0 0.00028144810932705095 0.018592001474827608 0 -1.1982612082160498e-07 0.019006532320939681 0 2.7670790391411833e-05 0.016248456537920779 0 -0.00041625381469707299 0.016382164652860888 0 -1.1072430537889946e-06 0.021710829029235258 0 1.1449523008097606e-06 0.019032901776986817 0 -0.00040567412412390914 0.020198460883837629 0 2.7670790391411833e-05 0.016248456537920779 0 -0.00041625381469707299 0.016382164652860888 0 -1.3297768562137321e-05 0.016684933769279181 0 2.7670790391411833e-05 0.016248456537920779 0 -1.3297768562137321e-05 0.016684933769279181 0 4.2705064727553123e-05 0.01647654274163627 0 -1.1982612082160498e-07 0.019006532320939681 0 -0.00041625381469707299 0.016382164652860888 0 1.278548432712395e-07 0.013306191698346979 0 1.228769750687504e-06 0.013294807568047694 0 0.00066229297804030584 0.013524691918067962 0 -0.00041625381469707299 0.016382164652860888 0 1.278548432712395e-07 0.013306191698346979 0 -1.3297768562137321e-05 0.016684933769279181 0 -0.00017634959667226646 0.010103102173268728 0 3.5578199126450925e-06 0.013287441976479301 0 0.0011408101730512271 0.0094527752574258116 0 -0.00017634959667226646 0.010103102173268728 0 0.0011408101730512271 0.0094527752574258116 0 0.00050014467827536068 0.0089917031664876572 0 0.0011408101730512271 0.0094527752574258116 0 0.00050014467827536068 0.0089917031664876572 0 0.0008224187178309042 0.0087908984535729189 0 0.00050519899984692725 0.0088219670086026099 0 0.00050014467827536068 0.0089917031664876572 0 0.0008224187178309042 0.0087908984535729189 0 0.00050519899984692725 0.0088219670086026099 0 0.0008224187178309042 0.0087908984535729189 0 0.000727986210817938 0.0087964273517415655 0 3.2351821041355721e-05 0.016472209189451848 0 -1.3894355618025878e-05 0.01651203487576626 0 -1.9494941734228183e-05 0.016608534000739399 0 0.0012918395726836608 0.014580372811056988 0 0.0013446673030155258 0.020438424554940157 0 0.00066229297804030584 0.013524691918067962 0 0.0012918395726836608 0.014580372811056988 0 -1.3297768562137321e-05 0.016684933769279181 0 3.2351821041355721e-05 0.016472209189451848 0 4.2705064727553123e-05 0.01647654274163627 0 3.2351821041355721e-05 0.016472209189451848 0 4.2705064727553123e-05 0.01647654274163627 0 -1.3894355618025878e-05 0.01651203487576626 0 -0.00040567412412390914 0.020198460883837629 0 -0.00035055090228494905 0.01937501647886854 0 0.00034677819304104539 0.019594290318045677 0 0.00028144810932705095 0.018592001474827608 0 0.00080058175916642143 0.019072567016316332 0 2.7670790391411833e-05 0.016248456537920779 0 4.2705064727553123e-05 0.01647654274163627 0 -1.3894355618025878e-05 0.01651203487576626 0 0.00080058175916642143 0.019072567016316332 0 0.0018774949511141611 0.022538363758298735 0 -0.00035055090228494905 0.01937501647886854 0 0.00043761015804563198 0.018886323878864967 0 -0.00036453564517064806 0.018516994080009268 0 -0.00035055090228494905 0.01937501647886854 0 0.00043761015804563198 0.018886323878864967 0 0.00034677819304104539 0.019594290318045677 0 0.0019539431894867953 0.036525703398960767 0 0.0019480854271144439 0.036664838747020416 0 0.0017881348192784021 0.036617309352414418 0 0.0019539431894867953 0.036525703398960767 0 0.0021305117211548302 0.036635915819788048 0 0.0019480854271144439 0.036664838747020416 0 0.0019360075701267451 0.036358999526906445 0 0.0019539431894867953 0.036525703398960767 0 0.0017968394253606833 0.036448150134762575 0 0.0019360075701267451 0.036358999526906445 0 0.0019539431894867953 0.036525703398960767 0 0.0021267148593417844 0.036430791161185846 0 0.0021753143552102165 0.028222337967138543 0 0.0018774949511141611 0.022538363758298735 0 0.0018774949511141611 0.022538363758298735 0 0.0013446673030155258 0.020438424554940157 0 0.00099617228099394819 0.020629500006304487 0 0.0010454225064790521 0.022332999573219166 0 0.0014777927812401018 0.020858706217953143 0 0.0019539431894867953 0.036525703398960767 0 0.0021267148593417844 0.036430791161185846 0 0.0021305117211548302 0.036635915819788048 0 0.0018774949511141611 0.022538363758298735 0 0.0017244896905399992 0.022418558762739946 0 0.0017244896905399992 0.022418558762739946 0 0.0013446673030155258 0.020438424554940157 0 0.00014475542467881148 0.0096456963302029158 0 0.00053705684293351113 0.0091909693324256393 0 0.00043035458591014769 0.0089128798745577442 0 0.00014475542467881148 0.0096456963302029158 0 0.0006582096331620215 0.0094969540094297419 0 0.00053705684293351113 0.0091909693324256393 0 0.0006582096331620215 0.0094969540094297419 0 0.00077258492731451076 0.0091312440199963017 0 0.0009648661394659712 0.009476936431212982 0 0.0006582096331620215 0.0094969540094297419 0 0.0009648661394659712 0.009476936431212982 0 0.00081690571156549136 0.0096742432141507257 0 0.0006582096331620215 0.0094969540094297419 0 0.00077258492731451076 0.0091312440199963017 0 0.00053705684293351113 0.0091909693324256393 0 0.00077258492731451076 0.0091312440199963017 0 0.00053705684293351113 0.0091909693324256393 0 0.00063553434735762659 0.0090326352066239061 0 0.00053705684293351113 0.0091909693324256393 0 0.00053104235176100001 0.008944626653406746 0 0.00063553434735762659 0.0090326352066239061 0 0.00051394098844033127 0.0089081602887791933 0 0.00053104235176100001 0.008944626653406746 0 0.000727986210817938 0.0087964273517415655 0 0.0008224187178309042 0.0087908984535729189 0 0.00051394098844033127 0.0089081602887791933 0 0.000727986210817938 0.0087964273517415655 0 3.2351821041355721e-05 0.016472209189451848 0 -1.9494941734228183e-05 0.016608534000739399 0 1.3490625273268979e-05 0.016625876928303401 0 0.0013446673030155258 0.020438424554940157 0 0.0013064294239100679 0.020393337935108547 0 0.00053705684293351113 0.0091909693324256393 0 0.00043035458591014769 0.0089128798745577442 0 0.00053104235176100001 0.008944626653406746 0 0.00077258492731451076 0.0091312440199963017 0 0.000727986210817938 0.0087964273517415655 0 0.00063553434735762659 0.0090326352066239061 0 0.00053104235176100001 0.008944626653406746 0 0.000727986210817938 0.0087964273517415655 0 0.00063553434735762659 0.0090326352066239061 0 0.000727986210817938 0.0087964273517415655 0 0.001278617942803978 0.0091259435162136353 0 0.00099040145536790909 0.0091819601359384093 0 0.000727986210817938 0.0087964273517415655 0 0.001278617942803978 0.0091259435162136353 0 0.0017537327018471399 0.0088627956132247068 0 0.00050519899984692725 0.0088219670086026099 0 0.000727986210817938 0.0087964273517415655 0 0.00045439823777989837 0.008714587236874077 0 0.00099689234313123706 0.0087505458240198526 0 0.0012390762858633829 0.0087601776954690357 0 0.00077258492731451076 0.0091312440199963017 0 0.000727986210817938 0.0087964273517415655 0 0.00099040145536790909 0.0091819601359384093 0 0.001278617942803978 0.0091259435162136353 0 0.00099040145536790909 0.0091819601359384093 0 0.0011582628162649948 0.0094263895426325676 0 0.00099040145536790909 0.0091819601359384093 0 0.0009648661394659712 0.009476936431212982 0 0.0011582628162649948 0.0094263895426325676 0 0.00077258492731451076 0.0091312440199963017 0 0.00099040145536790909 0.0091819601359384093 0 0.0009648661394659712 0.009476936431212982 0 0.0009648661394659712 0.009476936431212982 0 0.0011582628162649948 0.0094263895426325676 0 0.0011423502252954809 0.009692266451211573 0 0.001278617942803978 0.0091259435162136353 0 0.0011582628162649948 0.0094263895426325676 0 0.0014135454968979479 0.0096549081268896379 0 0.0011582628162649948 0.0094263895426325676 0 0.0011423502252954809 0.009692266451211573 0 0.0014135454968979479 0.0096549081268896379 0 0.0011423502252954809 0.009692266451211573 0 0.0010906848463776175 0.010219175126263077 0 0.0014135454968979479 0.0096549081268896379 0 0.0009648661394659712 0.009476936431212982 0 0.00097295012182217744 0.0098487807482427712 0 0.00081690571156549136 0.0096742432141507257 0 0.0011423502252954809 0.009692266451211573 0 0.00097295012182217744 0.0098487807482427712 0 0.0010906848463776175 0.010219175126263077 0 0.0009648661394659712 0.009476936431212982 0 0.0011423502252954809 0.009692266451211573 0 0.00097295012182217744 0.0098487807482427712 0 0.00097295012182217744 0.0098487807482427712 0 0.0010906848463776175 0.010219175126263077 0 0.00087028120762691467 0.010028025194518776 0 0.0010906848463776175 0.010219175126263077 0 0.00087028120762691467 0.010028025194518776 0 0.00075093169317547756 0.010163901276234321 0 0.0037860287531263702 0.0058679509180649117 0 0.003818119967518659 0.005628580775476219 0 0.0035493526240299739 0.0056167470413562145 0 0.003818119967518659 0.005628580775476219 0 0.0038044997504286262 0.0054455814318719242 0 0.0035493526240299739 0.0056167470413562145 0 0.0038044997504286262 0.0054455814318719242 0 0.004127149066377761 0.0055810091443743402 0 0.0039847229465310424 0.0053161603903499289 0 0.003818119967518659 0.005628580775476219 0 0.0038044997504286262 0.0054455814318719242 0 0.004127149066377761 0.0055810091443743402 0 0.0058852513580104947 0.01163932314251683 0 0.005638645579288783 0.012578407901788742 0 0.0037860287531263702 0.0058679509180649117 0 0.003818119967518659 0.005628580775476219 0 0.004127149066377761 0.0055810091443743402 0 0.0038917994557972346 0.005848179390066998 0 0.0037860287531263702 0.0058679509180649117 0 0.004066028040934591 0.0057763503356445794 0 0.00058493479199645676 0.010420878942960742 0 0.000437525420430348 0.010160128717916861 0 0.00075093169317547756 0.010163901276234321 0 0.0010906848463776175 0.010219175126263077 0 0.00058493479199645676 0.010420878942960742 0 0.00075093169317547756 0.010163901276234321 0 0.0039535839289157994 0.01097031541324592 0 0.0041858910805404725 0.016028162989892451 0 0.0010906848463776175 0.010219175126263077 0 0.00058493479199645676 0.010420878942960742 0 0.00026308706744888422 0.010884510520271555 0 0.0038917994557972346 0.005848179390066998 0 0.004066028040934591 0.0057763503356445794 0 0.0043245096664897564 0.0057133537988723147 0 0.005638645579288783 0.012578407901788742 0 0.0041858910805404725 0.016028162989892451 0 0.00058493479199645676 0.010420878942960742 0 0.00032614587205078506 0.010563461594629396 0 0.00026308706744888422 0.010884510520271555 0 0.00032614587205078506 0.010563461594629396 0 0.000437525420430348 0.010160128717916861 0 0.00015190523702504909 0.010291070847022708 0 0.00058493479199645676 0.010420878942960742 0 0.00032614587205078506 0.010563461594629396 0 0.000437525420430348 0.010160128717916861 0 0.000437525420430348 0.010160128717916861 0 0.00075093169317547756 0.010163901276234321 0 0.00066776699065068299 0.009881019074913535 0 0.00087028120762691467 0.010028025194518776 0 0.00075093169317547756 0.010163901276234321 0 0.00066776699065068299 0.009881019074913535 0 0.00097295012182217744 0.0098487807482427712 0 0.00081690571156549136 0.0096742432141507257 0 0.00066776699065068299 0.009881019074913535 0 0.00097295012182217744 0.0098487807482427712 0 0.00087028120762691467 0.010028025194518776 0 0.00066776699065068299 0.009881019074913535 0 0.0006582096331620215 0.0094969540094297419 0 0.00081690571156549136 0.0096742432141507257 0 0.00066776699065068299 0.009881019074913535 0 0.00014475542467881148 0.0096456963302029158 0 0.000437525420430348 0.010160128717916861 0 0.00066776699065068299 0.009881019074913535 0 0.00014475542467881148 0.0096456963302029158 0 0.0006582096331620215 0.0094969540094297419 0 0.00066776699065068299 0.009881019074913535 0 0.0022981081664345043 0.022344097357755641 0 0.0022779678600360954 0.022326272459186027 0 0.0022790924147173823 0.022328207683334517 0 0.0017244896905399992 0.022418558762739946 0 0.00066548568633092357 0.027043292942407902 0 0.00014475542467881148 0.0096456963302029158 0 0.000437525420430348 0.010160128717916861 0 0.00015190523702504909 0.010291070847022708 0 0.0017244896905399992 0.022418558762739946 0 0.0024648684430826923 0.018775036319176836 0 0.0021305117211548302 0.036635915819788048 0 0.0020656827384254216 0.036845236721664898 0 0.0019733034519768496 0.036775684349847702 0 0.0024648684430826923 0.018775036319176836 0 0.0035897415099385155 0.017871347447296813 0 0.0022779678600360954 0.022326272459186027 0 0.0022790924147173823 0.022328207683334517 0 0.0022680117282114116 0.022315812220028129 0 0.00032614587205078506 0.010563461594629396 0 0.00015190523702504909 0.010291070847022708 0 0.00017673664581156176 0.010950616678626013 0 0.00032614587205078506 0.010563461594629396 0 0.00026308706744888422 0.010884510520271555 0 0.00017673664581156176 0.010950616678626013 0 0.0019140734741766288 0.036919196740709072 0 0.0019733034519768496 0.036775684349847702 0 0.0018119060206290554 0.036810138939144442 0 0.0020656827384254216 0.036845236721664898 0 0.0019140734741766288 0.036919196740709072 0 0.0020011587146936253 0.037043407533216499 0 0.0020656827384254216 0.036845236721664898 0 0.0019140734741766288 0.036919196740709072 0 0.0019733034519768496 0.036775684349847702 0 0.0021305117211548302 0.036635915819788048 0 0.0019733034519768496 0.036775684349847702 0 0.0019480854271144439 0.036664838747020416 0 0.0019733034519768496 0.036775684349847702 0 0.0019480854271144439 0.036664838747020416 0 0.0018119060206290554 0.036810138939144442 0 0.0023774220399007799 0.0069644496427531616 0 0.0020257960495733548 0.0073490356940649048 0 0.0026639074212771439 0.0072119027039488862 0 0.0023774220399007799 0.0069644496427531616 0 0.0027549959890583041 0.0066722396914872754 0 0.0026639074212771439 0.0072119027039488862 0 0.0027549959890583041 0.0066722396914872754 0 0.0023912839630202418 0.0065434453132369461 0 0.0028482832868438062 0.0061492331775345561 0 0.0023774220399007799 0.0069644496427531616 0 0.0027549959890583041 0.0066722396914872754 0 0.0023912839630202418 0.0065434453132369461 0 0.0023774220399007799 0.0069644496427531616 0 0.0023912839630202418 0.0065434453132369461 0 0.0020739918045862985 0.0068735049772513813 0 0.0023912839630202418 0.0065434453132369461 0 0.0020739918045862985 0.0068735049772513813 0 0.0018120058992932044 0.0062899942498361458 0 0.00088352633360349296 0.0076456913604282407 0 0.0015373284643578214 0.0069425248797292281 0 0.0020257960495733548 0.0073490356940649048 0 0.0015373284643578214 0.0069425248797292281 0 0.0020739918045862985 0.0068735049772513813 0 0.0018120058992932044 0.0062899942498361458 0 0.0015373284643578214 0.0069425248797292281 0 0.0020739918045862985 0.0068735049772513813 0 0.0020257960495733548 0.0073490356940649048 0 0.0023774220399007799 0.0069644496427531616 0 0.0020739918045862985 0.0068735049772513813 0 0.0020257960495733548 0.0073490356940649048 0 0.00071190335569064312 0.0084231455440684673 0 0.00060421483653106593 0.0085283254340295361 0 0.0005395448361547227 0.0086047852920537998 0 0.0010465929006015574 0.0084088884147061581 0 0.001297979517507896 0.008509465304486789 0 0.00088352633360349296 0.0076456913604282407 0 0.0007706525655856891 0.0081809474416949177 0 0.00071190335569064312 0.0084231455440684673 0 0.0007706525655856891 0.0081809474416949177 0 0.00071190335569064312 0.0084231455440684673 0 0.00060421483653106593 0.0085283254340295361 0 0.001297979517507896 0.008509465304486789 0 0.0018905340299525124 0.0087871636719817226 0 0.00071190335569064312 0.0084231455440684673 0 0.0005395448361547227 0.0086047852920537998 0 0.00049365865678074558 0.0086700437447850606 0 0.00046619440135907262 0.0087251205280671831 0 0.00060421483653106593 0.0085283254340295361 0 0.0005395448361547227 0.0086047852920537998 0 0.0005395448361547227 0.0086047852920537998 0 0.00047705791272041408 0.0086701915512653067 0 0.00044629347083485603 0.008711746100628576 0 0.0018535664453240013 0.0088029352245327635 0 0.0018905340299525124 0.0087871636719817226 0 0.00046619440135907262 0.0087251205280671831 0 0.0005395448361547227 0.0086047852920537998 0 0.00044629347083485603 0.008711746100628576 0 0.00047705791272041408 0.0086701915512653067 0 0.00044629347083485603 0.008711746100628576 0 0.00045439823777989837 0.008714587236874077 0 0.0018905340299525124 0.0087871636719817226 0 0.0012390762858633829 0.0087601776954690357 0 0.00038022586952870158 0.0088211723493006843 0 0.00044629347083485603 0.008711746100628576 0 0.00045439823777989837 0.008714587236874077 0 0.001278617942803978 0.0091259435162136353 0 0.0017537327018471399 0.0088627956132247068 0 0.0018909856139409942 0.0095997516074765987 0 0.001278617942803978 0.0091259435162136353 0 0.0018909856139409942 0.0095997516074765987 0 0.0014135454968979479 0.0096549081268896379 0 0.0027197155392190632 0.0089757739113613816 0 0.0017537327018471399 0.0088627956132247068 0 0.0018909856139409942 0.0095997516074765987 0 0.0018905340299525124 0.0087871636719817226 0 0.0031177478130064275 0.0091874224310336382 0 0.0027549959890583041 0.0066722396914872754 0 0.0026639074212771439 0.0072119027039488862 0 0.0033729889046547382 0.006388835515299447 0 0.0027549959890583041 0.0066722396914872754 0 0.0033729889046547382 0.006388835515299447 0 0.0028482832868438062 0.0061492331775345561 0 0.0033729889046547382 0.006388835515299447 0 0.0028482832868438062 0.0061492331775345561 0 0.0032722582929908543 0.0058387035718507939 0 0.0028482832868438062 0.0061492331775345561 0 0.0032722582929908543 0.0058387035718507939 0 0.002784380112033608 0.0056001382078337946 0 0.0010906848463776175 0.010219175126263077 0 0.0018909856139409942 0.0095997516074765987 0 0.0014135454968979479 0.0096549081268896379 0 0.0038917994557972346 0.005848179390066998 0 0.0037860287531263702 0.0058679509180649117 0 0.0033729889046547382 0.006388835515299447 0 0.0037860287531263702 0.0058679509180649117 0 0.0033729889046547382 0.006388835515299447 0 0.0032722582929908543 0.0058387035718507939 0 0.0039535839289157994 0.01097031541324592 0 0.0031177478130064275 0.0091874224310336382 0 0.0032722582929908543 0.0058387035718507939 0 0.0035493526240299739 0.0056167470413562145 0 0.003175061686617053 0.0053120922614365686 0 0.0037860287531263702 0.0058679509180649117 0 0.0032722582929908543 0.0058387035718507939 0 0.0035493526240299739 0.0056167470413562145 0 0.0035493526240299739 0.0056167470413562145 0 0.003175061686617053 0.0053120922614365686 0 0.0035436536264891374 0.0052464064404060045 0 0.0038044997504286262 0.0054455814318719242 0 0.0035493526240299739 0.0056167470413562145 0 0.0035436536264891374 0.0052464064404060045 0 0.0032722582929908543 0.0058387035718507939 0 0.002784380112033608 0.0056001382078337946 0 0.003175061686617053 0.0053120922614365686 0 0.002784380112033608 0.0056001382078337946 0 0.003175061686617053 0.0053120922614365686 0 0.0026742084420360514 0.0050555730683970257 0 0.002784380112033608 0.0056001382078337946 0 0.0022161173616710855 0.0052879705762625484 0 0.0026742084420360514 0.0050555730683970257 0 0.002784380112033608 0.0056001382078337946 0 0.0022161173616710855 0.0052879705762625484 0 0.0023798230462433738 0.0059275575184512975 0 0.0028482832868438062 0.0061492331775345561 0 0.002784380112033608 0.0056001382078337946 0 0.0023798230462433738 0.0059275575184512975 0 0.0023912839630202418 0.0065434453132369461 0 0.0028482832868438062 0.0061492331775345561 0 0.0023798230462433738 0.0059275575184512975 0 0.0023912839630202418 0.0065434453132369461 0 0.0023798230462433738 0.0059275575184512975 0 0.0018120058992932044 0.0062899942498361458 0 0.0023798230462433738 0.0059275575184512975 0 0.0018120058992932044 0.0062899942498361458 0 0.0019103435619209439 0.0057058653406657856 0 0.0014508411521789292 0.005713397526194164 0 0.0018120058992932044 0.0062899942498361458 0 0.0019103435619209439 0.0057058653406657856 0 0.0016397862556748466 0.0052292529712084758 0 0.0022161173616710855 0.0052879705762625484 0 0.0019103435619209439 0.0057058653406657856 0 0.0016397862556748466 0.0052292529712084758 0 0.0022161173616710855 0.0052879705762625484 0 0.0017682847559942205 0.0049057971604312724 0 0.0022161173616710855 0.0052879705762625484 0 0.0023798230462433738 0.0059275575184512975 0 0.0019103435619209439 0.0057058653406657856 0 0.0014508411521789292 0.005713397526194164 0 0.0016397862556748466 0.0052292529712084758 0 0.0019103435619209439 0.0057058653406657856 0 0.0014693987787408806 0.0046111207168428739 0 0.0017682847559942205 0.0049057971604312724 0 0.0021398821974529308 0.0046624656108945079 0 0.0022161173616710855 0.0052879705762625484 0 0.0017682847559942205 0.0049057971604312724 0 0.0021398821974529308 0.0046624656108945079 0 0.0026742084420360514 0.0050555730683970257 0 0.0021398821974529308 0.0046624656108945079 0 0.0027185327260286301 0.0046061518327940899 0 0.0022161173616710855 0.0052879705762625484 0 0.0026742084420360514 0.0050555730683970257 0 0.0021398821974529308 0.0046624656108945079 0 0.0021398821974529308 0.0046624656108945079 0 0.0024567400561769236 0.0042378755836275737 0 0.0027185327260286301 0.0046061518327940899 0 0.0021398821974529308 0.0046624656108945079 0 0.0020261698378066053 0.0041360010489249078 0 0.0024567400561769236 0.0042378755836275737 0 0.0014693987787408806 0.0046111207168428739 0 0.0021398821974529308 0.0046624656108945079 0 0.0020261698378066053 0.0041360010489249078 0 0.0020261698378066053 0.0041360010489249078 0 0.0024567400561769236 0.0042378755836275737 0 0.0025483882263986962 0.0036683736874834534 0 0.0024567400561769236 0.0042378755836275737 0 0.0025483882263986962 0.0036683736874834534 0 0.0028583551646339713 0.0041398592046715471 0 0.0024567400561769236 0.0042378755836275737 0 0.0028583551646339713 0.0041398592046715471 0 0.0027185327260286301 0.0046061518327940899 0 0.0040571544497068051 -0.0056392086105042302 0 0.005697429975377988 -0.0026792533782598739 0 0.0057393727982672374 -0.0050771685847119837 0 0.005697429975377988 -0.0026792533782598739 0 0.0071931951634755052 -0.0052096974763739317 0 0.0057393727982672374 -0.0050771685847119837 0 0.0044862453249614586 0.0017015865651536244 0 0.0060568995349681125 0.0015981767032859379 0 0.0033238330790997511 0.0038742314467677336 0 0.0038506485124919429 0.0039042894636738502 0 0.0033885521644492081 0.0035140840145881074 0 0.0033238330790997511 0.0038742314467677336 0 0.0030085774784355118 0.0036299757231427637 0 0.0033885521644492081 0.0035140840145881074 0 0.0025483882263986962 0.0036683736874834534 0 0.0028583551646339713 0.0041398592046715471 0 0.0030085774784355118 0.0036299757231427637 0 0.0033238330790997511 0.0038742314467677336 0 0.0028583551646339713 0.0041398592046715471 0 0.0030085774784355118 0.0036299757231427637 0 0.0028583551646339713 0.0041398592046715471 0 0.003268678882079659 0.0042505765096927843 0 0.0032145892467623284 0.0046295927096365224 0 0.0033238330790997511 0.0038742314467677336 0 0.0028583551646339713 0.0041398592046715471 0 0.003268678882079659 0.0042505765096927843 0 0.0033238330790997511 0.0038742314467677336 0 0.003268678882079659 0.0042505765096927843 0 0.0036444746703440229 0.004217862474438042 0 0.003268678882079659 0.0042505765096927843 0 0.0036369626548880419 0.0045823044881934793 0 0.0036444746703440229 0.004217862474438042 0 0.003268678882079659 0.0042505765096927843 0 0.0032145892467623284 0.0046295927096365224 0 0.0036369626548880419 0.0045823044881934793 0 0.0032145892467623284 0.0046295927096365224 0 0.0035555896858259061 0.0048813673092033315 0 0.0033158490866443528 0.004994296910402961 0 0.0032145892467623284 0.0046295927096365224 0 0.0030246133990635437 0.0049186572792085242 0 0.0033158490866443528 0.004994296910402961 0 0.0032145892467623284 0.0046295927096365224 0 0.0035555896858259061 0.0048813673092033315 0 0.0036369626548880419 0.0045823044881934793 0 0.0032145892467623284 0.0046295927096365224 0 0.0027185327260286301 0.0046061518327940899 0 0.0030246133990635437 0.0049186572792085242 0 0.0028583551646339713 0.0041398592046715471 0 0.0032145892467623284 0.0046295927096365224 0 0.0027185327260286301 0.0046061518327940899 0 0.003175061686617053 0.0053120922614365686 0 0.0026742084420360514 0.0050555730683970257 0 0.0030246133990635437 0.0049186572792085242 0 0.0026742084420360514 0.0050555730683970257 0 0.0027185327260286301 0.0046061518327940899 0 0.0030246133990635437 0.0049186572792085242 0 0.003175061686617053 0.0053120922614365686 0 0.0030246133990635437 0.0049186572792085242 0 0.0033158490866443528 0.004994296910402961 0 0.0035555896858259061 0.0048813673092033315 0 0.0033158490866443528 0.004994296910402961 0 0.0035436536264891374 0.0052464064404060045 0 0.003175061686617053 0.0053120922614365686 0 0.0033158490866443528 0.004994296910402961 0 0.0035436536264891374 0.0052464064404060045 0 0.0038044997504286262 0.0054455814318719242 0 0.0035436536264891374 0.0052464064404060045 0 0.0038265939283668041 0.0051532673519260946 0 0.0035555896858259061 0.0048813673092033315 0 0.0035436536264891374 0.0052464064404060045 0 0.0038265939283668041 0.0051532673519260946 0 0.0035555896858259061 0.0048813673092033315 0 0.0038265939283668041 0.0051532673519260946 0 0.0038690561445537362 0.0048839685087034143 0 0.0038265939283668041 0.0051532673519260946 0 0.0041757955621380743 0.0050832429493748669 0 0.0038690561445537362 0.0048839685087034143 0 0.0038265939283668041 0.0051532673519260946 0 0.0039847229465310424 0.0053161603903499289 0 0.0041757955621380743 0.0050832429493748669 0 0.0038044997504286262 0.0054455814318719242 0 0.0038265939283668041 0.0051532673519260946 0 0.0039847229465310424 0.0053161603903499289 0 0.004127149066377761 0.0055810091443743402 0 0.0039847229465310424 0.0053161603903499289 0 0.0041757955621380743 0.0050832429493748669 0 0.0041757955621380743 0.0050832429493748669 0 0.0045317424177312628 0.0052992305330664341 0 0.0044580293695152418 0.0044864190092639361 0 0.004127149066377761 0.0055810091443743402 0 0.0041757955621380743 0.0050832429493748669 0 0.004471724142571798 0.005344187405773337 0 0.0041757955621380743 0.0050832429493748669 0 0.004471724142571798 0.005344187405773337 0 0.0045317424177312628 0.0052992305330664341 0 0.0041757955621380743 0.0050832429493748669 0 0.0039800772946483052 0.0045262429026105564 0 0.0044580293695152418 0.0044864190092639361 0 0.0041757955621380743 0.0050832429493748669 0 0.0039800772946483052 0.0045262429026105564 0 0.0038690561445537362 0.0048839685087034143 0 0.0039800772946483052 0.0045262429026105564 0 0.0036369626548880419 0.0045823044881934793 0 0.0038690561445537362 0.0048839685087034143 0 0.0035555896858259061 0.0048813673092033315 0 0.0036369626548880419 0.0045823044881934793 0 0.0038690561445537362 0.0048839685087034143 0 0.0020011587146936253 0.037043407533216499 0 0.0017970297840308139 0.037119206295530227 0 0.0018358600818149098 0.037020485009397655 0 0.0019140734741766288 0.036919196740709072 0 0.0020011587146936253 0.037043407533216499 0 0.0018358600818149098 0.037020485009397655 0 0.0033783062636395331 0.035839314720592104 0 0.0045143083978848395 0.035086556252760533 0 0.0045790911831581739 0.037595046583067816 0 0.0022779678600360954 0.022326272459186027 0 0.0022619245471930476 0.022317070368791794 0 0.0022680117282114116 0.022315812220028129 0 0.00066548568633092357 0.027043292942407902 0 -4.602252138784633e-05 0.027177884321591236 0 -4.602252138784633e-05 0.027177884321591236 0 0.0035897415099385155 0.017871347447296813 0 0.0041858910805404725 0.016028162989892451 0 0.0035897415099385155 0.017871347447296813 0 0.0033783062636395331 0.035839314720592104 0 0.0039696849279738699 0.037524293062390399 0 0.0045790911831581739 0.037595046583067816 0 0.0033783062636395331 0.035839314720592104 0 0.0031741014851200005 0.036972209769167798 0 0.0039696849279738699 0.037524293062390399 0 0.0035897415099385155 0.017871347447296813 0 0.0033736198723749253 0.020934869671611546 0 0.0031741014851200005 0.036972209769167798 0 0.0027792660675611805 0.037680626388843334 0 0.0039696849279738699 0.037524293062390399 0 0.0032154255277051808 0.03595796504527856 0 0.0025369711846570486 0.036730215793683366 0 0.0017632657489433847 0.037208258137412228 0 0.0020011587146936253 0.037043407533216499 0 0.0017970297840308139 0.037119206295530227 0 0.0017632657489433847 0.037208258137412228 0 -4.602252138784633e-05 0.027177884321591236 0 -0.00075330861899611939 0.030722926970582723 0 0.0033783062636395331 0.035839314720592104 0 0.0031741014851200005 0.036972209769167798 0 0.0025369711846570486 0.036730215793683366 0 -4.602252138784633e-05 0.027177884321591236 0 -0.00043630843718007979 0.028564689655419414 0 0.0031741014851200005 0.036972209769167798 0 0.0025369711846570486 0.036730215793683366 0 0.0027792660675611805 0.037680626388843334 0 0.0025369711846570486 0.036730215793683366 0 0.0027792660675611805 0.037680626388843334 0 0.0020873275532781697 0.037426196061821515 0 0.0022910676516983636 0.038823307122339057 0 0.0022274165398115456 0.040132641525619295 0 0.00062832490796892811 0.038182193796764817 0 0.0022817557801539166 0.037846539686409178 0 0.0032463720146429335 0.038513756052855848 0 0.0039696849279738699 0.037524293062390399 0 0.0022910676516983636 0.038823307122339057 0 0.0022817557801539166 0.037846539686409178 0 0.00062832490796892811 0.038182193796764817 0 0.0030153722796513161 0.045244841800468318 0 0.0034977212771225247 0.044425120654505219 0 0.0022910676516983636 0.038823307122339057 0 0.0032463720146429335 0.038513756052855848 0 0.0030568310936454623 0.039435394207614737 0 0.0022910676516983636 0.038823307122339057 0 0.0022817557801539166 0.037846539686409178 0 0.0032463720146429335 0.038513756052855848 0 0.0032463720146429335 0.038513756052855848 0 0.0040389333164497715 0.039166027803123775 0 0.0030568310936454623 0.039435394207614737 0 0.0032463720146429335 0.038513756052855848 0 0.0039646999841127352 0.03819592965449297 0 0.0040389333164497715 0.039166027803123775 0 0.0032463720146429335 0.038513756052855848 0 0.0039696849279738699 0.037524293062390399 0 0.0039646999841127352 0.03819592965449297 0 0.0039696849279738699 0.037524293062390399 0 0.0039646999841127352 0.03819592965449297 0 0.0045790911831581739 0.037595046583067816 0 0.0039646999841127352 0.03819592965449297 0 0.0045790911831581739 0.037595046583067816 0 0.0040389333164497715 0.039166027803123775 0 0.0033736198723749253 0.020934869671611546 0 0.002191020023840441 0.022894570062337201 0 0.0045790911831581739 0.037595046583067816 0 0.0040389333164497715 0.039166027803123775 0 0.0046849971508000155 0.040678568630965049 0 0.0040389333164497715 0.039166027803123775 0 0.0035152118057143874 0.040224175019483943 0 0.0046849971508000155 0.040678568630965049 0 0.0040389333164497715 0.039166027803123775 0 0.0035152118057143874 0.040224175019483943 0 0.0030568310936454623 0.039435394207614737 0 0.0022910676516983636 0.038823307122339057 0 0.0030568310936454623 0.039435394207614737 0 0.0022274165398115456 0.040132641525619295 0 0.0035152118057143874 0.040224175019483943 0 0.0030568310936454623 0.039435394207614737 0 0.0022274165398115456 0.040132641525619295 0 0.0035152118057143874 0.040224175019483943 0 0.0022274165398115456 0.040132641525619295 0 0.0033065657961978152 0.041435777563228401 0 0.0039800772946483052 0.0045262429026105564 0 0.0036444746703440229 0.004217862474438042 0 0.0038506485124919429 0.0039042894636738502 0 0.0039800772946483052 0.0045262429026105564 0 0.0036369626548880419 0.0045823044881934793 0 0.0036444746703440229 0.004217862474438042 0 0.0039800772946483052 0.0045262429026105564 0 0.0044580293695152418 0.0044864190092639361 0 0.0038506485124919429 0.0039042894636738502 0 0.0044580293695152418 0.0044864190092639361 0 0.0038506485124919429 0.0039042894636738502 0 0.0043730195692114164 0.0037343071791258509 0 0.0033238330790997511 0.0038742314467677336 0 0.0036444746703440229 0.004217862474438042 0 0.0038506485124919429 0.0039042894636738502 0 0.0038506485124919429 0.0039042894636738502 0 0.0036857243399158377 0.0031148994064193842 0 0.0043730195692114164 0.0037343071791258509 0 0.0038506485124919429 0.0039042894636738502 0 0.0036857243399158377 0.0031148994064193842 0 0.0033885521644492081 0.0035140840145881074 0 0.0043197096211001909 0.0030430751799156394 0 0.0036857243399158377 0.0031148994064193842 0 0.0043730195692114164 0.0037343071791258509 0 -0.00081362961977655946 0.028200474410601074 0 0.0035923441214114897 0.014383239264999466 0 -0.0042301681743542787 0.013555992751713796 0 0.0019524614222901468 0.012203320456209817 0 -4.673046101719591e-05 0.014401137391828292 0 0.0033065657961978152 0.041435777563228401 0 0.0018973223624545251 0.042856153135601302 0 0.00023841832878014545 0.041688165104753608 0 0.0022274165398115456 0.040132641525619295 0 0.0033065657961978152 0.041435777563228401 0 0.00056195789708451082 0.041642048375170333 0 0.0018716408043110073 0.050225459133845116 0 -0.00047940033632913614 0.053576859391787246 0 0.0033065657961978152 0.041435777563228401 0 0.0046849971508000155 0.040678568630965049 0 0.003402471247259961 0.042909635933767371 0 -0.00081362961977655946 0.028200474410601074 0 0.002191020023840441 0.022894570062337201 0 0.0035152118057143874 0.040224175019483943 0 0.0033065657961978152 0.041435777563228401 0 0.0046849971508000155 0.040678568630965049 0 0.0047625334659474822 0.043827552994273697 0 0.0046849971508000155 0.040678568630965049 0 0.003402471247259961 0.042909635933767371 0 0.0047625334659474822 0.043827552994273697 0 0.003402471247259961 0.042909635933767371 0 0.002520980823213712 0.044357764674688598 0 0.0033065657961978152 0.041435777563228401 0 0.003402471247259961 0.042909635933767371 0 0.0018973223624545251 0.042856153135601302 0 0.003402471247259961 0.042909635933767371 0 0.0018973223624545251 0.042856153135601302 0 0.002520980823213712 0.044357764674688598 0 -0.006656594922008657 0.043558013813871158 0 -0.0068846367746619929 0.044733945460100795 0 -0.0079686533784194789 0.043875032578632206 0 0.0018973223624545251 0.042856153135601302 0 0.002520980823213712 0.044357764674688598 0 0.00024766480578800005 0.044880113512521039 0 -0.0053344170827651681 0.043240209292891962 0 -0.006656594922008657 0.043558013813871158 0 -0.0053006576607187335 0.044858209569751346 0 -0.00081362961977655946 0.028200474410601074 0 -0.0027401239787965474 0.042913804459222819 0 -0.0068846367746619929 0.044733945460100795 0 -0.0053006576607187335 0.044858209569751346 0 -0.006712926444632528 0.04601730629113461 0 -0.006656594922008657 0.043558013813871158 0 -0.0068846367746619929 0.044733945460100795 0 -0.0053006576607187335 0.044858209569751346 0 0.0019524614222901468 0.012203320456209817 0 0.0011042981520928525 0.015228788161805512 0 0.0050274084518920799 0.014585400230909705 0 0.0011540230541619368 0.016633377567201551 0 0.0011042981520928525 0.015228788161805512 0 0.0050274084518920799 0.014585400230909705 0 0.0011540230541619368 0.016633377567201551 0 0.0020199577500072934 0.018278069305367916 0 0.0050274084518920799 0.014585400230909705 0 -0.00032243052230356028 0.016341105196036879 0 0.0011803442931715162 0.016740841796424818 0 -0.00084931450715767436 0.018533523789558377 0 -0.00032243052230356028 0.016341105196036879 0 0.0011803442931715162 0.016740841796424818 0 -4.673046101719591e-05 0.014401137391828292 0 0.0028579187004028868 0.01069932679957122 0 0.0028393613549150872 0.010988197541747798 0 0.0019524614222901468 0.012203320456209817 0 -4.673046101719591e-05 0.014401137391828292 0 0.0011042981520928525 0.015228788161805512 0 0.0028579187004028868 0.01069932679957122 0 0.0029008872631343403 0.011221442003606226 0 0.0011655270029968475 0.016625558170293438 0 -4.673046101719591e-05 0.014401137391828292 0 0.0011042981520928525 0.015228788161805512 0 -0.00081362961977655946 0.028200474410601074 0 -0.0033611711116502555 0.03117198512277939 0 -0.0042301681743542787 0.013555992751713796 0 -0.0018302537859664156 0.016384472127531188 0 -0.0040790768082216268 0.019679220280143146 0 -0.0042301681743542787 0.013555992751713796 0 -4.673046101719591e-05 0.014401137391828292 0 -0.0018302537859664156 0.016384472127531188 0 -0.00032243052230356028 0.016341105196036879 0 -0.0018302537859664156 0.016384472127531188 0 -0.00084931450715767436 0.018533523789558377 0 -0.00032243052230356028 0.016341105196036879 0 -4.673046101719591e-05 0.014401137391828292 0 -0.0018302537859664156 0.016384472127531188 0 -0.00084931450715767436 0.018533523789558377 0 -0.0040790768082216268 0.019679220280143146 0 -0.0013166028339091443 0.022633433486397455 0 -0.0018302537859664156 0.016384472127531188 0 -0.00084931450715767436 0.018533523789558377 0 -0.0040790768082216268 0.019679220280143146 0 0.0017787782455335088 0.008858511400330036 0 0.0020383092914554026 0.0085355036968774115 0 0.00092521115543656878 0.0072498309495509202 0 -0.00084931450715767436 0.018533523789558377 0 0.0012710559209580122 0.019431940090355326 0 -0.0013166028339091443 0.022633433486397455 0 0.0017200927936143391 0.011605616264992047 0 -0.0016363567804716643 0.020992529684662552 0 0.0011803442931715162 0.016740841796424818 0 -0.00084931450715767436 0.018533523789558377 0 0.0012710559209580122 0.019431940090355326 0 0.0028586604137787672 0.010377898190268955 0 0.00156259242838252 0.0079156018682660489 0 0.0027134118253119132 0.0064911102100327 0 0.0028579187004028868 0.01069932679957122 0 0.0017200927936143391 0.011605616264992047 0 0.0028579187004028868 0.01069932679957122 0 0.0031080546554267175 0.0078965439477223561 0 0.0031080546554267175 0.0078965439477223561 0 0.0017200927936143391 0.011605616264992047 0 0.01017910960354626 -0.0097973706618150642 0 0.0088193278086244383 -0.0099394524248220782 0 0.0093254524517565104 -0.011393441067532725 0 0.0031080546554267175 0.0078965439477223561 0 0.0023600417138624186 0.0011551502576107344 0 0.01017910960354626 -0.0097973706618150642 0 0.0088193278086244383 -0.0099394524248220782 0 0.0092301099757189833 -0.0085801192379618921 0 0.0031080546554267175 0.0078965439477223561 0 0.0060164237580953624 0.0050156010234993558 0 0.0088193278086244383 -0.0099394524248220782 0 0.0092301099757189833 -0.0085801192379618921 0 0.0076935912677324808 -0.0091994880106094634 0 0.0092301099757189833 -0.0085801192379618921 0 0.0076935912677324808 -0.0091994880106094634 0 0.0077556868512253128 -0.008078950293078712 0 0.0088193278086244383 -0.0099394524248220782 0 0.0076935912677324808 -0.0091994880106094634 0 0.0076667143169332529 -0.01073521581873828 0 0.0088193278086244383 -0.0099394524248220782 0 0.0076667143169332529 -0.01073521581873828 0 0.0093254524517565104 -0.011393441067532725 0 0.0076667143169332529 -0.01073521581873828 0 0.0065760297984399554 -0.0098066522482281749 0 0.0059592096439968862 -0.011073960584606119 0 0.0076935912677324808 -0.0091994880106094634 0 0.0076667143169332529 -0.01073521581873828 0 0.0065760297984399554 -0.0098066522482281749 0 0.0047927148369131881 -0.010583017831172868 0 0.0052890466416315538 -0.0094901037794020981 0 0.0059592096439968862 -0.011073960584606119 0 0.0065760297984399554 -0.0098066522482281749 0 0.0052890466416315538 -0.0094901037794020981 0 0.0059592096439968862 -0.011073960584606119 0 0.0065760297984399554 -0.0098066522482281749 0 0.0052890466416315538 -0.0094901037794020981 0 0.0065036117431497772 -0.0083153110546439479 0 0.0047492229878929046 -0.0078564850575306017 0 0.0052890466416315538 -0.0094901037794020981 0 0.0065036117431497772 -0.0083153110546439479 0 0.0076935912677324808 -0.0091994880106094634 0 0.0065760297984399554 -0.0098066522482281749 0 0.0065036117431497772 -0.0083153110546439479 0 0.0076935912677324808 -0.0091994880106094634 0 0.0065036117431497772 -0.0083153110546439479 0 0.0077556868512253128 -0.008078950293078712 0 0.0065036117431497772 -0.0083153110546439479 0 0.0076516238407198763 -0.0070930536516850507 0 0.0077556868512253128 -0.008078950293078712 0 0.0065036117431497772 -0.0083153110546439479 0 0.0076516238407198763 -0.0070930536516850507 0 0.0060380992104462272 -0.0065989874795281756 0 0.0047492229878929046 -0.0078564850575306017 0 0.0065036117431497772 -0.0083153110546439479 0 0.0060380992104462272 -0.0065989874795281756 0 0.0040571544497068051 -0.0056392086105042302 0 0.0047492229878929046 -0.0078564850575306017 0 0.0060380992104462272 -0.0065989874795281756 0 0.0040571544497068051 -0.0056392086105042302 0 0.0057393727982672374 -0.0050771685847119837 0 0.0060380992104462272 -0.0065989874795281756 0 0.0071931951634755052 -0.0052096974763739317 0 0.0057393727982672374 -0.0050771685847119837 0 0.0060380992104462272 -0.0065989874795281756 0 0.0071931951634755052 -0.0052096974763739317 0 0.0076516238407198763 -0.0070930536516850507 0 0.0060380992104462272 -0.0065989874795281756 0 0.0025483882263986962 0.0036683736874834534 0 0.0030085774784355118 0.0036299757231427637 0 0.0030185391488922815 0.0031984488558941676 0 0.0071931951634755052 -0.0052096974763739317 0 0.0076516238407198763 -0.0070930536516850507 0 0.0085288239575296871 -0.0073078067759209282 0 0.0060568995349681125 0.0015981767032859379 0 0.0065440058202545807 0.0053040342021972138 0 0.0030085774784355118 0.0036299757231427637 0 0.0033885521644492081 0.0035140840145881074 0 0.0030185391488922815 0.0031984488558941676 0 0.0019524614222901468 0.012203320456209817 0 0.0050274084518920799 0.014585400230909705 0 0.0080264971333938312 0.010875412510859512 0 0.0035923441214114897 0.014383239264999466 0 0.0065440058202545807 0.0053040342021972138 0 0.0060164237580953624 0.0050156010234993558 0 0.0065440058202545807 0.0053040342021972138 0 0.0036857243399158377 0.0031148994064193842 0 0.0033885521644492081 0.0035140840145881074 0 0.0030185391488922815 0.0031984488558941676 0 0.0092301099757189833 -0.0085801192379618921 0 0.0077556868512253128 -0.008078950293078712 0 0.008323872979198994 -0.0073176636540307266 0 0.0076516238407198763 -0.0070930536516850507 0 0.0077556868512253128 -0.008078950293078712 0 0.008323872979198994 -0.0073176636540307266 0 0.0070093849035795181 0.004720813766983082 0 0.0065440058202545807 0.0053040342021972138 0 -0.0055688713978472451 0.06614918550598041 0 -0.0050631500055994738 0.065810057633710034 0 -0.0050139055769594871 0.066612352494071853 0 -0.0055688713978472451 0.06614918550598041 0 -0.0060768659497423636 0.066414112448544532 0 -0.0050139055769594871 0.066612352494071853 0 -0.0055688713978472451 0.06614918550598041 0 -0.0050631500055994738 0.065810057633710034 0 -0.0061330914873864622 0.065709838434167667 0 -0.0046178793044956866 0.066139744830893465 0 -0.0050631500055994738 0.065810057633710034 0 -0.0043154021914971761 0.065854466055228086 0 -0.0046178793044956866 0.066139744830893465 0 -0.0050139055769594871 0.066612352494071853 0 -0.0041577203269950805 0.066271955171585017 0 -0.0046178793044956866 0.066139744830893465 0 -0.0050631500055994738 0.065810057633710034 0 -0.0050139055769594871 0.066612352494071853 0 -0.0024946468176107331 0.064289895716288792 0 -0.0037968029439314085 0.065582949852667591 0 -0.0010342516763107614 0.065318210390834422 0 -0.0043191769814520291 0.063614068718782044 0 -0.0029558713073015077 0.062214098416711466 0 -0.0024946468176107331 0.064289895716288792 0 -0.0041774357851086085 0.064415209823507513 0 -0.0037968029439314085 0.065582949852667591 0 -0.0043191769814520291 0.063614068718782044 0 -0.0050623436367060798 0.064037965027652813 0 -0.005241386319775122 0.065012513562014235 0 -0.0061420311760435296 0.064415014981207816 0 -0.0046069992017765569 0.063831498669865067 0 -0.0037968029439314085 0.065582949852667591 0 -0.005241386319775122 0.065012513562014235 0 -0.0061330914873864622 0.065709838434167667 0 -0.0041774357851086085 0.064415209823507513 0 -0.0037968029439314085 0.065582949852667591 0 -0.005241386319775122 0.065012513562014235 0 -0.0041774357851086085 0.064415209823507513 0 -0.005241386319775122 0.065012513562014235 0 -0.0044120889926556354 0.063125436037992672 0 -0.0010729085348380192 0.067622201894597278 0 -0.00079655912560916127 0.068390352306328547 0 -0.0061420311760435296 0.064415014981207816 0 -0.0074793322279605801 0.065057913896543806 0 -0.0061330914873864622 0.065709838434167667 0 -0.005241386319775122 0.065012513562014235 0 -0.0061420311760435296 0.064415014981207816 0 -0.0061330914873864622 0.065709838434167667 0 0.00026691585040243163 0.072722192561553906 0 0.0015175568046568036 0.077424836891460722 0 -0.0074793322279605801 0.065057913896543806 0 -0.0071715380983977638 0.066239867036265943 0 -0.0061330914873864622 0.065709838434167667 0 -0.0071715380983977638 0.066239867036265943 0 -0.0061330914873864622 0.065709838434167667 0 -0.0060768659497423636 0.066414112448544532 0 -0.0071715380983977638 0.066239867036265943 0 -0.0060768659497423636 0.066414112448544532 0 -0.0064512449521105684 0.067099816918537877 0 -0.0055688713978472451 0.06614918550598041 0 -0.0061330914873864622 0.065709838434167667 0 -0.0060768659497423636 0.066414112448544532 0 -0.0060768659497423636 0.066414112448544532 0 -0.0064512449521105684 0.067099816918537877 0 -0.0050139055769594871 0.066612352494071853 0 -0.011155313946504907 0.094438164663960336 0 -0.010088005949059444 0.09312953852983348 0 -0.0086640551762098492 0.094027373715904361 0 -0.0071715380983977638 0.066239867036265943 0 -0.0064512449521105684 0.067099816918537877 0 -0.0082738884175978262 0.067519049273445556 0 -0.008258464837439989 0.082073019437042261 0 -0.0053437720395007994 0.085043796155773149 0 -0.011155313946504907 0.094438164663960336 0 -0.010088005949059444 0.09312953852983348 0 -0.011342689624001185 0.092313032874828713 0 -0.011155313946504907 0.094438164663960336 0 -0.01299111125609482 0.09305711569996139 0 -0.011342689624001185 0.092313032874828713 0 -0.008258464837439989 0.082073019437042261 0 -0.0093668511311021524 0.079830358734794951 0 -0.011155313946504907 0.094438164663960336 0 -0.01299111125609482 0.09305711569996139 0 -0.013679184589149563 0.094726691839025531 0 -0.013679184589149563 0.094726691839025531 0 -0.014603823489983844 0.09326479179515848 0 -0.015466698902535105 0.094168982853384597 0 -0.01299111125609482 0.09305711569996139 0 -0.013679184589149563 0.094726691839025531 0 -0.014603823489983844 0.09326479179515848 0 -0.0093668511311021524 0.079830358734794951 0 -0.0097888524658327966 0.076841704507876668 0 -0.01299111125609482 0.09305711569996139 0 -0.014603823489983844 0.09326479179515848 0 -0.014254893068288744 0.092016275854740939 0 -0.014603823489983844 0.09326479179515848 0 -0.015442541210793598 0.092310140407216024 0 -0.014254893068288744 0.092016275854740939 0 -0.015478145768257545 0.093085522426091971 0 -0.016163202434201888 0.092689584618734056 0 -0.015466698902535105 0.094168982853384597 0 -0.014603823489983844 0.09326479179515848 0 -0.015442541210793598 0.092310140407216024 0 -0.015478145768257545 0.093085522426091971 0 -0.015442541210793598 0.092310140407216024 0 -0.015478145768257545 0.093085522426091971 0 -0.016163202434201888 0.092689584618734056 0 -0.016163202434201888 0.092689584618734056 0 -0.017418668463370451 0.092521756448030817 0 -0.015466698902535105 0.094168982853384597 0 -0.014603823489983844 0.09326479179515848 0 -0.015478145768257545 0.093085522426091971 0 -0.015466698902535105 0.094168982853384597 0 -0.017340852463627252 0.09198652173439284 0 -0.016701942650555447 0.093940424678226955 0 -0.017453125797024387 0.093566903749607258 0 -0.017340852463627252 0.09198652173439284 0 -0.017453125797024387 0.093566903749607258 0 -0.018042569297206941 0.092969041929236329 0 -0.012730608681828341 0.08568677561697291 0 -0.012807696331731887 0.088755909210126799 0 -0.016701942650555447 0.093940424678226955 0 -0.017978098926199462 0.094502153887655441 0 -0.016050126704788621 0.094971262415452853 0 -0.017340852463627252 0.09198652173439284 0 -0.016701942650555447 0.093940424678226955 0 -0.015466698902535105 0.094168982853384597 0 -0.016701942650555447 0.093940424678226955 0 -0.017453125797024387 0.093566903749607258 0 -0.017978098926199462 0.094502153887655441 0 -0.016701942650555447 0.093940424678226955 0 -0.015466698902535105 0.094168982853384597 0 -0.016050126704788621 0.094971262415452853 0 -0.013679184589149563 0.094726691839025531 0 -0.015466698902535105 0.094168982853384597 0 -0.016050126704788621 0.094971262415452853 0 -0.0068846367746619929 0.044733945460100795 0 -0.0079646474779462434 0.045240389068441814 0 -0.0079686533784194789 0.043875032578632206 0 -0.0089076304028093342 0.059263150086370286 0 -0.005611436336977675 0.057356193284150939 0 -0.009492613954660398 0.066741623858179652 0 -0.010467345977019309 0.066629578297819958 0 -0.0094894477177980153 0.063374965958333015 0 -0.018644076309417449 0.093209886934643396 0 -0.019265515482029275 0.091841745882830506 0 -0.018911862652123513 0.093783546619083932 0 -0.01044537797512086 0.073567808204986179 0 -0.0080961657929802793 0.065079327904640216 0 -0.017340852463627252 0.09198652173439284 0 -0.019265515482029275 0.091841745882830506 0 -0.018042569297206941 0.092969041929236329 0 -0.018644076309417449 0.093209886934643396 0 -0.019265515482029275 0.091841745882830506 0 -0.018042569297206941 0.092969041929236329 0 -0.017978098926199462 0.094502153887655441 0 -0.018911862652123513 0.093783546619083932 0 -0.018620416505928196 0.095351104702188355 0 -0.010467345977019309 0.066629578297819958 0 -0.01087414719224002 0.063678185010994884 0 -0.0094894477177980153 0.063374965958333015 0 -0.0080961657929802793 0.065079327904640216 0 -0.0059491736946305817 0.070334459001035757 0 -0.0037373020309896775 0.065885786779320318 0 -0.0037259282225397959 0.065883718191940402 0 -0.0037125580814392533 0.065865036130191415 0 -0.017453125797024387 0.093566903749607258 0 -0.018146292950701373 0.093666480693630011 0 -0.017978098926199462 0.094502153887655441 0 -0.018644076309417449 0.093209886934643396 0 -0.018146292950701373 0.093666480693630011 0 -0.018911862652123513 0.093783546619083932 0 -0.017453125797024387 0.093566903749607258 0 -0.018042569297206941 0.092969041929236329 0 -0.018146292950701373 0.093666480693630011 0 -0.018644076309417449 0.093209886934643396 0 -0.018042569297206941 0.092969041929236329 0 -0.018146292950701373 0.093666480693630011 0 -0.018146292950701373 0.093666480693630011 0 -0.017978098926199462 0.094502153887655441 0 -0.018911862652123513 0.093783546619083932 0 -0.0027401239787965474 0.042913804459222819 0 -0.005611436336977675 0.057356193284150939 0 -0.0080961657929802793 0.065079327904640216 0 -0.005611436336977675 0.057356193284150939 0 -0.005611436336977675 0.057356193284150939 0 -0.00047940033632913614 0.053576859391787246 0 0.0018973223624545251 0.042856153135601302 0 0.00024766480578800005 0.044880113512521039 0 0.00023841832878014545 0.041688165104753608 0 -0.0037259282225397959 0.065883718191940402 0 -0.0037125580814392533 0.065865036130191415 0 -0.0036593311143832351 0.065828740397494298 0 -0.0037373020309896775 0.065885786779320318 0 -0.0037125580814392533 0.065865036130191415 0 -0.003725901800415668 0.065867170461090904 0 -0.0059491736946305817 0.070334459001035757 0 -0.0059126995134642134 0.069549690747120585 0 -0.0037125580814392533 0.065865036130191415 0 -0.0037243943052770521 0.065871127557852613 0 -0.0037432414372450488 0.065866154715576136 0 -0.0058260317685485882 0.070265912470907355 0 -0.0059491736946305817 0.070334459001035757 0 -0.0036651099589178242 0.066068968120504404 0 -0.0037432414372450488 0.065866154715576136 0 -0.0038734998754034115 0.066000682489507037 0 -0.00047940033632913614 0.053576859391787246 0 -0.0016106941539464931 0.059286659468783351 0 -0.0037432414372450488 0.065866154715576136 0 -0.0036593311143832351 0.065828740397494298 0 -0.0038263284320398236 0.065866929320924444 0 0.0042724818356682992 0.064792986354806376 0 0.0016404752029965958 0.065033268469313732 0 0.0029081266309160304 0.063726763741554351 0 -0.0037432414372450488 0.065866154715576136 0 -0.0038734998754034115 0.066000682489507037 0 -0.0038263284320398236 0.065866929320924444 0 0.0016404752029965958 0.065033268469313732 0 0.0016035134803367016 0.063390554064687452 0 0.0029081266309160304 0.063726763741554351 0 -0.0037125580814392533 0.065865036130191415 0 -0.0037432414372450488 0.065866154715576136 0 -0.0036593311143832351 0.065828740397494298 0 0.0042724818356682992 0.064792986354806376 0 0.0042689895597480456 0.062855451049169203 0 0.0029081266309160304 0.063726763741554351 0 -0.00047940033632913614 0.053576859391787246 0 0.00095870172828177599 0.051242698399957008 0 -0.0046178793044956866 0.066139744830893465 0 -0.0041577203269950805 0.066271955171585017 0 -0.0043154021914971761 0.065854466055228086 0 -0.0041577203269950805 0.066271955171585017 0 -0.0040546211398920801 0.065987931697126162 0 -0.0043154021914971761 0.065854466055228086 0 -0.017978098926199462 0.094502153887655441 0 -0.018620416505928196 0.095351104702188355 0 -0.016050126704788621 0.094971262415452853 0 -0.0059491736946305817 0.070334459001035757 0 -0.0097888524658327966 0.076841704507876668 0 -0.0036651099589178242 0.066068968120504404 0 -0.0041577203269950805 0.066271955171585017 0 -0.0038734998754034115 0.066000682489507037 0 -0.0038734998754034115 0.066000682489507037 0 -0.0040546211398920801 0.065987931697126162 0 -0.0038263284320398236 0.065866929320924444 0 -0.0041577203269950805 0.066271955171585017 0 -0.0038734998754034115 0.066000682489507037 0 -0.0040546211398920801 0.065987931697126162 0 -0.0016106941539464931 0.059286659468783351 0 -0.0029558713073015077 0.062214098416711466 0 0.0016404752029965958 0.065033268469313732 0 0.00056355297414927051 0.064281613303631413 0 -0.0010342516763107614 0.065318210390834422 0 -0.0040546211398920801 0.065987931697126162 0 -0.0038263284320398236 0.065866929320924444 0 -0.0043154021914971761 0.065854466055228086 0 0.0016404752029965958 0.065033268469313732 0 0.00056355297414927051 0.064281613303631413 0 0.0016035134803367016 0.063390554064687452 0 -0.0010342516763107614 0.065318210390834422 0 -0.0014158161372721965 0.063506649502177506 0 2.9328863442410965e-05 0.06339727743898374 0 0.00056355297414927051 0.064281613303631413 0 -0.0010342516763107614 0.065318210390834422 0 2.9328863442410965e-05 0.06339727743898374 0 -0.0024946468176107331 0.064289895716288792 0 -0.0010342516763107614 0.065318210390834422 0 -0.0014158161372721965 0.063506649502177506 0 -0.0013360522833752945 0.062024439699111374 0 2.9328863442410965e-05 0.06339727743898374 0 0.0014665049877816978 0.061469298782755345 0 -0.0014158161372721965 0.063506649502177506 0 -0.0013360522833752945 0.062024439699111374 0 2.9328863442410965e-05 0.06339727743898374 0 2.9328863442410965e-05 0.06339727743898374 0 0.0016035134803367016 0.063390554064687452 0 0.0014665049877816978 0.061469298782755345 0 0.00056355297414927051 0.064281613303631413 0 2.9328863442410965e-05 0.06339727743898374 0 0.0016035134803367016 0.063390554064687452 0 -0.0013360522833752945 0.062024439699111374 0 -0.00036624024696722921 0.059707019662130378 0 -0.0030011105460620879 0.060255886383922055 0 -0.0013360522833752945 0.062024439699111374 0 0.0016729416634382859 0.061383726970315099 0 -0.00036624024696722921 0.059707019662130378 0 -0.00050697951877208438 0.056062162265071117 0 0.0005774630800250189 0.05432633942949542 0 0.0022274165398115456 0.040132641525619295 0 0.00056195789708451082 0.041642048375170333 0 0.00058136642687914048 0.040038841963207721 0 0.0042689895597480456 0.062855451049169203 0 0.0029021110953271335 0.062468502308716617 0 0.0042604520524982389 0.060898712697314755 0 0.0022274165398115456 0.040132641525619295 0 0.00058136642687914048 0.040038841963207721 0 0.00081188048814386741 0.038470445779638034 0 0.00034065617051553485 0.044265591201229075 0 0.0019023099416494327 0.047798261727724424 0 0.0016035134803367016 0.063390554064687452 0 0.0014665049877816978 0.061469298782755345 0 0.0029021110953271335 0.062468502308716617 0 0.0042689895597480456 0.062855451049169203 0 0.0029021110953271335 0.062468502308716617 0 0.0029081266309160304 0.063726763741554351 0 0.0016035134803367016 0.063390554064687452 0 0.0029021110953271335 0.062468502308716617 0 0.0029081266309160304 0.063726763741554351 0 0.0016729416634382859 0.061383726970315099 0 0.0046303864817708647 0.060333309720545833 0 0.0046320839048720952 0.060769593240646 0 0.0014665049877816978 0.061469298782755345 0 0.0029021110953271335 0.062468502308716617 0 0.0042604520524982389 0.060898712697314755 0 0.0005774630800250189 0.05432633942949542 0 0.0020533465772045608 0.048673696042065381 0 0.00095870172828177599 0.051242698399957008 0 0.0020533465772045608 0.048673696042065381 0 0.00058136642687914048 0.040038841963207721 0 0.00058623900435203567 0.038516650375450337 0 0.00081188048814386741 0.038470445779638034 0 0.0027792660675611805 0.037680626388843334 0 0.0017800826894021598 0.037828823938675184 0 0.0020873275532781697 0.037426196061821515 0 0.0030153722796513161 0.045244841800468318 0 0.0019023099416494327 0.047798261727724424 0 0.0038043819730397689 0.048158399245148711 0 0.0037991014184015552 0.047254527494750793 0 0.003168800970485918 0.047377184871785216 0 0.0021247750680798059 0.04806085279767066 0 0.0019023099416494327 0.047798261727724424 0 0.0021247750680798059 0.04806085279767066 0 0.0020533465772045608 0.048673696042065381 0 0.0020533465772045608 0.048673696042065381 0 0.0019023099416494327 0.047798261727724424 0 0.0016377724483841725 0.037629407579282355 0 0.0017800826894021598 0.037828823938675184 0 0.0020873275532781697 0.037426196061821515 0 0.0016729416634382859 0.061383726970315099 0 0.0046303864817708647 0.060333309720545833 0 0.0023125961078758312 0.057479580349938858 0 0.0025369711846570486 0.036730215793683366 0 0.0020873275532781697 0.037426196061821515 0 0.0017632657489433847 0.037208258137412228 0 0.0021247750680798059 0.04806085279767066 0 0.0021080255930012999 0.046889526526154149 0 0.0017970297840308139 0.037119206295530227 0 0.0017632657489433847 0.037208258137412228 0 0.0017205037200739089 0.037183916630025869 0 0.0016377724483841725 0.037629407579282355 0 0.0017632657489433847 0.037208258137412228 0 0.0017205037200739089 0.037183916630025869 0 0.0016377724483841725 0.037629407579282355 0 0.0020873275532781697 0.037426196061821515 0 0.0017632657489433847 0.037208258137412228 0 0.0017970297840308139 0.037119206295530227 0 0.0017205037200739089 0.037183916630025869 0 0.0017342388789753031 0.037065144218009917 0 0.0017205037200739089 0.037183916630025869 0 0.0016091480824639837 0.037083191887737975 0 0.0017342388789753031 0.037065144218009917 0 0.0021247750680798059 0.04806085279767066 0 0.0020492304689098996 0.048551558813629166 0 0.0017176626314752124 0.037251737191791444 0 0.0017205037200739089 0.037183916630025869 0 0.0016091480824639837 0.037083191887737975 0 0.0016091480824639837 0.037083191887737975 0 0.0017342388789753031 0.037065144218009917 0 0.0017424263675933451 0.036957955263030702 0 0.0019140734741766288 0.036919196740709072 0 0.0018358600818149098 0.037020485009397655 0 0.0017424263675933451 0.036957955263030702 0 0.0017342388789753031 0.037065144218009917 0 0.0018358600818149098 0.037020485009397655 0 0.0017424263675933451 0.036957955263030702 0 0.0017970297840308139 0.037119206295530227 0 0.0017342388789753031 0.037065144218009917 0 0.0018358600818149098 0.037020485009397655 0 0.0016729416634382859 0.061383726970315099 0 0.0023125961078758312 0.057479580349938858 0 -0.00036624024696722921 0.059707019662130378 0 -0.00036624024696722921 0.059707019662130378 0 -0.0015019290425101824 0.057417907029833876 0 -0.0030011105460620879 0.060255886383922055 0 0.0023125961078758312 0.057479580349938858 0 -0.00036624024696722921 0.059707019662130378 0 -0.0015019290425101824 0.057417907029833876 0 0.0023125961078758312 0.057479580349938858 0 -0.0015019290425101824 0.057417907029833876 0 -9.6229822715961898e-06 0.054605954954343762 0 0.010697602669766828 0.072645160415383894 0 0.009511338928421275 0.07171618327875097 0 0.010591448437869133 0.070894888281436169 0 0.010697602669766828 0.072645160415383894 0 0.009511338928421275 0.07171618327875097 0 0.0089980866016073253 0.073531854960946594 0 0.009511338928421275 0.07171618327875097 0 0.0071007940709472547 0.073679305964358482 0 0.0089980866016073253 0.073531854960946594 0 0.0080620149787164076 0.072982685103260544 0 0.0069265996629556863 0.073932146600525217 0 0.0080045504831541426 0.071687592682724968 0 0.0072521044910631542 0.073730651897529698 0 0.0064597417249087092 0.071653895986115226 0 0.009511338928421275 0.07171618327875097 0 0.0080045504831541426 0.071687592682724968 0 0.0072521044910631542 0.073730651897529698 0 0.0081726845940090533 0.07445353546866959 0 0.0092541668357961123 0.075344632736584552 0 0.0073793972850564205 0.075372294335465981 0 0.0071007940709472547 0.073679305964358482 0 0.0081726845940090533 0.07445353546866959 0 0.0089980866016073253 0.073531854960946594 0 0.0071007940709472547 0.073679305964358482 0 0.0081726845940090533 0.07445353546866959 0 0.0073793972850564205 0.075372294335465981 0 0.010697602669766828 0.072645160415383894 0 0.0089980866016073253 0.073531854960946594 0 0.0092541668357961123 0.075344632736584552 0 0.0028668857648552343 0.062533702772805524 0 0.0013074455822209652 0.066357758468424302 0 0.0081726845940090533 0.07445353546866959 0 0.0089980866016073253 0.073531854960946594 0 0.0092541668357961123 0.075344632736584552 0 -0.0013360522833752945 0.062024439699111374 0 -0.0030011105460620879 0.060255886383922055 0 -0.0030966900058723183 0.062588495822480994 0 0.0013074455822209652 0.066357758468424302 0 -0.00079655912560916127 0.068390352306328547 0 0.0092541668357961123 0.075344632736584552 0 0.0073793972850564205 0.075372294335465981 0 0.0078304222268243111 0.077955293613514845 0 0.0073793972850564205 0.075372294335465981 0 0.0078304222268243111 0.077955293613514845 0 0.0054514985879563745 0.07743917569789148 0 -0.00079655912560916127 0.068390352306328547 0 -0.0010261980123339044 0.068117051827524991 0 -0.0041774357851086085 0.064415209823507513 0 -0.0044120889926556354 0.063125436037992672 0 -0.0030966900058723183 0.062588495822480994 0 -0.0024946468176107331 0.064289895716288792 0 -0.0041774357851086085 0.064415209823507513 0 -0.0030966900058723183 0.062588495822480994 0 -0.0030011105460620879 0.060255886383922055 0 -0.0044745314603677061 0.063104747150575083 0 -0.0030966900058723183 0.062588495822480994 0 -0.0024946468176107331 0.064289895716288792 0 -0.0014158161372721965 0.063506649502177506 0 -0.0030966900058723183 0.062588495822480994 0 -0.0014158161372721965 0.063506649502177506 0 -0.0013360522833752945 0.062024439699111374 0 -0.0030966900058723183 0.062588495822480994 0 0.0015175568046568036 0.077424836891460722 0 0.0039513076315670845 0.076614903433157716 0 0.0034576653165839075 0.07974839504097854 0 0.0054073557715226088 0.077606952750067695 0 0.0023746559078464016 0.077752384852297601 0 0.0056809363004217154 0.078733540918107067 0 0.0035328268647002127 0.079511438823524738 0 0.0054514985879563745 0.07743917569789148 0 0.00026691585040243163 0.072722192561553906 0 -0.00079655912560916127 0.068390352306328547 0 0.0056809363004217154 0.078733540918107067 0 0.0078304222268243111 0.077955293613514845 0 0.0054514985879563745 0.07743917569789148 0 0.0051028035384016292 0.075880052597687139 0 0.0039513076315670845 0.076614903433157716 0 0.0073793972850564205 0.075372294335465981 0 0.0054073557715226088 0.077606952750067695 0 0.0047136126161863414 0.075706527908504892 0 0.0050063810399031475 0.075538218741210653 0 0.0038638864925451314 0.076488667978333286 0 0.0054073557715226088 0.077606952750067695 0 0.0047136126161863414 0.075706527908504892 0 0.0023746559078464016 0.077752384852297601 0 0.004839356862514705 0.075827029863623607 0 0.0034545312130263477 0.074516836564441538 0 0.0025746576208751297 0.076095043766183396 0 0.004839356862514705 0.075827029863623607 0 0.0023746559078464016 0.077752384852297601 0 0.0025746576208751297 0.076095043766183396 0 0.004839356862514705 0.075827029863623607 0 0.0034545312130263477 0.074516836564441538 0 0.0053667751462114074 0.073881614988042466 0 0.0034545312130263477 0.074516836564441538 0 0.0053667751462114074 0.073881614988042466 0 0.0040015289220049054 0.072966413080102294 0 0.0034545312130263477 0.074516836564441538 0 0.0040015289220049054 0.072966413080102294 0 0.0021331055045863381 0.073152100635709247 0 0.0069265996629556863 0.073932146600525217 0 0.0050063810399031475 0.075538218741210653 0 0.0072521044910631542 0.073730651897529698 0 0.004839356862514705 0.075827029863623607 0 0.0053667751462114074 0.073881614988042466 0 0.0071007940709472547 0.073679305964358482 0 0.0073793972850564205 0.075372294335465981 0 0.0047136126161863414 0.075706527908504892 0 0.0053667751462114074 0.073881614988042466 0 0.0064597417249087092 0.071653895986115226 0 0.0040015289220049054 0.072966413080102294 0 0.0072521044910631542 0.073730651897529698 0 0.0053667751462114074 0.073881614988042466 0 0.0064597417249087092 0.071653895986115226 0 0.0056578471747604202 0.067322256698390606 0 0.0045698658353559435 0.068822704717631591 0 0.0075944361107555701 0.071010706841334384 0 0.0040015289220049054 0.072966413080102294 0 0.0051884913880778588 0.069591124020127626 0 0.0040015289220049054 0.072966413080102294 0 0.0051884913880778588 0.069591124020127626 0 0.0027713354773358876 0.070962218490580709 0 0.0051884913880778588 0.069591124020127626 0 0.0029529625587677859 0.067838006459221167 0 0.0027713354773358876 0.070962218490580709 0 0.0029529625587677859 0.067838006459221167 0 0.0068879908338544292 0.065781603453161364 0 0.0034823596497185862 0.062564621358295644 0 0.0029529625587677859 0.067838006459221167 0 0.0034823596497185862 0.062564621358295644 0 0.0012182652525363563 0.064557066235699748 0 0.0051884913880778588 0.069591124020127626 0 0.0029529625587677859 0.067838006459221167 0 0.0068879908338544292 0.065781603453161364 0 0.0068879908338544292 0.065781603453161364 0 0.0088331161713667491 0.066201864096442811 0 0.0090679028012953643 0.063526802269817981 0 0.0068879908338544292 0.065781603453161364 0 0.0075410154513698415 0.068487915317498094 0 0.0088331161713667491 0.066201864096442811 0 0.0051884913880778588 0.069591124020127626 0 0.0068879908338544292 0.065781603453161364 0 0.0075410154513698415 0.068487915317498094 0 0.0075944361107555701 0.071010706841334384 0 0.0051884913880778588 0.069591124020127626 0 0.0075410154513698415 0.068487915317498094 0 0.0056578471747604202 0.067322256698390606 0 0.0072369991122137383 0.063261676323930469 0 0.0080045504831541426 0.071687592682724968 0 0.0064597417249087092 0.071653895986115226 0 0.0088724962920124564 0.070332678045428448 0 0.0075944361107555701 0.071010706841334384 0 0.0099659693606123246 0.068397526252558835 0 0.011445519115934779 0.068859329931198324 0 0.0075944361107555701 0.071010706841334384 0 0.0075410154513698415 0.068487915317498094 0 0.0099659693606123246 0.068397526252558835 0 0.0099659693606123246 0.068397526252558835 0 0.011445519115934779 0.068859329931198324 0 0.011182212251295653 0.067004148150587084 0 0.0088724962920124564 0.070332678045428448 0 0.010398577216097486 0.070353171437519471 0 0.011315580903255511 0.068999346037247472 0 0.0072369991122137383 0.063261676323930469 0 0.007877218791395045 0.05584602726790848 0 0.0096428957423601407 0.070803839119863682 0 0.010398577216097486 0.070353171437519471 0 0.010591448437869133 0.070894888281436169 0 0.0096428957423601407 0.070803839119863682 0 0.0088724962920124564 0.070332678045428448 0 0.010398577216097486 0.070353171437519471 0 0.009511338928421275 0.07171618327875097 0 0.0096428957423601407 0.070803839119863682 0 0.010591448437869133 0.070894888281436169 0 0.009511338928421275 0.07171618327875097 0 0.0080045504831541426 0.071687592682724968 0 0.0088724962920124564 0.070332678045428448 0 0.009511338928421275 0.07171618327875097 0 0.0096428957423601407 0.070803839119863682 0 0.0088724962920124564 0.070332678045428448 0 0.011445519115934779 0.068859329931198324 0 0.014188536787638237 0.066030584492957442 0 0.015959054655137452 0.066402049562204329 0 0.014188536787638237 0.066030584492957442 0 0.012402152474211491 0.066073486431778336 0 0.013444959115014298 0.065150682542772703 0 0.011445519115934779 0.068859329931198324 0 0.014188536787638237 0.066030584492957442 0 0.012402152474211491 0.066073486431778336 0 0.011445519115934779 0.068859329931198324 0 0.012402152474211491 0.066073486431778336 0 0.011182212251295653 0.067004148150587084 0 0.012402152474211491 0.066073486431778336 0 0.011676942040726713 0.065268908022631827 0 0.011182212251295653 0.067004148150587084 0 0.012402152474211491 0.066073486431778336 0 0.012694925842112749 0.064060280401541297 0 0.011676942040726713 0.065268908022631827 0 0.012694925842112749 0.064060280401541297 0 0.011676942040726713 0.065268908022631827 0 0.010430746365108531 0.063924936439499425 0 0.012402152474211491 0.066073486431778336 0 0.012694925842112749 0.064060280401541297 0 0.013444959115014298 0.065150682542772703 0 0.012694925842112749 0.064060280401541297 0 0.013444959115014298 0.065150682542772703 0 0.014491420668816613 0.064432259930278499 0 0.014188536787638237 0.066030584492957442 0 0.013444959115014298 0.065150682542772703 0 0.014491420668816613 0.064432259930278499 0 0.0074702521251919013 0.063732568608341492 0 0.0073145678431081294 0.061414745934104571 0 0.0099659693606123246 0.068397526252558835 0 0.0088331161713667491 0.066201864096442811 0 0.010632058401354876 0.064849988015869664 0 0.0099659693606123246 0.068397526252558835 0 0.011182212251295653 0.067004148150587084 0 0.010430746365108531 0.063924936439499425 0 0.0075410154513698415 0.068487915317498094 0 0.0099659693606123246 0.068397526252558835 0 0.0088331161713667491 0.066201864096442811 0 0.011676942040726713 0.065268908022631827 0 0.011182212251295653 0.067004148150587084 0 0.010430746365108531 0.063924936439499425 0 0.0090679028012953643 0.063526802269817981 0 0.010632058401354876 0.064849988015869664 0 0.011259215176682125 0.061235410438933789 0 0.0073145678431081294 0.061414745934104571 0 0.0065678616466683095 0.055087767600041138 0 0.0088331161713667491 0.066201864096442811 0 0.0090679028012953643 0.063526802269817981 0 0.010632058401354876 0.064849988015869664 0 0.0061933272985985289 0.058443739845893086 0 0.0065678616466683095 0.055087767600041138 0 0.010430746365108531 0.063924936439499425 0 0.012631715751208325 0.061745280322339439 0 0.011164601958343078 0.059495877223515424 0 0.012694925842112749 0.064060280401541297 0 0.012631715751208325 0.061745280322339439 0 0.01472119579351468 0.062144548442654261 0 0.012694925842112749 0.064060280401541297 0 0.014491420668816613 0.064432259930278499 0 0.01472119579351468 0.062144548442654261 0 0.012694925842112749 0.064060280401541297 0 0.010430746365108531 0.063924936439499425 0 0.012631715751208325 0.061745280322339439 0 0.012631715751208325 0.061745280322339439 0 0.014261522465691985 0.059654483849785542 0 0.01472119579351468 0.062144548442654261 0 0.0065678616466683095 0.055087767600041138 0 0.0076862968242120671 0.047418092502027123 0 0.014261522465691985 0.059654483849785542 0 0.011164601958343078 0.059495877223515424 0 0.014902523111641362 0.055584747719345955 0 0.012631715751208325 0.061745280322339439 0 0.014261522465691985 0.059654483849785542 0 0.011164601958343078 0.059495877223515424 0 0.012617023710783066 0.059735232099675677 0 0.0085621452011901463 0.058364374246178664 0 0.013568883575047635 0.054196276672298538 0 0.0097520623794101965 0.062741998980805291 0 0.012617023710783066 0.059735232099675677 0 0.0085621452011901463 0.058364374246178664 0 0.0041675485126901187 0.057281061578560069 0 0.0026782028336750766 0.058429576918635776 0 0.0034823596497185862 0.062564621358295644 0 0.0035197143451051148 0.054236539693280572 0 0.0021685909338776213 0.05725672999486605 0 0.0026782028336750766 0.058429576918635776 0 0.0034823596497185862 0.062564621358295644 0 0.00041375969223060707 0.060314167879122201 0 0.0026782028336750766 0.058429576918635776 0 0.0011917950731929088 0.056551981470856175 0 0.00041375969223060707 0.060314167879122201 0 0.0085621452011901463 0.058364374246178664 0 0.0034823596497185862 0.062564621358295644 0 0.0071731943656496086 0.062359713616295422 0 0.0097520623794101965 0.062741998980805291 0 0.0085621452011901463 0.058364374246178664 0 0.0071731943656496086 0.062359713616295422 0 0.0068879908338544292 0.065781603453161364 0 0.0034823596497185862 0.062564621358295644 0 0.0071731943656496086 0.062359713616295422 0 0.005725216184818081 0.059840605304741661 0 0.0061933272985985289 0.058443739845893086 0 0.0068879908338544292 0.065781603453161364 0 0.0097520623794101965 0.062741998980805291 0 0.0071731943656496086 0.062359713616295422 0 0.0018119060206290554 0.036810138939144442 0 0.0017066088663451608 0.036759431428068576 0 0.0017881348192784021 0.036617309352414418 0 0.0019480854271144439 0.036664838747020416 0 0.0018119060206290554 0.036810138939144442 0 0.0017881348192784021 0.036617309352414418 0 0.0018119060206290554 0.036810138939144442 0 0.0017424263675933451 0.036957955263030702 0 0.0016520330112778305 0.036890682874521838 0 0.0019140734741766288 0.036919196740709072 0 0.0018119060206290554 0.036810138939144442 0 0.0017424263675933451 0.036957955263030702 0 0.0016091480824639837 0.037083191887737975 0 0.0017424263675933451 0.036957955263030702 0 0.0016520330112778305 0.036890682874521838 0 0.0018119060206290554 0.036810138939144442 0 0.0016520330112778305 0.036890682874521838 0 0.0017066088663451608 0.036759431428068576 0 0.0016520330112778305 0.036890682874521838 0 0.0017066088663451608 0.036759431428068576 0 0.0015988656132048776 0.03680446812759635 0 0.0017066088663451608 0.036759431428068576 0 0.0015988656132048776 0.03680446812759635 0 0.0016010929213347404 0.036710332566697444 0 0.001526964939686648 0.036766278659171467 0 0.0015988656132048776 0.03680446812759635 0 0.0014610473549890391 0.036914731212036249 0 0.0067689194856072775 0.050784089700288138 0 0.005182346760305807 0.053942114721196491 0 0.001526964939686648 0.036766278659171467 0 0.0015988656132048776 0.03680446812759635 0 0.0016010929213347404 0.036710332566697444 0 0.0067689194856072775 0.050784089700288138 0 0.0067376310395638392 0.050105588133141941 0 0.0016520330112778305 0.036890682874521838 0 0.0015988656132048776 0.03680446812759635 0 0.0014610473549890391 0.036914731212036249 0 0.0020492304689098996 0.048551558813629166 0 0.005182346760305807 0.053942114721196491 0 0.0016091480824639837 0.037083191887737975 0 0.0016520330112778305 0.036890682874521838 0 0.0014610473549890391 0.036914731212036249 0 0.010697602669766828 0.072645160415383894 0 0.012096262262335518 0.069956823342868332 0 0.010591448437869133 0.070894888281436169 0 0.0028668857648552343 0.062533702772805524 0 0.005182346760305807 0.053942114721196491 0 0.012096262262335518 0.069956823342868332 0 0.011208846095404124 0.069893728137548267 0 0.011315580903255511 0.068999346037247472 0 0.010398577216097486 0.070353171437519471 0 0.011208846095404124 0.069893728137548267 0 0.011315580903255511 0.068999346037247472 0 0.012096262262335518 0.069956823342868332 0 0.010591448437869133 0.070894888281436169 0 0.011208846095404124 0.069893728137548267 0 0.010398577216097486 0.070353171437519471 0 0.010591448437869133 0.070894888281436169 0 0.011208846095404124 0.069893728137548267 0 0.006197952089636579 0.052464883311696339 0 0.0048558147729368412 0.055009986129665032 0 0.0038027217635424413 0.053712672060410749 0 0.014188536787638237 0.066030584492957442 0 0.015121285107783771 0.066076614790261085 0 0.015959054655137452 0.066402049562204329 0 0.014188536787638237 0.066030584492957442 0 0.015121285107783771 0.066076614790261085 0 0.015269867729658233 0.065294708208749219 0 0.015121285107783771 0.066076614790261085 0 0.015959054655137452 0.066402049562204329 0 0.015269867729658233 0.065294708208749219 0 0.005182346760305807 0.053942114721196491 0 0.007877218791395045 0.05584602726790848 0 0.019223920803694072 0.064652595494779919 0 0.015959054655137452 0.066402049562204329 0 0.016646119234748853 0.064116666917038725 0 0.0067689194856072775 0.050784089700288138 0 0.007877218791395045 0.05584602726790848 0 0.016646119234748853 0.064116666917038725 0 0.014491420668816613 0.064432259930278499 0 0.015269867729658233 0.065294708208749219 0 0.015959054655137452 0.066402049562204329 0 0.016646119234748853 0.064116666917038725 0 0.015269867729658233 0.065294708208749219 0 0.014188536787638237 0.066030584492957442 0 0.014491420668816613 0.064432259930278499 0 0.015269867729658233 0.065294708208749219 0 0.014261522465691985 0.059654483849785542 0 0.01472119579351468 0.062144548442654261 0 0.018131600986813039 0.060392300016237771 0 0.016646119234748853 0.064116666917038725 0 0.01472119579351468 0.062144548442654261 0 0.018131600986813039 0.060392300016237771 0 0.016646119234748853 0.064116666917038725 0 0.014491420668816613 0.064432259930278499 0 0.01472119579351468 0.062144548442654261 0 0.018131600986813039 0.060392300016237771 0 0.01931726921304525 0.056228327328371221 0 0.014902523111641362 0.055584747719345955 0 0.014261522465691985 0.059654483849785542 0 0.018131600986813039 0.060392300016237771 0 0.014902523111641362 0.055584747719345955 0 0.018131600986813039 0.060392300016237771 0 0.021847092372114393 0.059544034557540364 0 0.01931726921304525 0.056228327328371221 0 0.0015124710239560917 0.036775353213609023 0 0.0016010929213347404 0.036710332566697444 0 0.0016296074038647951 0.036511409070773423 0 0.0067689194856072775 0.050784089700288138 0 0.0069747077710356608 0.044806609393990539 0 0.019223920803694072 0.064652595494779919 0 0.018131600986813039 0.060392300016237771 0 0.021847092372114393 0.059544034557540364 0 0.019223920803694072 0.064652595494779919 0 0.016646119234748853 0.064116666917038725 0 0.018131600986813039 0.060392300016237771 0 0.0016821302256208241 0.036652071210432874 0 0.0016296074038647951 0.036511409070773423 0 0.0017881348192784021 0.036617309352414418 0 0.0016010929213347404 0.036710332566697444 0 0.0016821302256208241 0.036652071210432874 0 0.0016296074038647951 0.036511409070773423 0 0.0017066088663451608 0.036759431428068576 0 0.0016010929213347404 0.036710332566697444 0 0.0016821302256208241 0.036652071210432874 0 0.0017066088663451608 0.036759431428068576 0 0.0016821302256208241 0.036652071210432874 0 0.0017881348192784021 0.036617309352414418 0 0.0016296074038647951 0.036511409070773423 0 0.0017968394253606833 0.036448150134762575 0 0.0017492839286382821 0.036275427759509399 0 0.0016296074038647951 0.036511409070773423 0 0.0017968394253606833 0.036448150134762575 0 0.0017881348192784021 0.036617309352414418 0 0.0019539431894867953 0.036525703398960767 0 0.0017968394253606833 0.036448150134762575 0 0.0017881348192784021 0.036617309352414418 0 0.00034677819304104539 0.019594290318045677 0 0.0012868584816250468 0.019284716162713249 0 0.00079482353319080201 0.02025352369569243 0 0.0051672255748353452 0.035253369780561011 0 0.0027845115109350017 0.025431511387911342 0 -1.6696109431416216e-06 0.025706719594813663 0 -2.2589466285397246e-05 0.025502932888505338 0 0.00021083739783034377 0.02550801030227573 0 0.0019360075701267451 0.036358999526906445 0 0.0017968394253606833 0.036448150134762575 0 0.0017492839286382821 0.036275427759509399 0 0.00043761015804563198 0.018886323878864967 0 0.00034677819304104539 0.019594290318045677 0 0.0012868584816250468 0.019284716162713249 0 0.0021753143552102165 0.028222337967138543 0 0.0051672255748353452 0.035253369780561011 0 0.021847092372114393 0.059544034557540364 0 0.024458012591800516 0.054460271474795763 0 0.01931726921304525 0.056228327328371221 0 0.0069747077710356608 0.044806609393990539 0 0.0051672255748353452 0.035253369780561011 0 0.0051672255748353452 0.035253369780561011 0 0.0077501566486063147 0.037251547676203978 0 -1.6696109431416216e-06 0.025706719594813663 0 -0.00014379027626181733 0.025574698381270508 0 -2.2589466285397246e-05 0.025502932888505338 0 0.024458012591800516 0.054460271474795763 0 0.018619352071483807 0.051689197009973993 0 0.01931726921304525 0.056228327328371221 0 0.018619352071483807 0.051689197009973993 0 0.01931726921304525 0.056228327328371221 0 0.014902523111641362 0.055584747719345955 0 0.0077501566486063147 0.037251547676203978 0 0.0076862968242120671 0.047418092502027123 0 -0.00033072018294303654 0.034184233443981173 0 0.00096638747087084251 0.034800713728030883 0 0.003371966977193329 0.031078280203196227 0 0.0066878009055456001 0.046305002972939657 0 0.0077218349962587798 0.043098093390758291 0 0.0048276861800552427 0.045503604577475522 0 0.0091254976372045059 0.043763484107830368 0 0.0066878009055456001 0.046305002972939657 0 0.0077218349962587798 0.043098093390758291 0 0.0077501566486063147 0.037251547676203978 0 0.0049499145923794369 0.035594864231603053 0 0.0049499145923794369 0.035594864231603053 0 0.0046074783681346911 0.035460361078490758 0 0.00024664738859110429 0.034897538507418224 0 0.00017028226809382322 0.034751811003916021 0 0.00062179501284949498 0.035891084049184348 0 0.00024664738859110429 0.034897538507418224 0 0.00096638747087084251 0.034800713728030883 0 0.00062179501284949498 0.035891084049184348 0 0.00017028226809382322 0.034751811003916021 0 0.00062179501284949498 0.035891084049184348 0 0.00040825640132394631 0.035788324558715466 0 0.00040825640132394631 0.035788324558715466 0 -1.5095548742262166e-06 0.031336857978094934 0 4.5613746262544505e-06 0.036531093448159697 0 0.00017028226809382322 0.034751811003916021 0 0.00040825640132394631 0.035788324558715466 0 -1.5095548742262166e-06 0.031336857978094934 0 0.00062179501284949498 0.035891084049184348 0 0.00040825640132394631 0.035788324558715466 0 0.0023336649400421765 0.038476446425075139 0 0.00017028226809382322 0.034751811003916021 0 -1.5095548742262166e-06 0.031336857978094934 0 0.00041965326777282244 0.033213884724771534 0 0.00024664738859110429 0.034897538507418224 0 0.00017028226809382322 0.034751811003916021 0 0.00041965326777282244 0.033213884724771534 0 0.00016474135875966706 0.025310319709319178 0 0.00024996629348092724 0.025355658540885419 0 6.7607677450283037e-05 0.025461813842492291 0 0.00016474135875966706 0.025310319709319178 0 6.7607677450283037e-05 0.025461813842492291 0 -2.7054573754923559e-05 0.025421364471805968 0 0.0049499145923794369 0.035594864231603053 0 0.0013602668989560998 0.030911532222619303 0 0.0077501566486063147 0.037251547676203978 0 0.0072098152415683786 0.034673533284249644 0 -0.00014379027626181733 0.025574698381270508 0 -2.2589466285397246e-05 0.025502932888505338 0 -2.7054573754923559e-05 0.025421364471805968 0 6.7607677450283037e-05 0.025461813842492291 0 -2.7054573754923559e-05 0.025421364471805968 0 -0.00021331163568413192 0.025377768175065384 0 -2.2589466285397246e-05 0.025502932888505338 0 -2.7054573754923559e-05 0.025421364471805968 0 -0.00021331163568413192 0.025377768175065384 0 6.7607677450283037e-05 0.025461813842492291 0 -1.9767949869648948e-07 0.026129856525534428 0 -0.00021331163568413192 0.025377768175065384 0 -1.5095548742262166e-06 0.031336857978094934 0 0.00041965326777282244 0.033213884724771534 0 3.4491930897089536e-06 0.026147589434492847 0 0.0013602668989560998 0.030911532222619303 0 2.6814365402270208e-06 0.026151088265499223 0 2.6626122992036791e-07 0.021737984982012442 0 -1.9767949869648948e-07 0.026129856525534428 0 -0.00021331163568413192 0.025377768175065384 0 2.6626122992036791e-07 0.021737984982012442 0 -0.00021331163568413192 0.025377768175065384 0 0.00021083739783034377 0.02550801030227573 0 -2.2589466285397246e-05 0.025502932888505338 0 -0.00021331163568413192 0.025377768175065384 0 0.00021083739783034377 0.02550801030227573 0 0.0015385730876063917 0.049587242992090864 0 0.0025091710156547693 0.053807091456498993 0 0.0032088296955532758 0.048809985676642298 0 0.0015385730876063917 0.049587242992090864 0 0.00060703421637389808 0.052717073204363071 0 0.0025091710156547693 0.053807091456498993 0 0.00060703421637389808 0.052717073204363071 0 0.0011917950731929088 0.056551981470856175 0 0.0025091710156547693 0.053807091456498993 0 0.0026782028336750766 0.058429576918635776 0 0.0011917950731929088 0.056551981470856175 0 0.0025091710156547693 0.053807091456498993 0 0.00060703421637389808 0.052717073204363071 0 0.0011917950731929088 0.056551981470856175 0 -0.00031114745980217204 0.05611643564924966 0 0.0041675485126901187 0.057281061578560069 0 0.0026782028336750766 0.058429576918635776 0 0.0025091710156547693 0.053807091456498993 0 0.0041675485126901187 0.057281061578560069 0 0.0025091710156547693 0.053807091456498993 0 0.0061535031895773367 0.052596391636194936 0 0.0035197143451051148 0.054236539693280572 0 0.0051091217521842432 0.046888104381242489 0 0.0042419045761966593 0.048859601970871684 0 0.0066878009055456001 0.046305002972939657 0 0.0048276861800552427 0.045503604577475522 0 0.0065678616466683095 0.055087767600041138 0 0.0051091217521842432 0.046888104381242489 0 0.0049499145923794369 0.035594864231603053 0 0.0051091217521842432 0.046888104381242489 0 0.0051091217521842432 0.046888104381242489 0 0.004954131544020874 0.043732664623887134 0 0.00096638747087084251 0.034800713728030883 0 0.003371966977193329 0.031078280203196227 0 0.0027902354817797722 0.034263030565615735 0 0.0061535031895773367 0.052596391636194936 0 0.0059280256355491202 0.047504617028018468 0 0.0032088296955532758 0.048809985676642298 0 0.0025091710156547693 0.053807091456498993 0 0.0061535031895773367 0.052596391636194936 0 0.0032088296955532758 0.048809985676642298 0 0.0015385730876063917 0.049587242992090864 0 0.0032088296955532758 0.048809985676642298 0 0.0012748207957338123 0.044881590265033723 0 0.0032088296955532758 0.048809985676642298 0 0.0025048180737068946 0.043716433831462009 0 0.0012748207957338123 0.044881590265033723 0 0.0025048180737068946 0.043716433831462009 0 0.0012748207957338123 0.044881590265033723 0 0.0012477902377883141 0.040796770221242971 0 0.0059280256355491202 0.047504617028018468 0 0.0025048180737068946 0.043716433831462009 0 0.0023336649400421765 0.038476446425075139 0 0.00062179501284949498 0.035891084049184348 0 0.0027902354817797722 0.034263030565615735 0 0.0023336649400421765 0.038476446425075139 0 0.004954131544020874 0.043732664623887134 0 0.0047830461387094901 0.042845702999358963 0 0.00096638747087084251 0.034800713728030883 0 0.00062179501284949498 0.035891084049184348 0 0.0027902354817797722 0.034263030565615735 0 0.0059280256355491202 0.047504617028018468 0 0.0032088296955532758 0.048809985676642298 0 0.0025048180737068946 0.043716433831462009 0 0.0025048180737068946 0.043716433831462009 0 0.0023336649400421765 0.038476446425075139 0 0.0012477902377883141 0.040796770221242971 0 0.00040825640132394631 0.035788324558715466 0 0.0023336649400421765 0.038476446425075139 0 4.5613746262544505e-06 0.036531093448159697 0 0.0023336649400421765 0.038476446425075139 0 4.5613746262544505e-06 0.036531093448159697 0 0.0012477902377883141 0.040796770221242971 0 4.5613746262544505e-06 0.036531093448159697 0 0.0012477902377883141 0.040796770221242971 0 1.1576695584001204e-06 0.041722943577035078 0 0.0012748207957338123 0.044881590265033723 0 0.0012477902377883141 0.040796770221242971 0 1.1576695584001204e-06 0.041722943577035078 0 1.1576695584001204e-06 0.041722943577035078 0 0.000368468010659163 0.047898053521582967 0 5.1426678819789073e-07 0.04691870874073846 0 0.0012748207957338123 0.044881590265033723 0 1.1576695584001204e-06 0.041722943577035078 0 0.000368468010659163 0.047898053521582967 0 0.0015385730876063917 0.049587242992090864 0 0.00060703421637389808 0.052717073204363071 0 0.000368468010659163 0.047898053521582967 0 0.0015385730876063917 0.049587242992090864 0 0.0012748207957338123 0.044881590265033723 0 0.000368468010659163 0.047898053521582967 0 0.00060703421637389808 0.052717073204363071 0 0.000368468010659163 0.047898053521582967 0 -0.00054288201197485488 0.052100766689655 0 0.000368468010659163 0.047898053521582967 0 5.1426678819789073e-07 0.04691870874073846 0 -0.00054288201197485488 0.052100766689655 0 5.1426678819789073e-07 0.04691870874073846 0 -4.9807190344464624e-06 0.052099977210724666 0 -0.00054288201197485488 0.052100766689655 0 -4.9807190344464624e-06 0.052099977210724666 0 -0.0013766229184458956 0.054308254795529247 0 -0.00054288201197485488 0.052100766689655 0 -0.0013766229184458956 0.054308254795529247 0 -0.00054288201197485488 0.052100766689655 0 -0.001596401596511085 0.056486337038668677 0 0.00060703421637389808 0.052717073204363071 0 -0.00054288201197485488 0.052100766689655 0 -0.00031114745980217204 0.05611643564924966 0 -0.00054288201197485488 0.052100766689655 0 -0.001596401596511085 0.056486337038668677 0 -0.00031114745980217204 0.05611643564924966 0 -0.001596401596511085 0.056486337038668677 0 -0.0014599424118328732 0.058797231815202994 0 -0.00031114745980217204 0.05611643564924966 0 0.0011917950731929088 0.056551981470856175 0 -0.00031114745980217204 0.05611643564924966 0 0.00041375969223060707 0.060314167879122201 0 -0.0014599424118328732 0.058797231815202994 0 -0.00031114745980217204 0.05611643564924966 0 0.00041375969223060707 0.060314167879122201 0 -0.0028448443647538886 0.059518704807815806 0 -0.0045205023015084233 0.061641916980525527 0 -0.0037909204191183292 0.061714674639660391 0 -0.0045205023015084233 0.061641916980525527 0 -0.0046925907270465306 0.062674659415143136 0 -0.0037909204191183292 0.061714674639660391 0 -0.001596401596511085 0.056486337038668677 0 -0.0014599424118328732 0.058797231815202994 0 -0.0028448443647538886 0.059518704807815806 0 -0.0014599424118328732 0.058797231815202994 0 -0.0028448443647538886 0.059518704807815806 0 -0.0022714680548992783 0.062275462881836594 0 -0.0013766229184458956 0.054308254795529247 0 -0.001596401596511085 0.056486337038668677 0 -0.0030645809787967467 0.057619807406557748 0 -0.001596401596511085 0.056486337038668677 0 -0.0028448443647538886 0.059518704807815806 0 -0.0030645809787967467 0.057619807406557748 0 -0.0028448443647538886 0.059518704807815806 0 -0.0030645809787967467 0.057619807406557748 0 -0.0045205023015084233 0.061641916980525527 0 -0.0030645809787967467 0.057619807406557748 0 -0.0050595298262191973 0.058745152456619869 0 -0.0045205023015084233 0.061641916980525527 0 -0.001884172679169051 0.056063816587996272 0 -0.0026654972750037188 0.058812682261333141 0 3.2880198275672145e-06 0.052112061262903638 0 0.00056205274029898081 0.05881601742118215 0 -1.0570524487225624e-06 0.058361157686185591 0 -0.0030645809787967467 0.057619807406557748 0 -0.0029043813330119359 0.05403054930017584 0 -0.0050595298262191973 0.058745152456619869 0 -0.0013766229184458956 0.054308254795529247 0 -0.0030645809787967467 0.057619807406557748 0 -0.0029043813330119359 0.05403054930017584 0 -4.9807190344464624e-06 0.052099977210724666 0 -0.0013766229184458956 0.054308254795529247 0 -0.0029043813330119359 0.05403054930017584 0 -1.6908285560258415e-06 0.052114191654841997 0 -0.001884172679169051 0.056063816587996272 0 0.00056205274029898081 0.05881601742118215 0 -1.0570524487225624e-06 0.058361157686185591 0 -0.0005857742811257266 0.063587821622942631 0 -1.0570524487225624e-06 0.058361157686185591 0 -0.0017712331508983094 0.065141918572112587 0 -4.0498286598501031e-06 0.066951770932152599 0 -1.0570524487225624e-06 0.058361157686185591 0 -0.0017712331508983094 0.065141918572112587 0 -0.0005857742811257266 0.063587821622942631 0 -0.0017712331508983094 0.065141918572112587 0 -4.0498286598501031e-06 0.066951770932152599 0 -0.0005976760281551258 0.068565742640998129 0 -4.0498286598501031e-06 0.066951770932152599 0 -0.0005976760281551258 0.068565742640998129 0 0.00011482815765307104 0.073229671609484265 0 -0.0018866078499965456 0.070886464187710108 0 -0.00054230326770044997 0.067999600968696269 0 0.0011079657512019364 0.071451397895178542 0 -0.0018866078499965456 0.070886464187710108 0 -0.0028550170482629302 0.066851155664569673 0 -0.0030737384236573365 0.065164387392272649 0 -0.0017712331508983094 0.065141918572112587 0 -0.0005976760281551258 0.068565742640998129 0 -0.0030737384236573365 0.065164387392272649 0 -0.00076897902763825674 0.071253000785960377 0 -0.0018002605485178591 0.07007353862938856 0 -0.0028550170482629302 0.066851155664569673 0 -0.00054230326770044997 0.067999600968696269 0 -0.0028889130595504257 0.065217000020883237 0 -0.0033980846316912379 0.065459848277425375 0 -0.0028550170482629302 0.066851155664569673 0 -0.0033008387721760418 0.065336265682486586 0 -0.0028550170482629302 0.066851155664569673 0 -0.0030737384236573365 0.065164387392272649 0 -0.0033008387721760418 0.065336265682486586 0 -0.0033980846316912379 0.065459848277425375 0 -0.0028550170482629302 0.066851155664569673 0 -0.0028889130595504257 0.065217000020883237 0 -0.0033980846316912379 0.065459848277425375 0 -0.004068554009547129 0.064345811936511649 0 -0.0028889130595504257 0.065217000020883237 0 -0.0018866078499965456 0.070886464187710108 0 -0.0028550170482629302 0.066851155664569673 0 -0.00054230326770044997 0.067999600968696269 0 -0.0050595298262191973 0.058745152456619869 0 -0.0044380896686322191 0.062173156859602383 0 -0.0045205023015084233 0.061641916980525527 0 -0.0050595298262191973 0.058745152456619869 0 -0.0044380896686322191 0.062173156859602383 0 -0.0031889373536180851 0.06494336290397712 0 -0.0026654972750037188 0.058812682261333141 0 -0.0029165572273894174 0.059976580435724458 0 -0.0044380896686322191 0.062173156859602383 0 -0.0039595126995945916 0.063689652314387127 0 -0.0045510503357367648 0.062891526666716019 0 -0.0017712331508983094 0.065141918572112587 0 -0.0030737384236573365 0.065164387392272649 0 -0.0031889373536180851 0.06494336290397712 0 -0.0017712331508983094 0.065141918572112587 0 -0.0005857742811257266 0.063587821622942631 0 -0.0031889373536180851 0.06494336290397712 0 -0.0030737384236573365 0.065164387392272649 0 -0.00344134519732084 0.064632987897620967 0 -0.0033008387721760418 0.065336265682486586 0 -0.0030737384236573365 0.065164387392272649 0 -0.0031889373536180851 0.06494336290397712 0 -0.00344134519732084 0.064632987897620967 0 -0.0044380896686322191 0.062173156859602383 0 -0.0031889373536180851 0.06494336290397712 0 -0.0039595126995945916 0.063689652314387127 0 -0.00344134519732084 0.064632987897620967 0 -0.0039595126995945916 0.063689652314387127 0 -0.0036995689269223304 0.064381137175349865 0 -0.0031889373536180851 0.06494336290397712 0 -0.00344134519732084 0.064632987897620967 0 -0.0039595126995945916 0.063689652314387127 0 -0.0039595126995945916 0.063689652314387127 0 -0.0041173053258004603 0.06392705851978947 0 -0.0045510503357367648 0.062891526666716019 0 -0.0039595126995945916 0.063689652314387127 0 -0.0041173053258004603 0.06392705851978947 0 -0.0036995689269223304 0.064381137175349865 0 -0.00344134519732084 0.064632987897620967 0 -0.0033008387721760418 0.065336265682486586 0 -0.0036995689269223304 0.064381137175349865 0 -0.0033008387721760418 0.065336265682486586 0 -0.0036995689269223304 0.064381137175349865 0 -0.0037422193755378675 0.064639555346587205 0 -0.0041173053258004603 0.06392705851978947 0 -0.0036995689269223304 0.064381137175349865 0 -0.0037422193755378675 0.064639555346587205 0 -0.0033980846316912379 0.065459848277425375 0 -0.0033008387721760418 0.065336265682486586 0 -0.0037422193755378675 0.064639555346587205 0 -0.0033980846316912379 0.065459848277425375 0 -0.0037422193755378675 0.064639555346587205 0 -0.004068554009547129 0.064345811936511649 0 -0.0041173053258004603 0.06392705851978947 0 -0.0037422193755378675 0.064639555346587205 0 -0.004068554009547129 0.064345811936511649 0 -0.0041173053258004603 0.06392705851978947 0 -0.004068554009547129 0.064345811936511649 0 -0.0046577031351516243 0.063437039955844626 0 -0.0041173053258004603 0.06392705851978947 0 -0.0046577031351516243 0.063437039955844626 0 -0.0045510503357367648 0.062891526666716019 0 -0.0046577031351516243 0.063437039955844626 0 -0.0045510503357367648 0.062891526666716019 0 -0.0046925907270465306 0.062674659415143136 0 -0.0044380896686322191 0.062173156859602383 0 -0.0045510503357367648 0.062891526666716019 0 -0.0045205023015084233 0.061641916980525527 0 -0.0045510503357367648 0.062891526666716019 0 -0.0045205023015084233 0.061641916980525527 0 -0.0046925907270465306 0.062674659415143136 0 -0.0046577031351516243 0.063437039955844626 0 -0.0045203674535127976 0.063717894014731297 0 -0.005433542230975379 0.063873145746988352 0 -0.0046577031351516243 0.063437039955844626 0 -0.0046925907270465306 0.062674659415143136 0 -0.005433542230975379 0.063873145746988352 0 -0.004068554009547129 0.064345811936511649 0 -0.0046577031351516243 0.063437039955844626 0 -0.0045203674535127976 0.063717894014731297 0 -0.004068554009547129 0.064345811936511649 0 -0.0045203674535127976 0.063717894014731297 0 -0.0028889130595504257 0.065217000020883237 0 -0.0091696236454081436 0.064873567202141297 0 -0.005433542230975379 0.063873145746988352 0 -0.0084264379281165404 0.067332239825530951 0 -0.002826606984102073 0.074096389092511983 0 -0.0034157188053391793 0.072312363943663818 0 -0.0045203674535127976 0.063717894014731297 0 -0.0042094542816975807 0.062799833410891154 0 -0.005433542230975379 0.063873145746988352 0 -0.0045203674535127976 0.063717894014731297 0 -0.0042094542816975807 0.062799833410891154 0 -0.0028650979351772079 0.063484159089857287 0 -0.0028889130595504257 0.065217000020883237 0 -0.0028650979351772079 0.063484159089857287 0 0.00028707382398540925 0.064345209368923059 0 -0.00054230326770044997 0.067999600968696269 0 -0.0028889130595504257 0.065217000020883237 0 0.00028707382398540925 0.064345209368923059 0 -0.0045203674535127976 0.063717894014731297 0 -0.0028889130595504257 0.065217000020883237 0 -0.0028650979351772079 0.063484159089857287 0 -0.0042094542816975807 0.062799833410891154 0 -0.0028650979351772079 0.063484159089857287 0 -0.0018227980755353198 0.061915705142366641 0 -0.002826606984102073 0.074096389092511983 0 0.001097167745946936 0.079828468234427144 0 0.012647988347209259 0.093216880868103091 0 0.010304940515756117 0.090096285067593554 0 0.0088522308817949955 0.094138362418524538 0 0.001097167745946936 0.079828468234427144 0 0.0030167618360426324 0.078776640899119968 0 -0.0028650979351772079 0.063484159089857287 0 -0.0018227980755353198 0.061915705142366641 0 0.00028707382398540925 0.064345209368923059 0 0.0083579017802457717 0.09394338316826284 0 0.0081501925689295256 0.094874127095705474 0 0.0068151806375513838 0.094327212408788982 0 0.001097167745946936 0.079828468234427144 0 0.004531474069107329 0.085085958520727062 0 0.0081501925689295256 0.094874127095705474 0 0.0079446790014182436 0.095855748085811071 0 0.0068151806375513838 0.094327212408788982 0 -0.012767508237303618 0.065809107183077448 0 -0.010135579839768656 0.069184636291168861 0 -0.0084264379281165404 0.067332239825530951 0 0.0083579017802457717 0.09394338316826284 0 0.0081501925689295256 0.094874127095705474 0 0.0094574806437350955 0.095360413331210467 0 0.001097167745946936 0.079828468234427144 0 -0.0030122229360868991 0.079914570011420563 0 -0.0091696236454081436 0.064873567202141297 0 -0.012767508237303618 0.065809107183077448 0 -0.0084264379281165404 0.067332239825530951 0 -0.0030122229360868991 0.079914570011420563 0 0.0006743577134254293 0.083179194276318216 0 -0.0026679158620058962 0.076277585268786113 0 -0.003002402175208428 0.075349215258400409 0 -0.0026947646654424989 0.076150461317298121 0 0.0081501925689295256 0.094874127095705474 0 0.0094574806437350955 0.095360413331210467 0 0.0079446790014182436 0.095855748085811071 0 -0.0028941956127259108 0.07553860044440347 0 -0.0026679158620058962 0.076277585268786113 0 -0.0024202308006965566 0.077104691915300241 0 -0.0030122229360868991 0.079914570011420563 0 -0.0030350550053895357 0.07986926671388804 0 -0.0028941956127259108 0.07553860044440347 0 -0.0026679158620058962 0.076277585268786113 0 -0.003002402175208428 0.075349215258400409 0 -0.005433542230975379 0.063873145746988352 0 -0.0060016672631453679 0.068013226422458009 0 -0.0084264379281165404 0.067332239825530951 0 -0.010135579839768656 0.069184636291168861 0 -0.0060016672631453679 0.068013226422458009 0 -0.0084264379281165404 0.067332239825530951 0 -0.0030122229360868991 0.079914570011420563 0 -0.0024654599196365355 0.074969990564531797 0 -0.003002402175208428 0.075349215258400409 0 -0.00306294316704741 0.074335938318865397 0 -0.0026947646654424989 0.076150461317298121 0 -0.0030256390589910392 0.075364188892801429 0 -0.0033623367238337825 0.072282269649604089 0 -0.003002402175208428 0.075349215258400409 0 -0.0033623367238337825 0.072282269649604089 0 -0.003002402175208428 0.075349215258400409 0 -0.00306294316704741 0.074335938318865397 0 -0.0033623367238337825 0.072282269649604089 0 -0.00306294316704741 0.074335938318865397 0 -0.0026844732940683068 0.072767015129215337 0 -0.005433542230975379 0.063873145746988352 0 -0.0060016672631453679 0.068013226422458009 0 -0.0026580791177869645 0.067575956026066933 0 -0.0033623367238337825 0.072282269649604089 0 -0.0026844732940683068 0.072767015129215337 0 -0.0026580791177869645 0.067575956026066933 0 -0.0024654599196365355 0.074969990564531797 0 -0.0016023102694025303 0.07318420864569293 0 -0.0026580791177869645 0.067575956026066933 0 -0.0013663598099145221 0.070404753154133012 0 -0.00012452014199429288 0.067581629323078984 0 -0.0013663598099145221 0.070404753154133012 0 0.00058662010507147088 0.070950323721560987 0 -0.0011806903958584412 0.072949299166645221 0 -0.0026844732940683068 0.072767015129215337 0 -0.0026580791177869645 0.067575956026066933 0 -0.0013663598099145221 0.070404753154133012 0 -0.0026844732940683068 0.072767015129215337 0 -0.0013663598099145221 0.070404753154133012 0 -0.0011806903958584412 0.072949299166645221 0 -0.0013663598099145221 0.070404753154133012 0 0.00058662010507147088 0.070950323721560987 0 -0.00012452014199429288 0.067581629323078984 0 0.0029529625587677859 0.067838006459221167 0 0.00058662010507147088 0.070950323721560987 0 -0.00012452014199429288 0.067581629323078984 0 0.0029529625587677859 0.067838006459221167 0 0.00058662010507147088 0.070950323721560987 0 0.0027713354773358876 0.070962218490580709 0 0.0029529625587677859 0.067838006459221167 0 -0.00012452014199429288 0.067581629323078984 0 0.0012182652525363563 0.064557066235699748 0 -0.0026580791177869645 0.067575956026066933 0 -0.00012452014199429288 0.067581629323078984 0 -0.00066837616652191143 0.064166031976927274 0 -0.00012452014199429288 0.067581629323078984 0 -0.00066837616652191143 0.064166031976927274 0 0.0012182652525363563 0.064557066235699748 0 0.0034823596497185862 0.062564621358295644 0 0.0012182652525363563 0.064557066235699748 0 0.00041375969223060707 0.060314167879122201 0 -0.00066837616652191143 0.064166031976927274 0 0.0012182652525363563 0.064557066235699748 0 0.00041375969223060707 0.060314167879122201 0 -0.00066837616652191143 0.064166031976927274 0 0.00041375969223060707 0.060314167879122201 0 -0.0022714680548992783 0.062275462881836594 0 -0.0014599424118328732 0.058797231815202994 0 0.00041375969223060707 0.060314167879122201 0 -0.0022714680548992783 0.062275462881836594 0 -0.0028448443647538886 0.059518704807815806 0 -0.0022714680548992783 0.062275462881836594 0 -0.0037909204191183292 0.061714674639660391 0 -0.0046925907270465306 0.062674659415143136 0 -0.005433542230975379 0.063873145746988352 0 -0.0038411871661387276 0.063441528825453813 0 -0.0022714680548992783 0.062275462881836594 0 -0.0037909204191183292 0.061714674639660391 0 -0.0038411871661387276 0.063441528825453813 0 -0.0046925907270465306 0.062674659415143136 0 -0.0037909204191183292 0.061714674639660391 0 -0.0038411871661387276 0.063441528825453813 0 -0.005433542230975379 0.063873145746988352 0 -0.0026580791177869645 0.067575956026066933 0 -0.0038411871661387276 0.063441528825453813 0 -0.0026580791177869645 0.067575956026066933 0 -0.00066837616652191143 0.064166031976927274 0 -0.0022714680548992783 0.062275462881836594 0 -0.0026580791177869645 0.067575956026066933 0 -0.0022714680548992783 0.062275462881836594 0 -0.0038411871661387276 0.063441528825453813 0 -5.8803374963378176e-07 0.094990644251291764 0 -0.00036223329858194812 0.086699206375072793 0 2.3262072454746982e-06 0.078764258122411779 0 -5.8803374963378176e-07 0.094990644251291764 0 8.2776857958978064e-06 0.094244549450236248 0 -8.6136371478811736e-07 0.094997949204131099 0 -0.00020104092190234958 0.093309102233713248 0 8.2776857958978064e-06 0.094244549450236248 0 -8.6136371478811736e-07 0.094997949204131099 0 -0.00020104092190234958 0.093309102233713248 0 -0.00021490572663542502 0.093579638646014471 0 8.2776857958978064e-06 0.094244549450236248 0 -5.8803374963378176e-07 0.094990644251291764 0 8.2776857958978064e-06 0.094244549450236248 0 -0.00036223329858194812 0.086699206375072793 0 -0.00011153411569218171 0.087200938797988972 0 8.2776857958978064e-06 0.094244549450236248 0 -0.00036223329858194812 0.086699206375072793 0 -0.0006639807854274955 0.090024194731619919 0 -0.00059896336033465078 0.09066967875305415 0 -0.00036223329858194812 0.086699206375072793 0 -0.0014980976680758831 0.084172724167555071 0 -0.0002405722560441886 0.081788932024832159 0 -0.0006639807854274955 0.090024194731619919 0 -0.00021885010097462447 0.089393369956272839 0 -0.00011153411569218171 0.087200938797988972 0 -0.00036223329858194812 0.086699206375072793 0 -0.0014980976680758831 0.084172724167555071 0 -0.00020104092190234958 0.093309102233713248 0 -0.00021490572663542502 0.093579638646014471 0 -0.0005225120099971157 0.091953526999329155 0 -0.00020104092190234958 0.093309102233713248 0 -0.0005225120099971157 0.091953526999329155 0 -0.0005203297729783566 0.091709323659703121 0 -0.0005225120099971157 0.091953526999329155 0 -0.00011782324713204757 0.090213534031709827 0 -0.0005203297729783566 0.091709323659703121 0 -0.00021885010097462447 0.089393369956272839 0 0.00048863759882025921 0.089379977568689387 0 -0.0005225120099971157 0.091953526999329155 0 0.00046278430028608516 0.087733407636404942 0 -0.00011782324713204757 0.090213534031709827 0 -0.0014980976680758831 0.084172724167555071 0 0.00046278430028608516 0.087733407636404942 0 0.00043802747995776875 0.08261975162729053 0 0.00046278430028608516 0.087733407636404942 0 0.0029806768187427483 0.083796772390820853 0 0.00043802747995776875 0.08261975162729053 0 0.00046278430028608516 0.087733407636404942 0 0.0029806768187427483 0.083796772390820853 0 0.0042908710042499406 0.087159892830275421 0 0.00046278430028608516 0.087733407636404942 0 0.0042908710042499406 0.087159892830275421 0 0.0016313129385900082 0.089800766803222826 0 0.0029806768187427483 0.083796772390820853 0 0.00043802747995776875 0.08261975162729053 0 0.0038799886553757849 0.078832928153719242 0 0.00043802747995776875 0.08261975162729053 0 0.0012268877148573871 0.078873720443712422 0 0.0038799886553757849 0.078832928153719242 0 0.00043802747995776875 0.08261975162729053 0 -0.0002405722560441886 0.081788932024832159 0 0.0012268877148573871 0.078873720443712422 0 -0.0014980976680758831 0.084172724167555071 0 0.00043802747995776875 0.08261975162729053 0 -0.0002405722560441886 0.081788932024832159 0 2.3262072454746982e-06 0.078764258122411779 0 0.0012268877148573871 0.078873720443712422 0 0.00011482815765307104 0.073229671609484265 0 -0.00036223329858194812 0.086699206375072793 0 -0.0002405722560441886 0.081788932024832159 0 2.3262072454746982e-06 0.078764258122411779 0 -0.0002405722560441886 0.081788932024832159 0 2.3262072454746982e-06 0.078764258122411779 0 0.0012268877148573871 0.078873720443712422 0 -4.0498286598501031e-06 0.066951770932152599 0 2.3262072454746982e-06 0.078764258122411779 0 0.00011482815765307104 0.073229671609484265 0 0.0011154709812035721 0.074346153716401478 0 0.00079212831612755405 0.073337755374079897 0 -0.0018866078499965456 0.070886464187710108 0 0.0011079657512019364 0.071451397895178542 0 0.0035778154389628646 0.076881218391693235 0 0.0011079657512019364 0.071451397895178542 0 0.0035778154389628646 0.076881218391693235 0 0.0035261799716050568 0.069499245189689529 0 -0.00076897902763825674 0.071253000785960377 0 0.00079212831612755405 0.073337755374079897 0 0.0012268877148573871 0.078873720443712422 0 0.0035778154389628646 0.076881218391693235 0 0.0038799886553757849 0.078832928153719242 0 0.0035778154389628646 0.076881218391693235 0 0.0038799886553757849 0.078832928153719242 0 0.0035261799716050568 0.069499245189689529 0 0.0033548031523725169 0.077669508418368741 0 0.0035393036999041461 0.078064572558636275 0 0.0029806768187427483 0.083796772390820853 0 0.0042908710042499406 0.087159892830275421 0 0.0083151934254891528 0.086437685982469092 0 0.0029806768187427483 0.083796772390820853 0 0.0038799886553757849 0.078832928153719242 0 0.0083151934254891528 0.086437685982469092 0 -0.00054230326770044997 0.067999600968696269 0 0.0035261799716050568 0.069499245189689529 0 0.00028707382398540925 0.064345209368923059 0 -0.00054230326770044997 0.067999600968696269 0 0.0011079657512019364 0.071451397895178542 0 0.0035261799716050568 0.069499245189689529 0 0.0083151934254891528 0.086437685982469092 0 0.010304940515756117 0.090096285067593554 0 0.0068732252996814092 0.090084571518335876 0 0.0035393036999041461 0.078064572558636275 0 0.0030167618360426324 0.078776640899119968 0 0.0042908710042499406 0.087159892830275421 0 0.0083151934254891528 0.086437685982469092 0 0.0068732252996814092 0.090084571518335876 0 0.0042908710042499406 0.087159892830275421 0 0.0068732252996814092 0.090084571518335876 0 0.004494298906913571 0.092336389517052378 0 0.0070683740951614686 0.09234001016459091 0 0.0051152392176314586 0.094643880556859475 0 0.004494298906913571 0.092336389517052378 0 0.0068732252996814092 0.090084571518335876 0 0.0070683740951614686 0.09234001016459091 0 0.004494298906913571 0.092336389517052378 0 0.010304940515756117 0.090096285067593554 0 0.0070683740951614686 0.09234001016459091 0 0.0088522308817949955 0.094138362418524538 0 0.010304940515756117 0.090096285067593554 0 0.0068732252996814092 0.090084571518335876 0 0.0070683740951614686 0.09234001016459091 0 -0.0024202308006965566 0.077104691915300241 0 -0.0024960881053080184 0.078108655597976584 0 -0.0024832949047068451 0.078066830021332939 0 0.0079446790014182436 0.095855748085811071 0 0.0061872738449610144 0.095321884863185199 0 0.0063592051221410054 0.096427455931447151 0 0.0006743577134254293 0.083179194276318216 0 0.00080901532291852455 0.085733380554517791 0 0.0079446790014182436 0.095855748085811071 0 0.0068151806375513838 0.094327212408788982 0 0.0061872738449610144 0.095321884863185199 0 0.00064311742563907034 0.08946164351492876 0 0.00080901532291852455 0.085733380554517791 0 0.0061872738449610144 0.095321884863185199 0 0.0051152392176314586 0.094643880556859475 0 0.0043794000691319132 0.095834077829609926 0 -0.00071404279235741267 0.085927874386355629 0 -0.00081165398922569644 0.086747878513854015 0 0.00031253518487783999 0.086429708812003792 0 0.0061872738449610144 0.095321884863185199 0 0.0043794000691319132 0.095834077829609926 0 0.0063592051221410054 0.096427455931447151 0 0.0068151806375513838 0.094327212408788982 0 0.0061872738449610144 0.095321884863185199 0 0.0051152392176314586 0.094643880556859475 0 0.0070683740951614686 0.09234001016459091 0 0.0088522308817949955 0.094138362418524538 0 0.0051152392176314586 0.094643880556859475 0 0.004531474069107329 0.085085958520727062 0 0.0045800094144664094 0.086830021659464393 0 0.00064311742563907034 0.08946164351492876 0 0.0021488410217490182 0.090940373739220925 0 0.0051152392176314586 0.094643880556859475 0 0.0043794000691319132 0.095834077829609926 0 0.004494298906913571 0.092336389517052378 0 0.0015867506349947088 0.093647482662294002 0 0.0023760306350979121 0.095170755030793239 0 0.0029959595881244396 0.092551446870127355 0 0.00064311742563907034 0.08946164351492876 0 -0.0011831071230929472 0.086288285642897325 0 -0.0077143422702812018 0.09018031462128491 0 -0.0047667424476687788 0.088982244125193802 0 -0.0074484231946128554 0.087168231236646812 0 -0.0077143422702812018 0.09018031462128491 0 -0.0047667424476687788 0.088982244125193802 0 -0.0039252475276236242 0.091844663670772417 0 -0.0047667424476687788 0.088982244125193802 0 -0.0039252475276236242 0.091844663670772417 0 -0.002876510159718943 0.090078169347998796 0 0.00064311742563907034 0.08946164351492876 0 -0.00060842270263239005 0.090788023704771473 0 0.0015867506349947088 0.093647482662294002 0 0.0023760306350979121 0.095170755030793239 0 0.0001685943095182185 0.093849578881449972 0 0.0015867506349947088 0.093647482662294002 0 0.0001685943095182185 0.093849578881449972 0 0.00066794080934034876 0.092789730723803421 0 0.0001685943095182185 0.093849578881449972 0 0.00066794080934034876 0.092789730723803421 0 -0.00026640835907377434 0.092484952249332161 0 0.00066794080934034876 0.092789730723803421 0 0.00048888355954355208 0.091354011651225378 0 -0.00026640835907377434 0.092484952249332161 0 0.0015867506349947088 0.093647482662294002 0 0.00066794080934034876 0.092789730723803421 0 0.0029959595881244396 0.092551446870127355 0 0.00066794080934034876 0.092789730723803421 0 0.0029959595881244396 0.092551446870127355 0 0.00048888355954355208 0.091354011651225378 0 0.0042908710042499406 0.087159892830275421 0 0.0029959595881244396 0.092551446870127355 0 0.0016313129385900082 0.089800766803222826 0 0.0027924398921464946 0.089255645897128907 0 0.0021488410217490182 0.090940373739220925 0 0.0029959595881244396 0.092551446870127355 0 0.0016313129385900082 0.089800766803222826 0 0.00048888355954355208 0.091354011651225378 0 -0.00011782324713204757 0.090213534031709827 0 0.00048888355954355208 0.091354011651225378 0 -0.0005203297729783566 0.091709323659703121 0 0.00046278430028608516 0.087733407636404942 0 0.0016313129385900082 0.089800766803222826 0 -0.00011782324713204757 0.090213534031709827 0 0.0016313129385900082 0.089800766803222826 0 -0.00011782324713204757 0.090213534031709827 0 0.00048888355954355208 0.091354011651225378 0 0.00048888355954355208 0.091354011651225378 0 -0.0005203297729783566 0.091709323659703121 0 -0.00026640835907377434 0.092484952249332161 0 -0.00020104092190234958 0.093309102233713248 0 -0.00042412943862196522 0.092813186384405846 0 -0.00017083659212881424 0.093444969958090041 0 -0.00020104092190234958 0.093309102233713248 0 -0.0005203297729783566 0.091709323659703121 0 -0.00042412943862196522 0.092813186384405846 0 -0.0005203297729783566 0.091709323659703121 0 -0.00042412943862196522 0.092813186384405846 0 -0.00063943439340748121 0.092662968594464809 0 -0.00063943439340748121 0.092662968594464809 0 -0.00017083659212881424 0.093444969958090041 0 -0.00094571583498982345 0.092683412469075507 0 -0.00042412943862196522 0.092813186384405846 0 -0.00063943439340748121 0.092662968594464809 0 -0.00017083659212881424 0.093444969958090041 0 -0.00017083659212881424 0.093444969958090041 0 -0.00094571583498982345 0.092683412469075507 0 -0.00042730166614950605 0.091046794827991467 0 -0.0005203297729783566 0.091709323659703121 0 -0.00063943439340748121 0.092662968594464809 0 -0.00026640835907377434 0.092484952249332161 0 -0.00063943439340748121 0.092662968594464809 0 -0.00094571583498982345 0.092683412469075507 0 -0.00026640835907377434 0.092484952249332161 0 0.0001685943095182185 0.093849578881449972 0 -0.00094571583498982345 0.092683412469075507 0 -0.00026640835907377434 0.092484952249332161 0 -0.0039252475276236242 0.091844663670772417 0 -0.0017452442790453265 0.091160855092117424 0 -0.002876510159718943 0.090078169347998796 0 -0.0039252475276236242 0.091844663670772417 0 -0.00094571583498982345 0.092683412469075507 0 -0.0017452442790453265 0.091160855092117424 0 -0.00060842270263239005 0.090788023704771473 0 -0.00065282510701547959 0.09125892650346111 0 -0.0017452442790453265 0.091160855092117424 0 -0.002876510159718943 0.090078169347998796 0 -0.0012002661700757974 0.090005414924324623 0 -0.002876510159718943 0.090078169347998796 0 -0.0012002661700757974 0.090005414924324623 0 -0.0029461969607488714 0.087939094404542437 0 -0.0047667424476687788 0.088982244125193802 0 -0.002876510159718943 0.090078169347998796 0 -0.0029461969607488714 0.087939094404542437 0 -0.0012002661700757974 0.090005414924324623 0 -0.00042730166614950605 0.091046794827991467 0 -0.00166810349321101 0.090694468748094823 0 -0.0017452442790453265 0.091160855092117424 0 -0.0012002661700757974 0.090005414924324623 0 -0.00042730166614950605 0.091046794827991467 0 -0.00053679137259131078 0.093214431556766592 0 -0.00070685330839367184 0.093266530461018016 0 -0.00094571583498982345 0.092683412469075507 0 -0.0017452442790453265 0.091160855092117424 0 -0.00042730166614950605 0.091046794827991467 0 -0.00047144526411627537 0.093303796681427659 0 -0.00053679137259131078 0.093214431556766592 0 -0.00017083659212881424 0.093444969958090041 0 5.174792183013009e-05 0.094641008122656772 0 -8.6136371478811736e-07 0.094997949204131099 0 5.174792183013009e-05 0.094641008122656772 0 -8.6136371478811736e-07 0.094997949204131099 0 -0.0001289852507912401 0.094940441280979601 0 -0.00020104092190234958 0.093309102233713248 0 -0.00017083659212881424 0.093444969958090041 0 -8.6136371478811736e-07 0.094997949204131099 0 -8.6136371478811736e-07 0.094997949204131099 0 9.8704084233507854e-08 0.094999380923605617 0 -0.00022501944668608877 0.094991663488587105 0 9.8704084233507854e-08 0.094999380923605617 0 -0.00022501944668608877 0.094991663488587105 0 -0.00045209350407970499 0.094178063164309919 0 -0.00022501944668608877 0.094991663488587105 0 -0.00091249776802249149 0.09436767002543564 0 -0.00045209350407970499 0.094178063164309919 0 -0.00022501944668608877 0.094991663488587105 0 -0.00040786553357587287 0.094966563300081921 0 -0.00091249776802249149 0.09436767002543564 0 -8.6136371478811736e-07 0.094997949204131099 0 -0.00022501944668608877 0.094991663488587105 0 -0.0001289852507912401 0.094940441280979601 0 -0.00022501944668608877 0.094991663488587105 0 -0.00040786553357587287 0.094966563300081921 0 -0.0001289852507912401 0.094940441280979601 0 -0.0018108929037046896 0.093084515590852623 0 -0.00166810349321101 0.090694468748094823 0 -0.00044131295396883727 0.09263758895443816 0 -0.0018108929037046896 0.093084515590852623 0 -0.00044131295396883727 0.09263758895443816 0 -0.0011799302162928251 0.093783605977300483 0 -0.0012002661700757974 0.090005414924324623 0 -0.00166810349321101 0.090694468748094823 0 -0.00044131295396883727 0.09263758895443816 0 -0.00082953680844520452 0.093591018208426802 0 -0.00070685330839367184 0.093266530461018016 0 -0.0034754964425629709 0.085824681246349108 0 -0.0029461969607488714 0.087939094404542437 0 -0.002553269554441631 0.08479198733389888 0 -0.0017903356956266998 0.089758607097403312 0 -0.0020141501330829927 0.089434783417204136 0 -0.0047667424476687788 0.088982244125193802 0 -0.0034754964425629709 0.085824681246349108 0 -0.0029461969607488714 0.087939094404542437 0 -0.0012002661700757974 0.090005414924324623 0 -0.0029461969607488714 0.087939094404542437 0 -0.002553269554441631 0.08479198733389888 0 -0.0034754964425629709 0.085824681246349108 0 -0.002553269554441631 0.08479198733389888 0 -0.0036768712262129767 0.084355387281150065 0 -0.0046579770011356695 0.084782561965643849 0 -0.003701411983126499 0.084683338311401526 0 -0.0036768712262129767 0.084355387281150065 0 -0.00044131295396883727 0.09263758895443816 0 -0.0011799302162928251 0.093783605977300483 0 -0.001486306361228037 0.094466381145225806 0 -0.002553269554441631 0.08479198733389888 0 -0.0046579770011356695 0.084782561965643849 0 -0.0036768712262129767 0.084355387281150065 0 -0.0020141501330829927 0.089434783417204136 0 -0.0024451358873188904 0.089547381515877447 0 -0.00082953680844520452 0.093591018208426802 0 -0.00085692704277685308 0.093738674720332246 0 -0.0018108929037046896 0.093084515590852623 0 -0.0011799302162928251 0.093783605977300483 0 -0.00091249776802249149 0.09436767002543564 0 -0.0011799302162928251 0.093783605977300483 0 -0.00091249776802249149 0.09436767002543564 0 -0.001486306361228037 0.094466381145225806 0 -0.00091249776802249149 0.09436767002543564 0 -0.0011906043043979585 0.093344050608690887 0 -0.00045209350407970499 0.094178063164309919 0 -0.00091249776802249149 0.09436767002543564 0 -0.001486306361228037 0.094466381145225806 0 -0.0011906043043979585 0.093344050608690887 0 -0.0046579770011356695 0.084782561965643849 0 -0.0035198636852153539 0.086038971694529023 0 -0.0030881781925400187 0.088061840617491519 0 -0.0046579770011356695 0.084782561965643849 0 -0.003701411983126499 0.084683338311401526 0 -0.0035198636852153539 0.086038971694529023 0 -0.003701411983126499 0.084683338311401526 0 -0.0032395308003439808 0.084740347870157634 0 -0.0030643846531296535 0.086641875751826469 0 -0.003701411983126499 0.084683338311401526 0 -0.0035198636852153539 0.086038971694529023 0 -0.0030643846531296535 0.086641875751826469 0 -0.0035198636852153539 0.086038971694529023 0 -0.0030643846531296535 0.086641875751826469 0 -0.0030881781925400187 0.088061840617491519 0 -0.0032395308003439808 0.084740347870157634 0 -0.0026946793564543528 0.086193849887384003 0 -0.0030643846531296535 0.086641875751826469 0 -0.0032395308003439808 0.084740347870157634 0 -0.0024072778882729758 0.084501685666848805 0 -0.0026946793564543528 0.086193849887384003 0 -0.0024072778882729758 0.084501685666848805 0 -0.0020936316880046679 0.085924683466253551 0 -0.0026946793564543528 0.086193849887384003 0 -0.0032395308003439808 0.084740347870157634 0 -0.0031364736565406594 0.083271235244832459 0 -0.0024072778882729758 0.084501685666848805 0 -0.003701411983126499 0.084683338311401526 0 -0.0032395308003439808 0.084740347870157634 0 -0.0041667294106681272 0.083409884866299772 0 -0.0032395308003439808 0.084740347870157634 0 -0.0031364736565406594 0.083271235244832459 0 -0.0041667294106681272 0.083409884866299772 0 -0.0031364736565406594 0.083271235244832459 0 -0.0041667294106681272 0.083409884866299772 0 -0.003220424961763908 0.081493968462100483 0 -0.003701411983126499 0.084683338311401526 0 -0.0041667294106681272 0.083409884866299772 0 -0.0036768712262129767 0.084355387281150065 0 -0.0041667294106681272 0.083409884866299772 0 -0.0036768712262129767 0.084355387281150065 0 -0.0040733103390001623 0.084875469305149234 0 -0.0034754964425629709 0.085824681246349108 0 -0.0036768712262129767 0.084355387281150065 0 -0.0040733103390001623 0.084875469305149234 0 -0.0047667424476687788 0.088982244125193802 0 -0.0034754964425629709 0.085824681246349108 0 -0.0074484231946128554 0.087168231236646812 0 -0.0034754964425629709 0.085824681246349108 0 -0.0040733103390001623 0.084875469305149234 0 -0.005044863816514992 0.086065398321788694 0 -0.0029949206918722464 0.086552062333534407 0 -0.0011831071230929472 0.086288285642897325 0 -0.0041667294106681272 0.083409884866299772 0 -0.0040733103390001623 0.084875469305149234 0 -0.005044863816514992 0.086065398321788694 0 -0.0041667294106681272 0.083409884866299772 0 -0.004598953255347653 0.078663353845183678 0 -0.003220424961763908 0.081493968462100483 0 -0.0019498813807693875 0.084053321626866545 0 -0.0011831071230929472 0.086288285642897325 0 -0.004598953255347653 0.078663353845183678 0 -0.003220424961763908 0.081493968462100483 0 -0.0028748323074825736 0.079926492090065276 0 -0.003220424961763908 0.081493968462100483 0 -0.0027131566227402136 0.080890093130329285 0 -0.0028748323074825736 0.079926492090065276 0 -0.0027131566227402136 0.080890093130329285 0 -0.002302531938333506 0.080170022523739601 0 -0.0025239753431148346 0.081966859279089921 0 -0.0027131566227402136 0.080890093130329285 0 -0.0028748323074825736 0.079926492090065276 0 -0.002302531938333506 0.080170022523739601 0 -0.004598953255347653 0.078663353845183678 0 -0.0028748323074825736 0.079926492090065276 0 -0.002672914962317992 0.078618902658236831 0 -0.0011831071230929472 0.086288285642897325 0 0.00080901532291852455 0.085733380554517791 0 -0.004598953255347653 0.078663353845183678 0 -0.002672914962317992 0.078618902658236831 0 -0.0025241094280011788 0.0780105697908718 0 -0.0028748323074825736 0.079926492090065276 0 -0.002672914962317992 0.078618902658236831 0 -0.0023967842531815177 0.079050246878171346 0 -0.0024202308006965566 0.077104691915300241 0 -0.0023238709253106142 0.077927928068684107 0 -0.0024832949047068451 0.078066830021332939 0 -0.0023238709253106142 0.077927928068684107 0 -0.0024832949047068451 0.078066830021332939 0 -0.0024079515804446778 0.07842750251527468 0 -0.002672914962317992 0.078618902658236831 0 -0.0024832949047068451 0.078066830021332939 0 -0.0024079515804446778 0.07842750251527468 0 -0.002672914962317992 0.078618902658236831 0 -0.0025241094280011788 0.0780105697908718 0 -0.0024832949047068451 0.078066830021332939 0 0.00080901532291852455 0.085733380554517791 0 0.00077183886051183383 0.085704368003953105 0 -0.002672914962317992 0.078618902658236831 0 -0.0024079515804446778 0.07842750251527468 0 -0.0023967842531815177 0.079050246878171346 0 -0.0024079515804446778 0.07842750251527468 0 -0.0023035176371745806 0.078557513755326283 0 -0.0023967842531815177 0.079050246878171346 0 -0.0023238709253106142 0.077927928068684107 0 -0.0024079515804446778 0.07842750251527468 0 -0.0023035176371745806 0.078557513755326283 0 -0.0023238709253106142 0.077927928068684107 0 -0.0023035176371745806 0.078557513755326283 0 -0.0021487502220269242 0.078813016896036953 0 -0.0023035176371745806 0.078557513755326283 0 -0.0023967842531815177 0.079050246878171346 0 -0.0021487502220269242 0.078813016896036953 0 -0.0023967842531815177 0.079050246878171346 0 -0.002302531938333506 0.080170022523739601 0 -0.0021487502220269242 0.078813016896036953 0 -0.0028748323074825736 0.079926492090065276 0 -0.0023967842531815177 0.079050246878171346 0 -0.002302531938333506 0.080170022523739601 0 -0.002302531938333506 0.080170022523739601 0 -0.0020039717904928502 0.079598906725943344 0 -0.0021487502220269242 0.078813016896036953 0 -0.002302531938333506 0.080170022523739601 0 -0.0017815816851013313 0.080983636499317377 0 -0.0020039717904928502 0.079598906725943344 0 -0.002302531938333506 0.080170022523739601 0 -0.0017815816851013313 0.080983636499317377 0 -0.0025239753431148346 0.081966859279089921 0 -0.0017815816851013313 0.080983636499317377 0 -0.0025239753431148346 0.081966859279089921 0 -0.0024072778882729758 0.084501685666848805 0 -0.0031364736565406594 0.083271235244832459 0 -0.0025239753431148346 0.081966859279089921 0 -0.0024072778882729758 0.084501685666848805 0 -0.0031364736565406594 0.083271235244832459 0 -0.003220424961763908 0.081493968462100483 0 -0.0025239753431148346 0.081966859279089921 0 -0.003220424961763908 0.081493968462100483 0 -0.0027131566227402136 0.080890093130329285 0 -0.0025239753431148346 0.081966859279089921 0 -0.0017914620199594345 0.08073783572473045 0 -0.0024072778882729758 0.084501685666848805 0 -0.0015890812498012851 0.084605226750640541 0 -0.0024072778882729758 0.084501685666848805 0 -0.0015890812498012851 0.084605226750640541 0 -0.0020936316880046679 0.085924683466253551 0 -0.0022866073165319118 0.080402908432490414 0 -0.0027214040652654009 0.08144235474160634 0 -0.0015890812498012851 0.084605226750640541 0 0.00041905278647782557 0.086142343886933231 0 0.0015563264528389706 0.084898427137855212 0 -0.0017914620199594345 0.08073783572473045 0 -0.0015890812498012851 0.084605226750640541 0 -0.0018016488556176242 0.080483997394059176 0 -0.0019576753753072053 0.083143400050699423 0 -0.0010801175849197437 0.08261214845964443 0 0.00041905278647782557 0.086142343886933231 0 -0.001302582569516946 0.0870883108149519 0 -0.00011141098882305284 0.088031256158496066 0 -0.0015890812498012851 0.084605226750640541 0 0.00041905278647782557 0.086142343886933231 0 -0.001302582569516946 0.0870883108149519 0 -0.0015890812498012851 0.084605226750640541 0 -0.0020936316880046679 0.085924683466253551 0 -0.001302582569516946 0.0870883108149519 0 -0.0020936316880046679 0.085924683466253551 0 -0.001302582569516946 0.0870883108149519 0 -0.0022814289129068463 0.087565422397362674 0 0.00028701561295506507 0.088089348579620849 0 -0.0012715429403051728 0.088939012712650339 0 -0.001302582569516946 0.0870883108149519 0 -0.0023956027023811473 0.089468652288958797 0 -0.0022814289129068463 0.087565422397362674 0 -0.001302582569516946 0.0870883108149519 0 -0.00011141098882305284 0.088031256158496066 0 -0.0023956027023811473 0.089468652288958797 0 0.00047517573672463777 0.088136434487399426 0 0.00061033050866121988 0.089572305556755785 0 -0.00037738421122947231 0.08984747768139667 0 0.00047517573672463777 0.088136434487399426 0 0.00061033050866121988 0.089572305556755785 0 0.0016388076372895076 0.088821164082151113 0 0.00061033050866121988 0.089572305556755785 0 0.0015459545922188924 0.090405380954550432 0 -0.00010896962072053159 0.090623721366385759 0 0.00061033050866121988 0.089572305556755785 0 -0.00037738421122947231 0.08984747768139667 0 -0.00010896962072053159 0.090623721366385759 0 0.00047517573672463777 0.088136434487399426 0 -0.00037738421122947231 0.08984747768139667 0 -0.00081875760716598495 0.089012446360072398 0 -0.00037738421122947231 0.08984747768139667 0 -0.0011832282107905434 0.090098779247126629 0 -0.0006234804662096432 0.090865095495902326 0 -0.00037738421122947231 0.08984747768139667 0 -0.00081875760716598495 0.089012446360072398 0 -0.0011832282107905434 0.090098779247126629 0 -0.0011832282107905434 0.090098779247126629 0 -0.0021146545102159694 0.08978626305290234 0 -0.0016811456689999357 0.090153317600394231 0 -0.0023956027023811473 0.089468652288958797 0 -0.0021146545102159694 0.08978626305290234 0 -0.0025006216077271986 0.089718600681772703 0 -0.0012715429403051728 0.088939012712650339 0 -0.0018364586017644337 0.089275076313137289 0 -0.00081875760716598495 0.089012446360072398 0 -0.0011832282107905434 0.090098779247126629 0 -0.0021146545102159694 0.08978626305290234 0 -0.0021146545102159694 0.08978626305290234 0 -0.0025006216077271986 0.089718600681772703 0 -0.0023304583007520644 0.090039558295391786 0 -0.0025006216077271986 0.089718600681772703 0 -0.0026531588386941459 0.089888050483481793 0 -0.0023304583007520644 0.090039558295391786 0 -0.0026531588386941459 0.089888050483481793 0 -0.0023107765865296331 0.090783308442063393 0 -0.0023304583007520644 0.090039558295391786 0 -0.0026531588386941459 0.089888050483481793 0 -0.0027303140952840165 0.089968956946529677 0 -0.0027555777171125338 0.088843088849874852 0 -0.0026531588386941459 0.089888050483481793 0 -0.0027303140952840165 0.089968956946529677 0 -0.0023107765865296331 0.090783308442063393 0 -0.0026531588386941459 0.089888050483481793 0 -0.0026184682283480185 0.088975011119525729 0 -0.0027555777171125338 0.088843088849874852 0 -0.0025006216077271986 0.089718600681772703 0 -0.0026531588386941459 0.089888050483481793 0 -0.0026184682283480185 0.088975011119525729 0 -0.0023956027023811473 0.089468652288958797 0 -0.0025006216077271986 0.089718600681772703 0 -0.0026184682283480185 0.088975011119525729 0 -0.0023956027023811473 0.089468652288958797 0 -0.0026184682283480185 0.088975011119525729 0 -0.0022814289129068463 0.087565422397362674 0 -0.0026184682283480185 0.088975011119525729 0 -0.0027296595739768796 0.087582598183675087 0 -0.0022814289129068463 0.087565422397362674 0 -0.0027296595739768796 0.087582598183675087 0 -0.0022814289129068463 0.087565422397362674 0 -0.0026946793564543528 0.086193849887384003 0 -0.0020936316880046679 0.085924683466253551 0 -0.0022814289129068463 0.087565422397362674 0 -0.0026946793564543528 0.086193849887384003 0 -0.0027296595739768796 0.087582598183675087 0 -0.0026946793564543528 0.086193849887384003 0 -0.0030643846531296535 0.086641875751826469 0 -0.0027296595739768796 0.087582598183675087 0 -0.0030643846531296535 0.086641875751826469 0 -0.0027555777171125338 0.088843088849874852 0 -0.0030643846531296535 0.086641875751826469 0 -0.0030881781925400187 0.088061840617491519 0 -0.0027555777171125338 0.088843088849874852 0 -0.0027303140952840165 0.089968956946529677 0 -0.0030881781925400187 0.088061840617491519 0 -0.0027555777171125338 0.088843088849874852 0 -0.0026184682283480185 0.088975011119525729 0 -0.0027296595739768796 0.087582598183675087 0 -0.0027555777171125338 0.088843088849874852 0 -0.001486306361228037 0.094466381145225806 0 -0.0011906043043979585 0.093344050608690887 0 -0.0029604166767031844 0.090870636445873898 0 -0.0024451358873188904 0.089547381515877447 0 -0.002590640981122703 0.08983163380583882 0 -0.0046579770011356695 0.084782561965643849 0 -0.0030881781925400187 0.088061840617491519 0 -0.0029604166767031844 0.090870636445873898 0 -0.0011906043043979585 0.093344050608690887 0 -0.0016444406585489019 0.092307228738831057 0 -0.0029604166767031844 0.090870636445873898 0 -0.0027303140952840165 0.089968956946529677 0 -0.0030881781925400187 0.088061840617491519 0 -0.0029604166767031844 0.090870636445873898 0 -0.0011906043043979585 0.093344050608690887 0 -0.0010300606882595125 0.093113372757165164 0 -0.00045209350407970499 0.094178063164309919 0 -0.0011906043043979585 0.093344050608690887 0 -0.0010300606882595125 0.093113372757165164 0 -0.0016444406585489019 0.092307228738831057 0 -0.0017685412968039161 0.091951649593348977 0 -0.0014470013672110284 0.092655269801752746 0 -0.00092539440808144088 0.09354148360467128 0 -0.0010300606882595125 0.093113372757165164 0 -0.0017685412968039161 0.091951649593348977 0 -0.00092539440808144088 0.09354148360467128 0 -0.0010300606882595125 0.093113372757165164 0 -0.0016444406585489019 0.092307228738831057 0 -0.0017685412968039161 0.091951649593348977 0 -0.0017685412968039161 0.091951649593348977 0 -0.0023107765865296331 0.090783308442063393 0 -0.0014470013672110284 0.092655269801752746 0 -0.0016444406585489019 0.092307228738831057 0 -0.0017685412968039161 0.091951649593348977 0 -0.0029604166767031844 0.090870636445873898 0 -0.0017685412968039161 0.091951649593348977 0 -0.0029604166767031844 0.090870636445873898 0 -0.0023107765865296331 0.090783308442063393 0 -0.0027303140952840165 0.089968956946529677 0 -0.0029604166767031844 0.090870636445873898 0 -0.0023107765865296331 0.090783308442063393 0 -0.0016891506582883782 0.091729982263041923 0 -0.0015755958008088938 0.09195536943930048 0 -0.0021146545102159694 0.08978626305290234 0 -0.0023304583007520644 0.090039558295391786 0 -0.0019830179281088481 0.08971675363980966 0 -0.0023107765865296331 0.090783308442063393 0 -0.0006918841631391885 0.093791263274045827 0 -0.0014470013672110284 0.092655269801752746 0 -0.0023107765865296331 0.090783308442063393 0 -0.0023304583007520644 0.090039558295391786 0 -0.0019830179281088481 0.08971675363980966 0 -0.0021146545102159694 0.08978626305290234 0 -0.0019830179281088481 0.08971675363980966 0 -0.0016811456689999357 0.090153317600394231 0 -0.0006918841631391885 0.093791263274045827 0 -0.0010030880399542769 0.09382730659943897 0 -0.0010182076744939628 0.094448112984366644 0 -0.0006918841631391885 0.093791263274045827 0 -0.0010030880399542769 0.09382730659943897 0 -0.0014470013672110284 0.092655269801752746 0 -0.0010030880399542769 0.09382730659943897 0 -0.0014470013672110284 0.092655269801752746 0 -0.00092539440808144088 0.09354148360467128 0 -0.00092539440808144088 0.09354148360467128 0 -0.00074205562589243091 0.094363426801990113 0 -1.5648832489879962e-06 0.094997514428456761 0 -0.0010030880399542769 0.09382730659943897 0 -0.00092539440808144088 0.09354148360467128 0 -0.00074205562589243091 0.094363426801990113 0 9.8704084233507854e-08 0.094999380923605617 0 -1.5648832489879962e-06 0.094997514428456761 0 -0.00045209350407970499 0.094178063164309919 0 -0.00092539440808144088 0.09354148360467128 0 -1.5648832489879962e-06 0.094997514428456761 0 -0.00045209350407970499 0.094178063164309919 0 -0.0010300606882595125 0.093113372757165164 0 -0.00092539440808144088 0.09354148360467128 0 -0.00045209350407970499 0.094178063164309919 0 -0.00069951199492312337 0.075971125190667524 0 -0.0001399142959704257 0.075894960478357157 0 -0.00025767515086406729 0.075137445753443929 0 0.0028768380013971602 0.079998867608838412 0 0.0027103708349412465 0.079951611524380739 0 0.0028768380013971602 0.079998867608838412 0 0.001546912087580355 0.08085566299304861 0 -0.00064400167719933139 0.076284724721912736 0 -0.0021605786020187875 0.077133003952975898 0 -0.0016870688457028295 0.076009003818218249 0 0.0074580842125654724 0.083949699176354989 0 0.0053921438282831767 0.08440565406608487 0 0.0066484024691163988 0.085013409479533383 0 0.0053921438282831767 0.08440565406608487 0 0.0066484024691163988 0.085013409479533383 0 0.0059946851226312537 0.086094173905349403 0 0.0068730814567260108 0.085833738458922393 0 0.0066484024691163988 0.085013409479533383 0 0.0059946851226312537 0.086094173905349403 0 0.0068730814567260108 0.085833738458922393 0 0.0066484024691163988 0.085013409479533383 0 0.0077574420456197751 0.085621842703377776 0 0.0074580842125654724 0.083949699176354989 0 0.0066484024691163988 0.085013409479533383 0 0.0077574420456197751 0.085621842703377776 0 0.0028768380013971602 0.079998867608838412 0 0.0028979958104194833 0.081999403101099197 0 -0.00088661629022187519 0.076057012532304263 0 -0.00048029796532010453 0.078541071003592394 0 -4.342238193769104e-05 0.07707241148065741 0 -0.00048029796532010453 0.078541071003592394 0 0.00065385638256579325 0.078878502778079451 0 0.00038530277915451496 0.07797081949944297 0 0.00065385638256579325 0.078878502778079451 0 0.0011977345590914426 0.078044766841962973 0 0.001821576859508116 0.079129735280394686 0 0.00065385638256579325 0.078878502778079451 0 0.0011977345590914426 0.078044766841962973 0 0.00038530277915451496 0.07797081949944297 0 0.0011977345590914426 0.078044766841962973 0 0.00059828230001438075 0.077324548338134139 0 0.00038530277915451496 0.07797081949944297 0 0.0011977345590914426 0.078044766841962973 0 0.00059828230001438075 0.077324548338134139 0 0.0014795453023475115 0.077064304048751683 0 0.00059828230001438075 0.077324548338134139 0 0.00038530277915451496 0.07797081949944297 0 -4.342238193769104e-05 0.07707241148065741 0 -0.00048029796532010453 0.078541071003592394 0 0.00038530277915451496 0.07797081949944297 0 -4.342238193769104e-05 0.07707241148065741 0 0.0034576653165839075 0.07974839504097854 0 0.0023746559078464016 0.077752384852297601 0 0.001821576859508116 0.079129735280394686 0 0.0011977345590914426 0.078044766841962973 0 0.0023746559078464016 0.077752384852297601 0 0.001821576859508116 0.079129735280394686 0 0.0011977345590914426 0.078044766841962973 0 0.0023746559078464016 0.077752384852297601 0 0.0014795453023475115 0.077064304048751683 0 0.0023746559078464016 0.077752384852297601 0 0.0014795453023475115 0.077064304048751683 0 0.0025746576208751297 0.076095043766183396 0 0.0014795453023475115 0.077064304048751683 0 0.0025746576208751297 0.076095043766183396 0 0.001273837866618647 0.07610344576173006 0 0.0025746576208751297 0.076095043766183396 0 0.001273837866618647 0.07610344576173006 0 0.001748088796994013 0.075062460854704971 0 -4.342238193769104e-05 0.07707241148065741 0 0.00051552058180586769 0.076474890462411335 0 -0.0001399142959704257 0.075894960478357157 0 -0.00088661629022187519 0.076057012532304263 0 -4.342238193769104e-05 0.07707241148065741 0 -0.0001399142959704257 0.075894960478357157 0 0.00059828230001438075 0.077324548338134139 0 -4.342238193769104e-05 0.07707241148065741 0 0.00051552058180586769 0.076474890462411335 0 0.00059828230001438075 0.077324548338134139 0 0.0014795453023475115 0.077064304048751683 0 0.00051552058180586769 0.076474890462411335 0 0.0014795453023475115 0.077064304048751683 0 0.00051552058180586769 0.076474890462411335 0 0.001273837866618647 0.07610344576173006 0 0.00055417040926971717 0.075423342184064032 0 0.001273837866618647 0.07610344576173006 0 0.001748088796994013 0.075062460854704971 0 0.00051552058180586769 0.076474890462411335 0 0.00055417040926971717 0.075423342184064032 0 0.001273837866618647 0.07610344576173006 0 0.00051552058180586769 0.076474890462411335 0 0.00055417040926971717 0.075423342184064032 0 -0.0001399142959704257 0.075894960478357157 0 0.00055417040926971717 0.075423342184064032 0 -0.0001399142959704257 0.075894960478357157 0 -0.00025767515086406729 0.075137445753443929 0 0.00055417040926971717 0.075423342184064032 0 -0.00025767515086406729 0.075137445753443929 0 0.00035176751272734475 0.073945562758477926 0 0.00055417040926971717 0.075423342184064032 0 0.00035176751272734475 0.073945562758477926 0 0.001748088796994013 0.075062460854704971 0 -0.00025767515086406729 0.075137445753443929 0 0.00035176751272734475 0.073945562758477926 0 -0.00094004420783447729 0.074731075173272724 0 0.0034545312130263477 0.074516836564441538 0 0.0025746576208751297 0.076095043766183396 0 0.001748088796994013 0.075062460854704971 0 0.00035176751272734475 0.073945562758477926 0 0.001748088796994013 0.075062460854704971 0 0.0021331055045863381 0.073152100635709247 0 0.0034545312130263477 0.074516836564441538 0 0.001748088796994013 0.075062460854704971 0 0.0021331055045863381 0.073152100635709247 0 0.00058662010507147088 0.070950323721560987 0 0.0027713354773358876 0.070962218490580709 0 0.0021331055045863381 0.073152100635709247 0 0.0040015289220049054 0.072966413080102294 0 0.0027713354773358876 0.070962218490580709 0 0.0021331055045863381 0.073152100635709247 0 0.00058662010507147088 0.070950323721560987 0 0.00035176751272734475 0.073945562758477926 0 0.0021331055045863381 0.073152100635709247 0 0.00058662010507147088 0.070950323721560987 0 0.00035176751272734475 0.073945562758477926 0 -0.0011806903958584412 0.072949299166645221 0 -0.0011806903958584412 0.072949299166645221 0 -0.00094004420783447729 0.074731075173272724 0 -0.0019765197159356952 0.074485337758343026 0 0.00035176751272734475 0.073945562758477926 0 -0.0011806903958584412 0.072949299166645221 0 -0.00094004420783447729 0.074731075173272724 0 0.0028768380013971602 0.079998867608838412 0 0.0022890900251851831 0.078281833503758128 0 -0.00069951199492312337 0.075971125190667524 0 -0.00025767515086406729 0.075137445753443929 0 -0.00094004420783447729 0.074731075173272724 0 -0.00064400167719933139 0.076284724721912736 0 -0.0016870688457028295 0.076009003818218249 0 -0.00094004420783447729 0.074731075173272724 0 -0.0016870688457028295 0.076009003818218249 0 -0.0019765197159356952 0.074485337758343026 0 -0.0027711965377086732 0.075709631871325581 0 -0.0016870688457028295 0.076009003818218249 0 -0.00094004420783447729 0.074731075173272724 0 -0.0019765197159356952 0.074485337758343026 0 -0.0026844732940683068 0.072767015129215337 0 -0.0011806903958584412 0.072949299166645221 0 -0.0019765197159356952 0.074485337758343026 0 -0.0026844732940683068 0.072767015129215337 0 -0.0019765197159356952 0.074485337758343026 0 -0.0027711965377086732 0.075709631871325581 0 -0.00306294316704741 0.074335938318865397 0 -0.0026844732940683068 0.072767015129215337 0 -0.0027711965377086732 0.075709631871325581 0 -0.00306294316704741 0.074335938318865397 0 -0.0027711965377086732 0.075709631871325581 0 -0.0026947646654424989 0.076150461317298121 0 -0.00197339175402214 0.078101185927899081 0 -0.0020540623502340993 0.078884181450995308 0 -0.0027711965377086732 0.075709631871325581 0 -0.0025781403302436064 0.078239737612577853 0 -0.0026095422877980634 0.077419770352050693 0 -0.0027711965377086732 0.075709631871325581 0 -0.0026947646654424989 0.076150461317298121 0 -0.0020464766915335212 0.077945193061676854 0 -0.0021605786020187875 0.077133003952975898 0 -0.0016870688457028295 0.076009003818218249 0 -0.0027711965377086732 0.075709631871325581 0 -0.0021605786020187875 0.077133003952975898 0 -0.0027711965377086732 0.075709631871325581 0 -0.0026095422877980634 0.077419770352050693 0 -0.0026679158620058962 0.076277585268786113 0 -0.0024202308006965566 0.077104691915300241 0 -0.0023540013880361419 0.07730201840356922 0 -0.0023238709253106142 0.077927928068684107 0 -0.0023540013880361419 0.07730201840356922 0 -0.0021487502220269242 0.078813016896036953 0 -0.0024202308006965566 0.077104691915300241 0 -0.0023238709253106142 0.077927928068684107 0 -0.0023540013880361419 0.07730201840356922 0 -0.0026947646654424989 0.076150461317298121 0 -0.0023540013880361419 0.07730201840356922 0 -0.0020464766915335212 0.077945193061676854 0 -0.0026679158620058962 0.076277585268786113 0 -0.0026947646654424989 0.076150461317298121 0 -0.0023540013880361419 0.07730201840356922 0 -0.0023540013880361419 0.07730201840356922 0 -0.0020464766915335212 0.077945193061676854 0 -0.0021487502220269242 0.078813016896036953 0 -0.0020464766915335212 0.077945193061676854 0 -0.0020039717904928502 0.079598906725943344 0 -0.0021487502220269242 0.078813016896036953 0 -0.0017914620199594345 0.08073783572473045 0 -0.0022580665687699712 0.079153080890949287 0 -0.0018016488556176242 0.080483997394059176 0 -0.0022866073165319118 0.080402908432490414 0 -0.0020540623502340993 0.078884181450995308 0 -0.0017815816851013313 0.080983636499317377 0 -0.0020464766915335212 0.077945193061676854 0 -0.0020039717904928502 0.079598906725943344 0 -0.0017914620199594345 0.08073783572473045 0 -0.0025781403302436064 0.078239737612577853 0 -0.0022580665687699712 0.079153080890949287 0 -0.0025781403302436064 0.078239737612577853 0 -0.0022580665687699712 0.079153080890949287 0 -0.0026095422877980634 0.077419770352050693 0 -0.0022580665687699712 0.079153080890949287 0 -0.0018016488556176242 0.080483997394059176 0 -0.0024948698884321332 0.07831743218047213 0 -0.0010801175849197437 0.08261214845964443 0 0.0001882655746607491 0.081734229261620217 0 0.0026668950874410582 0.085487813329855944 0 0.0015563264528389706 0.084898427137855212 0 0.0034524090562226299 0.084827590002754902 0 0.001546912087580355 0.08085566299304861 0 0.0001882655746607491 0.081734229261620217 0 -0.0021605786020187875 0.077133003952975898 0 -0.0026095422877980634 0.077419770352050693 0 -0.0024948698884321332 0.07831743218047213 0 -0.0022580665687699712 0.079153080890949287 0 -0.0026095422877980634 0.077419770352050693 0 -0.0024948698884321332 0.07831743218047213 0 0.0026668950874410582 0.085487813329855944 0 0.0034524090562226299 0.084827590002754902 0 0.0041925349660807253 0.08598696462373101 0 0.0053921438282831767 0.08440565406608487 0 0.0034524090562226299 0.084827590002754902 0 0.0041925349660807253 0.08598696462373101 0 0.0053921438282831767 0.08440565406608487 0 0.0041925349660807253 0.08598696462373101 0 0.0059946851226312537 0.086094173905349403 0 0.0041925349660807253 0.08598696462373101 0 0.0051517455479996362 0.087177351836890682 0 0.0059946851226312537 0.086094173905349403 0 0.0041925349660807253 0.08598696462373101 0 0.0038400313518105402 0.087597505394202899 0 0.0051517455479996362 0.087177351836890682 0 0.0041925349660807253 0.08598696462373101 0 0.0038400313518105402 0.087597505394202899 0 0.0020930656878753225 0.087138639100191623 0 0.0032399640555608082 0.086626161454398803 0 0.0021571668803220447 0.087139517099476718 0 0.0038400313518105402 0.087597505394202899 0 0.0026981501150358952 0.088351806152491053 0 0.0034374561673199818 0.089041038855949134 0 0.0038400313518105402 0.087597505394202899 0 0.0051517455479996362 0.087177351836890682 0 0.0050746619042772636 0.088470783367446307 0 0.0038400313518105402 0.087597505394202899 0 0.0050746619042772636 0.088470783367446307 0 0.0034374561673199818 0.089041038855949134 0 0.00041905278647782557 0.086142343886933231 0 -0.00011141098882305284 0.088031256158496066 0 0.0024284339776457489 0.086676338479280426 0 0.00041905278647782557 0.086142343886933231 0 0.0015563264528389706 0.084898427137855212 0 0.0024284339776457489 0.086676338479280426 0 0.0026668950874410582 0.085487813329855944 0 0.0015563264528389706 0.084898427137855212 0 0.0024284339776457489 0.086676338479280426 0 0.0026668950874410582 0.085487813329855944 0 0.0041925349660807253 0.08598696462373101 0 0.0024284339776457489 0.086676338479280426 0 0.0020930656878753225 0.087138639100191623 0 0.0026981501150358952 0.088351806152491053 0 0.0016388076372895076 0.088821164082151113 0 0.0038400313518105402 0.087597505394202899 0 0.0020930656878753225 0.087138639100191623 0 0.0026981501150358952 0.088351806152491053 0 0.00047517573672463777 0.088136434487399426 0 0.0020930656878753225 0.087138639100191623 0 0.0016388076372895076 0.088821164082151113 0 0.00028701561295506507 0.088089348579620849 0 0.0021571668803220447 0.087139517099476718 0 0.0026981501150358952 0.088351806152491053 0 0.0016388076372895076 0.088821164082151113 0 0.0025183984227550105 0.089329559055657787 0 0.0026981501150358952 0.088351806152491053 0 0.0025183984227550105 0.089329559055657787 0 0.0034374561673199818 0.089041038855949134 0 0.0025183984227550105 0.089329559055657787 0 0.0031961857111477681 0.089958882194265774 0 0.0015459545922188924 0.090405380954550432 0 4.2006278193571854e-05 0.090189735991353728 0 7.2333243818400149e-05 0.090462910988605358 0 0.00061033050866121988 0.089572305556755785 0 0.0016388076372895076 0.088821164082151113 0 0.0015459545922188924 0.090405380954550432 0 0.0016388076372895076 0.088821164082151113 0 0.0025183984227550105 0.089329559055657787 0 0.0015459545922188924 0.090405380954550432 0 0.0038156854595369979 0.086660789499732743 0 0.0035808521026091879 0.087087611124144426 0 0.0040368032262812952 0.088884986830363444 0 0.0034374561673199818 0.089041038855949134 0 0.0041723360002088794 0.089495804972817408 0 0.0025183984227550105 0.089329559055657787 0 0.0034374561673199818 0.089041038855949134 0 0.0031961857111477681 0.089958882194265774 0 0.0034374561673199818 0.089041038855949134 0 0.0031961857111477681 0.089958882194265774 0 0.0041723360002088794 0.089495804972817408 0 -0.0022602366248711584 0.091756947327378297 0 -0.0038419052101361425 0.092338963057902221 0 -0.0030060456804736546 0.09105661893692181 0 4.2006278193571854e-05 0.090189735991353728 0 -0.00043956872475715033 0.089535979811756913 0 0.0041723360002088794 0.089495804972817408 0 0.0046766656107389152 0.089233175755584274 0 0.0044820239066639001 0.089050878678599843 0 -0.0038419052101361425 0.092338963057902221 0 -0.005733984832371735 0.092906819709139832 0 -0.0050734679804614654 0.091708615743704702 0 -0.00043956872475715033 0.089535979811756913 0 -0.0017035883763669773 0.088082354755842071 0 -0.005733984832371735 0.092906819709139832 0 -0.0064462136452342065 0.091780917587464636 0 -0.0050734679804614654 0.091708615743704702 0 0.0046766656107389152 0.089233175755584274 0 0.0047291235558146825 0.089042626235585592 0 0.0049012003429464634 0.089023229787302927 0 0.0046766656107389152 0.089233175755584274 0 0.0047291235558146825 0.089042626235585592 0 0.0044820239066639001 0.089050878678599843 0 0.0046737510813036429 0.088887374641097361 0 0.0044820239066639001 0.089050878678599843 0 0.0044785997518400102 0.088759169199327623 0 0.0047291235558146825 0.089042626235585592 0 0.0046737510813036429 0.088887374641097361 0 0.0044820239066639001 0.089050878678599843 0 0.0047291235558146825 0.089042626235585592 0 0.0046737510813036429 0.088887374641097361 0 0.0047871036481343127 0.088895399625799773 0 0.0040368032262812952 0.088884986830363444 0 0.0041723360002088794 0.089495804972817408 0 0.0044820239066639001 0.089050878678599843 0 0.0040368032262812952 0.088884986830363444 0 0.0044820239066639001 0.089050878678599843 0 0.0044785997518400102 0.088759169199327623 0 0.0038156854595369979 0.086660789499732743 0 0.0038505722670252153 0.085496414538586071 0 0.0051517455479996362 0.087177351836890682 0 0.0050746619042772636 0.088470783367446307 0 0.0065834461306819364 0.087868958164477512 0 0.0065834461306819364 0.087868958164477512 0 0.0070935858863546281 0.086607793747106268 0 0.0080541744367621845 0.087302451003894332 0 0.0046737510813036429 0.088887374641097361 0 0.0044785997518400102 0.088759169199327623 0 0.0048392989708254501 0.088637385588234072 0 0.0038505722670252153 0.085496414538586071 0 0.002546838641115354 0.083601123083314813 0 0.0046737510813036429 0.088887374641097361 0 0.0048392989708254501 0.088637385588234072 0 0.0047871036481343127 0.088895399625799773 0 0.0077574420456197751 0.085621842703377776 0 0.0070935858863546281 0.086607793747106268 0 0.0080541744367621845 0.087302451003894332 0 0.0068730814567260108 0.085833738458922393 0 0.0077574420456197751 0.085621842703377776 0 0.0070935858863546281 0.086607793747106268 0 0.0068730814567260108 0.085833738458922393 0 0.0070935858863546281 0.086607793747106268 0 0.0059946851226312537 0.086094173905349403 0 0.0065834461306819364 0.087868958164477512 0 0.0070935858863546281 0.086607793747106268 0 0.0059946851226312537 0.086094173905349403 0 0.0051517455479996362 0.087177351836890682 0 0.0065834461306819364 0.087868958164477512 0 0.0059946851226312537 0.086094173905349403 0 0.0034576653165839075 0.07974839504097854 0 0.001821576859508116 0.079129735280394686 0 0.0010962748609457775 0.080604932941651483 0 0.0015175568046568036 0.077424836891460722 0 0.0016040932894469996 0.081517112149358806 0 0.00065385638256579325 0.078878502778079451 0 0.001116138111578274 0.080630484097322291 0 -4.7370251557546856e-05 0.081056887794645038 0 0.0014105372765832352 0.080866777587720332 0 0.0016040932894469996 0.081517112149358806 0 0.00065385638256579325 0.078878502778079451 0 0.001821576859508116 0.079129735280394686 0 0.0010962748609457775 0.080604932941651483 0 0.0028979958104194833 0.081999403101099197 0 0.002546838641115354 0.083601123083314813 0 -0.00048029796532010453 0.078541071003592394 0 0.00065385638256579325 0.078878502778079451 0 -4.7370251557546856e-05 0.081056887794645038 0 0.0016040932894469996 0.081517112149358806 0 -0.0002867546156334707 0.080758385322253323 0 0.0016040932894469996 0.081517112149358806 0 0.002546838641115354 0.083601123083314813 0 0.0048392989708254501 0.088637385588234072 0 0.0047871036481343127 0.088895399625799773 0 0.0049012003429464634 0.089023229787302927 0 0.0047276665701188464 0.088177154007847008 0 0.0052556042057014451 0.088486716847866895 0 0.0049204322254165394 0.088868715412281724 0 0.0051319042282492802 0.088018129289786667 0 0.0047276665701188464 0.088177154007847008 0 0.0052556042057014451 0.088486716847866895 0 0.002546838641115354 0.083601123083314813 0 0.0032567319934459459 0.086317149445346117 0 -0.0002867546156334707 0.080758385322253323 0 -0.00020706930813954656 0.08153532633743453 0 0.0015175568046568036 0.077424836891460722 0 -0.0002867546156334707 0.080758385322253323 0 0.0011423808675317415 0.078556984560434237 0 -0.00071393763485277299 0.079241118774108568 0 -0.00044241268532495845 0.080288994279243742 0 -0.0074793322279605801 0.065057913896543806 0 -0.0071715380983977638 0.066239867036265943 0 -0.0085856552103301936 0.066372896081549879 0 -0.0002867546156334707 0.080758385322253323 0 -0.0053437720395007994 0.085043796155773149 0 -0.0071715380983977638 0.066239867036265943 0 -0.0085856552103301936 0.066372896081549879 0 -0.0082738884175978262 0.067519049273445556 0 0.0046766656107389152 0.089233175755584274 0 0.005186611878946549 0.089076322731693441 0 0.0049012003429464634 0.089023229787302927 0 0.005097927121622884 0.088653879252100484 0 0.005186611878946549 0.089076322731693441 0 0.0049204322254165394 0.088868715412281724 0 -0.0017035883763669773 0.088082354755842071 0 -0.0053437720395007994 0.085043796155773149 0 0.0047276665701188464 0.088177154007847008 0 0.0049204322254165394 0.088868715412281724 0 0.0049012003429464634 0.089023229787302927 0 0.0047291235558146825 0.089042626235585592 0 0.0047871036481343127 0.088895399625799773 0 0.0049012003429464634 0.089023229787302927 0 0.005186611878946549 0.089076322731693441 0 0.0049204322254165394 0.088868715412281724 0 0.0049012003429464634 0.089023229787302927 0 -0.005733984832371735 0.092906819709139832 0 -0.0077411251867601739 0.093335696095723175 0 -0.0064462136452342065 0.091780917587464636 0 -0.0053437720395007994 0.085043796155773149 0 -0.0066650790397167455 0.089792271380294497 0 -0.0077411251867601739 0.093335696095723175 0 -0.0083730379539772096 0.091395241256036375 0 -0.0064462136452342065 0.091780917587464636 0 -0.010088005949059444 0.09312953852983348 0 -0.0086640551762098492 0.094027373715904361 0 -0.0092043196620077306 0.091715999574126975 0 -0.0083730379539772096 0.091395241256036375 0 -0.0064462136452342065 0.091780917587464636 0 -0.0064748099972567995 0.090566577440036322 0 -0.0064748099972567995 0.090566577440036322 0 -0.0072170394702104389 0.089514057402742514 0 -0.0056048070621979047 0.089428499727089453 0 -0.0083730379539772096 0.091395241256036375 0 -0.0064748099972567995 0.090566577440036322 0 -0.0072170394702104389 0.089514057402742514 0 -0.0083730379539772096 0.091395241256036375 0 -0.0072170394702104389 0.089514057402742514 0 -0.0094461449857199207 0.089347115208129019 0 -0.0072170394702104389 0.089514057402742514 0 -0.0074137593220490999 0.087598065676991618 0 -0.0094461449857199207 0.089347115208129019 0 -0.0072170394702104389 0.089514057402742514 0 -0.0062077472262690569 0.088336359762403893 0 -0.0074137593220490999 0.087598065676991618 0 -0.0072170394702104389 0.089514057402742514 0 -0.0062077472262690569 0.088336359762403893 0 -0.0056048070621979047 0.089428499727089453 0 -0.0062077472262690569 0.088336359762403893 0 -0.0074137593220490999 0.087598065676991618 0 -0.0055446486348816014 0.086855055191441835 0 -0.0074137593220490999 0.087598065676991618 0 -0.0094461449857199207 0.089347115208129019 0 -0.0096150865125880624 0.08780792260116202 0 -0.0074137593220490999 0.087598065676991618 0 -0.0096150865125880624 0.08780792260116202 0 -0.0088682591080323642 0.085868696245948173 0 -0.0043343467142278507 0.087629033406151732 0 -0.0051716231285560011 0.088273610392220217 0 -0.0043813231711053004 0.089371156327323023 0 -0.0062077472262690569 0.088336359762403893 0 -0.0051716231285560011 0.088273610392220217 0 -0.0055446486348816014 0.086855055191441835 0 -0.0043343467142278507 0.087629033406151732 0 -0.0051716231285560011 0.088273610392220217 0 -0.0055446486348816014 0.086855055191441835 0 -0.0051716231285560011 0.088273610392220217 0 -0.0056048070621979047 0.089428499727089453 0 -0.0043813231711053004 0.089371156327323023 0 -0.0062077472262690569 0.088336359762403893 0 -0.0051716231285560011 0.088273610392220217 0 -0.0056048070621979047 0.089428499727089453 0 -0.0043343467142278507 0.087629033406151732 0 -0.0043813231711053004 0.089371156327323023 0 -0.0032419333947304699 0.088754818707264121 0 -0.0043813231711053004 0.089371156327323023 0 -0.0053575201527209593 0.090655989628318043 0 -0.0041001608504112677 0.090872408388615003 0 -0.0043813231711053004 0.089371156327323023 0 -0.0041001608504112677 0.090872408388615003 0 -0.0031717380010628129 0.089965596440436515 0 -0.0056048070621979047 0.089428499727089453 0 -0.0043813231711053004 0.089371156327323023 0 -0.0053575201527209593 0.090655989628318043 0 -0.0064748099972567995 0.090566577440036322 0 -0.0056048070621979047 0.089428499727089453 0 -0.0053575201527209593 0.090655989628318043 0 -0.0064462136452342065 0.091780917587464636 0 -0.0053575201527209593 0.090655989628318043 0 -0.0050734679804614654 0.091708615743704702 0 -0.0064462136452342065 0.091780917587464636 0 -0.0064748099972567995 0.090566577440036322 0 -0.0053575201527209593 0.090655989628318043 0 -0.0053575201527209593 0.090655989628318043 0 -0.0050734679804614654 0.091708615743704702 0 -0.0041001608504112677 0.090872408388615003 0 -0.0038419052101361425 0.092338963057902221 0 -0.0050734679804614654 0.091708615743704702 0 -0.0041001608504112677 0.090872408388615003 0 -0.0038419052101361425 0.092338963057902221 0 -0.0041001608504112677 0.090872408388615003 0 -0.0030060456804736546 0.09105661893692181 0 -0.0022602366248711584 0.091756947327378297 0 -0.0030060456804736546 0.09105661893692181 0 -0.0018484685507554018 0.090443371720752674 0 -0.0030060456804736546 0.09105661893692181 0 -0.0031717380010628129 0.089965596440436515 0 -0.0018484685507554018 0.090443371720752674 0 -0.0031717380010628129 0.089965596440436515 0 -0.0018484685507554018 0.090443371720752674 0 -0.0023706959824095312 0.089447885573888455 0 -0.0041001608504112677 0.090872408388615003 0 -0.0030060456804736546 0.09105661893692181 0 -0.0031717380010628129 0.089965596440436515 0 -0.00096502269502433155 0.091227076202755969 0 -0.0018484685507554018 0.090443371720752674 0 -0.00078136763534485316 0.090397851974507643 0 -0.0022602366248711584 0.091756947327378297 0 -0.00096502269502433155 0.091227076202755969 0 -0.0018484685507554018 0.090443371720752674 0 -0.00078136763534485316 0.090397851974507643 0 -0.00097144274086389181 0.089386390412993011 0 -0.0002234326692257273 0.090317370909767963 0 -0.0018484685507554018 0.090443371720752674 0 -0.00078136763534485316 0.090397851974507643 0 -0.00097144274086389181 0.089386390412993011 0 -0.0018484685507554018 0.090443371720752674 0 -0.00097144274086389181 0.089386390412993011 0 -0.0023706959824095312 0.089447885573888455 0 -0.00097144274086389181 0.089386390412993011 0 -0.0023706959824095312 0.089447885573888455 0 -0.0021434966623811243 0.088603943356147685 0 -0.0011467727034717332 0.090277301734090404 0 -0.0021434966623811243 0.088603943356147685 0 -0.0012741824650234963 0.088592449244711061 0 -0.0010919070630326403 0.089889563910852024 0 -0.0015112370602237404 0.089537230016623851 0 -0.0011467727034717332 0.090277301734090404 0 -0.00085111218698417479 0.089792300519437304 0 -0.0012741824650234963 0.088592449244711061 0 -0.0031717380010628129 0.089965596440436515 0 -0.0032419333947304699 0.088754818707264121 0 -0.0023706959824095312 0.089447885573888455 0 -0.0043813231711053004 0.089371156327323023 0 -0.0031717380010628129 0.089965596440436515 0 -0.0032419333947304699 0.088754818707264121 0 -0.0032419333947304699 0.088754818707264121 0 -0.0023706959824095312 0.089447885573888455 0 -0.0021434966623811243 0.088603943356147685 0 -0.0032419333947304699 0.088754818707264121 0 -0.0021434966623811243 0.088603943356147685 0 -0.0033142342726780196 0.087386188709085391 0 -0.0043343467142278507 0.087629033406151732 0 -0.0032419333947304699 0.088754818707264121 0 -0.0033142342726780196 0.087386188709085391 0 -0.0033142342726780196 0.087386188709085391 0 -0.0024609157113340461 0.087130438323149248 0 -0.002976603396974118 0.085570331911840866 0 -0.0021434966623811243 0.088603943356147685 0 -0.0033142342726780196 0.087386188709085391 0 -0.0024609157113340461 0.087130438323149248 0 -0.0039115540611988336 0.085375644940843293 0 -0.003131315766489041 0.085828604170128539 0 -0.0024609157113340461 0.087130438323149248 0 -0.002976603396974118 0.085570331911840866 0 -0.0017252416071177948 0.086509646442781071 0 -0.0033142342726780196 0.087386188709085391 0 -0.002976603396974118 0.085570331911840866 0 -0.0044806875076740292 0.086148008084611385 0 -0.0016213897603300582 0.086817975482781432 0 -0.0016508655113345965 0.086690306980550039 0 -0.0016161344913535511 0.086746820123900031 0 -0.0016213897603300582 0.086817975482781432 0 -0.0017252416071177948 0.086509646442781071 0 -0.0016161344913535511 0.086746820123900031 0 -0.001992284875478752 0.088257126530944488 0 -0.0015642454733626762 0.08882933915178097 0 -0.00085111218698417479 0.089792300519437304 0 -0.0012741824650234963 0.088592449244711061 0 -0.00055880559671309072 0.089954988568572952 0 -0.0024609157113340461 0.087130438323149248 0 -0.0016213897603300582 0.086817975482781432 0 -0.0017252416071177948 0.086509646442781071 0 -0.002369843096083827 0.088013757412256574 0 -0.001992284875478752 0.088257126530944488 0 -0.0021434966623811243 0.088603943356147685 0 -0.0024609157113340461 0.087130438323149248 0 -0.0012741824650234963 0.088592449244711061 0 -0.0044801584890136999 0.085405750451356385 0 -0.0036687401637611242 0.085280224184596493 0 -0.0041085503834834359 0.084766549441816177 0 -0.003131315766489041 0.085828604170128539 0 -0.0024308148920686285 0.086208706418335043 0 -0.0044801584890136999 0.085405750451356385 0 -0.0036687401637611242 0.085280224184596493 0 -0.0031920238571143235 0.086125696999517568 0 -0.0036687401637611242 0.085280224184596493 0 -0.003392108107585274 0.084619253968637106 0 -0.0041085503834834359 0.084766549441816177 0 -0.0044801584890136999 0.085405750451356385 0 -0.0041085503834834359 0.084766549441816177 0 -0.0047894831063701781 0.084583741060208217 0 -0.0041085503834834359 0.084766549441816177 0 -0.0047894831063701781 0.084583741060208217 0 -0.0038904322886265889 0.08341200037617863 0 -0.0038875732272103977 0.085144347053732777 0 -0.0036639610895505973 0.085455728586429747 0 -0.0047894831063701781 0.084583741060208217 0 -0.0050573844981323616 0.084619444756222961 0 -0.0050487043626776121 0.084617842379065625 0 -0.0030259413660507304 0.083894609296802106 0 -0.0030416757715707918 0.083278223851187494 0 -0.0038904322886265889 0.08341200037617863 0 -0.003392108107585274 0.084619253968637106 0 -0.0041085503834834359 0.084766549441816177 0 -0.0038904322886265889 0.08341200037617863 0 -0.003392108107585274 0.084619253968637106 0 -0.0030259413660507304 0.083894609296802106 0 -0.0038904322886265889 0.08341200037617863 0 -0.0049841363901193241 0.084745363902759455 0 -0.0049191080148798588 0.084586221608184492 0 -0.0047535888504157938 0.084614219835459706 0 -0.0039115540611988336 0.085375644940843293 0 -0.0043388001880274151 0.085139724838849795 0 -0.0049841363901193241 0.084745363902759455 0 -0.0047894831063701781 0.084583741060208217 0 -0.0049191080148798588 0.084586221608184492 0 -0.0049841363901193241 0.084745363902759455 0 -0.0044801584890136999 0.085405750451356385 0 -0.0047894831063701781 0.084583741060208217 0 -0.0049191080148798588 0.084586221608184492 0 -0.004917642121554322 0.084540062736646229 0 -0.0050487043626776121 0.084617842379065625 0 -0.0047894831063701781 0.084583741060208217 0 -0.0049191080148798588 0.084586221608184492 0 -0.0050487043626776121 0.084617842379065625 0 -0.0049191080148798588 0.084586221608184492 0 -0.0047535888504157938 0.084614219835459706 0 -0.004917642121554322 0.084540062736646229 0 -0.0047535888504157938 0.084614219835459706 0 -0.0051505539679663854 0.084360856312697602 0 -0.0049157056493679095 0.084409145160421736 0 -0.0047535888504157938 0.084614219835459706 0 -0.0049157056493679095 0.084409145160421736 0 -0.004917642121554322 0.084540062736646229 0 -0.0047535888504157938 0.084614219835459706 0 -0.0055851218618195803 0.084438095406779962 0 -0.0055679649203696337 0.085204317609434907 0 -0.0047535888504157938 0.084614219835459706 0 -0.0051505539679663854 0.084360856312697602 0 -0.0055851218618195803 0.084438095406779962 0 -0.0053791295601352158 0.084303373575465149 0 -0.0051505539679663854 0.084360856312697602 0 -0.0055851218618195803 0.084438095406779962 0 -0.0053791295601352158 0.084303373575465149 0 -0.0051505539679663854 0.084360856312697602 0 -0.0050376656906922874 0.084308627308755199 0 -0.0010005160619279527 0.075632664878144865 0 -0.0004082575213956159 0.076199514401085855 0 0.004520589120906084 0.069286938404818921 0 -0.0053791295601352158 0.084303373575465149 0 -0.005736084920212341 0.084210494074680106 0 -0.0050376656906922874 0.084308627308755199 0 -0.0031413125446515763 0.079823865695200891 0 -0.00086714914285322177 0.076690612610875092 0 -0.0042625561768343517 0.072368384760994664 0 -0.0072174894546717929 0.06968479546436078 0 -0.0010005160619279527 0.075632664878144865 0 -0.007104260555116251 0.07057901292157949 0 -0.0077640442471722249 0.076937643897650482 0 -0.0010005160619279527 0.075632664878144865 0 -0.0066771839360875189 0.083370812767249489 0 -0.0077640442471722249 0.076937643897650482 0 -0.0010005160619279527 0.075632664878144865 0 -0.0004082575213956159 0.076199514401085855 0 -0.0066771839360875189 0.083370812767249489 0 -0.0031413125446515763 0.079823865695200891 0 -0.0045470826505138529 0.081592871101765441 0 -0.005736084920212341 0.084210494074680106 0 -0.0055851218618195803 0.084438095406779962 0 -0.0066771839360875189 0.083370812767249489 0 -0.0053791295601352158 0.084303373575465149 0 -0.005736084920212341 0.084210494074680106 0 -0.0055851218618195803 0.084438095406779962 0 -0.0055851218618195803 0.084438095406779962 0 -0.0066771839360875189 0.083370812767249489 0 -0.0055679649203696337 0.085204317609434907 0 -0.0066771839360875189 0.083370812767249489 0 -0.0066044840284001137 0.085704382171652577 0 -0.0055679649203696337 0.085204317609434907 0 -0.0066771839360875189 0.083370812767249489 0 -0.0066044840284001137 0.085704382171652577 0 -0.0088682591080323642 0.085868696245948173 0 -0.0074137593220490999 0.087598065676991618 0 -0.0066044840284001137 0.085704382171652577 0 -0.0088682591080323642 0.085868696245948173 0 -0.0074137593220490999 0.087598065676991618 0 -0.0066044840284001137 0.085704382171652577 0 -0.0055446486348816014 0.086855055191441835 0 -0.0066044840284001137 0.085704382171652577 0 -0.0055446486348816014 0.086855055191441835 0 -0.0055679649203696337 0.085204317609434907 0 -0.0055446486348816014 0.086855055191441835 0 -0.0044806875076740292 0.086148008084611385 0 -0.0055679649203696337 0.085204317609434907 0 -0.0043343467142278507 0.087629033406151732 0 -0.0033142342726780196 0.087386188709085391 0 -0.0044806875076740292 0.086148008084611385 0 -0.0043343467142278507 0.087629033406151732 0 -0.0055446486348816014 0.086855055191441835 0 -0.0044806875076740292 0.086148008084611385 0 -0.0047535888504157938 0.084614219835459706 0 -0.0044806875076740292 0.086148008084611385 0 -0.0055679649203696337 0.085204317609434907 0 -0.002976603396974118 0.085570331911840866 0 -0.0047535888504157938 0.084614219835459706 0 -0.0044806875076740292 0.086148008084611385 0 -1.5648832489879962e-06 0.094997514428456761 0 -6.3907592798597255e-09 0.094996540818852185 0 -0.00049757570691682227 0.094457950002999766 0 -7.7551047742168701e-07 0.094997691247373853 0 -0.00053791825705295593 0.093935021288750101 0 1.1706668753850282e-08 0.095000212167758127 0 -0.00012718450523064911 0.095150877898426592 0 -4.0286858469419216e-05 0.095033180259658248 0 -0.0006554955118664884 0.093627224451791224 0 -0.00049757570691682227 0.094457950002999766 0 -0.0013374189450738078 0.09306601368735927 0 -6.3907592798597255e-09 0.094996540818852185 0 -0.0006554955118664884 0.093627224451791224 0 -0.00049757570691682227 0.094457950002999766 0 -0.00074205562589243091 0.094363426801990113 0 -1.5648832489879962e-06 0.094997514428456761 0 -0.00049757570691682227 0.094457950002999766 0 -0.00074205562589243091 0.094363426801990113 0 -0.00049757570691682227 0.094457950002999766 0 -0.0010182076744939628 0.094448112984366644 0 -0.00049757570691682227 0.094457950002999766 0 -0.0010182076744939628 0.094448112984366644 0 -0.0013374189450738078 0.09306601368735927 0 -0.0014968641002426502 0.092319654081488053 0 -0.00146701479430124 0.092490252671550338 0 -0.0010030880399542769 0.09382730659943897 0 -0.00074205562589243091 0.094363426801990113 0 -0.0010182076744939628 0.094448112984366644 0 -0.0019830179281088481 0.08971675363980966 0 -0.0016811456689999357 0.090153317600394231 0 -0.0019597799573472761 0.090964829948524589 0 -0.0015755958008088938 0.09195536943930048 0 -0.0014968641002426502 0.092319654081488053 0 -0.0016811456689999357 0.090153317600394231 0 -0.0019597799573472761 0.090964829948524589 0 -0.0012604688938170048 0.090587896342847266 0 -0.0019597799573472761 0.090964829948524589 0 -0.00126758584460053 0.092033203598734431 0 -0.0010747715105162573 0.091194825204544264 0 -0.0019597799573472761 0.090964829948524589 0 -0.0010747715105162573 0.091194825204544264 0 -0.0012604688938170048 0.090587896342847266 0 -0.001129113624012433 0.091970300280727779 0 -0.00126758584460053 0.092033203598734431 0 -0.0010041992833325921 0.091642433595791481 0 -0.001129113624012433 0.091970300280727779 0 -0.0012253792647273388 0.092267919424215875 0 -0.0010445163427080767 0.091927433290563285 0 -0.001129113624012433 0.091970300280727779 0 -0.00126758584460053 0.092033203598734431 0 -0.0012253792647273388 0.092267919424215875 0 -0.00126758584460053 0.092033203598734431 0 -0.0012253792647273388 0.092267919424215875 0 -0.0013226627077176322 0.092582750186277513 0 -0.00126758584460053 0.092033203598734431 0 -0.0013374189450738078 0.09306601368735927 0 -0.0013226627077176322 0.092582750186277513 0 -0.0019597799573472761 0.090964829948524589 0 -0.00126758584460053 0.092033203598734431 0 -0.0013374189450738078 0.09306601368735927 0 -0.0006554955118664884 0.093627224451791224 0 -0.0013374189450738078 0.09306601368735927 0 -0.0013612375258334434 0.092642107447611366 0 -0.00053791825705295593 0.093935021288750101 0 -0.00072817010022924579 0.09272904078419697 0 -0.00012718450523064911 0.095150877898426592 0 -0.00036650277338787565 0.095172573446714814 0 -0.00042657961478074856 0.095221460448649251 0 -0.0013374189450738078 0.09306601368735927 0 -0.0013612375258334434 0.092642107447611366 0 -0.0013226627077176322 0.092582750186277513 0 -0.00036650277338787565 0.095172573446714814 0 -0.00042657961478074856 0.095221460448649251 0 -0.00042639480644939199 0.095158028197117481 0 -0.00042657961478074856 0.095221460448649251 0 -0.00042639480644939199 0.095158028197117481 0 -0.00052649197747471805 0.09517075928500629 0 -0.0013612375258334434 0.092642107447611366 0 -0.0012162568962535922 0.092310875146627155 0 -0.0010433995737067377 0.092049726706249405 0 -0.00072817010022924579 0.09272904078419697 0 -0.00053282610801613382 0.091067898810961931 0 -0.00042657961478074856 0.095221460448649251 0 -0.00052649197747471805 0.09517075928500629 0 -0.00073664186519951068 0.095212498169242807 0 -0.0010959031962967083 0.092093772548608635 0 -0.0012162568962535922 0.092310875146627155 0 -0.0010540814813412658 0.092056140634189418 0 -0.0012162568962535922 0.092310875146627155 0 -0.0010540814813412658 0.092056140634189418 0 -0.0010433995737067377 0.092049726706249405 0 -0.0010959031962967083 0.092093772548608635 0 -0.0011416764656249439 0.092143107244765848 0 -0.0012162568962535922 0.092310875146627155 0 -0.0011416764656249439 0.092143107244765848 0 -0.0012253792647273388 0.092267919424215875 0 -0.0012162568962535922 0.092310875146627155 0 -0.0011416764656249439 0.092143107244765848 0 -0.0012253792647273388 0.092267919424215875 0 -0.0010445163427080767 0.091927433290563285 0 -0.0010959031962967083 0.092093772548608635 0 -0.0011416764656249439 0.092143107244765848 0 -0.0010275388381220908 0.091966874683401909 0 -0.0012253792647273388 0.092267919424215875 0 -0.0013226627077176322 0.092582750186277513 0 -0.0012162568962535922 0.092310875146627155 0 -0.0013612375258334434 0.092642107447611366 0 -0.0013226627077176322 0.092582750186277513 0 -0.0012162568962535922 0.092310875146627155 0 -0.0010044139659181538 0.092020763093736732 0 -0.00078242608841605607 0.091573452523040041 0 -0.00053094842679390409 0.09111069745002251 0 -0.00053282610801613382 0.091067898810961931 0 -0.001229865775221866 0.089695790062688949 0 -0.00084966121524895509 0.091665225264273176 0 -0.00078242608841605607 0.091573452523040041 0 -0.00072518718965537698 0.091441587824972789 0 -0.00084966121524895509 0.091665225264273176 0 -0.00072518718965537698 0.091441587824972789 0 -0.00086347985336365459 0.091627863452415373 0 -0.00084966121524895509 0.091665225264273176 0 -0.00094608971481994336 0.091815084661823615 0 -0.00086347985336365459 0.091627863452415373 0 -0.0010445163427080767 0.091927433290563285 0 -0.00094608971481994336 0.091815084661823615 0 -0.00086347985336365459 0.091627863452415373 0 -0.0011416764656249439 0.092143107244765848 0 -0.0010445163427080767 0.091927433290563285 0 -0.0010275388381220908 0.091966874683401909 0 -0.0010445163427080767 0.091927433290563285 0 -0.0010275388381220908 0.091966874683401909 0 -0.00094608971481994336 0.091815084661823615 0 -0.0010275388381220908 0.091966874683401909 0 -0.00094608971481994336 0.091815084661823615 0 -0.00095046173916175935 0.091887596594548204 0 -0.00084966121524895509 0.091665225264273176 0 -0.00094608971481994336 0.091815084661823615 0 -0.00095046173916175935 0.091887596594548204 0 -0.00095046173916175935 0.091887596594548204 0 -0.0010044139659181538 0.092020763093736732 0 -0.00078242608841605607 0.091573452523040041 0 -0.0010959031962967083 0.092093772548608635 0 -0.0010275388381220908 0.091966874683401909 0 -0.0010242488585229237 0.091991901091001527 0 -0.0010959031962967083 0.092093772548608635 0 -0.0010242488585229237 0.091991901091001527 0 -0.0010540814813412658 0.092056140634189418 0 -0.0010275388381220908 0.091966874683401909 0 -0.00095046173916175935 0.091887596594548204 0 -0.0010242488585229237 0.091991901091001527 0 -0.00095046173916175935 0.091887596594548204 0 -0.0010051000782336718 0.09198862730714441 0 -0.0010044139659181538 0.092020763093736732 0 -0.0010242488585229237 0.091991901091001527 0 -0.0010051000782336718 0.09198862730714441 0 -0.0010540814813412658 0.092056140634189418 0 -0.00095046173916175935 0.091887596594548204 0 -0.0010242488585229237 0.091991901091001527 0 -0.0010051000782336718 0.09198862730714441 0 -0.00053268512242335365 0.091071352233542568 0 -0.00053282610801613382 0.091067898810961931 0 -0.0010051000782336718 0.09198862730714441 0 -0.0010540814813412658 0.092056140634189418 0 -0.0010044139659181538 0.092020763093736732 0 -0.00084966121524895509 0.091665225264273176 0 -0.00095046173916175935 0.091887596594548204 0 -0.00078242608841605607 0.091573452523040041 0 -0.00078242608841605607 0.091573452523040041 0 -0.0006498168587387445 0.091311577623645251 0 -0.00053094842679390409 0.09111069745002251 0 -0.00078242608841605607 0.091573452523040041 0 -0.0006498168587387445 0.091311577623645251 0 -0.00072518718965537698 0.091441587824972789 0 -0.000582708002427597 0.091150125439243473 0 -0.00053125768671873411 0.090927569388624979 0 -0.00053094842679390409 0.09111069745002251 0 -0.0006498168587387445 0.091311577623645251 0 -0.000582708002427597 0.091150125439243473 0 -0.00053094842679390409 0.09111069745002251 0 -0.000582708002427597 0.091150125439243473 0 -0.00063981825814096325 0.091256981190556627 0 -0.00051508806194983179 0.090927699531596073 0 -0.00072518718965537698 0.091441587824972789 0 -0.00063981825814096325 0.091256981190556627 0 -0.00086347985336365459 0.091627863452415373 0 -0.0006498168587387445 0.091311577623645251 0 -0.000582708002427597 0.091150125439243473 0 -0.00072518718965537698 0.091441587824972789 0 -0.000582708002427597 0.091150125439243473 0 -0.00072518718965537698 0.091441587824972789 0 -0.00063981825814096325 0.091256981190556627 0 -0.00063981825814096325 0.091256981190556627 0 -0.00064485258311869711 0.09119133066746489 0 -0.00086347985336365459 0.091627863452415373 0 -0.00063981825814096325 0.091256981190556627 0 -0.00064485258311869711 0.09119133066746489 0 -0.00051508806194983179 0.090927699531596073 0 -0.00064485258311869711 0.09119133066746489 0 -0.00086347985336365459 0.091627863452415373 0 -0.0010041992833325921 0.091642433595791481 0 -0.00064485258311869711 0.09119133066746489 0 -0.0010041992833325921 0.091642433595791481 0 -0.0010747715105162573 0.091194825204544264 0 -0.001129113624012433 0.091970300280727779 0 -0.0010445163427080767 0.091927433290563285 0 -0.0010041992833325921 0.091642433595791481 0 -0.0010445163427080767 0.091927433290563285 0 -0.00086347985336365459 0.091627863452415373 0 -0.0010041992833325921 0.091642433595791481 0 -0.00126758584460053 0.092033203598734431 0 -0.0010041992833325921 0.091642433595791481 0 -0.0010747715105162573 0.091194825204544264 0 -0.0010747715105162573 0.091194825204544264 0 -0.0012604688938170048 0.090587896342847266 0 -0.0006234804662096432 0.090865095495902326 0 -0.0011832282107905434 0.090098779247126629 0 -0.0016811456689999357 0.090153317600394231 0 -0.0012604688938170048 0.090587896342847266 0 -0.0011832282107905434 0.090098779247126629 0 -0.0012604688938170048 0.090587896342847266 0 -0.0006234804662096432 0.090865095495902326 0 -0.00064485258311869711 0.09119133066746489 0 -0.0010747715105162573 0.091194825204544264 0 -0.0006234804662096432 0.090865095495902326 0 -0.0006234804662096432 0.090865095495902326 0 -0.00010896962072053159 0.090623721366385759 0 -0.0002234326692257273 0.090317370909767963 0 -0.00064485258311869711 0.09119133066746489 0 -0.0006234804662096432 0.090865095495902326 0 -0.00052273473565067228 0.090943683748739693 0 -0.00060580947799947411 0.09044556260741253 0 -0.00066524965675712744 0.090315932605950208 0 -0.00037738421122947231 0.08984747768139667 0 -0.0006234804662096432 0.090865095495902326 0 -0.00010896962072053159 0.090623721366385759 0 7.2333243818400149e-05 0.090462910988605358 0 -2.9050068246885341e-05 0.090532775885523206 0 -0.00096502269502433155 0.091227076202755969 0 -0.00078136763534485316 0.090397851974507643 0 -0.00010896962072053159 0.090623721366385759 0 -0.00078136763534485316 0.090397851974507643 0 -0.00010896962072053159 0.090623721366385759 0 -0.0002234326692257273 0.090317370909767963 0 -0.0011467727034717332 0.090277301734090404 0 -0.00052273473565067228 0.090943683748739693 0 -0.00060631439477932994 0.090383248036173619 0 -0.0010919070630326403 0.089889563910852024 0 -0.00066524965675712744 0.090315932605950208 0 -0.00064485258311869711 0.09119133066746489 0 -0.00052273473565067228 0.090943683748739693 0 -0.00051508806194983179 0.090927699531596073 0 -0.00052273473565067228 0.090943683748739693 0 -0.00051508806194983179 0.090927699531596073 0 -0.00060631439477932994 0.090383248036173619 0 -0.00051508806194983179 0.090927699531596073 0 -0.00052488536573733864 0.090602961298281354 0 -0.00060631439477932994 0.090383248036173619 0 -0.000582708002427597 0.091150125439243473 0 -0.00051508806194983179 0.090927699531596073 0 -0.00053125768671873411 0.090927569388624979 0 -0.00051508806194983179 0.090927699531596073 0 -0.00053125768671873411 0.090927569388624979 0 -0.00052488536573733864 0.090602961298281354 0 -0.00053125768671873411 0.090927569388624979 0 -0.00052488536573733864 0.090602961298281354 0 -0.00053094842679390409 0.09111069745002251 0 -0.0011467727034717332 0.090277301734090404 0 -0.00085111218698417479 0.089792300519437304 0 -0.00060631439477932994 0.090383248036173619 0 -0.00085111218698417479 0.089792300519437304 0 -0.00060631439477932994 0.090383248036173619 0 -0.00055880559671309072 0.089954988568572952 0 -0.00052488536573733864 0.090602961298281354 0 -0.00060631439477932994 0.090383248036173619 0 -0.00055880559671309072 0.089954988568572952 0 -0.0024308148920686285 0.086208706418335043 0 -0.0020574075361842917 0.086376528438551869 0 -0.0016508655113345965 0.086690306980550039 0 -0.0016161344913535511 0.086746820123900031 0 -0.00161569008161613 0.086624334668400207 0 -0.0031920238571143235 0.086125696999517568 0 -0.00161569008161613 0.086624334668400207 0 -0.0022973998145871585 0.085887242950296261 0 -0.00052488536573733864 0.090602961298281354 0 -0.00055880559671309072 0.089954988568572952 0 -0.00053094842679390409 0.09111069745002251 0 -0.0015642454733626762 0.08882933915178097 0 -0.001229865775221866 0.089695790062688949 0 -0.0016508655113345965 0.086690306980550039 0 -0.00161569008161613 0.086624334668400207 0 -0.0015120180944736686 0.086638444402542453 0 -0.00161569008161613 0.086624334668400207 0 -0.0022973998145871585 0.085887242950296261 0 -0.0016490281255055563 0.085988937943282107 0 -0.00161569008161613 0.086624334668400207 0 -0.0016490281255055563 0.085988937943282107 0 -0.0015180696721421153 0.086506633472950567 0 -0.0022973998145871585 0.085887242950296261 0 -0.0016490281255055563 0.085988937943282107 0 -0.0021552606439692776 0.085355838232193948 0 -0.0016490281255055563 0.085988937943282107 0 -0.0021552606439692776 0.085355838232193948 0 -0.0014835650764718435 0.084643572733010861 0 -0.0022973998145871585 0.085887242950296261 0 -0.0021552606439692776 0.085355838232193948 0 -0.0028648522099432006 0.085295061677323841 0 -0.0031920238571143235 0.086125696999517568 0 -0.0022973998145871585 0.085887242950296261 0 -0.0028648522099432006 0.085295061677323841 0 -0.0036687401637611242 0.085280224184596493 0 -0.0031920238571143235 0.086125696999517568 0 -0.0028648522099432006 0.085295061677323841 0 -0.0036687401637611242 0.085280224184596493 0 -0.003392108107585274 0.084619253968637106 0 -0.0028648522099432006 0.085295061677323841 0 -0.003392108107585274 0.084619253968637106 0 -0.0028648522099432006 0.085295061677323841 0 -0.0024895791915507935 0.084591896207059411 0 -0.003392108107585274 0.084619253968637106 0 -0.0024895791915507935 0.084591896207059411 0 -0.0030259413660507304 0.083894609296802106 0 -0.0021552606439692776 0.085355838232193948 0 -0.0028648522099432006 0.085295061677323841 0 -0.0024895791915507935 0.084591896207059411 0 -0.0024895791915507935 0.084591896207059411 0 -0.0030259413660507304 0.083894609296802106 0 -0.0022462649037350065 0.083446070174177628 0 -0.0030259413660507304 0.083894609296802106 0 -0.0022462649037350065 0.083446070174177628 0 -0.0030416757715707918 0.083278223851187494 0 -0.0024895791915507935 0.084591896207059411 0 -0.0014835650764718435 0.084643572733010861 0 -0.0022462649037350065 0.083446070174177628 0 -0.0029273702478358633 0.094765340831783049 0 -0.0028280533373802419 0.093413669334958038 0 -0.0036084938761706529 0.093676509569131233 0 -0.0022584013155745207 0.089788472563217009 0 -0.0032073922497891866 0.088855239425975077 0 -0.0021552606439692776 0.085355838232193948 0 -0.0024895791915507935 0.084591896207059411 0 -0.0014835650764718435 0.084643572733010861 0 -0.0029273702478358633 0.094765340831783049 0 -0.0021173075435823169 0.093963744255929349 0 -0.0028280533373802419 0.093413669334958038 0 -0.0021173075435823169 0.093963744255929349 0 -0.0016479485560170555 0.095040450651212666 0 -0.0010205487884446399 0.094271462267004461 0 -0.0029273702478358633 0.094765340831783049 0 -0.0021173075435823169 0.093963744255929349 0 -0.0016479485560170555 0.095040450651212666 0 -0.0029273702478358633 0.094765340831783049 0 -0.0016479485560170555 0.095040450651212666 0 -0.002271995671368775 0.095812554573719649 0 -0.0017151380294405162 0.093155985772771108 0 -0.001255217089963015 0.090906086397717856 0 -0.00078361124767681366 0.09473803323822208 0 -0.00091617371886369865 0.094941543374281623 0 -0.00070289152749603587 0.094914695225091522 0 -0.00091617371886369865 0.094941543374281623 0 -0.00072827780694481072 0.095044622300055268 0 -0.00070289152749603587 0.094914695225091522 0 -0.0016490281255055563 0.085988937943282107 0 -0.0014835650764718435 0.084643572733010861 0 -0.001263797831873017 0.085914503754421223 0 -0.0022584013155745207 0.089788472563217009 0 -0.001255217089963015 0.090906086397717856 0 -0.0014835650764718435 0.084643572733010861 0 -0.00078663011199596152 0.085867239647927668 0 -0.001263797831873017 0.085914503754421223 0 -0.001255217089963015 0.090906086397717856 0 -0.00081808912367219155 0.090012840979942707 0 -0.00056142550642818666 0.086792280048983109 0 -0.0013378079211215645 0.086412950162998381 0 -0.0015120180944736686 0.086638444402542453 0 -0.00078663011199596152 0.085867239647927668 0 -0.001263797831873017 0.085914503754421223 0 -0.0013378079211215645 0.086412950162998381 0 -0.0016490281255055563 0.085988937943282107 0 -0.001263797831873017 0.085914503754421223 0 -0.0013378079211215645 0.086412950162998381 0 -0.0016490281255055563 0.085988937943282107 0 -0.0013378079211215645 0.086412950162998381 0 -0.0015180696721421153 0.086506633472950567 0 -0.00161569008161613 0.086624334668400207 0 -0.0015180696721421153 0.086506633472950567 0 -0.0015120180944736686 0.086638444402542453 0 -0.0013378079211215645 0.086412950162998381 0 -0.0015180696721421153 0.086506633472950567 0 -0.0015120180944736686 0.086638444402542453 0 -0.00053282610801613382 0.091067898810961931 0 -0.001255217089963015 0.090906086397717856 0 -0.00056142550642818666 0.086792280048983109 0 -0.0010260118054507853 0.086030195673901425 0 -0.0013378079211215645 0.086412950162998381 0 -0.00073664186519951068 0.095212498169242807 0 -0.00091617371886369865 0.094941543374281623 0 -0.00072827780694481072 0.095044622300055268 0 -0.00073664186519951068 0.095212498169242807 0 -0.00072827780694481072 0.095044622300055268 0 -0.00066703362528667089 0.095110730167275739 0 -0.00052014005958072088 0.095068334894109666 0 -0.00062300345096806314 0.09504096189125015 0 -0.00058566699589101341 0.095130800021782813 0 -0.00052014005958072088 0.095068334894109666 0 -0.00043880040637614838 0.095061498370917791 0 -0.00052582474510514223 0.09498822687826583 0 -0.00052014005958072088 0.095068334894109666 0 -0.00062300345096806314 0.09504096189125015 0 -0.00052582474510514223 0.09498822687826583 0 -0.00072827780694481072 0.095044622300055268 0 -0.00062300345096806314 0.09504096189125015 0 -0.00070289152749603587 0.094914695225091522 0 -0.00072827780694481072 0.095044622300055268 0 -0.00062300345096806314 0.09504096189125015 0 -0.00066703362528667089 0.095110730167275739 0 -0.00073664186519951068 0.095212498169242807 0 -0.00066703362528667089 0.095110730167275739 0 -0.00058566699589101341 0.095130800021782813 0 -0.00052649197747471805 0.09517075928500629 0 -0.00073664186519951068 0.095212498169242807 0 -0.00058566699589101341 0.095130800021782813 0 -0.00062300345096806314 0.09504096189125015 0 -0.00066703362528667089 0.095110730167275739 0 -0.00058566699589101341 0.095130800021782813 0 -0.00052649197747471805 0.09517075928500629 0 -0.00058566699589101341 0.095130800021782813 0 -0.00046187996889534883 0.095123553981966147 0 -0.00052014005958072088 0.095068334894109666 0 -0.00058566699589101341 0.095130800021782813 0 -0.00046187996889534883 0.095123553981966147 0 -0.00036650277338787565 0.095172573446714814 0 -0.00042639480644939199 0.095158028197117481 0 -0.00035612092849773012 0.09509066301390634 0 -0.00042639480644939199 0.095158028197117481 0 -0.00052649197747471805 0.09517075928500629 0 -0.00046187996889534883 0.095123553981966147 0 -0.00036650277338787565 0.095172573446714814 0 -0.00035612092849773012 0.09509066301390634 0 -0.00013532886068254942 0.095027508136444117 0 -0.00042639480644939199 0.095158028197117481 0 -0.00046187996889534883 0.095123553981966147 0 -0.00035612092849773012 0.09509066301390634 0 -0.00046187996889534883 0.095123553981966147 0 -0.00035612092849773012 0.09509066301390634 0 -0.00043880040637614838 0.095061498370917791 0 -0.00052014005958072088 0.095068334894109666 0 -0.00046187996889534883 0.095123553981966147 0 -0.00043880040637614838 0.095061498370917791 0 -0.00035612092849773012 0.09509066301390634 0 -0.00043880040637614838 0.095061498370917791 0 -0.00033144949763504113 0.095006924050636432 0 -0.00043880040637614838 0.095061498370917791 0 -0.00033144949763504113 0.095006924050636432 0 -0.00052582474510514223 0.09498822687826583 0 -0.00033144949763504113 0.095006924050636432 0 -0.00055458846967320426 0.094832250872878443 0 -0.00032823679202480856 0.094745596997761694 0 -0.00033144949763504113 0.095006924050636432 0 -0.00055458846967320426 0.094832250872878443 0 -0.00052582474510514223 0.09498822687826583 0 -0.00078361124767681366 0.09473803323822208 0 -0.00055458846967320426 0.094832250872878443 0 -0.00070289152749603587 0.094914695225091522 0 -0.00055458846967320426 0.094832250872878443 0 -0.00052582474510514223 0.09498822687826583 0 -0.00070289152749603587 0.094914695225091522 0 -0.00062300345096806314 0.09504096189125015 0 -0.00052582474510514223 0.09498822687826583 0 -0.00070289152749603587 0.094914695225091522 0 -0.00078361124767681366 0.09473803323822208 0 -0.00055458846967320426 0.094832250872878443 0 -0.00071397427853162672 0.094463645470064736 0 -0.0017151380294405162 0.093155985772771108 0 -0.0014248093070834795 0.093576414715127107 0 -0.0010205487884446399 0.094271462267004461 0 -0.00043458778705715914 0.093706660560693864 0 -0.0014082531264612414 0.093629872143746448 0 -0.0021173075435823169 0.093963744255929349 0 -0.0010205487884446399 0.094271462267004461 0 -0.0014082531264612414 0.093629872143746448 0 -0.0014248093070834795 0.093576414715127107 0 -0.0012077252052856793 0.093527991889115356 0 -0.00071397427853162672 0.094463645470064736 0 -0.00035002595041548173 0.094425813169570924 0 -0.00043458778705715914 0.093706660560693864 0 -0.00071397427853162672 0.094463645470064736 0 -0.00035002595041548173 0.094425813169570924 0 -0.00032823679202480856 0.094745596997761694 0 -0.00055458846967320426 0.094832250872878443 0 -0.00071397427853162672 0.094463645470064736 0 -0.00032823679202480856 0.094745596997761694 0 -0.00032823679202480856 0.094745596997761694 0 -8.211687590867339e-05 0.094895406874051624 0 -6.1712725677236084e-05 0.094673208566392664 0 -0.00035002595041548173 0.094425813169570924 0 -0.00032823679202480856 0.094745596997761694 0 -6.1712725677236084e-05 0.094673208566392664 0 -0.00035002595041548173 0.094425813169570924 0 -6.1712725677236084e-05 0.094673208566392664 0 0.00015170204052357086 0.093939154297697197 0 -6.1712725677236084e-05 0.094673208566392664 0 8.6181353685415673e-07 0.09499863958732882 0 0.00015170204052357086 0.093939154297697197 0 1.0033786556591351e-07 0.094998890082300322 0 -0.00010035133254826882 0.094268255206606658 0 -8.211687590867339e-05 0.094895406874051624 0 -6.1712725677236084e-05 0.094673208566392664 0 8.6181353685415673e-07 0.09499863958732882 0 -8.211687590867339e-05 0.094895406874051624 0 8.6181353685415673e-07 0.09499863958732882 0 -4.4120576712371918e-07 0.095000392713588358 0 -8.211687590867339e-05 0.094895406874051624 0 -4.4120576712371918e-07 0.095000392713588358 0 -0.00013532886068254942 0.095027508136444117 0 8.9922354668672435e-09 0.094999938929269223 0 -8.3025585303304574e-05 0.094959681361440965 0 -4.3236230001676058e-08 0.094999973583591649 0 -1.2534033763823394e-07 0.095000009378728253 0 -0.00010915016885853865 0.095048763562468483 0 -0.00033144949763504113 0.095006924050636432 0 -8.211687590867339e-05 0.094895406874051624 0 -0.00013532886068254942 0.095027508136444117 0 -0.00033144949763504113 0.095006924050636432 0 -0.00032823679202480856 0.094745596997761694 0 -8.211687590867339e-05 0.094895406874051624 0 -0.00019837122125137375 0.095107884048374308 0 -0.00010915016885853865 0.095048763562468483 0 -0.00035612092849773012 0.09509066301390634 0 -0.00033144949763504113 0.095006924050636432 0 -0.00013532886068254942 0.095027508136444117 0 -0.00012718450523064911 0.095150877898426592 0 -0.00036650277338787565 0.095172573446714814 0 -8.3025585303304574e-05 0.094959681361440965 0 -0.00012718450523064911 0.095150877898426592 0 -8.3025585303304574e-05 0.094959681361440965 0 -4.0286858469419216e-05 0.095033180259658248 0 1.1706668753850282e-08 0.095000212167758127 0 -4.0286858469419216e-05 0.095033180259658248 0 -4.3236230001676058e-08 0.094999973583591649 0 -8.3025585303304574e-05 0.094959681361440965 0 -4.0286858469419216e-05 0.095033180259658248 0 -4.3236230001676058e-08 0.094999973583591649 0 -2.7289689162533026e-05 0.094982564337866601 0 4.5238946598480044e-08 0.094999866123151491 0 -3.594098845827626e-05 0.094868025472984299 0 3.8262213678089888e-07 0.094999055034880403 0 0.00014801980943197053 0.094498179850377909 0 -2.7289689162533026e-05 0.094982564337866601 0 -7.907826089046806e-05 0.094833568340113833 0 -3.594098845827626e-05 0.094868025472984299 0 -2.3739892723323627e-05 0.094916691899328082 0 -8.3707501549146985e-05 0.094892969997160195 0 -7.907826089046806e-05 0.094833568340113833 0 -2.3739892723323627e-05 0.094916691899328082 0 -8.3707501549146985e-05 0.094892969997160195 0 -6.1166599884738906e-05 0.094940842922500379 0 -3.0661249753165282e-05 0.094951880626917493 0 -5.0123246113724806e-05 0.094922159496115571 0 -2.3739892723323627e-05 0.094916691899328082 0 -6.1166599884738906e-05 0.094940842922500379 0 -3.5167567742667255e-05 0.094986349638571291 0 -6.1166599884738906e-05 0.094940842922500379 0 -3.5167567742667255e-05 0.094986349638571291 0 -0.00010238970802843364 0.095003665153332584 0 -2.3739892723323627e-05 0.094916691899328082 0 1.3665928178563259e-08 0.094999882614028808 0 -3.5167567742667255e-05 0.094986349638571291 0 -3.0661249753165282e-05 0.094951880626917493 0 -3.3049151928041099e-08 0.094999930803141203 0 -2.7289689162533026e-05 0.094982564337866601 0 4.5238946598480044e-08 0.094999866123151491 0 -2.7458609564077673e-08 0.095000080881628313 0 -1.9997983502046277e-08 0.095000047991335379 0 -2.8566912793821391e-05 0.095014539621738642 0 -3.5167567742667255e-05 0.094986349638571291 0 1.3665928178563259e-08 0.094999882614028808 0 -1.9997983502046277e-08 0.095000047991335379 0 -3.5167567742667255e-05 0.094986349638571291 0 5.4437189208291857e-09 0.095000001141156046 0 -1.9997983502046277e-08 0.095000047991335379 0 -2.8566912793821391e-05 0.095014539621738642 0 -2.8566912793821391e-05 0.095014539621738642 0 -3.5167567742667255e-05 0.094986349638571291 0 -0.00010238970802843364 0.095003665153332584 0 -0.00010035133254826882 0.094268255206606658 0 -0.00019521511467264052 0.093490357611330219 0 -0.00033748317245428823 0.092585900935881593 0 -0.00043458778705715914 0.093706660560693864 0 -0.0011321659786574828 0.092865387984536488 0 0.00015170204052357086 0.093939154297697197 0 -0.00033748317245428823 0.092585900935881593 0 -0.00043458778705715914 0.093706660560693864 0 -0.00035002595041548173 0.094425813169570924 0 0.00015170204052357086 0.093939154297697197 0 -0.00043458778705715914 0.093706660560693864 0 -0.00043458778705715914 0.093706660560693864 0 -0.0014082531264612414 0.093629872143746448 0 -0.0011321659786574828 0.092865387984536488 0 -0.00033748317245428823 0.092585900935881593 0 -0.0011321659786574828 0.092865387984536488 0 -0.0011717281210187405 0.091326731851522028 0 -0.00019521511467264052 0.093490357611330219 0 -0.00027117900569986861 0.092509790718518212 0 -6.1166599884738906e-05 0.094940842922500379 0 -0.00010238970802843364 0.095003665153332584 0 -0.00011673527415927017 0.094924826547954852 0 -0.00010238970802843364 0.095003665153332584 0 -0.00022081305945757774 0.0949379831362889 0 -0.00011673527415927017 0.094924826547954852 0 -8.3707501549146985e-05 0.094892969997160195 0 -6.1166599884738906e-05 0.094940842922500379 0 -0.00011673527415927017 0.094924826547954852 0 -8.3707501549146985e-05 0.094892969997160195 0 -0.00011673527415927017 0.094924826547954852 0 -0.00015874978261207643 0.094845363356600085 0 -8.3707501549146985e-05 0.094892969997160195 0 -0.00015874978261207643 0.094845363356600085 0 -7.907826089046806e-05 0.094833568340113833 0 -0.00022081305945757774 0.0949379831362889 0 -0.00011673527415927017 0.094924826547954852 0 -0.00015874978261207643 0.094845363356600085 0 -0.00022081305945757774 0.0949379831362889 0 -0.00015874978261207643 0.094845363356600085 0 -0.00035486571786046779 0.094826039206368923 0 -0.0011717281210187405 0.091326731851522028 0 -0.0019549299359452954 0.090311704014478716 0 -0.0022502002540403698 0.091256700358676904 0 -0.00027117900569986861 0.092509790718518212 0 -0.00015766927413606745 0.091076100790967035 0 -0.0019549299359452954 0.090311704014478716 0 -0.0022502002540403698 0.091256700358676904 0 -0.0026133166866243326 0.090515417554387731 0 -0.0011717281210187405 0.091326731851522028 0 -0.0022502002540403698 0.091256700358676904 0 -0.0019622877868310708 0.09233994067367178 0 -0.0016442367407049705 0.091376044725835548 0 -0.0020706125529984173 0.091069468110669252 0 -0.0011321659786574828 0.092865387984536488 0 -0.0011717281210187405 0.091326731851522028 0 -0.0019622877868310708 0.09233994067367178 0 -0.0014082531264612414 0.093629872143746448 0 -0.0011321659786574828 0.092865387984536488 0 -0.0021929636622629442 0.092773888417527359 0 -0.0021173075435823169 0.093963744255929349 0 -0.0014082531264612414 0.093629872143746448 0 -0.0021929636622629442 0.092773888417527359 0 -0.0021173075435823169 0.093963744255929349 0 -0.0021929636622629442 0.092773888417527359 0 -0.0028280533373802419 0.093413669334958038 0 -0.0020706125529984173 0.091069468110669252 0 -0.0029744260377750895 0.090146779138549363 0 -0.0021929636622629442 0.092773888417527359 0 -0.0028280533373802419 0.093413669334958038 0 -0.0032021247616595507 0.09264346706266606 0 -0.0022502002540403698 0.091256700358676904 0 -0.0019622877868310708 0.09233994067367178 0 -0.0026942232199557961 0.091965887864793275 0 -0.0032021247616595507 0.09264346706266606 0 -0.0037575517001927541 0.09294262574957815 0 -0.0042789914392921645 0.092575537148415335 0 -0.0026942232199557961 0.091965887864793275 0 -0.0037103292439491084 0.091870201361025708 0 -0.0029718843306827717 0.091010989972614545 0 -0.0029744260377750895 0.090146779138549363 0 -0.0041846180157417449 0.08832825689988634 0 -0.0028280533373802419 0.093413669334958038 0 -0.0032021247616595507 0.09264346706266606 0 -0.0037575517001927541 0.09294262574957815 0 -0.0028280533373802419 0.093413669334958038 0 -0.0037575517001927541 0.09294262574957815 0 -0.0036084938761706529 0.093676509569131233 0 -0.0022462649037350065 0.083446070174177628 0 -0.0030416757715707918 0.083278223851187494 0 -0.0029756824218592237 0.082288040109662661 0 -0.0037575517001927541 0.09294262574957815 0 -0.0036084938761706529 0.093676509569131233 0 -0.0042789914392921645 0.092575537148415335 0 -0.0032073922497891866 0.088855239425975077 0 -0.0041846180157417449 0.08832825689988634 0 -0.0030416757715707918 0.083278223851187494 0 -0.0029756824218592237 0.082288040109662661 0 -0.0038904322886265889 0.08341200037617863 0 -0.0051206156836070878 0.084670973447550688 0 -0.0051167867063939372 0.08467492307777752 0 -0.005087995760550061 0.084651953135883029 0 -0.0036442278987222089 0.092210645140734598 0 -0.0037322140018848037 0.092111360341876211 0 -0.0036510672725812757 0.091538298791113512 0 -0.0041846180157417449 0.08832825689988634 0 -0.0044500785469336196 0.088017161878423289 0 -0.0037322140018848037 0.092111360341876211 0 -0.0036510672725812757 0.091538298791113512 0 -0.005076282762703322 0.090349360488123476 0 -0.0041846180157417449 0.08832825689988634 0 -0.0044114721292450058 0.089329860142274856 0 -0.0036442278987222089 0.092210645140734598 0 -0.0036510672725812757 0.091538298791113512 0 -0.0029718843306827717 0.091010989972614545 0 -0.003626839377763813 0.090830781884558065 0 -0.0034382903344997284 0.09025034395133541 0 -0.005076282762703322 0.090349360488123476 0 -0.0036510672725812757 0.091538298791113512 0 -0.003626839377763813 0.090830781884558065 0 -0.005076282762703322 0.090349360488123476 0 -0.0029718843306827717 0.091010989972614545 0 -0.0030359636141268796 0.090446511394079276 0 -0.0034382903344997284 0.09025034395133541 0 -0.003626839377763813 0.090830781884558065 0 -0.0029718843306827717 0.091010989972614545 0 -0.0034382903344997284 0.09025034395133541 0 -0.0036510672725812757 0.091538298791113512 0 -0.003626839377763813 0.090830781884558065 0 -0.0029718843306827717 0.091010989972614545 0 -0.0022502002540403698 0.091256700358676904 0 -0.0026942232199557961 0.091965887864793275 0 -0.0029718843306827717 0.091010989972614545 0 -0.0022502002540403698 0.091256700358676904 0 -0.0029718843306827717 0.091010989972614545 0 -0.0026133166866243326 0.090515417554387731 0 -0.0029718843306827717 0.091010989972614545 0 -0.0030359636141268796 0.090446511394079276 0 -0.0026133166866243326 0.090515417554387731 0 -0.0030359636141268796 0.090446511394079276 0 -0.0026133166866243326 0.090515417554387731 0 -0.0030759346915557378 0.090133705770059178 0 -0.0017073110103964868 0.089654411781784127 0 -0.0012127109775228575 0.089193162869579248 0 -0.0034382903344997284 0.09025034395133541 0 -0.0018524580658691705 0.088053953190151676 0 -0.004509542351266627 0.088025838522907615 0 -0.0030359636141268796 0.090446511394079276 0 -0.0034382903344997284 0.09025034395133541 0 -0.0030759346915557378 0.090133705770059178 0 -0.0039634394334881811 0.086681762664194473 0 -0.0027368018737342356 0.085974762502867411 0 -0.0049326693713047228 0.085725807188089795 0 -0.0039634394334881811 0.086681762664194473 0 -0.0018524580658691705 0.088053953190151676 0 -0.0027368018737342356 0.085974762502867411 0 -0.0039634394334881811 0.086681762664194473 0 -0.0018524580658691705 0.088053953190151676 0 -0.004509542351266627 0.088025838522907615 0 -0.0026133166866243326 0.090515417554387731 0 -0.0030759346915557378 0.090133705770059178 0 -0.0027001880961432176 0.089593897062750671 0 -0.0018524580658691705 0.088053953190151676 0 -0.00049589114532017065 0.086111699391661495 0 -0.0027368018737342356 0.085974762502867411 0 -0.0012127109775228575 0.089193162869579248 0 1.407461656138704e-05 0.088212285502155999 0 1.407461656138704e-05 0.088212285502155999 0 0.00029904762978097502 0.080530716205478539 0 0.001825806034025214 0.084324307819448968 0 -0.00028988953787009291 0.082363575765616287 0 0.001605766328330266 0.082357406079884968 0 -0.0027368018737342356 0.085974762502867411 0 -0.0030819011360068284 0.083702244017336294 0 -0.0049326693713047228 0.085725807188089795 0 -0.00049589114532017065 0.086111699391661495 0 -0.0027368018737342356 0.085974762502867411 0 -0.0030819011360068284 0.083702244017336294 0 -0.00028988953787009291 0.082363575765616287 0 -0.00071815115683567161 0.080654815283303746 0 0.00099161068964129218 0.080553860962971124 0 -0.0014897293311568614 0.079111955628741348 0 -0.00071815115683567161 0.080654815283303746 0 0.00099161068964129218 0.080553860962971124 0 0.00045965327889743826 0.076110893538586744 0 0.0011537473168958473 0.084406874683687044 0 -0.00026500574626071166 0.094723508874952553 0 -0.00025196656738953114 0.094752512086838728 0 -0.00024902460197887352 0.094772027547779678 0 -0.00023774914690766015 0.094771158759674651 0 -0.00024902460197887352 0.094772027547779678 0 -0.00022547809235956443 0.094795641862970056 0 -0.00025196656738953114 0.094752512086838728 0 -0.00023774914690766015 0.094771158759674651 0 -0.00024902460197887352 0.094772027547779678 0 0.00099161068964129218 0.080553860962971124 0 0.001605766328330266 0.082357406079884968 0 0.003459756346572869 0.081986141598184459 0 -0.00028988953787009291 0.082363575765616287 0 0.00099161068964129218 0.080553860962971124 0 0.001605766328330266 0.082357406079884968 0 0.0011537473168958473 0.084406874683687044 0 -0.00022550617293352567 0.089125499313453371 0 -0.00024902460197887352 0.094772027547779678 0 -0.00021895507718819554 0.094811179600931564 0 -0.00022547809235956443 0.094795641862970056 0 -0.00021895507718819554 0.094811179600931564 0 -0.00022547809235956443 0.094795641862970056 0 -0.00020007386972263096 0.094823739405030194 0 -0.00020966731641293182 0.094765294776893855 0 -0.00022547809235956443 0.094795641862970056 0 -0.00020007386972263096 0.094823739405030194 0 -0.00022550617293352567 0.089125499313453371 0 0.00045516463490079018 0.092342556679583659 0 -0.00024879992876414525 0.094893580904574878 0 -0.0001501266342340058 0.094958404744711192 0 -0.00014829168328889001 0.094891219543962763 0 -0.00024879992876414525 0.094893580904574878 0 -0.00020007386972263096 0.094823739405030194 0 -0.00014829168328889001 0.094891219543962763 0 -0.00022550617293352567 0.089125499313453371 0 -0.00089806618487079065 0.09072484434041167 0 -0.00038794771212644096 0.094535919070325602 0 -0.00035606336714728718 0.094681823115660535 0 -0.00024672644813808443 0.094635763632477457 0 -0.00035606336714728718 0.094681823115660535 0 -0.00024742904476047101 0.094746131102757966 0 -0.00024672644813808443 0.094635763632477457 0 1.407461656138704e-05 0.088212285502155999 0 -0.00022550617293352567 0.089125499313453371 0 0.001825806034025214 0.084324307819448968 0 0.001605766328330266 0.082357406079884968 0 0.003459756346572869 0.081986141598184459 0 -0.00049706797399466792 0.094691320514253607 0 -0.00038794771212644096 0.094535919070325602 0 -0.00035606336714728718 0.094681823115660535 0 -0.0019549299359452954 0.090311704014478716 0 -0.0026133166866243326 0.090515417554387731 0 -0.0027001880961432176 0.089593897062750671 0 -0.00015766927413606745 0.091076100790967035 0 1.407461656138704e-05 0.088212285502155999 0 -0.00035486571786046779 0.094826039206368923 0 -0.00049706797399466792 0.094691320514253607 0 -0.00035606336714728718 0.094681823115660535 0 -0.00035486571786046779 0.094826039206368923 0 -0.00035606336714728718 0.094681823115660535 0 -0.00024742904476047101 0.094746131102757966 0 -0.00015874978261207643 0.094845363356600085 0 -0.00035486571786046779 0.094826039206368923 0 -0.00024742904476047101 0.094746131102757966 0 -0.00015874978261207643 0.094845363356600085 0 -0.00024742904476047101 0.094746131102757966 0 -0.00012378724116742732 0.094745616486424322 0 -0.00015874978261207643 0.094845363356600085 0 -0.00012378724116742732 0.094745616486424322 0 -7.907826089046806e-05 0.094833568340113833 0 -6.8702379945464231e-05 0.095000902583815536 0 -8.4143861944701808e-05 0.094925492184247909 0 -2.2341479102966913e-05 0.09497438859353885 0 0.0003328739643522907 0.093760466133248635 0 0.00045516463490079018 0.092342556679583659 0 -0.00024742904476047101 0.094746131102757966 0 -0.00012378724116742732 0.094745616486424322 0 -0.00024672644813808443 0.094635763632477457 0 -6.8702379945464231e-05 0.095000902583815536 0 -0.0001501266342340058 0.094958404744711192 0 -8.4143861944701808e-05 0.094925492184247909 0 -0.0001501266342340058 0.094958404744711192 0 -0.00014829168328889001 0.094891219543962763 0 -8.4143861944701808e-05 0.094925492184247909 0 -0.00011712220141792872 0.094812612687513773 0 -0.00020007386972263096 0.094823739405030194 0 -0.00014829168328889001 0.094891219543962763 0 -0.00011712220141792872 0.094812612687513773 0 -0.00014829168328889001 0.094891219543962763 0 -8.4143861944701808e-05 0.094925492184247909 0 -9.3907068483441066e-05 0.094884004352880635 0 -4.5484042038093669e-05 0.094919680923724659 0 -0.00011712220141792872 0.094812612687513773 0 -8.4143861944701808e-05 0.094925492184247909 0 -3.1963120683730017e-05 0.094898731809614986 0 -8.4143861944701808e-05 0.094925492184247909 0 -3.1963120683730017e-05 0.094898731809614986 0 -2.2341479102966913e-05 0.09497438859353885 0 -3.1963120683730017e-05 0.094898731809614986 0 1.2960042581544818e-06 0.094995338089807105 0 -2.2341479102966913e-05 0.09497438859353885 0 1.313398717458087e-08 0.094999958047379734 0 2.0196045371415335e-07 0.094990638013838558 0 5.1044624683196864e-09 0.094999931987917147 0 -8.1961034759301449e-06 0.09498758954712308 0 2.0196045371415335e-07 0.094990638013838558 0 1.2960042581544818e-06 0.094995338089807105 0 -4.5484042038093669e-05 0.094919680923724659 0 -2.6464488752233024e-05 0.094936181030828126 0 2.0196045371415335e-07 0.094990638013838558 0 1.2960042581544818e-06 0.094995338089807105 0 5.1044624683196864e-09 0.094999931987917147 0 1.2960042581544818e-06 0.094995338089807105 0 5.1044624683196864e-09 0.094999931987917147 0 -2.9691893696255792e-09 0.094999985216096774 0 1.2960042581544818e-06 0.094995338089807105 0 -2.9691893696255792e-09 0.094999985216096774 0 -2.2341479102966913e-05 0.09497438859353885 0 -2.9691893696255792e-09 0.094999985216096774 0 -2.2341479102966913e-05 0.09497438859353885 0 -1.7846044223044004e-05 0.095010980557989941 0 -6.8702379945464231e-05 0.095000902583815536 0 -2.2341479102966913e-05 0.09497438859353885 0 -1.7846044223044004e-05 0.095010980557989941 0 -0.00012378724116742732 0.094745616486424322 0 -7.907826089046806e-05 0.094833568340113833 0 -3.594098845827626e-05 0.094868025472984299 0 0.0003328739643522907 0.093760466133248635 0 0.00014801980943197053 0.094498179850377909 0 -9.6288681134753503e-09 0.095000034171596151 0 -2.9691893696255792e-09 0.094999985216096774 0 -1.7846044223044004e-05 0.095010980557989941 0 0.0044867003490146832 0.057874809827591994 0 0.0087148211239441425 0.057009808392054107 0 0.0089077265776472177 0.06284241367719777 0 0.0044867003490146832 0.057874809827591994 0 0.0015759893324094351 0.062807110774575403 0 0.0089077265776472177 0.06284241367719777 0 0.0087148211239441425 0.057009808392054107 0 0.0089077265776472177 0.06284241367719777 0 0.013041548008945225 0.056731715446800592 0 0.0011047907656909746 0.07339789180647989 0 0.0024597389727455963 0.069838345654380393 0 0.0087148211239441425 0.057009808392054107 0 0.013041548008945225 0.056731715446800592 0 0.010798539589688627 0.052457343455784296 0 0.0087148211239441425 0.057009808392054107 0 0.0070580817591667103 0.055287788455479978 0 0.010798539589688627 0.052457343455784296 0 0.0070580817591667103 0.055287788455479978 0 0.0041920728617248441 0.053863970416310379 0 0.010798539589688627 0.052457343455784296 0 0.0044867003490146832 0.057874809827591994 0 0.0087148211239441425 0.057009808392054107 0 0.0070580817591667103 0.055287788455479978 0 0.0044867003490146832 0.057874809827591994 0 0.0070580817591667103 0.055287788455479978 0 0.0041920728617248441 0.053863970416310379 0 0.0045299828165525843 0.056733121997058808 0 0.0018998206009337225 0.05669526604513065 0 0.0044867003490146832 0.057874809827591994 0 0.0041920728617248441 0.053863970416310379 0 -0.0025641021711173984 0.055240128392216536 0 -0.0025641021711173984 0.055240128392216536 0 0.0015759893324094351 0.062807110774575403 0 -0.0051820585630525367 0.063033719585153733 0 0.0044867003490146832 0.057874809827591994 0 -0.0025641021711173984 0.055240128392216536 0 0.0015759893324094351 0.062807110774575403 0 0.0015759893324094351 0.062807110774575403 0 -0.0012894869411450866 0.068448199123689282 0 0.004520589120906084 0.069286938404818921 0 0.0015759893324094351 0.062807110774575403 0 -0.0051820585630525367 0.063033719585153733 0 -0.0012894869411450866 0.068448199123689282 0 -0.0010005160619279527 0.075632664878144865 0 -0.0012894869411450866 0.068448199123689282 0 -0.0066048105431159472 0.069963185272847464 0 -0.0051820585630525367 0.063033719585153733 0 -0.0012894869411450866 0.068448199123689282 0 -0.0066048105431159472 0.069963185272847464 0 -0.0010005160619279527 0.075632664878144865 0 -0.0012894869411450866 0.068448199123689282 0 0.004520589120906084 0.069286938404818921 0 -0.0051505539679663854 0.084360856312697602 0 -0.0050376656906922874 0.084308627308755199 0 -0.0049157056493679095 0.084409145160421736 0 -0.0050376656906922874 0.084308627308755199 0 -0.004668109609224212 0.084680685517932994 0 -0.0049157056493679095 0.084409145160421736 0 -0.00086714914285322177 0.076690612610875092 0 0.0011047907656909746 0.07339789180647989 0 0.0015759893324094351 0.062807110774575403 0 0.004520589120906084 0.069286938404818921 0 0.0089077265776472177 0.06284241367719777 0 -0.004668109609224212 0.084680685517932994 0 -0.0049157056493679095 0.084409145160421736 0 -0.0049533623637156455 0.084613800205006862 0 -0.0049157056493679095 0.084409145160421736 0 -0.004917642121554322 0.084540062736646229 0 -0.0049533623637156455 0.084613800205006862 0 -0.004917642121554322 0.084540062736646229 0 -0.0049533623637156455 0.084613800205006862 0 -0.0050487043626776121 0.084617842379065625 0 -0.0052462552913819776 0.084758132502967556 0 -0.0049533623637156455 0.084613800205006862 0 -0.0050487043626776121 0.084617842379065625 0 -0.0052462552913819776 0.084758132502967556 0 -0.0049533623637156455 0.084613800205006862 0 -0.0050319568528606083 0.085093094898122709 0 -0.004668109609224212 0.084680685517932994 0 -0.0049533623637156455 0.084613800205006862 0 -0.0050319568528606083 0.085093094898122709 0 -0.0041846180157417449 0.08832825689988634 0 -0.0036639610895505973 0.085455728586429747 0 -0.0051206156836070878 0.084670973447550688 0 -0.0050573844981323616 0.084619444756222961 0 -0.005087995760550061 0.084651953135883029 0 -0.0050573844981323616 0.084619444756222961 0 -0.0050487043626776121 0.084617842379065625 0 -0.005087995760550061 0.084651953135883029 0 -0.0050487043626776121 0.084617842379065625 0 -0.0050932762914357747 0.084677834007950648 0 -0.005087995760550061 0.084651953135883029 0 -0.0052462552913819776 0.084758132502967556 0 -0.0050487043626776121 0.084617842379065625 0 -0.0050932762914357747 0.084677834007950648 0 -0.0055804478334667267 0.086310484578166716 0 -0.0055591330472052015 0.086662477610738711 0 -0.0044500785469336196 0.088017161878423289 0 -0.0055591330472052015 0.086662477610738711 0 -0.0051167867063939372 0.08467492307777752 0 -0.0050932762914357747 0.084677834007950648 0 -0.005087995760550061 0.084651953135883029 0 -0.0078978228725593291 0.084370234352698067 0 -0.0066132057157259868 0.084521659613274222 0 -0.0071772442807249356 0.08558843876214825 0 -0.0044500785469336196 0.088017161878423289 0 -0.0053424739131589065 0.087626546974117883 0 -0.0052462552913819776 0.084758132502967556 0 -0.0066132057157259868 0.084521659613274222 0 -0.005945309639733682 0.085272490111800478 0 -0.0071772442807249356 0.08558843876214825 0 -0.005945309639733682 0.085272490111800478 0 -0.006365676133270803 0.08597925904218659 0 -0.0066132057157259868 0.084521659613274222 0 -0.0071772442807249356 0.08558843876214825 0 -0.005945309639733682 0.085272490111800478 0 -0.0071772442807249356 0.08558843876214825 0 -0.006365676133270803 0.08597925904218659 0 -0.0063788496980828448 0.086993870850638921 0 -0.005945309639733682 0.085272490111800478 0 -0.006365676133270803 0.08597925904218659 0 -0.0056309242178837491 0.085845032131401836 0 -0.0061293918495029919 0.086450261077056889 0 -0.006365676133270803 0.08597925904218659 0 -0.0056309242178837491 0.085845032131401836 0 -0.0061293918495029919 0.086450261077056889 0 -0.006365676133270803 0.08597925904218659 0 -0.0063788496980828448 0.086993870850638921 0 -0.0053424739131589065 0.087626546974117883 0 -0.0056430748117846105 0.08739991807696279 0 -0.0034382903344997284 0.09025034395133541 0 -0.005076282762703322 0.090349360488123476 0 -0.004509542351266627 0.088025838522907615 0 -0.005076282762703322 0.090349360488123476 0 -0.004509542351266627 0.088025838522907615 0 -0.0063788496980828448 0.086993870850638921 0 -0.004668109609224212 0.084680685517932994 0 -0.0050319568528606083 0.085093094898122709 0 -0.0046715324305445834 0.085571197758551126 0 -0.0052462552913819776 0.084758132502967556 0 -0.005945309639733682 0.085272490111800478 0 -0.0050319568528606083 0.085093094898122709 0 -0.005945309639733682 0.085272490111800478 0 -0.0050319568528606083 0.085093094898122709 0 -0.0056309242178837491 0.085845032131401836 0 -0.0056309242178837491 0.085845032131401836 0 -0.0046715324305445834 0.085571197758551126 0 -0.0054064294249391125 0.086869415377577336 0 -0.0061293918495029919 0.086450261077056889 0 -0.0056309242178837491 0.085845032131401836 0 -0.0058839728832085405 0.086517794177344468 0 0.0024597389727455963 0.069838345654380393 0 0.0032743898569200752 0.064696557503362492 0 -0.0050319568528606083 0.085093094898122709 0 -0.0056309242178837491 0.085845032131401836 0 -0.0046715324305445834 0.085571197758551126 0 0.0032743898569200752 0.064696557503362492 0 0.0073979280356508892 0.058409635858120555 0 0.0089355723429890583 0.052163644758998255 0 0.0077403712032339013 0.051497608420629171 0 0.0070015429238371747 0.052650503083255348 0 0.013041548008945225 0.056731715446800592 0 0.017103685885198838 0.05098774832329251 0 0.010798539589688627 0.052457343455784296 0 0.0032743898569200752 0.064696557503362492 0 0.00015527136425286408 0.067057449195310315 0 -0.0056309242178837491 0.085845032131401836 0 -0.0058839728832085405 0.086517794177344468 0 -0.0054064294249391125 0.086869415377577336 0 -0.0058839728832085405 0.086517794177344468 0 -0.0054064294249391125 0.086869415377577336 0 -0.0062428005691928506 0.08682450570291228 0 0.0030709566316950709 0.066091887635051166 0 0.0029521960527789178 0.066253361995029403 0 0.0027864401123836977 0.066159782180126192 0 0.0089355723429890583 0.052163644758998255 0 0.0096477754128559568 0.051185774290864496 0 0.0077403712032339013 0.051497608420629171 0 0.0037671343333384468 0.06466176019790347 0 0.0041664921315413446 0.057842674732725419 0 0.0088956305998553059 0.050981384418659036 0 0.007527405937092984 0.050141470559670095 0 0.0086132585003730229 0.049867951979571896 0 0.0032743898569200752 0.064696557503362492 0 0.0037671343333384468 0.06466176019790347 0 0.0096477754128559568 0.051185774290864496 0 0.0077403712032339013 0.051497608420629171 0 0.0081314704796500176 0.050249041283100426 0 0.0077403712032339013 0.051497608420629171 0 0.0081314704796500176 0.050249041283100426 0 0.0068898271259728574 0.050599735650977168 0 -0.004509542351266627 0.088025838522907615 0 -0.0054565220902185688 0.086863089305508179 0 -0.0063788496980828448 0.086993870850638921 0 -0.0039634394334881811 0.086681762664194473 0 -0.0054565220902185688 0.086863089305508179 0 -0.0049326693713047228 0.085725807188089795 0 -0.0039634394334881811 0.086681762664194473 0 -0.004509542351266627 0.088025838522907615 0 -0.0054565220902185688 0.086863089305508179 0 -0.0054565220902185688 0.086863089305508179 0 -0.00630038702407022 0.086657223089768906 0 -0.0049326693713047228 0.085725807188089795 0 -0.0054064294249391125 0.086869415377577336 0 -0.0063063698187172798 0.086815259003100415 0 -0.0062428005691928506 0.08682450570291228 0 -0.0054565220902185688 0.086863089305508179 0 -0.0060158681034447135 0.086842479308580828 0 -0.00630038702407022 0.086657223089768906 0 -0.0060158681034447135 0.086842479308580828 0 -0.00630038702407022 0.086657223089768906 0 -0.0062428005691928506 0.08682450570291228 0 -0.00630038702407022 0.086657223089768906 0 -0.0063063698187172798 0.086815259003100415 0 -0.0062428005691928506 0.08682450570291228 0 0.00016769870851625229 0.067116945846096634 0 0.00015527136425286408 0.067057449195310315 0 -0.0054565220902185688 0.086863089305508179 0 -0.0060158681034447135 0.086842479308580828 0 -0.0063788496980828448 0.086993870850638921 0 -0.0060158681034447135 0.086842479308580828 0 -0.0063788496980828448 0.086993870850638921 0 -0.0062428005691928506 0.08682450570291228 0 -0.0061293918495029919 0.086450261077056889 0 -0.0063788496980828448 0.086993870850638921 0 -0.0062428005691928506 0.08682450570291228 0 -0.0061293918495029919 0.086450261077056889 0 -0.0058839728832085405 0.086517794177344468 0 -0.0062428005691928506 0.08682450570291228 0 -0.00630038702407022 0.086657223089768906 0 -0.0065028149372275152 0.086565910367708776 0 -0.0049326693713047228 0.085725807188089795 0 0.0037671343333384468 0.06466176019790347 0 0.00015527136425286408 0.067057449195310315 0 -0.0084778529423414854 0.085237543892706519 0 -0.0069958442258518262 0.086123179289481017 0 -0.0071320121652064389 0.085147047032421166 0 -0.0084778529423414854 0.085237543892706519 0 -0.0071320121652064389 0.085147047032421166 0 -0.0067604828926309058 0.084149348907601229 0 -0.0084778529423414854 0.085237543892706519 0 -0.0067604828926309058 0.084149348907601229 0 -0.0070914475261218985 0.083293745653613444 0 0.0037671343333384468 0.06466176019790347 0 0.0029008178417485098 0.065433924001212965 0 -0.0071320121652064389 0.085147047032421166 0 -0.0067604828926309058 0.084149348907601229 0 -0.0062925647892785631 0.085068752405728698 0 -0.0069958442258518262 0.086123179289481017 0 -0.0071320121652064389 0.085147047032421166 0 -0.0062925647892785631 0.085068752405728698 0 -0.0030819011360068284 0.083702244017336294 0 -0.0052826490123170722 0.084345649584064764 0 -0.0049326693713047228 0.085725807188089795 0 -0.0069958442258518262 0.086123179289481017 0 -0.0062925647892785631 0.085068752405728698 0 -0.0049326693713047228 0.085725807188089795 0 0.00015527136425286408 0.067057449195310315 0 -0.0026940675108072447 0.069563333124096863 0 -0.0062925647892785631 0.085068752405728698 0 -0.0052826490123170722 0.084345649584064764 0 -0.0049326693713047228 0.085725807188089795 0 -0.0067604828926309058 0.084149348907601229 0 -0.0062925647892785631 0.085068752405728698 0 -0.0052826490123170722 0.084345649584064764 0 0.00029904762978097502 0.080530716205478539 0 0.0013560470966758444 0.070705255542182446 0 -0.0030819011360068284 0.083702244017336294 0 -0.0053168268601351352 0.08307599320183888 0 -0.0056643148577752407 0.081275010226919825 0 -0.0030819011360068284 0.083702244017336294 0 -0.0052826490123170722 0.084345649584064764 0 -0.0053168268601351352 0.08307599320183888 0 -0.00028988953787009291 0.082363575765616287 0 -0.00071815115683567161 0.080654815283303746 0 -0.0024145002265920017 0.080389710323531594 0 -0.0067604828926309058 0.084149348907601229 0 -0.0052826490123170722 0.084345649584064764 0 -0.0053168268601351352 0.08307599320183888 0 -0.0053168268601351352 0.08307599320183888 0 -0.0071060994788405222 0.083283798275786122 0 -0.0056643148577752407 0.081275010226919825 0 0.0029008178417485098 0.065433924001212965 0 0.0032689334273629449 0.05784746911668931 0 0.0097360980130042629 0.049813764743484742 0 0.0091924884067434483 0.048431613321452752 0 0.0086132585003730229 0.049867951979571896 0 0.0029008178417485098 0.065433924001212965 0 0.0013560470966758444 0.070705255542182446 0 -0.0067604828926309058 0.084149348907601229 0 -0.0053168268601351352 0.08307599320183888 0 -0.0071060994788405222 0.083283798275786122 0 0.0029907360394426943 0.066519754992944186 0 0.0029008178417485098 0.065433924001212965 0 0.0026474755827647026 0.054005515721641077 0 0.0013560470966758444 0.070705255542182446 0 0.0019621950793910947 0.058830996571147896 0 0.0025947859960156563 0.062487379419574149 0 0.0064727612970875443 0.062999304642733012 0 0.0041129265105007331 0.066271856835621479 0 0.0025947859960156563 0.062487379419574149 0 0.0064727612970875443 0.062999304642733012 0 -0.0014897293311568614 0.079111955628741348 0 -0.00071815115683567161 0.080654815283303746 0 -0.0024145002265920017 0.080389710323531594 0 0.0035456361735302488 0.062305949563869763 0 0.0064606742079097801 0.063422177855588735 0 0.0044797609947164587 0.066165016339082727 0 0.00045965327889743826 0.076110893538586744 0 0.0013560470966758444 0.070705255542182446 0 0.0041664921315413446 0.057842674732725419 0 0.0040635538652816191 0.05438447265411641 0 0.007527405937092984 0.050141470559670095 0 0.0070668778696926886 0.048948826414906325 0 0.0061804305094840979 0.049295880102650076 0 0.007527405937092984 0.050141470559670095 0 0.0080609921679844435 0.048947572297731147 0 0.0070668778696926886 0.048948826414906325 0 0.007527405937092984 0.050141470559670095 0 0.0086132585003730229 0.049867951979571896 0 0.0080609921679844435 0.048947572297731147 0 0.0091924884067434483 0.048431613321452752 0 0.0086132585003730229 0.049867951979571896 0 0.0080609921679844435 0.048947572297731147 0 0.0088956305998553059 0.050981384418659036 0 0.0097360980130042629 0.049813764743484742 0 0.0086132585003730229 0.049867951979571896 0 0.0091924884067434483 0.048431613321452752 0 0.0080609921679844435 0.048947572297731147 0 0.008368941512293674 0.048108137146744737 0 0.0086486779849727115 0.047069983046418226 0 0.0091924884067434483 0.048431613321452752 0 0.008368941512293674 0.048108137146744737 0 0.0080609921679844435 0.048947572297731147 0 0.008368941512293674 0.048108137146744737 0 0.0075098357924339469 0.04797450033037904 0 0.0075098357924339469 0.04797450033037904 0 0.0070668778696926886 0.048948826414906325 0 0.0058844851740722749 0.047949456057767105 0 0.0080609921679844435 0.048947572297731147 0 0.0075098357924339469 0.04797450033037904 0 0.0070668778696926886 0.048948826414906325 0 0.0058844851740722749 0.047949456057767105 0 0.0048670012317358711 0.048457734949489566 0 0.0061804305094840979 0.049295880102650076 0 0.0070668778696926886 0.048948826414906325 0 0.0058844851740722749 0.047949456057767105 0 0.0061804305094840979 0.049295880102650076 0 0.0043944103506104865 0.047603188359527843 0 0.0058844851740722749 0.047949456057767105 0 0.0048670012317358711 0.048457734949489566 0 0.0038049897187043425 0.053226610146421001 0 0.0040635538652816191 0.05438447265411641 0 0.0048670012317358711 0.048457734949489566 0 0.0064877261097876053 0.049313155457209414 0 0.0041137424527394398 0.050499328216790977 0 0.0081314704796500176 0.050249041283100426 0 0.0064877261097876053 0.049313155457209414 0 0.0068898271259728574 0.050599735650977168 0 0.0064877261097876053 0.049313155457209414 0 0.0068898271259728574 0.050599735650977168 0 0.0056714434229021447 0.051334301485218704 0 0.0077403712032339013 0.051497608420629171 0 0.0068898271259728574 0.050599735650977168 0 0.0056714434229021447 0.051334301485218704 0 0.0064877261097876053 0.049313155457209414 0 0.0056714434229021447 0.051334301485218704 0 0.0041137424527394398 0.050499328216790977 0 0.0056714434229021447 0.051334301485218704 0 0.004916187824852032 0.053025309906416032 0 0.0041137424527394398 0.050499328216790977 0 0.0045299828165525843 0.056733121997058808 0 0.0073979280356508892 0.058409635858120555 0 0.0038902337413688473 0.050068785939867758 0 0.0027877862500030439 0.047185979154543665 0 0.004458471998891305 0.053283616783887051 0 0.004916187824852032 0.053025309906416032 0 0.0070015429238371747 0.052650503083255348 0 0.0056714434229021447 0.051334301485218704 0 0.004916187824852032 0.053025309906416032 0 0.0070015429238371747 0.052650503083255348 0 0.0077403712032339013 0.051497608420629171 0 0.0056714434229021447 0.051334301485218704 0 0.0070015429238371747 0.052650503083255348 0 -0.0025641021711173984 0.055240128392216536 0 0.00020487358894275847 0.049828428721106169 0 -0.0059392596565407841 0.048270048984113141 0 0.004458471998891305 0.053283616783887051 0 -0.0025641021711173984 0.055240128392216536 0 0.00020487358894275847 0.049828428721106169 0 0.004916187824852032 0.053025309906416032 0 0.00020487358894275847 0.049828428721106169 0 0.0026130492338861154 0.044583607554511705 0 0.004458471998891305 0.053283616783887051 0 0.004916187824852032 0.053025309906416032 0 0.00020487358894275847 0.049828428721106169 0 0.00020487358894275847 0.049828428721106169 0 0.0026130492338861154 0.044583607554511705 0 -0.0025259101268944352 0.04463419710321738 0 0.00020487358894275847 0.049828428721106169 0 -0.0025259101268944352 0.04463419710321738 0 -0.0059392596565407841 0.048270048984113141 0 -0.0025259101268944352 0.04463419710321738 0 -0.0064256221059048758 0.041186138472747026 0 -0.0059392596565407841 0.048270048984113141 0 -0.0025259101268944352 0.04463419710321738 0 -0.00028603415737317467 0.035910982540664674 0 -0.0064256221059048758 0.041186138472747026 0 0.0048670012317358711 0.048457734949489566 0 0.0041137424527394398 0.050499328216790977 0 0.0032902354884354994 0.048190785305753617 0 0.0026130492338861154 0.044583607554511705 0 -0.0025259101268944352 0.04463419710321738 0 -0.00028603415737317467 0.035910982540664674 0 0.0027877862500030439 0.047185979154543665 0 0.00058363254430350803 0.042197605942173012 0 0.0043944103506104865 0.047603188359527843 0 0.0048670012317358711 0.048457734949489566 0 0.0032902354884354994 0.048190785305753617 0 -0.00028603415737317467 0.035910982540664674 0 -0.0073156226394266227 0.035845293125920837 0 -0.0064256221059048758 0.041186138472747026 0 -0.0058863235895647466 0.031618266073602248 0 -0.00028603415737317467 0.035910982540664674 0 -0.0073156226394266227 0.035845293125920837 0 -0.0073156226394266227 0.035845293125920837 0 -0.011235268118959781 0.035134196725268609 0 -0.011025590572846768 0.040038875965888343 0 -0.0092578088439106299 0.031485962814980818 0 -0.0073156226394266227 0.035845293125920837 0 -0.011235268118959781 0.035134196725268609 0 -0.014527481371363749 0.03183911638477685 0 -0.011235268118959781 0.035134196725268609 0 -0.01517216527799348 0.037845004906301639 0 -0.011235268118959781 0.035134196725268609 0 -0.011025590572846768 0.040038875965888343 0 -0.01517216527799348 0.037845004906301639 0 -0.011025590572846768 0.040038875965888343 0 -0.014455726980976741 0.042809242633178909 0 -0.01517216527799348 0.037845004906301639 0 -0.011025590572846768 0.040038875965888343 0 -0.014455726980976741 0.042809242633178909 0 -0.011395573245575981 0.046640242297071637 0 -0.0073156226394266227 0.035845293125920837 0 -0.011025590572846768 0.040038875965888343 0 -0.0064256221059048758 0.041186138472747026 0 -0.011025590572846768 0.040038875965888343 0 -0.0064256221059048758 0.041186138472747026 0 -0.011395573245575981 0.046640242297071637 0 -0.014527481371363749 0.03183911638477685 0 -0.020348549532599083 0.035301442965325114 0 -0.01517216527799348 0.037845004906301639 0 -0.020348549532599083 0.035301442965325114 0 -0.01517216527799348 0.037845004906301639 0 -0.019387947984716422 0.041826196334440409 0 -0.014455726980976741 0.042809242633178909 0 -0.01517216527799348 0.037845004906301639 0 -0.019387947984716422 0.041826196334440409 0 -0.019387947984716422 0.041826196334440409 0 -0.023891469080490332 0.044168774313720578 0 -0.025379992465172117 0.039826782683343095 0 -0.020348549532599083 0.035301442965325114 0 -0.019387947984716422 0.041826196334440409 0 -0.025379992465172117 0.039826782683343095 0 -0.018184649908008724 0.048844150256797662 0 -0.025774915402299807 0.049153424262914913 0 -0.023891469080490332 0.044168774313720578 0 -0.019387947984716422 0.041826196334440409 0 -0.018184649908008724 0.048844150256797662 0 -0.023891469080490332 0.044168774313720578 0 -0.014455726980976741 0.042809242633178909 0 -0.019387947984716422 0.041826196334440409 0 -0.018184649908008724 0.048844150256797662 0 -0.014455726980976741 0.042809242633178909 0 -0.018184649908008724 0.048844150256797662 0 -0.011395573245575981 0.046640242297071637 0 -0.018184649908008724 0.048844150256797662 0 -0.011705329473137592 0.052169643767520063 0 -0.016727080670423972 0.05416248521109171 0 -0.018184649908008724 0.048844150256797662 0 -0.023622254967707364 0.054346186534986358 0 -0.025774915402299807 0.049153424262914913 0 -0.018184649908008724 0.048844150256797662 0 -0.016727080670423972 0.05416248521109171 0 -0.023622254967707364 0.054346186534986358 0 -0.0025641021711173984 0.055240128392216536 0 -0.0059392596565407841 0.048270048984113141 0 -0.011705329473137592 0.052169643767520063 0 -0.0064256221059048758 0.041186138472747026 0 -0.0059392596565407841 0.048270048984113141 0 -0.011395573245575981 0.046640242297071637 0 -0.018184649908008724 0.048844150256797662 0 -0.011395573245575981 0.046640242297071637 0 -0.011705329473137592 0.052169643767520063 0 -0.0059392596565407841 0.048270048984113141 0 -0.011395573245575981 0.046640242297071637 0 -0.011705329473137592 0.052169643767520063 0 -0.0025641021711173984 0.055240128392216536 0 -0.011705329473137592 0.052169643767520063 0 -0.010401047623741022 0.05842234790437878 0 -0.0025641021711173984 0.055240128392216536 0 -0.0051820585630525367 0.063033719585153733 0 -0.010401047623741022 0.05842234790437878 0 -0.0051820585630525367 0.063033719585153733 0 -0.010401047623741022 0.05842234790437878 0 -0.012244623570587684 0.064679391220181667 0 -0.010401047623741022 0.05842234790437878 0 -0.017970427960529917 0.059445549761847745 0 -0.012244623570587684 0.064679391220181667 0 -0.011705329473137592 0.052169643767520063 0 -0.010401047623741022 0.05842234790437878 0 -0.016727080670423972 0.05416248521109171 0 -0.010401047623741022 0.05842234790437878 0 -0.016727080670423972 0.05416248521109171 0 -0.017970427960529917 0.059445549761847745 0 -0.017412821975565314 0.060298594827943156 0 -0.020305552004362036 0.05766899679938417 0 -0.016727080670423972 0.05416248521109171 0 -0.017970427960529917 0.059445549761847745 0 -0.023622254967707364 0.054346186534986358 0 -0.022943803060323818 0.062079329150807619 0 -0.017687066259222423 0.059924404665348679 0 -0.023622254967707364 0.054346186534986358 0 -0.017412821975565314 0.060298594827943156 0 -0.012328660053827866 0.064978240831414694 0 -0.017687066259222423 0.059924404665348679 0 -0.018335660469893253 0.066119294008821036 0 -0.012252091231118745 0.065390248552880018 0 -0.022943803060323818 0.062079329150807619 0 -0.018335660469893253 0.066119294008821036 0 -0.025956231378168309 0.068244924174561461 0 -0.022943803060323818 0.062079329150807619 0 -0.017687066259222423 0.059924404665348679 0 -0.018335660469893253 0.066119294008821036 0 -0.018335660469893253 0.066119294008821036 0 -0.025956231378168309 0.068244924174561461 0 -0.019962211236410558 0.071792959821927141 0 -0.018335660469893253 0.066119294008821036 0 -0.013463054526339908 0.072916442469929607 0 -0.019962211236410558 0.071792959821927141 0 -0.018335660469893253 0.066119294008821036 0 -0.012252091231118745 0.065390248552880018 0 -0.013463054526339908 0.072916442469929607 0 -0.007104260555116251 0.07057901292157949 0 -0.012252091231118745 0.065390248552880018 0 -0.013463054526339908 0.072916442469929607 0 -0.0072174894546717929 0.06968479546436078 0 -0.012328660053827866 0.064978240831414694 0 -0.0051820585630525367 0.063033719585153733 0 -0.0066048105431159472 0.069963185272847464 0 -0.012244623570587684 0.064679391220181667 0 -0.033613895142691148 0.06400645636122923 0 -0.03450618586931628 0.068713836538849521 0 -0.031036253248140626 0.067126399406991749 0 -0.033613895142691148 0.06400645636122923 0 -0.038558953895595008 0.063887110529329064 0 -0.03450618586931628 0.068713836538849521 0 -0.020127124294482102 0.045201431111155148 0 -0.021110374493436324 0.050586466225421588 0 -0.038008053304814958 0.064010756220904547 0 -0.037372127615822391 0.065474434947685442 0 -0.03450618586931628 0.068713836538849521 0 -0.013337752102860799 0.039087549255641098 0 -0.013702969559385348 0.038611162664788569 0 -0.014284460784546777 0.03944399407555093 0 -0.020127124294482102 0.045201431111155148 0 -0.018119958707983972 0.036936408469228223 0 -0.016517534993930643 0.036486271662899979 0 -0.017240137005286836 0.035556613244304078 0 -0.016801760382208448 0.035476262658105308 0 -0.013337752102860799 0.039087549255641098 0 -0.013326486746456761 0.039816069133937169 0 -0.014284460784546777 0.03944399407555093 0 -0.038008053304814958 0.064010756220904547 0 -0.037372127615822391 0.065474434947685442 0 -0.038008981014913429 0.066614460928939898 0 -0.020127124294482102 0.045201431111155148 0 -0.021229334060911976 0.051866267820607867 0 -0.021633550325491011 0.052449353357848422 0 -0.021229334060911976 0.051866267820607867 0 -0.038038048430130818 0.066646497726619736 0 -0.03450618586931628 0.068713836538849521 0 -0.037942379895737129 0.074363458059164736 0 -0.019192475261516899 0.055012126459611635 0 -0.020465854572128257 0.057331068894729866 0 -0.019146744419168117 0.058349807552611821 0 -0.037372127615822391 0.065474434947685442 0 -0.038038048430130818 0.066646497726619736 0 -0.03450618586931628 0.068713836538849521 0 -0.013326486746456761 0.039816069133937169 0 -0.014284460784546777 0.03944399407555093 0 -0.014139672608453648 0.041321307841576574 0 -0.021229334060911976 0.051866267820607867 0 -0.018705718285510264 0.050409507920393892 0 -0.021229334060911976 0.051866267820607867 0 -0.023487272368899078 0.064966813291527051 0 -0.03450618586931628 0.068713836538849521 0 -0.031036253248140626 0.067126399406991749 0 -0.032146872144024966 0.072766527648504983 0 -0.031036253248140626 0.067126399406991749 0 -0.025956231378168309 0.068244924174561461 0 -0.032146872144024966 0.072766527648504983 0 -0.022943803060323818 0.062079329150807619 0 -0.025956231378168309 0.068244924174561461 0 -0.029093211493825547 0.061452148045093545 0 -0.031036253248140626 0.067126399406991749 0 -0.025956231378168309 0.068244924174561461 0 -0.029093211493825547 0.061452148045093545 0 -0.033613895142691148 0.06400645636122923 0 -0.031036253248140626 0.067126399406991749 0 -0.029093211493825547 0.061452148045093545 0 -0.033613895142691148 0.06400645636122923 0 -0.029093211493825547 0.061452148045093545 0 -0.034047586768307277 0.0581810979635808 0 -0.029093211493825547 0.061452148045093545 0 -0.02992472681678485 0.053745043661305267 0 -0.034047586768307277 0.0581810979635808 0 -0.022943803060323818 0.062079329150807619 0 -0.029093211493825547 0.061452148045093545 0 -0.023622254967707364 0.054346186534986358 0 -0.029093211493825547 0.061452148045093545 0 -0.023622254967707364 0.054346186534986358 0 -0.02992472681678485 0.053745043661305267 0 -0.02992472681678485 0.053745043661305267 0 -0.034047586768307277 0.0581810979635808 0 -0.034314172938478778 0.050975041825315995 0 -0.034047586768307277 0.0581810979635808 0 -0.038794002635342932 0.054946802787599822 0 -0.034314172938478778 0.050975041825315995 0 -0.033613895142691148 0.06400645636122923 0 -0.038558953895595008 0.063887110529329064 0 -0.034047586768307277 0.0581810979635808 0 -0.038558953895595008 0.063887110529329064 0 -0.034047586768307277 0.0581810979635808 0 -0.038794002635342932 0.054946802787599822 0 -0.016517534993930643 0.036486271662899979 0 -0.016801760382208448 0.035476262658105308 0 -0.016558037309011543 0.03189402490626967 0 -0.020127124294482102 0.045201431111155148 0 -0.021275897104808754 0.041672756827284448 0 -0.016801760382208448 0.035476262658105308 0 -0.016558037309011543 0.03189402490626967 0 -0.018920917637938326 0.033372852016251994 0 -0.017240566416511727 0.035555578893885477 0 -0.016801760382208448 0.035476262658105308 0 -0.018920917637938326 0.033372852016251994 0 -0.018119958707983972 0.036936408469228223 0 -0.018101731046613136 0.036928869684114171 0 -0.016558037309011543 0.03189402490626967 0 -0.018588310693349493 0.029276772539338521 0 -0.01866267838151817 0.031436140488622179 0 -0.016558037309011543 0.03189402490626967 0 -0.016602657392174969 0.027343948958151166 0 -0.018588310693349493 0.029276772539338521 0 -0.038794002635342932 0.054946802787599822 0 -0.034314172938478778 0.050975041825315995 0 -0.03880862456893934 0.045932128264395723 0 -0.021275897104808754 0.041672756827284448 0 -0.017223610408056245 0.028639667104724539 0 -0.034314172938478778 0.050975041825315995 0 -0.033051009341707571 0.045791434738042952 0 -0.030635731387630285 0.048361133511425007 0 -0.034314172938478778 0.050975041825315995 0 -0.033051009341707571 0.045791434738042952 0 -0.03880862456893934 0.045932128264395723 0 -0.033051009341707571 0.045791434738042952 0 -0.03880862456893934 0.045932128264395723 0 -0.032748590424811097 0.039963440721765386 0 -0.0014627329835942466 0.0065480344114411245 0 -0.0013493701439657277 0.0066854677955162974 0 -0.0015862611891429759 0.0059556686837141277 0 -0.01708784319264841 0.02787768255278613 0 -0.017223610408056245 0.028639667104724539 0 -0.0014627329835942466 0.0065480344114411245 0 -0.0019240105469070443 0.0064368137801404631 0 -0.0022287076063402106 0.0070160096411517794 0 -0.0014627329835942466 0.0065480344114411245 0 -0.0014343889036476441 0.0070536207791225937 0 -0.0022287076063402106 0.0070160096411517794 0 -0.017223610408056245 0.028639667104724539 0 -0.012101133436254441 0.022900934364752882 0 -0.0014343889036476441 0.0070536207791225937 0 -0.0023849104130212111 0.0081469613776690639 0 -0.0022287076063402106 0.0070160096411517794 0 -0.023622254967707364 0.054346186534986358 0 -0.02992472681678485 0.053745043661305267 0 -0.025774915402299807 0.049153424262914913 0 -0.02992472681678485 0.053745043661305267 0 -0.025774915402299807 0.049153424262914913 0 -0.030635731387630285 0.048361133511425007 0 -0.02992472681678485 0.053745043661305267 0 -0.034314172938478778 0.050975041825315995 0 -0.030635731387630285 0.048361133511425007 0 -0.025774915402299807 0.049153424262914913 0 -0.030635731387630285 0.048361133511425007 0 -0.028773115663488353 0.043774492752899206 0 -0.033051009341707571 0.045791434738042952 0 -0.030635731387630285 0.048361133511425007 0 -0.028773115663488353 0.043774492752899206 0 -0.025774915402299807 0.049153424262914913 0 -0.028773115663488353 0.043774492752899206 0 -0.023891469080490332 0.044168774313720578 0 -0.028773115663488353 0.043774492752899206 0 -0.023891469080490332 0.044168774313720578 0 -0.025379992465172117 0.039826782683343095 0 -0.028773115663488353 0.043774492752899206 0 -0.025379992465172117 0.039826782683343095 0 -0.032748590424811097 0.039963440721765386 0 -0.033051009341707571 0.045791434738042952 0 -0.028773115663488353 0.043774492752899206 0 -0.032748590424811097 0.039963440721765386 0 -0.02691230558240745 0.033914086760552555 0 -0.025379992465172117 0.039826782683343095 0 -0.032748590424811097 0.039963440721765386 0 -0.016363419082847139 0.022426705816621706 0 -0.016938591877497911 0.024697232426415829 0 -0.0072847826286246446 0.0091156081193613792 0 -0.0023648138727988834 0.0055093775748911158 0 -0.0027360430882555423 0.0079591843985834295 0 -0.02691230558240745 0.033914086760552555 0 -0.020348549532599083 0.035301442965325114 0 -0.025379992465172117 0.039826782683343095 0 -0.001672133312588421 0.0060547998552685544 0 -0.0015862611891429759 0.0059556686837141277 0 -0.00075933653553948786 0.0058861097395540123 0 -0.001672133312588421 0.0060547998552685544 0 -0.0016310421333607099 0.0062207998707783435 0 -0.0015862611891429759 0.0059556686837141277 0 -0.0014627329835942466 0.0065480344114411245 0 -0.0019240105469070443 0.0064368137801404631 0 -0.0016310421333607099 0.0062207998707783435 0 -0.001672133312588421 0.0060547998552685544 0 -0.0019240105469070443 0.0064368137801404631 0 -0.0016310421333607099 0.0062207998707783435 0 -0.0014627329835942466 0.0065480344114411245 0 -0.0016310421333607099 0.0062207998707783435 0 -0.0015862611891429759 0.0059556686837141277 0 -0.017223610408056245 0.028639667104724539 0 -0.016938591877497911 0.024697232426415829 0 -0.0023648138727988834 0.0055093775748911158 0 -0.0015862611891429759 0.0059556686837141277 0 -0.00075933653553948786 0.0058861097395540123 0 -0.0013493701439657277 0.0066854677955162974 0 -0.0023648138727988834 0.0055093775748911158 0 -0.0015862611891429759 0.0059556686837141277 0 -0.0023648138727988834 0.0055093775748911158 0 -0.0027360430882555423 0.0079591843985834295 0 -0.00075933653553948786 0.0058861097395540123 0 -0.001672133312588421 0.0060547998552685544 0 -0.00075933653553948786 0.0058861097395540123 0 -0.0026725010439990543 0.0041434918129525673 0 -0.001672133312588421 0.0060547998552685544 0 -0.0026725010439990543 0.0041434918129525673 0 -0.0035043789087080709 0.0053128921910070631 0 -0.001672133312588421 0.0060547998552685544 0 -0.0028456492364763533 0.0064611415017335836 0 -0.0035043789087080709 0.0053128921910070631 0 -0.001672133312588421 0.0060547998552685544 0 -0.0019240105469070443 0.0064368137801404631 0 -0.0028456492364763533 0.0064611415017335836 0 -0.0035043789087080709 0.0053128921910070631 0 -0.0050176849711829384 0.0055066915533112052 0 -0.0043140696872742872 0.0069874257366178442 0 -0.0028456492364763533 0.0064611415017335836 0 -0.0035043789087080709 0.0053128921910070631 0 -0.0043140696872742872 0.0069874257366178442 0 -0.0050176849711829384 0.0055066915533112052 0 -0.0055061898101151545 0.0065791273183215555 0 -0.0043140696872742872 0.0069874257366178442 0 -0.0035043789087080709 0.0053128921910070631 0 -0.0045185531001494667 0.0040041589398101957 0 -0.0050176849711829384 0.0055066915533112052 0 -0.0026725010439990543 0.0041434918129525673 0 -0.0035043789087080709 0.0053128921910070631 0 -0.0045185531001494667 0.0040041589398101957 0 -0.0045185531001494667 0.0040041589398101957 0 -0.0062684501659478146 0.0044192338408454877 0 -0.0050176849711829384 0.0055066915533112052 0 -0.0062684501659478146 0.0044192338408454877 0 -0.0073593152363760758 0.0056451668623196663 0 -0.0060391874020741627 0.0055410330906223828 0 -0.0062684501659478146 0.0044192338408454877 0 -0.0050176849711829384 0.0055066915533112052 0 -0.0060391874020741627 0.0055410330906223828 0 -0.0062684501659478146 0.0044192338408454877 0 -0.0073593152363760758 0.0056451668623196663 0 -0.0084728211823173298 0.0037754266776672579 0 -0.0073593152363760758 0.0056451668623196663 0 -0.0084728211823173298 0.0037754266776672579 0 -0.0082625472796840314 0.0066855566332471028 0 -0.0073593152363760758 0.0056451668623196663 0 -0.0065808151089223827 0.0073821765165881237 0 -0.0082625472796840314 0.0066855566332471028 0 -0.0091937086932362463 0.0092671517822209819 0 -0.0091222570321650362 0.011175773093669536 0 -0.0073593152363760758 0.0056451668623196663 0 -0.0055061898101151545 0.0065791273183215555 0 -0.0056485248192092354 0.0078053528667749034 0 -0.0073593152363760758 0.0056451668623196663 0 -0.0060391874020741627 0.0055410330906223828 0 -0.0055061898101151545 0.0065791273183215555 0 -0.0050176849711829384 0.0055066915533112052 0 -0.0060391874020741627 0.0055410330906223828 0 -0.0055061898101151545 0.0065791273183215555 0 -0.0073593152363760758 0.0056451668623196663 0 -0.0065808151089223827 0.0073821765165881237 0 -0.0059118256680427833 0.0076011562592951708 0 -0.0055061898101151545 0.0065791273183215555 0 -0.0056485248192092354 0.0078053528667749034 0 -0.004946155725675235 0.0074674504758085311 0 -0.0065808151089223827 0.0073821765165881237 0 -0.0059118256680427833 0.0076011562592951708 0 -0.0065080377902026502 0.0086466495548840252 0 -0.006202385338325369 0.0017322495049693373 0 -0.0065964748733054737 -0.00068667212514116819 0 -0.0065808151089223827 0.0073821765165881237 0 -0.0081384980830272579 0.0092710621815766132 0 -0.0082625472796840314 0.0066855566332471028 0 -0.007859729476192864 0.005076022358104032 0 -0.006202385338325369 0.0017322495049693373 0 -0.0081513436407966693 0.0093330579539740652 0 -0.0065080377902026502 0.0086466495548840252 0 -0.0064592194758796235 0.0095142978354531924 0 -0.0065808151089223827 0.0073821765165881237 0 -0.0081513436407966693 0.0093330579539740652 0 -0.0065080377902026502 0.0086466495548840252 0 -0.0059118256680427833 0.0076011562592951708 0 -0.0065080377902026502 0.0086466495548840252 0 -0.0056548648843195489 0.0095735789625088965 0 -0.0065080377902026502 0.0086466495548840252 0 -0.0064592194758796235 0.0095142978354531924 0 -0.0056548648843195489 0.0095735789625088965 0 -0.0039757610578641375 0.0099846750243552419 0 -0.0044576011201339309 0.0081029184028350142 0 -0.0033982000071968903 0.0082574629152332747 0 -0.0098373902826571682 0.016802025134915289 0 -0.006986771225045328 0.010991173223222066 0 -0.0059118256680427833 0.0076011562592951708 0 -0.0056548648843195489 0.0095735789625088965 0 -0.0044572374968202128 0.0095095905058696275 0 -0.0037221971103440958 0.0087769536070951091 0 -0.0031330269632044772 0.0082434991893997802 0 -0.0032617271600381462 0.0074777089154852219 0 -0.0091222570321650362 0.011175773093669536 0 -0.0098373902826571682 0.016802025134915289 0 -0.0056485248192092354 0.0078053528667749034 0 -0.0039757610578641375 0.0099846750243552419 0 -0.0044576011201339309 0.0081029184028350142 0 -0.0037221971103440958 0.0087769536070951091 0 -0.0031330269632044772 0.0082434991893997802 0 -0.0034024032792082733 0.0091863576116255827 0 -0.018588310693349493 0.029276772539338521 0 -0.01866267838151817 0.031436140488622179 0 -0.020579468018702037 0.031205755357645412 0 -0.012101133436254441 0.022900934364752882 0 -0.010473646682983416 0.021291432941675941 0 -0.0023849104130212111 0.0081469613776690639 0 -0.0031330269632044772 0.0082434991893997802 0 -0.0034024032792082733 0.0091863576116255827 0 -0.0023849104130212111 0.0081469613776690639 0 -0.0031330269632044772 0.0082434991893997802 0 -0.0032617271600381462 0.0074777089154852219 0 -0.0028456492364763533 0.0064611415017335836 0 -0.0022287076063402106 0.0070160096411517794 0 -0.0032617271600381462 0.0074777089154852219 0 -0.0061546200676449395 0.0093442084835729661 0 -0.006986771225045328 0.010991173223222066 0 -0.0023849104130212111 0.0081469613776690639 0 -0.0022287076063402106 0.0070160096411517794 0 -0.0032617271600381462 0.0074777089154852219 0 -0.0019240105469070443 0.0064368137801404631 0 -0.0028456492364763533 0.0064611415017335836 0 -0.0022287076063402106 0.0070160096411517794 0 -0.0028456492364763533 0.0064611415017335836 0 -0.0043140696872742872 0.0069874257366178442 0 -0.0033982000071968903 0.0082574629152332747 0 -0.004946155725675235 0.0074674504758085311 0 -0.0043140696872742872 0.0069874257366178442 0 -0.0044576011201339309 0.0081029184028350142 0 -0.0055061898101151545 0.0065791273183215555 0 -0.004946155725675235 0.0074674504758085311 0 -0.0043140696872742872 0.0069874257366178442 0 -0.0056485248192092354 0.0078053528667749034 0 -0.004946155725675235 0.0074674504758085311 0 -0.0044576011201339309 0.0081029184028350142 0 -0.0043140696872742872 0.0069874257366178442 0 -0.0044576011201339309 0.0081029184028350142 0 -0.0033982000071968903 0.0082574629152332747 0 0.00084052302316880696 -0.0083233590164945269 0 -0.0016462777230002812 -0.0086079824700301174 0 -0.0009415105045155114 -0.0058964000204807165 0 -0.0016462777230002812 -0.0086079824700301174 0 -0.0009415105045155114 -0.0058964000204807165 0 -0.0031073216723280597 -0.0072510814791717565 0 -0.0009415105045155114 -0.0058964000204807165 0 -0.0029807756956757017 -0.0053371174084310552 0 -0.0031073216723280597 -0.0072510814791717565 0 -0.0016462777230002812 -0.0086079824700301174 0 -0.0031073216723280597 -0.0072510814791717565 0 -0.0033348984538798198 -0.0095651695536801522 0 -0.0031073216723280597 -0.0072510814791717565 0 -0.0054459346193976247 -0.0085999104323227025 0 -0.0033348984538798198 -0.0095651695536801522 0 -0.0031073216723280597 -0.0072510814791717565 0 -0.0054459346193976247 -0.0085999104323227025 0 -0.0054481728571389746 -0.0061736739371183276 0 -0.0054459346193976247 -0.0085999104323227025 0 -0.0054481728571389746 -0.0061736739371183276 0 -0.0065953844084406642 -0.0071287702889927937 0 -0.0034654637580891854 -0.0044307633746556883 0 -0.004221382545759756 -0.0036101486144554788 0 -0.0035946214721502613 -0.0039848091451307674 0 -0.0029807756956757017 -0.0053371174084310552 0 -0.0040040561100315591 -0.0057711701836715328 0 -0.0029807756956757017 -0.0053371174084310552 0 -0.0031073216723280597 -0.0072510814791717565 0 -0.0040040561100315591 -0.0057711701836715328 0 -0.0054481728571389746 -0.0061736739371183276 0 -0.0077157381562320505 -0.0050318193941461167 0 -0.0065953844084406642 -0.0071287702889927937 0 -0.0077157381562320505 -0.0050318193941461167 0 -0.0065953844084406642 -0.0071287702889927937 0 -0.0077667965998651509 -0.0086935762881905493 0 -0.004221382545759756 -0.0036101486144554788 0 -0.0058673298218765513 -0.0014065631734111645 0 -0.0058673298218765513 -0.0014065631734111645 0 -0.0065964748733054737 -0.00068667212514116819 0 -0.0054459346193976247 -0.0085999104323227025 0 -0.0065953844084406642 -0.0071287702889927937 0 -0.0077667965998651509 -0.0086935762881905493 0 -0.0054459346193976247 -0.0085999104323227025 0 -0.0077667965998651509 -0.0086935762881905493 0 -0.0062067691114832922 -0.010462869014832029 0 -0.0076913395954979038 -0.012067507692950317 0 -0.0077667965998651509 -0.0086935762881905493 0 -0.0062067691114832922 -0.010462869014832029 0 -0.0076913395954979038 -0.012067507692950317 0 -0.0062067691114832922 -0.010462869014832029 0 -0.0051073751599945288 -0.012259460621036489 0 -0.0051073751599945288 -0.012259460621036489 0 -0.0046212719628952806 -0.010659090349909549 0 -0.0032328831900767011 -0.011657710706951383 0 -0.0062067691114832922 -0.010462869014832029 0 -0.0051073751599945288 -0.012259460621036489 0 -0.0046212719628952806 -0.010659090349909549 0 -0.0054459346193976247 -0.0085999104323227025 0 -0.0062067691114832922 -0.010462869014832029 0 -0.0046212719628952806 -0.010659090349909549 0 -0.0054459346193976247 -0.0085999104323227025 0 -0.0046212719628952806 -0.010659090349909549 0 -0.0033348984538798198 -0.0095651695536801522 0 -0.0046212719628952806 -0.010659090349909549 0 -0.0033348984538798198 -0.0095651695536801522 0 -0.0032328831900767011 -0.011657710706951383 0 -0.0033348984538798198 -0.0095651695536801522 0 -0.0032328831900767011 -0.011657710706951383 0 -0.0022635485798199297 -0.010424191786861979 0 -0.0016462777230002812 -0.0086079824700301174 0 -0.0033348984538798198 -0.0095651695536801522 0 -0.0022635485798199297 -0.010424191786861979 0 -0.0051073751599945288 -0.012259460621036489 0 -0.0032328831900767011 -0.011657710706951383 0 -0.0037412353534624831 -0.013595106192960178 0 -0.0032328831900767011 -0.011657710706951383 0 -0.0018897606871984959 -0.011607537016826115 0 -0.0022635485798199297 -0.010424191786861979 0 -0.0032328831900767011 -0.011657710706951383 0 -0.0018897606871984959 -0.011607537016826115 0 -0.002354935857359285 -0.012998134632792549 0 -0.0018897606871984959 -0.011607537016826115 0 -0.00094770435710246094 -0.010390468867860178 0 -0.0022635485798199297 -0.010424191786861979 0 0.00084052302316880696 -0.0083233590164945269 0 -0.0016462777230002812 -0.0086079824700301174 0 -0.00094770435710246094 -0.010390468867860178 0 -0.00058520614833847454 -0.011383301412087196 0 -0.0018897606871984959 -0.011607537016826115 0 -0.00094770435710246094 -0.010390468867860178 0 -0.0016462777230002812 -0.0086079824700301174 0 -0.00094770435710246094 -0.010390468867860178 0 -0.0022635485798199297 -0.010424191786861979 0 -0.00092097647047807458 -0.013806811643157188 0 -0.0023704015299288892 -0.01437159606029887 0 -0.0018260730420104866 -0.015820145475085205 0 -0.00040671090809991537 -0.015820635492562476 0 -0.0011717910795513479 -0.014063842335894385 0 -0.00092097647047807458 -0.013806811643157188 0 -0.0018897606871984959 -0.011607537016826115 0 -0.002354935857359285 -0.012998134632792549 0 -0.00092097647047807458 -0.013806811643157188 0 -0.0023704015299288892 -0.01437159606029887 0 -0.002354935857359285 -0.012998134632792549 0 -0.0023704015299288892 -0.01437159606029887 0 -0.002354935857359285 -0.012998134632792549 0 -0.0037412353534624831 -0.013595106192960178 0 -0.0032328831900767011 -0.011657710706951383 0 -0.002354935857359285 -0.012998134632792549 0 -0.0037412353534624831 -0.013595106192960178 0 -0.0023704015299288892 -0.01437159606029887 0 -0.0041198441346619935 -0.015853981418432257 0 -0.0018260730420104866 -0.015820145475085205 0 -0.0023704015299288892 -0.01437159606029887 0 -0.0037412353534624831 -0.013595106192960178 0 -0.0041198441346619935 -0.015853981418432257 0 -0.0037528063351069132 0.0035170550551106355 0 -0.0035596092632427826 0.0017365550523062289 0 -0.0022549052284744015 0.0017363461779936827 0 -0.0037412353534624831 -0.013595106192960178 0 -0.0057907098284754486 -0.014096908597653314 0 -0.0041198441346619935 -0.015853981418432257 0 -0.004079810217181918 -0.0036246802941899622 0 -0.0028398207780576221 -0.0064673704147825859 0 -0.0051073751599945288 -0.012259460621036489 0 -0.0037412353534624831 -0.013595106192960178 0 -0.0057907098284754486 -0.014096908597653314 0 -0.006202385338325369 0.0017322495049693373 0 -0.004079810217181918 -0.0036246802941899622 0 -0.0076913395954979038 -0.012067507692950317 0 -0.0051073751599945288 -0.012259460621036489 0 -0.0057907098284754486 -0.014096908597653314 0 -0.0052008827095685866 0.0052621325861069391 0 -0.0037528063351069132 0.0035170550551106355 0 -0.0052658480239500339 0.0031746052068104655 0 -0.0037528063351069132 0.0035170550551106355 0 -0.0045405728061613431 0.002077252735042398 0 -0.0052658480239500339 0.0031746052068104655 0 -0.0037528063351069132 0.0035170550551106355 0 -0.0045405728061613431 0.002077252735042398 0 -0.0035596092632427826 0.0017365550523062289 0 -0.0045405728061613431 0.002077252735042398 0 -0.0052658480239500339 0.0031746052068104655 0 -0.0053493518764024788 0.00095081076804350712 0 -0.0045405728061613431 0.002077252735042398 0 -0.0043611667852746557 0.00086363262567633109 0 -0.0035596092632427826 0.0017365550523062289 0 -0.0045405728061613431 0.002077252735042398 0 -0.0043611667852746557 0.00086363262567633109 0 -0.0053493518764024788 0.00095081076804350712 0 -0.0061215093532230001 0.011570414540300403 0 -0.0065380860393734362 0.012117755467109165 0 -0.0043611667852746557 0.00086363262567633109 0 -0.0037854749047941277 -0.00060989928053281313 0 -0.0053778126087159362 0.00095686544488106829 0 -0.0025958761855769635 0.0042177468218319485 0 -0.0065380860393734362 0.012117755467109165 0 -0.0043611667852746557 0.00086363262567633109 0 -0.0037854749047941277 -0.00060989928053281313 0 -0.0030251429300437028 0.00053161292849861913 0 -0.0039303641197464441 -0.00036611206156012043 0 -0.0057872929621302768 0.0014619659467856698 0 -0.0058684241511888641 -0.0016715070724556244 0 -0.0037854749047941277 -0.00060989928053281313 0 -0.0030251429300437028 0.00053161292849861913 0 -0.0021848932260181693 -0.00074365352284769791 0 -0.0030251429300437028 0.00053161292849861913 0 -0.0035596092632427826 0.0017365550523062289 0 -0.0022549052284744015 0.0017363461779936827 0 -0.0043611667852746557 0.00086363262567633109 0 -0.0030251429300437028 0.00053161292849861913 0 -0.0035596092632427826 0.0017365550523062289 0 -0.0028398207780576221 -0.0064673704147825859 0 -0.00171319742621712 -0.0085843978674360819 0 -0.0041198441346619935 -0.015853981418432257 0 -0.002640682220516331 -0.017513673456163698 0 -0.0018260730420104866 -0.015820145475085205 0 -0.0030251429300437028 0.00053161292849861913 0 -0.0022549052284744015 0.0017363461779936827 0 -0.00073404166572364781 -0.00010189803552197656 0 -0.0030251429300437028 0.00053161292849861913 0 -0.0021848932260181693 -0.00074365352284769791 0 -0.00073404166572364781 -0.00010189803552197656 0 -0.0021848932260181693 -0.00074365352284769791 0 -0.00073404166572364781 -0.00010189803552197656 0 -0.0011606857095978794 -0.001413045361820815 0 -0.00075934536602210697 -0.017602151180126074 0 -0.002640682220516331 -0.017513673456163698 0 -0.0018260730420104866 -0.015820145475085205 0 -0.00075934536602210697 -0.017602151180126074 0 -0.0012362022696763848 -0.019168437949592849 0 -0.002640682220516331 -0.017513673456163698 0 -0.0098843585057969193 0.019499836458442197 0 -0.010852721984870717 0.022294096139743074 0 -0.012137148152626728 0.023828423469871081 0 -0.011957148141921706 0.025302370060318446 0 -0.011124030616427749 0.022676503805976637 0 -0.012635108033147834 0.024338076291200821 0 -0.012137148152626728 0.023828423469871081 0 -0.011957148141921706 0.025302370060318446 0 -0.012635108033147834 0.024338076291200821 0 -0.012137148152626728 0.023828423469871081 0 -0.012827337964337108 0.023003531816210621 0 -0.014851666960995016 0.023400489085608097 0 -0.013797950643516136 0.024725682240366278 0 -0.012827337964337108 0.023003531816210621 0 -0.012635108033147834 0.024338076291200821 0 -0.013797950643516136 0.024725682240366278 0 -0.012827337964337108 0.023003531816210621 0 -0.018119958707983972 0.036936408469228223 0 -0.014757513118490018 0.028830957425352605 0 -0.014757513118490018 0.028830957425352605 0 -0.010473646682983416 0.021291432941675941 0 -0.012635108033147834 0.024338076291200821 0 -0.013797950643516136 0.024725682240366278 0 -0.012745617455640715 0.026061881414757328 0 -0.018920917637938326 0.033372852016251994 0 -0.01866267838151817 0.031436140488622179 0 -0.020579468018702037 0.031205755357645412 0 -0.016558037309011543 0.03189402490626967 0 -0.018920917637938326 0.033372852016251994 0 -0.01866267838151817 0.031436140488622179 0 -0.0098373902826571682 0.016802025134915289 0 -0.010473646682983416 0.021291432941675941 0 -0.0098373902826571682 0.016802025134915289 0 -0.0098843585057969193 0.019499836458442197 0 -0.010473646682983416 0.021291432941675941 0 -0.0098843585057969193 0.019499836458442197 0 -0.012635108033147834 0.024338076291200821 0 -0.012745617455640715 0.026061881414757328 0 -0.011957148141921706 0.025302370060318446 0 -0.0094343342450858292 0.022663185884367838 0 -0.010430267408127152 0.021385893432066684 0 -0.008350023298972175 0.019381887193455571 0 -0.0056548648843195489 0.0095735789625088965 0 -0.0044572374968202128 0.0095095905058696275 0 -0.0048489823618347175 0.010697470721419586 0 -0.0056548648843195489 0.0095735789625088965 0 -0.0048489823618347175 0.010697470721419586 0 -0.0063719521747931055 0.010788797856215289 0 -0.0064592194758796235 0.0095142978354531924 0 -0.0056548648843195489 0.0095735789625088965 0 -0.0063719521747931055 0.010788797856215289 0 -0.006202385338325369 0.0017322495049693373 0 -0.0064211179390832127 0.0070488216175977423 0 -0.0081513436407966693 0.0093330579539740652 0 -0.0063719521747931055 0.010788797856215289 0 -0.0080669514931027697 0.011483381211608299 0 -0.0081513436407966693 0.0093330579539740652 0 -0.0064592194758796235 0.0095142978354531924 0 -0.0063719521747931055 0.010788797856215289 0 -0.0063719521747931055 0.010788797856215289 0 -0.0080669514931027697 0.011483381211608299 0 -0.0063488541621978013 0.012147420185586854 0 -0.0080669514931027697 0.011483381211608299 0 -0.0063488541621978013 0.012147420185586854 0 -0.0078422718704474897 0.013598914827710676 0 -0.0048489823618347175 0.010697470721419586 0 -0.0063719521747931055 0.010788797856215289 0 -0.0063488541621978013 0.012147420185586854 0 -0.0098843585057969193 0.019499836458442197 0 -0.0087770460635873231 0.017163407268434072 0 -0.011682794758917149 0.024516655987864303 0 -0.01055726576303114 0.023446905725702068 0 -0.011124030616427749 0.022676503805976637 0 -0.01055726576303114 0.023446905725702068 0 -0.010870604107737908 0.022568744010354164 0 -0.0093620440150606731 0.022304172149543781 0 -0.01055726576303114 0.023446905725702068 0 -0.011124030616427749 0.022676503805976637 0 -0.010870604107737908 0.022568744010354164 0 -0.0077966705966458928 0.019063206272824214 0 -0.0078035487227128622 0.019065720577602755 0 -0.0078180791144751328 0.019051909082811524 0 -0.0087770460635873231 0.017163407268434072 0 -0.007548638521604735 0.014273088299876256 0 -0.0080669514931027697 0.011483381211608299 0 -0.0079784768513124493 0.013731702534177451 0 -0.0078422718704474897 0.013598914827710676 0 -0.0064211179390832127 0.0070488216175977423 0 -0.0065380860393734362 0.012117755467109165 0 -0.013497384016821136 0.025879082484044309 0 -0.007548638521604735 0.014273088299876256 0 -0.0078035487227128622 0.019065720577602755 0 -0.0078199386750910042 0.019053718184682149 0 -0.0078180791144751328 0.019051909082811524 0 -0.0065380860393734362 0.012117755467109165 0 -0.007548638521604735 0.014273088299876256 0 -0.0065380860393734362 0.012117755467109165 0 -0.0062524902087409163 0.0090767337970706491 0 -0.0078035487227128622 0.019065720577602755 0 -0.0078199386750910042 0.019053718184682149 0 -0.0077974774702823518 0.0190848147417229 0 -0.0078199386750910042 0.019053718184682149 0 -0.0077974774702823518 0.0190848147417229 0 -0.0077991292110816159 0.019094343845292776 0 -0.0077966705966458928 0.019063206272824214 0 -0.0078035487227128622 0.019065720577602755 0 -0.0077830788661544708 0.019101494297290161 0 -0.013497384016821136 0.025879082484044309 0 -0.012361630820232575 0.029526889838346632 0 -0.0078035487227128622 0.019065720577602755 0 -0.0077974774702823518 0.0190848147417229 0 -0.0077830788661544708 0.019101494297290161 0 -0.017001835650164901 0.039196304085392195 0 -0.015590408112059445 0.040325470365508161 0 -0.016952131616090889 0.041236125871868923 0 -0.017001835650164901 0.039196304085392195 0 -0.015590408112059445 0.040325470365508161 0 -0.015347794186923485 0.03888790437264885 0 -0.013497384016821136 0.025879082484044309 0 -0.01499345180896971 0.03119680681535808 0 -0.012137148152626728 0.023828423469871081 0 -0.011124030616427749 0.022676503805976637 0 -0.012827337964337108 0.023003531816210621 0 -0.011124030616427749 0.022676503805976637 0 -0.010870604107737908 0.022568744010354164 0 -0.012827337964337108 0.023003531816210621 0 -0.013702969559385348 0.038611162664788569 0 -0.015347794186923485 0.03888790437264885 0 -0.014284460784546777 0.03944399407555093 0 -0.018119958707983972 0.036936408469228223 0 -0.01499345180896971 0.03119680681535808 0 -0.015590408112059445 0.040325470365508161 0 -0.015347794186923485 0.03888790437264885 0 -0.014284460784546777 0.03944399407555093 0 -0.015590408112059445 0.040325470365508161 0 -0.014284460784546777 0.03944399407555093 0 -0.014139672608453648 0.041321307841576574 0 -0.014139672608453648 0.041321307841576574 0 -0.014961053615993883 0.042875583337513894 0 -0.015784812727099466 0.042000184399010383 0 -0.018705718285510264 0.050409507920393892 0 -0.018088037549918064 0.051751614818446846 0 -0.015590408112059445 0.040325470365508161 0 -0.014139672608453648 0.041321307841576574 0 -0.015784812727099466 0.042000184399010383 0 -0.020465854572128257 0.057331068894729866 0 -0.021737783764905809 0.05963631818793786 0 -0.020033913779814044 0.059821809462467831 0 -0.021737783764905809 0.05963631818793786 0 -0.021108045721142873 0.061305840439130843 0 -0.020033913779814044 0.059821809462467831 0 -0.016063428018960667 0.043240741524467524 0 -0.015784812727099466 0.042000184399010383 0 -0.01692555949347458 0.043305323884558211 0 -0.014961053615993883 0.042875583337513894 0 -0.016063428018960667 0.043240741524467524 0 -0.015819259039024983 0.044492595106287336 0 -0.014961053615993883 0.042875583337513894 0 -0.016063428018960667 0.043240741524467524 0 -0.015784812727099466 0.042000184399010383 0 -0.015590408112059445 0.040325470365508161 0 -0.015784812727099466 0.042000184399010383 0 -0.016952131616090889 0.041236125871868923 0 -0.0077830788661544708 0.019101494297290161 0 -0.0077832283555024926 0.019106287597308938 0 -0.007765910049063433 0.019130243288452472 0 -0.012361630820232575 0.029526889838346632 0 -0.011274923940746513 0.031074935493729913 0 -0.015784812727099466 0.042000184399010383 0 -0.016952131616090889 0.041236125871868923 0 -0.01692555949347458 0.043305323884558211 0 -0.0077974774702823518 0.0190848147417229 0 -0.0077830788661544708 0.019101494297290161 0 -0.0077832283555024926 0.019106287597308938 0 -0.0077974774702823518 0.0190848147417229 0 -0.0077832283555024926 0.019106287597308938 0 -0.0077991292110816159 0.019094343845292776 0 -0.0062524902087409163 0.0090767337970706491 0 -0.0054886010558991222 0.0077735732259871021 0 -0.0077991292110816159 0.019094343845292776 0 -0.00777211533959094 0.019116633522290174 0 -0.0077606690607398823 0.019115123208850417 0 -0.0058684241511888641 -0.0016715070724556244 0 -0.0058752419091436343 -0.0046929387994252445 0 -0.0053997265905313362 -0.0042776516124691435 0 -0.0077832283555024926 0.019106287597308938 0 -0.0077991292110816159 0.019094343845292776 0 -0.00777211533959094 0.019116633522290174 0 -0.0077832283555024926 0.019106287597308938 0 -0.00777211533959094 0.019116633522290174 0 -0.007765910049063433 0.019130243288452472 0 -0.016063428018960667 0.043240741524467524 0 -0.01692555949347458 0.043305323884558211 0 -0.01683043271818728 0.043671712659179379 0 -0.01692555949347458 0.043305323884558211 0 -0.01683043271818728 0.043671712659179379 0 -0.016809499684194037 0.046528129445339961 0 -0.011274923940746513 0.031074935493729913 0 -0.0095955859107187784 0.031925112211834777 0 -0.01683043271818728 0.043671712659179379 0 -0.016442760417835933 0.045286356607909951 0 -0.016809499684194037 0.046528129445339961 0 -0.007765910049063433 0.019130243288452472 0 -0.0077580404005444265 0.01912560090191847 0 -0.007747228196567266 0.019138073160623024 0 -0.00777211533959094 0.019116633522290174 0 -0.007765910049063433 0.019130243288452472 0 -0.0077580404005444265 0.01912560090191847 0 -0.00777211533959094 0.019116633522290174 0 -0.0077580404005444265 0.01912560090191847 0 -0.0077606690607398823 0.019115123208850417 0 -0.0077580404005444265 0.01912560090191847 0 -0.0077606690607398823 0.019115123208850417 0 -0.0077450180462831034 0.019122614862602683 0 -0.0058752419091436343 -0.0046929387994252445 0 -0.0049435695754428332 -0.0054167862460525133 0 -0.0058807604912681569 -0.0070700390397943408 0 -0.0054886010558991222 0.0077735732259871021 0 -0.003659238576675548 0.0090218908003684029 0 -0.0077606690607398823 0.019115123208850417 0 -0.0077450180462831034 0.019122614862602683 0 -0.0077287695901290679 0.019107903974866856 0 -0.0077450180462831034 0.019122614862602683 0 -0.0077301784077747184 0.019120175474815381 0 -0.0077287695901290679 0.019107903974866856 0 -0.016442760417835933 0.045286356607909951 0 -0.016809499684194037 0.046528129445339961 0 -0.016301863628460939 0.045888718499642336 0 -0.016809499684194037 0.046528129445339961 0 -0.016076115816864019 0.046513557136034452 0 -0.016301863628460939 0.045888718499642336 0 -0.0077580404005444265 0.01912560090191847 0 -0.0077450180462831034 0.019122614862602683 0 -0.007747228196567266 0.019138073160623024 0 -0.0077450180462831034 0.019122614862602683 0 -0.0077392152134188041 0.019127447888694842 0 -0.0077301784077747184 0.019120175474815381 0 -0.0077450180462831034 0.019122614862602683 0 -0.007747228196567266 0.019138073160623024 0 -0.0077392152134188041 0.019127447888694842 0 -0.015906186238150176 0.047325372023116895 0 -0.014819904813975007 0.047481911103377683 0 -0.01598342981977003 0.048500128611976875 0 -0.016076115816864019 0.046513557136034452 0 -0.014819904813975007 0.047481911103377683 0 -0.01510041886748981 0.04478670990253026 0 -0.014819904813975007 0.047481911103377683 0 -0.012705569278684336 0.046770201551760572 0 -0.01510041886748981 0.04478670990253026 0 -0.015906186238150176 0.047325372023116895 0 -0.016076115816864019 0.046513557136034452 0 -0.014819904813975007 0.047481911103377683 0 -0.016809499684194037 0.046528129445339961 0 -0.015906186238150176 0.047325372023116895 0 -0.01598342981977003 0.048500128611976875 0 -0.016809499684194037 0.046528129445339961 0 -0.015906186238150176 0.047325372023116895 0 -0.016076115816864019 0.046513557136034452 0 -0.016076115816864019 0.046513557136034452 0 -0.016301863628460939 0.045888718499642336 0 -0.015255087205001783 0.044992712188405268 0 -0.016787600125573659 0.051953056248136315 0 -0.017594709856898864 0.053710245290211928 0 -0.014819904813975007 0.047481911103377683 0 -0.012705569278684336 0.046770201551760572 0 -0.014003438459925613 0.048547446396309736 0 -0.018420614017521916 0.060020732008175634 0 -0.017594709856898864 0.053710245290211928 0 -0.021053199184126462 0.06362435561009179 0 -0.021108045721142873 0.061305840439130843 0 -0.023024286355005908 0.061931261877404685 0 -0.021737783764905809 0.05963631818793786 0 -0.021108045721142873 0.061305840439130843 0 -0.023024286355005908 0.061931261877404685 0 -0.021053199184126462 0.06362435561009179 0 -0.021108045721142873 0.061305840439130843 0 -0.019690051837994115 0.061519985112908682 0 -0.018088037549918064 0.051751614818446846 0 -0.017594709856898864 0.053710245290211928 0 -0.01683043271818728 0.043671712659179379 0 -0.016442760417835933 0.045286356607909951 0 -0.015255087205001783 0.044992712188405268 0 -0.016063428018960667 0.043240741524467524 0 -0.01683043271818728 0.043671712659179379 0 -0.015819259039024983 0.044492595106287336 0 -0.01841116725920736 0.051979379023865388 0 -0.017594709856898864 0.053710245290211928 0 -0.016442760417835933 0.045286356607909951 0 -0.016301863628460939 0.045888718499642336 0 -0.015255087205001783 0.044992712188405268 0 -0.00087052680823319179 -0.010236965151246603 0 -0.0011016805572175512 -0.0069660173033065029 0 -0.00016850309262409399 -0.0033114311218340464 0 -0.0018447764635028212 -0.0044022612248757198 0 -0.00098648641169846998 -0.004505039576186652 0 -0.00016948674576887097 -0.011737272845860224 0 -0.00031490262229335242 -0.0077852212880568719 0 -0.00010353289790877015 -0.0030763529637012023 0 -0.0019799023049838632 -0.0032504057674344368 0 -0.0017940720640417425 -0.0041980476966164944 0 -0.00010353289790877015 -0.0030763529637012023 0 -0.00039831828663485918 -0.0027134255055184472 0 -0.0019799023049838632 -0.0032504057674344368 0 -0.00087052680823319179 -0.010236965151246603 0 -0.00171319742621712 -0.0085843978674360819 0 0.00077528507387591332 -0.0019643986578202306 0 -0.00073404166572364781 -0.00010189803552197656 0 -0.0011606857095978794 -0.001413045361820815 0 0.00077528507387591332 -0.0019643986578202306 0 -0.0011606857095978794 -0.001413045361820815 0 -0.0011718065645697899 -0.0026611298000332358 0 -0.0011606857095978794 -0.001413045361820815 0 -0.0021874373584284137 -0.0021672392366553217 0 -0.0011718065645697899 -0.0026611298000332358 0 -0.0021848932260181693 -0.00074365352284769791 0 -0.0011606857095978794 -0.001413045361820815 0 -0.0021874373584284137 -0.0021672392366553217 0 -0.0019799023049838632 -0.0032504057674344368 0 -0.0036475244987546197 -0.0037855429243768396 0 -0.0017940720640417425 -0.0041980476966164944 0 -0.0021874373584284137 -0.0021672392366553217 0 -0.0011718065645697899 -0.0026611298000332358 0 -0.003227655133674413 -0.0034474651388362635 0 -0.0011016805572175512 -0.0069660173033065029 0 -0.0025515353428777992 -0.0059116056912359152 0 -0.003227655133674413 -0.0034474651388362635 0 -0.0037228967543794698 -0.0019355309830834792 0 -0.0046058536680130156 -0.0028164248295510712 0 -0.0021874373584284137 -0.0021672392366553217 0 -0.003227655133674413 -0.0034474651388362635 0 -0.0037228967543794698 -0.0019355309830834792 0 -0.0039303641197464441 -0.00036611206156012043 0 -0.0021874373584284137 -0.0021672392366553217 0 -0.0037228967543794698 -0.0019355309830834792 0 -0.0037854749047941277 -0.00060989928053281313 0 -0.0021848932260181693 -0.00074365352284769791 0 -0.0021874373584284137 -0.0021672392366553217 0 -0.0025958761855769635 0.0042177468218319485 0 -0.0015886192316287009 0.0020674256932864958 0 -0.0039303641197464441 -0.00036611206156012043 0 -0.0058684241511888641 -0.0016715070724556244 0 -0.0037228967543794698 -0.0019355309830834792 0 -0.0058684241511888641 -0.0016715070724556244 0 -0.0037228967543794698 -0.0019355309830834792 0 -0.0046058536680130156 -0.0028164248295510712 0 -0.0058684241511888641 -0.0016715070724556244 0 -0.0046058536680130156 -0.0028164248295510712 0 -0.0053997265905313362 -0.0042776516124691435 0 -0.003227655133674413 -0.0034474651388362635 0 -0.0046058536680130156 -0.0028164248295510712 0 -0.0053997265905313362 -0.0042776516124691435 0 -0.0036475244987546197 -0.0037855429243768396 0 -0.0053997265905313362 -0.0042776516124691435 0 -0.0043878635670332828 -0.0047212741427970261 0 -0.0043878635670332828 -0.0047212741427970261 0 -0.0049435695754428332 -0.0054167862460525133 0 -0.0035858433847871041 -0.0054159145577995756 0 -0.0025515353428777992 -0.0059116056912359152 0 -0.003423955676756405 -0.0057627130715743923 0 -0.0058752419091436343 -0.0046929387994252445 0 -0.0053997265905313362 -0.0042776516124691435 0 -0.0049435695754428332 -0.0054167862460525133 0 -0.0053997265905313362 -0.0042776516124691435 0 -0.0043878635670332828 -0.0047212741427970261 0 -0.0049435695754428332 -0.0054167862460525133 0 -0.0049435695754428332 -0.0054167862460525133 0 -0.0044356256331942361 -0.0063731831873580077 0 -0.0035858433847871041 -0.0054159145577995756 0 -0.0049435695754428332 -0.0054167862460525133 0 -0.0044356256331942361 -0.0063731831873580077 0 -0.0058807604912681569 -0.0070700390397943408 0 -0.0035858433847871041 -0.0054159145577995756 0 -0.0029590976962196704 -0.0061109146367214363 0 -0.002245803488927515 -0.0057696125495141108 0 -0.0044356256331942361 -0.0063731831873580077 0 -0.0035858433847871041 -0.0054159145577995756 0 -0.0034136764082264674 -0.0065750572001991052 0 -0.0035858433847871041 -0.0054159145577995756 0 -0.0034136764082264674 -0.0065750572001991052 0 -0.0029590976962196704 -0.0061109146367214363 0 -0.0034136764082264674 -0.0065750572001991052 0 -0.0029590976962196704 -0.0061109146367214363 0 -0.0028072554545002636 -0.006533418877059557 0 -0.0036475244987546197 -0.0037855429243768396 0 -0.0035858433847871041 -0.0054159145577995756 0 -0.0017940720640417425 -0.0041980476966164944 0 -0.0036475244987546197 -0.0037855429243768396 0 -0.0043878635670332828 -0.0047212741427970261 0 -0.0035858433847871041 -0.0054159145577995756 0 -0.0012311717735630978 -0.0072845496204688815 0 -0.00031490262229335242 -0.0077852212880568719 0 -0.0035858433847871041 -0.0054159145577995756 0 -0.0020105234837971887 -0.0050970193567794397 0 -0.002245803488927515 -0.0057696125495141108 0 -0.0035858433847871041 -0.0054159145577995756 0 -0.0018447764635028212 -0.0044022612248757198 0 -0.0020105234837971887 -0.0050970193567794397 0 -0.0020105234837971887 -0.0050970193567794397 0 -0.002245803488927515 -0.0057696125495141108 0 -0.0012812390751955843 -0.0053396706682840257 0 -0.0029590976962196704 -0.0061109146367214363 0 -0.0021421504103861541 -0.0064157086768391446 0 -0.002245803488927515 -0.0057696125495141108 0 -0.0029590976962196704 -0.0061109146367214363 0 -0.0028072554545002636 -0.006533418877059557 0 -0.0021421504103861541 -0.0064157086768391446 0 -0.0021421504103861541 -0.0064157086768391446 0 -0.002245803488927515 -0.0057696125495141108 0 -0.0014047910079305404 -0.0060068708671359664 0 -0.002245803488927515 -0.0057696125495141108 0 -0.0014047910079305404 -0.0060068708671359664 0 -0.0012812390751955843 -0.0053396706682840257 0 -0.0014047910079305404 -0.0060068708671359664 0 -0.00068926587610859853 -0.0057465573754186755 0 -0.0012812390751955843 -0.0053396706682840257 0 -0.0021421504103861541 -0.0064157086768391446 0 -0.0014047910079305404 -0.0060068708671359664 0 -0.00067347016954424173 -0.0067632127373085851 0 -0.0014047910079305404 -0.0060068708671359664 0 -0.00068926587610859853 -0.0057465573754186755 0 -0.00067347016954424173 -0.0067632127373085851 0 -0.00041895501245730482 -0.0048355213683679869 0 -0.00068926587610859853 -0.0057465573754186755 0 -0.0012812390751955843 -0.0053396706682840257 0 -0.0020105234837971887 -0.0050970193567794397 0 -0.0012812390751955843 -0.0053396706682840257 0 -0.00098648641169846998 -0.004505039576186652 0 -0.0018447764635028212 -0.0044022612248757198 0 -0.0020105234837971887 -0.0050970193567794397 0 -0.00098648641169846998 -0.004505039576186652 0 -0.00041895501245730482 -0.0048355213683679869 0 -0.0012812390751955843 -0.0053396706682840257 0 -0.00098648641169846998 -0.004505039576186652 0 -0.00041895501245730482 -0.0048355213683679869 0 -0.00029388692286585837 -0.0042225710726681411 0 -0.00098648641169846998 -0.004505039576186652 0 0.0044795799636777548 -0.013674090938421622 0 0.0054086533070523612 -0.014016920439776311 0 0.0053189517800534755 -0.013149872190877022 0 0.0054086533070523612 -0.014016920439776311 0 0.0053189517800534755 -0.013149872190877022 0 0.0067090497389540853 -0.013011650537006749 0 0.0034123275973441045 -0.013583025609144282 0 0.0034882646584549941 -0.013308516673373462 0 0.0029829318504429256 -0.013335508654340404 0 0.0034123275973441045 -0.013583025609144282 0 0.0029829318504429256 -0.013335508654340404 0 0.0029243750405343453 -0.013439034384802349 0 0.0010330354056552824 -0.0090534572204234946 0 -0.00048397590671650764 -0.0016226039418271846 0 0.0046450548337380586 -0.0080124399414009222 0 0.0007412938324167349 -0.0013264253472898683 0 -0.0021421504103861541 -0.0064157086768391446 0 -0.00067347016954424173 -0.0067632127373085851 0 -0.0028737966814364985 -0.0071161473291143033 0 -0.0028072554545002636 -0.006533418877059557 0 -0.0021421504103861541 -0.0064157086768391446 0 -0.0028737966814364985 -0.0071161473291143033 0 0.0054086533070523612 -0.014016920439776311 0 0.0075996683242811414 -0.014514581529840205 0 0.0067090497389540853 -0.013011650537006749 0 0.0007412938324167349 -0.0013264253472898683 0 0.0017503237840869523 -0.0013601003485642549 0 0.0075996683242811414 -0.014514581529840205 0 0.0084536670739988693 -0.012961207037229732 0 0.0067090497389540853 -0.013011650537006749 0 -0.00075384716477681305 0.0040511501928967306 0 0.00041526486276106023 0.0038152958183574762 0 8.251341786843617e-05 0.0056494468624939164 0 -0.00048397590671650764 -0.0016226039418271846 0 -0.0018486071114998759 0.004282283998862965 0 -0.0034136764082264674 -0.0065750572001991052 0 -0.0028737966814364985 -0.0071161473291143033 0 -0.0043652396978965278 -0.0073825822832662633 0 -0.00019560430975406874 0.0021771407853096634 0 -0.00027493261047323536 0.0020286529243817818 0 -0.00063746940318237571 0.0021133710268007341 0 -0.00048397590671650764 -0.0016226039418271846 0 0.0007412938324167349 -0.0013264253472898683 0 -0.0034136764082264674 -0.0065750572001991052 0 -0.0028072554545002636 -0.006533418877059557 0 -0.0028737966814364985 -0.0071161473291143033 0 -0.0044356256331942361 -0.0063731831873580077 0 -0.0034136764082264674 -0.0065750572001991052 0 -0.0043652396978965278 -0.0073825822832662633 0 0.0007412938324167349 -0.0013264253472898683 0 -0.0018486071114998759 0.004282283998862965 0 -0.0012679867828957647 0.0072601688844057292 0 -0.0062460936243600709 0.0083135294757802694 0 -0.0063126783683358535 0.0064012306746033497 0 0.00041526486276106023 0.0038152958183574762 0 0.0010706042187126133 0.004959404749302539 0 0.0018454284992321735 0.0040770539779821837 0 -0.0018486071114998759 0.004282283998862965 0 -0.0033300110197416709 0.012928270777758372 0 -0.0018486071114998759 0.004282283998862965 0 -0.003659238576675548 0.0090218908003684029 0 -0.0044356256331942361 -0.0063731831873580077 0 -0.0043652396978965278 -0.0073825822832662633 0 -0.0058807604912681569 -0.0070700390397943408 0 0.00041526486276106023 0.0038152958183574762 0 0.0010706042187126133 0.004959404749302539 0 8.251341786843617e-05 0.0056494468624939164 0 0.00092521115543656878 0.0072498309495509202 0 8.251341786843617e-05 0.0056494468624939164 0 0.001938314887462081 0.0062974019720363596 0 0.0010706042187126133 0.004959404749302539 0 8.251341786843617e-05 0.0056494468624939164 0 0.001938314887462081 0.0062974019720363596 0 0.0023600417138624186 0.0011551502576107344 0 0.0017503237840869523 -0.0013601003485642549 0 0.0076667143169332529 -0.01073521581873828 0 0.0093254524517565104 -0.011393441067532725 0 0.0079003866133100214 -0.011936888661799332 0 0.0076667143169332529 -0.01073521581873828 0 0.0079003866133100214 -0.011936888661799332 0 0.006813412137101558 -0.011794038606953258 0 0.0084536670739988693 -0.012961207037229732 0 0.0079003866133100214 -0.011936888661799332 0 0.0067090497389540853 -0.013011650537006749 0 0.0093254524517565104 -0.011393441067532725 0 0.0084536670739988693 -0.012961207037229732 0 0.0079003866133100214 -0.011936888661799332 0 0.0067090497389540853 -0.013011650537006749 0 0.006813412137101558 -0.011794038606953258 0 0.0055919220385054133 -0.012296488160641531 0 0.0079003866133100214 -0.011936888661799332 0 0.0067090497389540853 -0.013011650537006749 0 0.006813412137101558 -0.011794038606953258 0 0.0076667143169332529 -0.01073521581873828 0 0.006813412137101558 -0.011794038606953258 0 0.0059592096439968862 -0.011073960584606119 0 0.0043906789204306426 -0.011727600180701434 0 0.0059592096439968862 -0.011073960584606119 0 0.0055919220385054133 -0.012296488160641531 0 0.006813412137101558 -0.011794038606953258 0 0.0059592096439968862 -0.011073960584606119 0 0.0055919220385054133 -0.012296488160641531 0 0.0053189517800534755 -0.013149872190877022 0 0.0067090497389540853 -0.013011650537006749 0 0.0055919220385054133 -0.012296488160641531 0 0.0045649942451445463 -0.012680726547517767 0 0.0053189517800534755 -0.013149872190877022 0 0.0055919220385054133 -0.012296488160641531 0 -0.011834828193328269 0.043309351243751001 0 -0.0064458883760624653 0.029992705951767371 0 -0.011834828193328269 0.043309351243751001 0 -0.0052184851524816819 0.030593286103755623 0 -0.0066490961018450135 0.036067545182118493 0 -0.0050416657539439549 0.036265502912674878 0 -0.0050972851734889012 0.034154279607580537 0 -0.0072637175991729233 0.047253640544401232 0 -0.0064963233494354251 0.047964778625924957 0 -0.0064536058739681898 0.047109857171290161 0 -0.011911210069501969 0.052723495926865184 0 -0.011846527083611624 0.05130679100867714 0 -0.013932747208974189 0.050787729304457851 0 -0.012189496488314432 0.055281042437527073 0 -0.011834828193328269 0.043309351243751001 0 -0.011846527083611624 0.05130679100867714 0 -0.013889115649337206 0.050803661267861559 0 -0.012664937920234293 0.049299918707844073 0 -0.01169502373945277 0.043886048140479451 0 -0.011834828193328269 0.043309351243751001 0 -0.012705569278684336 0.046770201551760572 0 -0.012664937920234293 0.049299918707844073 0 -0.010163465755490129 0.048859897583105452 0 -0.011834828193328269 0.043309351243751001 0 -0.012449003818257276 0.044354495228246263 0 -0.012705569278684336 0.046770201551760572 0 -0.012664937920234293 0.049299918707844073 0 -0.014003438459925613 0.048547446396309736 0 -0.013798049888401555 0.050654075411677942 0 -0.012664937920234293 0.049299918707844073 0 -0.014003438459925613 0.048547446396309736 0 -0.013888353015436889 0.050432904845916213 0 -0.01598342981977003 0.048500128611976875 0 -0.016692874220897155 0.050085099278791047 0 -0.014819904813975007 0.047481911103377683 0 -0.014003438459925613 0.048547446396309736 0 -0.01598342981977003 0.048500128611976875 0 -0.013798049888401555 0.050654075411677942 0 -0.014003438459925613 0.048547446396309736 0 -0.01598342981977003 0.048500128611976875 0 -0.011834828193328269 0.043309351243751001 0 -0.012006577983156082 0.044560028951273277 0 -0.0077392152134188041 0.019127447888694842 0 -0.0077301784077747184 0.019120175474815381 0 -0.0077419497419160535 0.019116174172126299 0 -0.016809499684194037 0.046528129445339961 0 -0.01598342981977003 0.048500128611976875 0 -0.016692874220897155 0.050085099278791047 0 -0.0095955859107187784 0.031925112211834777 0 -0.0064458883760624653 0.029992705951767371 0 -0.007747228196567266 0.019138073160623024 0 -0.0077392152134188041 0.019127447888694842 0 -0.0077419497419160535 0.019116174172126299 0 -0.0033300110197416709 0.012928270777758372 0 -0.0064458883760624653 0.029992705951767371 0 -0.0077301784077747184 0.019120175474815381 0 -0.0076937316300034839 0.019092132551753987 0 -0.0077419497419160535 0.019116174172126299 0 -0.0077301784077747184 0.019120175474815381 0 -0.0076905071694637998 0.019107605966051322 0 -0.0076937316300034839 0.019092132551753987 0 -0.004830723033390257 0.0098302566156219795 0 -0.003659238576675548 0.0090218908003684029 0 -0.003659238576675548 0.0090218908003684029 0 -0.0033300110197416709 0.012928270777758372 0 -0.0033300110197416709 0.012928270777758372 0 -0.00037852301750801882 0.012986346438017039 0 -0.00047893734349091412 0.02222853413352999 0 -0.0014089201299331772 0.021007540803287136 0 -0.00053046108965544613 0.020221319672621984 0 0.0010706042187126133 0.004959404749302539 0 0.0018454284992321735 0.0040770539779821837 0 0.001938314887462081 0.0062974019720363596 0 -0.00047893734349091412 0.02222853413352999 0 -0.0020774087494386377 0.0219721776322045 0 -0.0014089201299331772 0.021007540803287136 0 -0.0020774087494386377 0.0219721776322045 0 -0.0014089201299331772 0.021007540803287136 0 -0.0021307629678078421 0.020097876723514839 0 -0.0064458883760624653 0.029992705951767371 0 -0.0052184851524816819 0.030593286103755623 0 -0.0014089201299331772 0.021007540803287136 0 -0.0021307629678078421 0.020097876723514839 0 -0.00053046108965544613 0.020221319672621984 0 0.0020383092914554026 0.0085355036968774115 0 0.00092521115543656878 0.0072498309495509202 0 0.001938314887462081 0.0062974019720363596 0 0.0017200927936143391 0.011605616264992047 0 -0.00037852301750801882 0.012986346438017039 0 -0.00057409908298752159 0.018171947368077871 0 -0.00053046108965544613 0.020221319672621984 0 -0.0013582930760872949 0.019136169291866699 0 -0.0033611711116502555 0.03117198512277939 0 -0.0052184851524816819 0.030593286103755623 0 -0.0021307629678078421 0.020097876723514839 0 -0.00053046108965544613 0.020221319672621984 0 -0.0013582930760872949 0.019136169291866699 0 -0.0040790768082216268 0.019679220280143146 0 -0.0039158468755096194 0.025839253693572071 0 -0.0013166028339091443 0.022633433486397455 0 -0.0052184851524816819 0.030593286103755623 0 -0.0016363567804716643 0.020992529684662552 0 -0.0053006576607187335 0.044858209569751346 0 -0.0052681639181671432 0.046455166814049889 0 -0.006712926444632528 0.04601730629113461 0 -0.0064963233494354251 0.047964778625924957 0 -0.0052681639181671432 0.046455166814049889 0 -0.0064536058739681898 0.047109857171290161 0 -0.0052681639181671432 0.046455166814049889 0 -0.0064536058739681898 0.047109857171290161 0 -0.006712926444632528 0.04601730629113461 0 -0.0072637175991729233 0.047253640544401232 0 -0.0064536058739681898 0.047109857171290161 0 -0.006712926444632528 0.04601730629113461 0 -0.0072637175991729233 0.047253640544401232 0 -0.006712926444632528 0.04601730629113461 0 -0.007964501359828121 0.0466092236025233 0 -0.0068846367746619929 0.044733945460100795 0 -0.0079646474779462434 0.045240389068441814 0 -0.006712926444632528 0.04601730629113461 0 -0.009492613954660398 0.066741623858179652 0 -0.010467345977019309 0.066629578297819958 0 -0.010074437684309007 0.069614302301237718 0 -0.0079646474779462434 0.045240389068441814 0 -0.006712926444632528 0.04601730629113461 0 -0.007964501359828121 0.0466092236025233 0 -0.0089076304028093342 0.059263150086370286 0 -0.012247505605189619 0.068049160531075903 0 -0.009492613954660398 0.066741623858179652 0 -0.010074437684309007 0.069614302301237718 0 -0.0095144709431778888 0.070147097703713815 0 -0.01044537797512086 0.073567808204986179 0 -0.012242148149320044 0.074270950624076085 0 -0.012730608681828341 0.08568677561697291 0 -0.012242148149320044 0.074270950624076085 0 -0.017418668463370451 0.092521756448030817 0 -0.019331068673624593 0.090698709706927172 0 -0.017702072345755729 0.09079201604640981 0 -0.017340852463627252 0.09198652173439284 0 -0.019265515482029275 0.091841745882830506 0 -0.019548617077754644 0.089777909290980437 0 -0.018259357469436899 0.090203960004387421 0 -0.018742335940182788 0.089600625964042432 0 -0.017408472721059449 0.089716282660080235 0 -0.018259357469436899 0.090203960004387421 0 -0.019331068673624593 0.090698709706927172 0 -0.017702072345755729 0.09079201604640981 0 -0.018259357469436899 0.090203960004387421 0 -0.018742335940182788 0.089600625964042432 0 -0.019331068673624593 0.090698709706927172 0 -0.012242148149320044 0.074270950624076085 0 -0.012903563666935174 0.082057841427371853 0 -0.012247505605189619 0.068049160531075903 0 -0.014900158418514274 0.069505353382281879 0 -0.019274206431104241 0.089945819731927695 0 -0.019498703059126262 0.089746137487409422 0 -0.019579382588632475 0.088760468447461049 0 -0.011911210069501969 0.052723495926865184 0 -0.010057453021229835 0.054491301268791835 0 -0.010095410820520529 0.051635109268728177 0 -0.018742335940182788 0.089600625964042432 0 -0.019331068673624593 0.090698709706927172 0 -0.019556640394867951 0.088620864605088265 0 -0.012242148149320044 0.074270950624076085 0 -0.012247505605189619 0.068049160531075903 0 -0.012189496488314432 0.055281042437527073 0 -0.012247505605189619 0.068049160531075903 0 -0.019274206431104241 0.089945819731927695 0 -0.019556640394867951 0.088620864605088265 0 -0.019579382588632475 0.088760468447461049 0 -0.011846527083611624 0.05130679100867714 0 -0.010095410820520529 0.051635109268728177 0 -0.010163465755490129 0.048859897583105452 0 -0.011911210069501969 0.052723495926865184 0 -0.011846527083611624 0.05130679100867714 0 -0.010095410820520529 0.051635109268728177 0 -0.019556640394867951 0.088620864605088265 0 -0.019579382588632475 0.088760468447461049 0 -0.019614794981580416 0.087418159112600827 0 -0.018742335940182788 0.089600625964042432 0 -0.017968975850475292 0.088816635265300259 0 -0.017408472721059449 0.089716282660080235 0 -0.018742335940182788 0.089600625964042432 0 -0.019556640394867951 0.088620864605088265 0 -0.017968975850475292 0.088816635265300259 0 -0.019556640394867951 0.088620864605088265 0 -0.017968975850475292 0.088816635265300259 0 -0.019614794981580416 0.087418159112600827 0 -0.017968975850475292 0.088816635265300259 0 -0.017930385052228808 0.087164711144834858 0 -0.019584675215013267 0.087450421810880571 0 -0.014440929564581413 0.077128254337236121 0 -0.017572738262919937 0.070170929095404885 0 -0.011846527083611624 0.05130679100867714 0 -0.012664937920234293 0.049299918707844073 0 -0.010163465755490129 0.048859897583105452 0 -0.014900158418514274 0.069505353382281879 0 -0.017572738262919937 0.070170929095404885 0 -0.016216607553091837 0.088516986981431858 0 -0.014807272931679124 0.087441332284378184 0 -0.016428431343385206 0.086855190807846053 0 -0.017968975850475292 0.088816635265300259 0 -0.017930385052228808 0.087164711144834858 0 -0.016216607553091837 0.088516986981431858 0 -0.017930385052228808 0.087164711144834858 0 -0.016216607553091837 0.088516986981431858 0 -0.016428431343385206 0.086855190807846053 0 -0.017968975850475292 0.088816635265300259 0 -0.016216607553091837 0.088516986981431858 0 -0.017408472721059449 0.089716282660080235 0 -0.016216607553091837 0.088516986981431858 0 -0.01625713696886736 0.09022387738369271 0 -0.017408472721059449 0.089716282660080235 0 -0.016216607553091837 0.088516986981431858 0 -0.01625713696886736 0.09022387738369271 0 -0.014970366697486576 0.089845251209250868 0 -0.01625713696886736 0.09022387738369271 0 -0.015307162032330944 0.091119598742478075 0 -0.014970366697486576 0.089845251209250868 0 -0.01625713696886736 0.09022387738369271 0 -0.017408472721059449 0.089716282660080235 0 -0.017702072345755729 0.09079201604640981 0 -0.01625713696886736 0.09022387738369271 0 -0.017702072345755729 0.09079201604640981 0 -0.016547257769085971 0.091509351934761007 0 -0.018259357469436899 0.090203960004387421 0 -0.017408472721059449 0.089716282660080235 0 -0.017702072345755729 0.09079201604640981 0 -0.017418668463370451 0.092521756448030817 0 -0.017702072345755729 0.09079201604640981 0 -0.016547257769085971 0.091509351934761007 0 -0.016163202434201888 0.092689584618734056 0 -0.017418668463370451 0.092521756448030817 0 -0.016547257769085971 0.091509351934761007 0 -0.01625713696886736 0.09022387738369271 0 -0.016547257769085971 0.091509351934761007 0 -0.015307162032330944 0.091119598742478075 0 -0.015442541210793598 0.092310140407216024 0 -0.016163202434201888 0.092689584618734056 0 -0.016547257769085971 0.091509351934761007 0 -0.015442541210793598 0.092310140407216024 0 -0.016547257769085971 0.091509351934761007 0 -0.015307162032330944 0.091119598742478075 0 -0.015442541210793598 0.092310140407216024 0 -0.015307162032330944 0.091119598742478075 0 -0.014254893068288744 0.092016275854740939 0 -0.015307162032330944 0.091119598742478075 0 -0.014254893068288744 0.092016275854740939 0 -0.014178608876966765 0.09083387996046291 0 -0.014254893068288744 0.092016275854740939 0 -0.012984527206614974 0.091476010450734321 0 -0.014178608876966765 0.09083387996046291 0 -0.01299111125609482 0.09305711569996139 0 -0.014254893068288744 0.092016275854740939 0 -0.012984527206614974 0.091476010450734321 0 -0.01299111125609482 0.09305711569996139 0 -0.012984527206614974 0.091476010450734321 0 -0.011342689624001185 0.092313032874828713 0 -0.013433261344801706 0.089960723553481572 0 -0.011603431867366542 0.090584163178991151 0 -0.012408518973028606 0.089162246369168474 0 -0.012984527206614974 0.091476010450734321 0 -0.013433261344801706 0.089960723553481572 0 -0.014178608876966765 0.09083387996046291 0 -0.012984527206614974 0.091476010450734321 0 -0.013433261344801706 0.089960723553481572 0 -0.011603431867366542 0.090584163178991151 0 -0.013433261344801706 0.089960723553481572 0 -0.014970366697486576 0.089845251209250868 0 -0.014178608876966765 0.09083387996046291 0 -0.015307162032330944 0.091119598742478075 0 -0.014970366697486576 0.089845251209250868 0 -0.014178608876966765 0.09083387996046291 0 -0.0092043196620077306 0.091715999574126975 0 -0.011342689624001185 0.092313032874828713 0 -0.011603431867366542 0.090584163178991151 0 -0.010088005949059444 0.09312953852983348 0 -0.0092043196620077306 0.091715999574126975 0 -0.011342689624001185 0.092313032874828713 0 -0.012984527206614974 0.091476010450734321 0 -0.011342689624001185 0.092313032874828713 0 -0.011603431867366542 0.090584163178991151 0 -0.0092043196620077306 0.091715999574126975 0 -0.011603431867366542 0.090584163178991151 0 -0.0094461449857199207 0.089347115208129019 0 -0.0066650790397167455 0.089792271380294497 0 -0.0074154185032322293 0.089587763567627196 0 -0.0094461449857199207 0.089347115208129019 0 -0.011793637395065339 0.088265803074367585 0 -0.0096150865125880624 0.08780792260116202 0 -0.011603431867366542 0.090584163178991151 0 -0.0094461449857199207 0.089347115208129019 0 -0.012408518973028606 0.089162246369168474 0 -0.0094461449857199207 0.089347115208129019 0 -0.012408518973028606 0.089162246369168474 0 -0.011793637395065339 0.088265803074367585 0 -0.011793637395065339 0.088265803074367585 0 -0.0096150865125880624 0.08780792260116202 0 -0.011118616828053872 0.086371407353280027 0 -0.012408518973028606 0.089162246369168474 0 -0.011793637395065339 0.088265803074367585 0 -0.013461072075622697 0.087956166507812628 0 -0.016216607553091837 0.088516986981431858 0 -0.014970366697486576 0.089845251209250868 0 -0.014256920152257607 0.08863654474089068 0 -0.013433261344801706 0.089960723553481572 0 -0.014970366697486576 0.089845251209250868 0 -0.014256920152257607 0.08863654474089068 0 -0.013433261344801706 0.089960723553481572 0 -0.012408518973028606 0.089162246369168474 0 -0.014256920152257607 0.08863654474089068 0 -0.012408518973028606 0.089162246369168474 0 -0.014256920152257607 0.08863654474089068 0 -0.013461072075622697 0.087956166507812628 0 -0.013461072075622697 0.087956166507812628 0 -0.014807272931679124 0.087441332284378184 0 -0.013568000959783326 0.086637905869450707 0 -0.011793637395065339 0.088265803074367585 0 -0.013461072075622697 0.087956166507812628 0 -0.013568000959783326 0.086637905869450707 0 -0.014256920152257607 0.08863654474089068 0 -0.013461072075622697 0.087956166507812628 0 -0.014807272931679124 0.087441332284378184 0 -0.016216607553091837 0.088516986981431858 0 -0.014256920152257607 0.08863654474089068 0 -0.014807272931679124 0.087441332284378184 0 -0.021980681215728329 0.086029850419540491 0 -0.013568000959783326 0.086637905869450707 0 -0.017920949344827998 0.083281452973958017 0 -0.014807272931679124 0.087441332284378184 0 -0.015207987228462054 0.086274633364896866 0 -0.013568000959783326 0.086637905869450707 0 -0.01847716028073533 0.08309277816967145 0 -0.01621845263436952 0.084330385543628025 0 -0.013568000959783326 0.086637905869450707 0 -0.01374807868007457 0.085043909081660957 0 -0.017920949344827998 0.083281452973958017 0 -0.01374807868007457 0.085043909081660957 0 -0.017920949344827998 0.083281452973958017 0 -0.016863927700386441 0.078341133552462541 0 -0.014598395942800541 0.083790206077082582 0 -0.016638719200849885 0.079098649508518443 0 -0.014192136995298118 0.085096430873465009 0 -0.01367567993542889 0.082228409382685413 0 -0.017421166514430275 0.079228036065197793 0 -0.017920949344827998 0.083281452973958017 0 -0.016863927700386441 0.078341133552462541 0 -0.023673305669982731 0.079387100873459848 0 -0.021980681215728329 0.086029850419540491 0 -0.017920949344827998 0.083281452973958017 0 -0.023673305669982731 0.079387100873459848 0 -0.0096150865125880624 0.08780792260116202 0 -0.0088682591080323642 0.085868696245948173 0 -0.011118616828053872 0.086371407353280027 0 -0.0088682591080323642 0.085868696245948173 0 -0.011118616828053872 0.086371407353280027 0 -0.011580208870487899 0.08415062321052505 0 -0.013590398731595772 0.085994926900519866 0 -0.014598395942800541 0.083790206077082582 0 -0.011793637395065339 0.088265803074367585 0 -0.014192136995298118 0.085096430873465009 0 -0.011118616828053872 0.086371407353280027 0 -0.011793637395065339 0.088265803074367585 0 -0.013568000959783326 0.086637905869450707 0 -0.01374807868007457 0.085043909081660957 0 -0.014192136995298118 0.085096430873465009 0 -0.011118616828053872 0.086371407353280027 0 -0.011580208870487899 0.08415062321052505 0 -0.01367567993542889 0.082228409382685413 0 -0.011580208870487899 0.08415062321052505 0 -0.011668431549684126 0.08023097260076506 0 -0.014192136995298118 0.085096430873465009 0 -0.01367567993542889 0.082228409382685413 0 -0.011580208870487899 0.08415062321052505 0 -0.0066771839360875189 0.083370812767249489 0 -0.0088682591080323642 0.085868696245948173 0 -0.011580208870487899 0.08415062321052505 0 -0.0066771839360875189 0.083370812767249489 0 -0.011580208870487899 0.08415062321052505 0 -0.011668431549684126 0.08023097260076506 0 -0.0066771839360875189 0.083370812767249489 0 -0.0077640442471722249 0.076937643897650482 0 -0.011668431549684126 0.08023097260076506 0 -0.0077640442471722249 0.076937643897650482 0 -0.011668431549684126 0.08023097260076506 0 -0.013463054526339908 0.072916442469929607 0 -0.011668431549684126 0.08023097260076506 0 -0.013463054526339908 0.072916442469929607 0 -0.017421166514430275 0.079228036065197793 0 -0.01367567993542889 0.082228409382685413 0 -0.011668431549684126 0.08023097260076506 0 -0.017421166514430275 0.079228036065197793 0 -0.007104260555116251 0.07057901292157949 0 -0.0077640442471722249 0.076937643897650482 0 -0.013463054526339908 0.072916442469929607 0 -0.016863927700386441 0.078341133552462541 0 -0.019962211236410558 0.071792959821927141 0 -0.023673305669982731 0.079387100873459848 0 -0.016638719200849885 0.079098649508518443 0 -0.017916529502768706 0.075995634397359166 0 -0.013463054526339908 0.072916442469929607 0 -0.017421166514430275 0.079228036065197793 0 -0.019962211236410558 0.071792959821927141 0 -0.025956231378168309 0.068244924174561461 0 -0.019962211236410558 0.071792959821927141 0 -0.026994652587977393 0.074417214136972248 0 -0.019962211236410558 0.071792959821927141 0 -0.026994652587977393 0.074417214136972248 0 -0.023673305669982731 0.079387100873459848 0 -0.026994652587977393 0.074417214136972248 0 -0.023673305669982731 0.079387100873459848 0 -0.03161910318582746 0.07817881287940999 0 -0.025956231378168309 0.068244924174561461 0 -0.026994652587977393 0.074417214136972248 0 -0.032146872144024966 0.072766527648504983 0 -0.026994652587977393 0.074417214136972248 0 -0.03161910318582746 0.07817881287940999 0 -0.032146872144024966 0.072766527648504983 0 -0.03161910318582746 0.07817881287940999 0 -0.032146872144024966 0.072766527648504983 0 -0.037942379895737129 0.074363458059164736 0 -0.03450618586931628 0.068713836538849521 0 -0.032146872144024966 0.072766527648504983 0 -0.037942379895737129 0.074363458059164736 0 -0.020465854572128257 0.057331068894729866 0 -0.019146744419168117 0.058349807552611821 0 -0.020033913779814044 0.059821809462467831 0 -0.023487272368899078 0.064966813291527051 0 -0.022368217609167275 0.072529838262336263 0 -0.019146744419168117 0.058349807552611821 0 -0.020033913779814044 0.059821809462467831 0 -0.019108906096648091 0.061673046455934043 0 -0.03161910318582746 0.07817881287940999 0 -0.037942379895737129 0.074363458059164736 0 -0.037845370879072582 0.082167798367878811 0 -0.022368217609167275 0.072529838262336263 0 -0.021896587985879623 0.079485125934263698 0 -0.03161910318582746 0.07817881287940999 0 -0.037845370879072582 0.082167798367878811 0 -0.030076852021827149 0.084146204814425432 0 -0.021053199184126462 0.06362435561009179 0 -0.019690051837994115 0.061519985112908682 0 -0.019101473727024119 0.06167217119717678 0 -0.021108045721142873 0.061305840439130843 0 -0.020033913779814044 0.059821809462467831 0 -0.019690051837994115 0.061519985112908682 0 -0.020033913779814044 0.059821809462467831 0 -0.019690051837994115 0.061519985112908682 0 -0.019108906096648091 0.061673046455934043 0 -0.02233670744962547 0.072421270966567849 0 -0.022368217609167275 0.072529838262336263 0 -0.017572738262919937 0.070170929095404885 0 -0.022368217609167275 0.072529838262336263 0 -0.018420614017521916 0.060020732008175634 0 -0.017572738262919937 0.070170929095404885 0 -0.021053199184126462 0.06362435561009179 0 -0.01906138622953318 0.065319959885906789 0 -0.019101473727024119 0.06167217119717678 0 -0.017930385052228808 0.087164711144834858 0 -0.019614073024631574 0.084968456052412156 0 -0.017377176107154502 0.085583401033528947 0 -0.017930385052228808 0.087164711144834858 0 -0.019584675215013267 0.087450421810880571 0 -0.019614073024631574 0.084968456052412156 0 -0.017930385052228808 0.087164711144834858 0 -0.016428431343385206 0.086855190807846053 0 -0.017377176107154502 0.085583401033528947 0 -0.015207987228462054 0.086274633364896866 0 -0.016428431343385206 0.086855190807846053 0 -0.017377176107154502 0.085583401033528947 0 -0.01847716028073533 0.08309277816967145 0 -0.021896587985879623 0.079485125934263698 0 -0.014807272931679124 0.087441332284378184 0 -0.015207987228462054 0.086274633364896866 0 -0.016428431343385206 0.086855190807846053 0 -0.021980681215728329 0.086029850419540491 0 -0.023673305669982731 0.079387100873459848 0 -0.030076852021827149 0.084146204814425432 0 -0.023673305669982731 0.079387100873459848 0 -0.03161910318582746 0.07817881287940999 0 -0.030076852021827149 0.084146204814425432 0 
</DataArray>
</PointData>
<CellData Scalars="region_id,cross_section_updated," Vectors="" Tensors="stress,">
<DataArray type="Float64" Name="region_id" format="ascii">
5 5 6 5 5 5 5 6 5 5 5 5 5 5 5 5 5 5 5 5 6 5 5 5 5 6 5 5 5 5 5 5 5 6 5 5 5 5 5 5 5 5 6 5 5 5 5 5 5 5 5 5 5 5 6 6 5 5 5 5 5 5 5 5 6 5 5 5 5 5 5 5 5 5 5 5 5 5 5 5 5 5 5 5 5 5 5 6 5 5 5 5 5 5 5 5 5 5 5 6 5 5 5 6 5 5 5 5 5 5 5 5 5 5 5 5 5 5 5 5 5 5 5 5 5 5 5 5 5 5 5 5 5 5 5 5 5 5 5 5 5 5 5 5 5 5 5 5 5 6 5 6 5 5 5 5 5 5 5 5 5 5 5 5 5 5 5 5 5 5 5 5 5 5 5 5 5 5 6 5 5 6 5 6 5 5 5 5 5 5 5 5 5 5 5 5 5 5 6 5 6 5 5 5 5 5 5 5 6 5 6 5 5 5 5 5 5 6 5 5 6 5 5 5 5 5 5 6 6 5 5 6 5 6 5 6 6 5 5 5 6 5 5 5 5 5 5 5 5 5 5 5 5 5 6 5 5 5 5 5 5 5 6 5 5 5 5 5 5 5 6 5 5 5 5 6 5 5 5 5 5 5 6 5 5 5 6 5 5 5 5 5 5 5 6 5 5 5 5 5 5 6 5 5 5 5 5 5 6 5 5 5 5 5 5 5 6 5 5 5 5 5 5 5 5 5 5 5 5 5 5 5 5 5 5 5 5 5 6 6 5 5 5 5 5 6 5 5 5 5 5 5 5 6 5 6 5 5 5 6 5 5 5 6 5 6 5 5 5 5 5 5 5 6 5 5 5 5 5 5 5 6 5 5 5 6 5 5 5 5 5 5 5 5 5 5 5 5 5 5 5 5 5 5 5 5 5 5 5 5 5 5 5 5 5 5 5 5 6 5 5 5 5 5 5 5 5 5 5 5 5 5 5 5 5 5 5 5 5 5 5 5 5 5 5 5 5 5 5 5 5 6 5 5 5 5 5 5 5 5 5 5 5 5 5 5 5 5 5 5 5 5 6 5 5 5 5 5 5 5 6 5 5 5 5 5 6 5 5 6 5 6 5 5 5 5 6 5 5 6 5 5 5 5 5 5 6 5 5 5 5 5 5 5 5 5 5 5 5 5 5 5 5 5 5 5 6 5 5 5 5 5 5 5 5 5 5 5 6 6 5 5 5 5 5 5 5 5 5 5 5 5 5 5 5 5 5 5 5 5 5 6 5 6 6 5 5 6 5 5 5 5 5 5 5 5 5 5 5 5 5 6 5 5 5 5 5 5 5 6 6 5 5 5 5 5 5 5 5 6 6 5 5 5 6 5 5 5 5 5 5 5 5 5 5 5 5 5 5 5 5 5 5 5 5 5 5 5 5 5 5 5 5 5 5 5 5 5 5 5 6 5 5 6 5 5 5 5 6 5 5 5 6 5 5 5 6 5 5 6 5 5 5 5 5 5 5 5 5 5 5 5 5 5 5 5 5 5 5 5 5 6 5 5 5 6 5 5 5 5 5 6 5 5 5 5 5 5 6 5 5 5 5 5 5 5 5 5 5 5 5 5 5 5 5 5 5 6 5 5 5 5 5 5 5 5 5 5 5 5 5 5 5 5 5 5 5 5 5 6 5 5 5 5 5 5 5 5 5 5 5 5 5 5 5 6 5 5 5 5 5 5 5 5 5 5 5 5 5 5 5 5 5 5 6 5 5 5 5 5 5 5 6 5 5 5 5 5 5 5 5 5 5 5 5 5 5 5 5 5 5 5 5 5 6 5 5 5 5 5 5 5 5 5 6 5 5 5 5 5 5 5 5 6 5 5 5 5 5 5 5 5 5 5 5 5 5 5 5 5 5 5 5 6 5 5 5 5 5 6 5 5 5 6 5 5 5 5 5 5 6 5 5 5 5 5 5 5 5 5 5 6 5 5 5 5 5 5 5 5 5 5 5 5 6 5 6 5 5 5 5 5 5 5 6 5 6 5 5 5 5 5 5 5 5 5 5 5 5 5 5 5 5 5 5 5 5 5 5 5 5 5 5 5 5 5 5 5 5 5 5 5 5 5 5 5 5 5 5 5 5 5 6 6 5 5 6 5 5 5 5 5 5 5 5 5 5 5 5 5 5 5 5 6 5 5 5 5 6 5 5 6 5 5 5 5 5 5 6 5 6 5 5 6 5 5 5 5 5 5 5 5 5 5 6 5 5 5 5 5 6 6 5 5 5 5 6 5 5 6 5 6 5 5 5 5 5 6 5 5 6 5 5 5 5 5 5 5 5 5 5 5 5 6 5 5 5 5 5 5 5 5 5 5 5 5 5 5 5 6 5 6 5 6 6 5 6 5 5 6 5 5 5 5 5 5 6 5 6 5 5 6 5 5 5 6 5 5 6 5 5 5 5 5 6 5 5 6 5 5 5 5 5 6 5 6 5 5 6 5 5 6 5 5 5 5 5 5 5 5 6 5 5 5 5 5 5 5 5 5 5 6 5 5 5 5 6 5 5 6 5 5 5 5 5 6 5 5 5 5 5 6 5 6 5 5 5 5 5 5 6 5 5 5 5 5 5 5 5 6 6 6 5 5 5 5 6 5 6 5 5 5 6 6 5 5 5 6 5 5 5 6 5 6 5 6 6 5 6 5 5 5 5 6 5 5 5 6 5 6 5 6 5 5 5 5 5 5 5 6 5 5 5 5 6 5 5 5 5 5 5 5 5 6 5 6 6 5 5 5 6 5 5 5 5 6 6 5 5 6 6 5 5 5 5 5 6 5 5 5 5 5 5 5 5 6 5 6 5 5 5 5 5 5 5 5 5 5 5 5 5 5 5 5 5 6 5 5 5 5 5 5 5 5 5 5 5 5 5 5 5 5 5 5 5 5 5 5 5 5 5 6 5 6 5 5 5 5 5 6 6 5 5 5 5 6 6 5 6 5 5 6 5 5 6 5 5 5 5 6 6 5 5 5 5 5 5 5 5 6 5 5 6 5 5 5 6 5 5 6 5 5 5 5 5 5 6 5 5 5 5 5 5 6 5 5 5 5 5 6 5 5 6 6 5 5 6 5 5 6 5 5 5 5 5 5 5 5 5 5 5 5 6 5 6 5 5 6 5 5 5 5 5 5 6 5 5 5 6 6 6 5 5 5 6 6 5 6 6 5 5 6 5 5 6 5 6 5 6 5 5 5 6 6 5 5 6 6 6 6 5 5 5 6 6 5 5 6 6 6 5 6 6 5 5 6 5 6 6 5 6 5 5 6 5 6 6 5 5 5 5 6 6 5 5 6 5 5 5 6 5 5 5 5 5 5 5 5 5 5 5 5 5 5 5 5 5 5 5 5 5 5 5 5 5 5 5 5 5 5 5 5 5 5 5 5 5 5 5 5 5 5 5 5 5 5 5 5 5 5 5 5 5 5 5 5 5 5 6 5 6 5 5 5 5 5 5 5 5 5 5 5 5 5 5 6 5 5 5 5 5 5 5 5 5 5 6 5 5 5 5 5 5 5 5 5 5 5 5 5 5 5 5 5 5 5 5 5 5 5 5 5 5 5 5 5 5 5 5 5 5 5 5 5 5 5 5 5 5 5 5 5 5 6 5 5 5 6 5 6 5 5 5 5 5 6 5 6 5 5 5 5 5 5 5 5 5 5 5 5 5 5 5 5 5 5 5 5 5 5 5 5 5 6 5 5 5 5 5 5 6 5 6 5 5 5 6 5 5 6 5 5 5 5 5 5 5 5 5 5 5 5 5 5 5 5 5 5 5 5 5 5 5 5 5 5 5 5 5 5 5 5 5 5 5 5 5 6 5 6 5 5 5 5 5 5 5 5 5 5 6 5 5 5 5 5 5 5 5 5 5 5 5 5 5 5 5 5 6 5 5 5 6 6 5 6 5 5 5 5 5 5 5 5 6 5 5 5 5 6 5 5 5 5 5 5 5 6 5 5 6 5 6 5 5 6 5 5 6 6 5 5 5 5 5 5 5 5 5 5 5 5 5 5 5 6 5 6 5 5 5 6 5 6 5 5 5 5 5 5 5 5 5 5 5 5 6 5 6 5 5 5 5 5 5 5 5 6 5 5 6 5 5 5 6 6 5 5 5 5 5 5 5 5 5 5 5 5 5 5 5 5 5 5 5 5 5 6 5 5 5 5 5 6 5 6 5 5 5 5 6 5 5 6 5 5 5 5 5 6 5 5 5 5 6 5 5 5 5 5 5 5 6 5 5 5 6 5 5 5 5 5 5 5 5 5 5 5 6 5 5 5 5 5 5 5 5 6 5 5 5 5 5 5 6 5 5 5 5 5 5 6 5 5 5 5 5 5 5 5 5 5 5 6 5 5 5 6 5 5 5 6 5 6 5 5 5 5 5 5 6 5 5 5 5 5 5 5 5 5 5 5 5 5 5 5 6 5 5 5 5 5 6 5 5 5 5 5 5 5 5 6 5 5 5 5 5 5 5 5 5 5 5 5 5 5 5 5 6 5 5 5 5 6 5 5 5 5 5 5 5 5 5 5 5 5 5 5 5 5 5 5 5 5 5 5 5 5 5 5 6 5 5 5 6 5 6 5 5 5 5 6 5 6 5 5 5 5 5 6 5 5 5 5 5 5 5 5 5 6 5 5 5 5 5 5 5 5 5 5 5 5 5 5 5 5 5 5 5 5 5 5 5 5 6 6 5 5 5 5 5 6 5 5 5 6 5 5 5 6 5 5 6 5 6 5 5 5 5 6 5 5 5 5 6 6 5 5 5 5 5 5 5 5 5 5 5 5 6 5 5 5 5 6 5 5 5 5 5 6 5 5 6 5 5 5 5 5 5 5 5 5 5 5 5 5 5 5 5 6 5 5 6 5 5 5 6 5 5 5 5 5 5 5 5 5 5 5 6 5 5 5 5 5 5 5 5 5 5 5 5 5 5 5 5 6 5 5 6 5 6 5 5 6 5 6 5 6 5 5 5 5 5 5 5 5 5 5 5 5 5 6 5 6 6 5 5 6 6 5 5 6 6 5 5 5 6 5 6 5 5 6 5 5 5 5 6 6 5 6 5 5 6 6 5 5 6 5 5 5 6 5 5 5 6 6 6 5 5 6 5 6 6 5 5 5 5 5 5 5 5 5 5 5 6 6 5 6 5 6 5 6 5 5 5 6 5 5 5 5 5 6 5 5 5 5 5 5 5 5 5 5 5 5 5 5 5 5 5 5 5 5 5 5 5 5 6 5 5 5 5 5 5 5 5 5 5 5 5 5 5 5 5 5 5 6 5 5 5 5 5 5 5 5 5 5 5 6 5 5 5 5 5 6 5 5 5 5 5 5 5 5 5 5 5 5 5 5 6 5 5 5 5 5 5 5 5 5 5 5 5 5 5 6 5 6 5 5 5 5 6 5 5 5 5 5 5 5 5 5 5 5 5 6 5 6 5 5 5 5 6 5 5 5 5 5 5 5 6 5 5 5 5 5 5 5 6 5 5 5 6 5 6 5 5 5 5 5 5 5 5 5 6 5 5 5 5 5 5 5 5 5 5 5 5 5 5 5 5 5 5 5 5 5 5 5 5 5 5 5 5 5 5 5 5 5 5 5 5 5 5 5 5 5 5 5 6 5 5 6 5 5 5 5 5 5 5 5 5 5 6 5 5 5 5 5 6 5 5 6 5 5 5 5 5 5 6 5 5 5 5 6 5 5 6 5 6 5 5 5 5 5 5 5 5 5 5 5 6 5 6 5 5 5 5 6 5 5 5 5 5 5 5 5 5 5 5 5 5 5 5 5 5 5 5 5 5 6 5 5 5 5 6 5 5 5 5 5 5 5 6 5 5 5 5 5 6 5 5 5 6 5 5 5 6 5 5 6 5 5 5 6 5 5 6 5 5 5 5 5 5 5 5 5 5 5 5 5 5 5 5 5 5 5 5 5 5 5 5 5 5 5 5 5 5 5 6 5 5 5 5 5 5 5 5 5 5 5 6 5 5 5 5 5 5 5 5 5 5 5 5 5 5 5 6 6 5 5 5 6 5 5 5 5 6 5 5 6 5 5 5 5 5 5 5 5 5 5 5 5 5 6 6 5 5 5 5 5 5 5 5 5 5 5 6 5 5 6 5 5 5 5 5 5 5 5 5 5 5 5 5 5 5 5 5 5 5 6 5 5 5 6 5 5 5 5 5 6 5 5 5 5 5 5 5 5 5 5 5 5 5 5 5 5 5 5 5 5 6 5 5 6 5 5 5 5 5 5 5 5 5 5 5 5 5 5 5 5 5 5 5 6 5 5 5 5 5 5 5 5 5 5 5 5 5 5 5 5 5 5 5 5 5 5 5 5 5 5 5 5 5 5 5 5 6 5 5 5 5 5 5 6 5 5 5 5 5 6 5 5 5 5 6 5 5 5 5 5 5 5 5 5 5 5 5 5 5 5 5 5 5 5 5 5 5 6 5 5 5 5 5 5 5 6 5 5 6 5 5 6 5 5 5 5 5 5 6 5 5 5 5 5 5 5 5 5 5 6 5 6 5 5 5 5 5 5 5 5 6 5 5 6 5 5 5 6 5 5 5 6 5 5 5 6 6 5 5 6 5 5 6 5 5 6 5 5 5 5 5 5 5 5 5 6 5 5 5 6 5 5 5 6 5 5 5 6 5 6 5 5 6 5 5 5 5 5 5 5 5 6 5 5 6 5 5 5 5 5 5 5 5 5 5 5 5 5 6 5 6 5 5 5 6 6 5 6 5 5 5 5 6 5 6 5 5 5 5 5 5 5 5 5 6 5 5 5 5 5 5 5 5 5 5 5 5 5 5 5 5 5 5 5 5 5 5 5 5 5 5 5 5 6 5 5 5 5 5 5 6 5 5 5 5 5 5 6 5 5 5 5 5 5 6 5 5 5 6 5 5 5 6 5 5 6 5 5 5 5 5 5 6 5 5 5 6 6 5 5 5 5 5 5 5 5 5 5 5 5 5 5 5 5 5 6 5 5 5 5 5 5 5 6 5 5 5 5 5 6 5 5 5 5 5 6 5 5 6 5 5 5 5 6 5 5 5 5 5 5 6 5 6 5 6 6 5 6 5 5 5 6 5 5 5 5 5 6 5 5 5 6 5 5 5 5 6 6 6 5 5 5 5 6 6 5 6 5 5 5 5 5 5 6 5 6 5 5 6 5 5 5 6 5 5 6 5 5 5 5 5 5 5 5 5 5 5 5 6 5 5 5 5 6 5 5 5 5 6 5 5 5 5 5 5 5 5 5 6 6 6 5 5 5 6 6 5 5 6 5 6 5 5 5 5 5 5 5 6 5 5 5 5 5 5 5 5 5 5 5 5 5 5 5 5 6 5 5 5 5 5 5 5 5 5 6 5 5 6 5 6 5 6 5 5 6 5 5 5 6 6 5 5 6 5 5 5 6 5 5 5 5 6 5 5 5 5 5 5 5 5 5 5 5 6 6 5 5 5 5 5 5 5 5 5 5 5 5 5 5 5 5 5 5 5 5 5 5 5 5 5 5 5 5 5 5 5 5 6 5 5 5 5 5 5 5 5 5 5 5 5 5 5 5 5 5 5 5 6 5 5 5 5 5 5 6 6 5 5 6 6 5 5 5 6 5 5 5 5 5 5 5 5 5 5 5 5 5 5 5 5 5 5 5 5 5 5 5 6 5 6 5 6 5 5 5 5 5 5 6 5 6 6 5 5 6 5 5 5 5 5 5 6 6 5 5 6 6 5 5 6 6 5 5 5 5 5 5 5 5 6 5 5 5 5 5 6 5 5 6 5 5 5 6 5 5 5 5 5 5 5 5 5 5 5 5 5 5 5 5 5 5 5 5 5 5 5 5 5 5 5 5 5 5 5 5 5 5 6 5 5 6 5 6 6 5 5 5 5 5 5 5 5 5 6 5 5 5 5 5 6 5 5 5 5 5 5 5 6 5 5 5 5 5 5 5 5 6 5 5 5 5 5 6 5 5 5 5 5 5 5 5 5 5 5 5 5 5 5 5 5 5 5 5 5 5 5 5 5 5 5 5 5 5 6 6 5 5 5 5 5 5 5 6 5 5 5 6 5 6 5 5 5 5 5 5 5 5 5 5 5 5 5 5 5 5 5 5 5 5 5 6 5 5 5 5 5 5 6 5 5 5 5 5 5 5 6 5 5 6 5 5 5 5 5 5 6 5 5 5 6 5 5 6 6 5 5 5 5 5 5 5 5 5 5 5 5 5 5 5 5 5 5 5 5 5 5 5 5 5 5 5 5 6 5 5 5 5 5 5 5 5 5 5 5 5 5 5 5 5 5 5 5 6 5 5 5 6 6 5 5 5 5 5 6 5 5 5 6 5 5 5 5 5 6 5 5 5 5 5 5 5 5 5 5 5 5 5 5 5 5 5 5 5 5 5 6 5 5 5 5 5 5 6 5 5 5 5 5 5 5 5 5 5 5 5 6 5 5 5 5 6 5 6 5 5 5 5 5 5 5 5 5 5 5 5 5 6 5 5 5 5 5 6 5 5 5 5 5 5 6 5 5 5 5 5 5 5 5 5 5 5 5 6 5 5 6 5 5 6 5 5 6 5 5 5 5 5 5 5 5 5 5 6 5 5 5 5 5 5 5 5 6 5 5 5 6 5 5 5 6 5 5 6 5 5 5 6 5 5 5 5 5 6 5 6 5 5 5 5 6 6 5 5 5 6 5 5 5 5 6 5 5 5 5 5 5 5 5 5 5 5 5 5 5 5 6 5 5 6 6 5 5 5 5 6 5 5 5 5 5 5 6 5 5 5 5 5 5 6 5 5 5 5 5 5 5 5 6 5 5 5 5 5 5 5 5 5 5 6 5 5 6 5 5 6 5 5 5 5 5 6 6 5 5 6 6 5 6 5 6 5 6 6 5 5 6 5 6 5 6 5 6 5 6 5 5 6 5 6 5 6 5 5 5 5 5 5 6 5 5 5 6 5 5 5 5 5 5 5 5 5 6 5 5 6 5 6 5 6 5 5 5 6 6 5 5 5 5 5 5 5 5 5 5 5 6 5 5 5 5 5 6 5 5 5 5 5 5 5 5 5 5 5 5 5 5 5 5 5 6 5 5 5 5 5 5 6 5 5 5 6 5 5 6 5 5 5 6 5 6 6 5 5 5 5 5 5 5 5 5 6 5 5 5 5 5 5 5 6 5 6 5 6 5 5 5 5 5 5 5 5 5 5 5 5 5 5 5 5 5 5 5 5 5 5 5 5 5 5 5 5 5 5 5 5 5 5 5 5 5 6 5 5 6 6 5 5 5 5 6 5 5 5 5 5 6 5 5 6 6 5 5 5 5 5 5 6 5 6 5 5 6 6 5 6 5 5 5 6 5 5 5 5 6 5 5 5 6 5 5 6 6 5 5 5 6 5 5 5 5 6 5 5 6 5 5 5 6 5 5 6 5 5 5 6 5 6 5 5 6 5 5 6 6 5 5 6 5 6 6 5 5 5 5 6 5 5 5 5 6 5 5 5 5 5 5 5 5 5 5 5 5 6 5 5 5 5 6 5 6 5 5 5 5 5 6 6 6 5 5 5 5 5 5 5 5 6 5 5 5 5 5 5 6 5 5 5 5 6 5 5 5 5 5 5 5 5 5 5 5 5 5 5 5 5 5 5 6 5 6 5 5 6 6 5 6 5 5 6 5 6 5 6 5 6 5 5 5 5 6 5 5 5 6 5 5 5 5 5 5 5 5 5 5 5 5 5 5 5 5 5 5 5 5 5 5 5 5 5 6 5 5 5 5 5 6 5 5 5 5 5 5 5 5 5 5 5 6 5 5 5 5 5 6 5 5 6 6 5 5 5 6 5 5 6 6 5 6 5 5 5 5 5 5 5 5 5 5 5 5 5 5 5 5 6 5 5 5 5 6 5 5 5 5 5 5 5 5 6 6 5 5 6 5 5 5 5 5 5 5 5 5 6 6 5 5 6 5 5 5 6 5 5 5 5 5 5 5 5 5 5 5 5 5 5 5 5 5 5 5 5 5 5 5 5 5 5 6 5 5 5 5 5 5 5 5 5 5 5 5 5 5 5 5 5 5 5 5 6 5 5 5 6 6 5 5 5 6 5 5 6 5 5 5 5 5 6 5 6 5 5 5 5 5 5 5 5 6 5 5 5 6 5 5 6 5 6 5 5 5 6 5 5 5 6 5 5 5 5 5 5 5 5 5 5 5 5 5 5 5 5 5 6 5 5 5 5 5 5 5 5 5 6 5 5 5 5 5 5 5 5 6 5 5 5 5 5 5 5 5 5 5 5 5 5 6 5 5 5 6 5 5 5 5 5 5 5 5 5 5 5 5 5 5 5 5 5 5 5 6 5 5 5 6 5 6 5 5 5 6 5 5 5 6 6 5 5 5 5 5 5 5 5 5 5 5 5 5 5 5 5 5 5 5 5 5 5 6 5 5 5 5 6 5 5 5 5 6 5 5 5 5 5 5 5 6 5 5 5 5 6 5 5 5 5 5 5 6 5 5 5 5 5 5 6 5 5 5 6 5 5 5 5 5 5 5 5 5 6 5 5 5 5 5 5 6 5 5 5 5 5 5 5 5 5 5 5 6 5 5 6 5 5 5 5 5 6 5 5 6 5 5 5 5 5 5 5 6 6 5 5 5 5 6 5 5 5 5 5 5 6 5 5 5 5 5 5 5 5 5 5 6 5 5 5 5 5 5 5 5 5 5 5 5 6 5 6 5 5 5 6 5 5 6 5 5 5 5 6 5 5 5 5 5 6 5 5 5 5 5 5 5 5 6 5 5 5 5 6 5 5 5 5 5 5 5 6 5 5 5 5 5 5 5 5 5 5 6 5 5 5 6 5 6 5 5 5 5 5 5 6 5 6 5 6 5 5 5 5 6 5 5 5 5 5 5 5 5 5 5 5 5 5 5 6 5 6 5 5 5 5 5 5 5 6 5 5 5 5 5 5 5 5 5 5 5 5 5 6 5 5 5 5 6 5 5 5 5 5 5 5 5 5 5 5 5 5 5 5 5 5 5 5 5 5 5 5 5 6 5 5 5 5 6 5 5 5 6 5 5 6 5 5 6 5 5 5 5 5 5 5 5 5 5 5 5 5 5 5 6 5 5 6 5 5 5 5 5 5 5 6 5 5 5 5 5 6 5 5 5 6 5 5 5 6 5 5 5 5 5 5 5 6 5 5 5 6 5 6 6 5 5 5 5 5 6 5 5 5 5 5 5 5 5 5 5 6 5 5 5 5 5 5 5 5 5 5 5 5 5 5 5 5 5 5 5 5 5 5 5 5 5 5 5 5 5 5 5 5 5 5 5 5 5 6 5 5 5 5 5 5 5 5 5 5 5 5 5 5 5 5 6 5 5 5 5 5 5 5 5 5 6 5 5 5 5 5 5 5 6 5 5 5 5 5 5 5 5 5 5 5 5 5 5 5 5 5 5 5 5 5 6 5 5 5 5 5 5 5 5 5 5 5 5 5 5 5 5 5 6 5 5 5 5 5 5 5 5 5 5 5 5 5 5 5 5 5 5 5 5 5 5 5 5 5 5 5 5 5 5 5 5 5 5 5 5 5 5 5 5 5 5 5 5 5 5 6 5 5 5 5 5 5 5 5 5 5 5 5 5 6 5 6 5 5 5 5 5 6 5 5 5 5 5 6 6 5 5 5 5 5 5 5 5 5 5 5 5 5 5 5 5 5 6 6 5 5 5 5 5 5 6 5 6 5 5 5 5 5 5 5 5 5 6 5 5 5 5 5 5 5 5 5 5 5 5 5 5 5 5 5 5 5 6 5 5 5 5 5 6 5 6 5 5 5 5 5 5 5 6 5 5 5 6 5 5 5 6 5 5 6 5 5 5 6 5 5 6 5 6 5 6 5 5 6 5 5 5 5 5 5 5 5 5 5 5 5 5 5 5 5 5 5 5 5 5 6 5 6 5 5 5 5 5 5 5 6 5 5 5 5 5 5 5 5 5 5 5 5 5 5 5 5 5 5 5 6 5 5 5 6 5 5 5 5 5 5 5 5 5 5 6 5 5 5 5 6 5 5 6 5 5 5 5 5 6 5 5 5 5 6 5 6 5 5 6 5 5 5 5 5 5 5 6 5 5 6 5 6 5 5 5 5 5 5 5 5 5 5 5 5 5 5 5 5 5 5 6 5 5 5 5 5 5 5 6 5 5 5 5 6 5 5 5 5 5 5 5 5 5 6 5 5 5 5 6 5 5 5 5 5 5 5 5 5 5 5 5 6 5 5 5 5 5 5 5 5 5 6 5 5 5 5 5 5 5 5 5 5 5 5 6 5 5 6 5 5 5 5 5 5 5 5 5 6 6 6 5 5 5 6 5 5 5 5 5 5 6 5 5 5 6 6 5 5 5 5 5 5 5 5 5 5 5 5 6 5 5 5 6 6 5 5 5 5 5 6 5 5 5 5 6 5 5 5 5 6 5 5 5 5 5 6 6 6 5 5 5 6 6 5 5 5 5 5 5 5 5 5 6 6 5 5 5 6 6 5 5 5 5 5 5 5 5 5 5 5 5 5 5 5 5 5 6 5 6 5 5 5 5 6 5 5 5 5 5 5 5 6 5 5 5 5 5 5 5 6 5 5 6 5 6 6 5 5 5 6 6 5 5 5 6 6 5 5 5 5 5 5 5 5 5 5 6 5 5 5 5 5 5 5 6 5 5 5 5 6 5 5 5 5 5 5 6 5 5 5 5 6 5 6 5 5 5 5 5 5 5 5 5 5 5 5 5 5 6 5 5 5 5 5 5 5 6 5 5 5 5 6 5 5 5 6 5 5 5 5 5 5 5 5 5 5 5 5 5 5 5 5 5 5 5 5 5 5 6 5 6 5 5 6 5 5 5 6 5 5 6 5 5 5 5 5 5 5 5 5 5 5 5 5 5 5 5 5 5 5 5 6 6 6 5 5 5 5 5 5 5 5 5 5 5 5 5 6 5 5 5 6 5 5 6 5 5 5 5 6 5 5 6 6 5 5 5 5 6 5 5 6 5 6 5 5 5 5 5 5 5 5 5 5 5 5 6 5 5 5 5 5 5 5 6 5 6 5 5 5 5 6 5 5 5 5 5 5 5 5 5 5 5 5 5 5 5 5 5 5 5 5 5 5 5 6 5 5 5 6 5 6 5 5 5 6 5 5 5 5 5 6 5 5 6 5 5 5 5 5 5 5 5 6 5 5 5 5 5 6 5 5 5 5 5 5 5 5 5 5 5 5 5 5 6 5 5 5 5 6 5 5 5 5 5 5 5 5 5 5 5 5 6 5 5 5 5 6 5 5 5 5 5 5 5 5 5 5 5 5 5 6 5 5 6 5 5 5 6 5 5 5 5 5 5 5 5 5 5 5 5 5 6 6 5 6 6 5 5 5 6 6 5 6 5 6 5 6 5 5 5 6 5 6 5 5 5 5 6 5 5 5 5 5 5 6 5 5 5 5 5 6 5 5 6 5 5 6 5 5 6 5 5 5 5 5 6 5 6 5 5 5 5 5 5 5 5 5 5 5 5 5 6 5 5 6 5 5 5 5 5 5 5 5 5 6 5 5 5 5 5 5 5 5 5 6 5 5 6 5 6 5 5 5 5 5 5 5 6 5 5 5 5 5 5 5 6 5 6 5 5 6 5 5 5 6 5 5 5 5 6 5 5 5 5 5 6 5 5 5 5 5 5 5 5 5 5 5 5 5 5 5 5 5 5 5 5 5 6 5 5 6 5 5 5 6 5 5 5 5 6 5 5 5 5 5 5 5 5 5 5 5 5 5 5 5 5 5 5 5 5 5 5 5 6 5 5 5 5 5 5 6 5 5 5 5 5 5 5 5 5 5 5 5 5 6 5 6 5 5 6 5 5 5 5 6 6 5 6 5 6 5 5 5 5 5 6 5 5 6 6 5 5 5 5 5 6 5 5 6 5 5 5 5 5 5 5 5 6 6 5 5 5 6 5 6 5 5 5 5 5 6 5 6 5 5 5 5 5 6 6 5 5 5 5 6 5 5 5 5 6 5 5 5 5 5 5 5 5 5 5 5 5 5 5 5 5 5 6 5 5 6 5 5 5 6 5 5 5 5 5 5 5 5 5 5 5 5 5 5 5 5 5 5 5 6 5 5 5 5 5 5 5 5 5 5 5 5 5 5 6 6 5 5 5 6 5 5 5 5 5 6 5 5 5 5 5 5 5 5 5 5 5 6 5 5 6 5 5 5 5 5 5 5 5 5 5 6 5 5 5 6 5 6 5 6 5 5 5 6 6 5 6 5 5 6 5 5 6 6 5 5 5 6 5 5 6 5 6 5 5 5 6 5 5 6 6 5 6 5 5 6 5 6 5 5 5 5 5 5 5 5 5 6 5 5 5 5 5 6 5 5 5 5 5 5 5 5 5 5 6 5 5 5 5 6 6 5 5 6 5 6 5 5 5 5 5 6 5 5 6 5 6 5 5 5 5 5 5 5 6 5 5 5 5 5 5 5 5 5 6 5 6 5 6 5 6 5 5 5 5 6 5 5 5 5 5 6 6 5 5 5 5 5 5 6 5 5 5 5 5 6 5 5 5 5 6 5 5 6 5 6 5 5 5 6 5 6 5 5 6 6 6 5 5 5 5 5 5 6 6 6 5 5 5 5 6 5 6 5 6 5 5 5 5 5 5 6 5 5 5 5 5 5 5 5 5 5 5 5 5 5 5 5 5 5 5 5 5 5 5 5 5 5 5 5 5 5 5 5 5 5 5 5 5 5 5 5 5 5 5 5 5 5 5 5 5 6 5 5 5 6 6 5 5 5 5 5 5 5 5 5 5 5 5 5 5 5 5 5 5 5 6 5 5 5 5 5 5 5 6 5 5 6 5 5 6 5 5 6 5 6 5 5 6 5 5 5 6 5 6 5 6 6 5 5 5 6 6 5 5 6 5 5 6 5 5 5 5 5 5 5 5 5 5 5 5 6 5 5 5 5 6 5 5 5 5 6 5 5 5 5 5 5 5 5 5 6 5 6 5 5 5 5 6 5 5 5 6 5 5 5 5 5 5 6 5 5 6 5 5 5 6 5 5 5 5 5 5 5 6 5 5 5 5 5 6 5 5 5 5 5 5 5 5 5 5 5 5 5 5 5 6 5 5 5 5 5 6 5 5 6 5 6 5 5 5 5 6 6 5 5 6 5 5 5 5 5 5 5 5 5 5 5 6 5 6 5 5 5 5 5 6 5 5 5 6 5 5 5 6 5 5 5 5 5 5 5 5 5 5 5 5 5 6 5 5 5 5 5 5 5 6 5 6 5 5 5 5 5 5 5 6 6 5 5 5 5 5 5 5 5 5 6 5 5 5 5 5 5 6 6 6 5 6 5 5 5 5 5 5 6 5 6 5 6 5 6 5 5 5 5 5 5 6 5 5 6 5 5 5 5 6 5 5 5 5 5 5 5 5 5 5 5 5 5 5 5 5 5 5 5 5 5 6 5 6 5 5 5 5 5 5 5 5 5 5 5 5 5 5 5 5 5 5 5 5 5 5 5 5 5 5 5 5 5 5 5 5 5 5 5 5 5 5 5 5 5 5 5 5 5 5 5 5 5 5 5 5 5 5 5 5 5 5 6 5 5 5 5 5 5 5 5 5 5 5 5 5 5 5 5 5 5 5 5 5 5 5 6 5 5 5 6 5 6 5 5 5 5 5 5 5 5 5 5 5 5 5 5 5 5 5 5 5 5 5 5 5 5 5 5 5 5 5 5 5 5 5 5 5 5 5 5 5 6 5 6 5 5 5 5 5 5 5 5 5 5 5 5 5 5 5 5 5 5 5 5 5 5 5 5 5 6 5 5 5 5 5 5 5 5 5 5 5 5 5 5 5 5 5 5 5 5 5 5 5 5 5 5 5 5 5 5 5 5 5 5 5 5 5 5 5 5 5 5 5 5 5 5 5 5 5 5 5 5 5 5 5 5 5 5 5 5 5 5 5 5 5 5 5 5 5 6 5 5 5 5 5 5 5 6 5 5 6 5 5 5 5 5 5 5 5 5 5 5 5 5 5 5 5 5 5 5 5 6 5 5 5 5 5 5 5 5 5 5 5 5 5 5 5 5 5 5 5 5 5 5 5 5 5 5 5 5 5 5 5 5 6 5 5 5 5 6 5 6 5 5 5 5 5 5 6 5 5 6 5 5 6 6 5 6 5 5 5 6 5 5 5 5 5 5 5 5 5 5 5 5 5 5 5 6 5 5 5 5 5 5 5 5 6 5 5 5 5 5 5 5 5 5 5 5 5 5 5 5 5 5 5 5 5 5 5 5 5 5 5 5 5 5 5 5 5 5 5 5 5 6 5 5 5 5 5 5 5 6 5 5 6 5 6 5 5 5 5 5 5 5 5 5 5 5 6 6 5 5 6 5 5 6 6 5 5 5 5 6 5 6 5 5 6 5 6 6 5 6 5 6 5 5 5 5 5 5 5 6 5 6 5 5 5 5 5 6 5 5 5 6 5 5 6 5 6 5 6 6 5 5 6 5 5 5 5 5 5 6 5 5 5 5 5 5 5 5 6 6 5 5 5 6 5 5 5 5 6 6 5 6 5 5 5 6 5 5 5 5 5 5 5 5 5 5 5 5 5 5 5 5 6 5 5 5 5 5 5 6 5 6 5 5 5 6 6 5 5 6 5 6 5 5 5 5 5 5 5 5 5 5 5 5 6 6 5 5 5 5 5 6 5 5 5 5 5 5 5 6 5 5 5 6 5 6 5 5 6 5 5 5 5 5 5 5 5 5 6 5 5 6 5 5 5 5 5 5 5 5 5 5 5 6 5 5 5 5 5 5 5 5 5 5 5 5 5 5 5 5 5 5 5 5 5 5 6 5 5 5 5 5 5 5 5 5 5 5 6 5 5 5 5 6 5 5 5 5 5 5 5 5 5 5 5 6 5 5 5 5 5 6 5 6 5 5 5 5 5 5 5 5 5 6 5 5 6 5 5 6 5 5 5 5 6 5 5 5 5 5 5 5 5 5 5 5 5 5 5 5 5 5 5 5 5 5 6 5 5 6 5 6 5 5 5 5 5 5 5 5 5 6 5 5 6 6 6 5 5 5 6 5 5 5 5 5 5 6 6 5 6 5 5 6 5 5 6 5 5 5 5 6 5 5 5 5 6 5 5 5 5 5 5 5 5 5 5 5 6 5 5 6 5 6 6 5 5 6 6 6 5 5 5 5 5 5 5 5 5 5 6 5 5 5 5 5 5 5 5 5 6 5 5 5 5 5 6 5 5 5 5 5 5 5 5 5 5 6 5 5 5 5 5 5 5 5 5 5 5 5 5 5 5 5 5 5 5 5 5 5 5 5 6 6 5 5 5 5 5 5 5 5 6 5 5 5 5 5 5 5 5 5 5 5 5 5 5 5 5 6 5 5 5 5 6 5 5 5 6 6 5 5 5 5 5 5 6 5 6 5 5 5 6 5 5 5 5 5 5 5 5 6 5 6 6 5 5 5 5 5 5 5 5 5 5 5 5 6 5 5 6 5 6 5 5 5 5 5 5 5 5 5 5 5 5 5 5 5 5 5 5 5 5 5 5 5 6 5 5 5 5 5 6 5 5 5 5 5 5 5 5 5 5 6 5 5 5 6 5 5 5 5 5 5 5 5 5 5 5 6 6 5 5 5 5 5 6 5 5 5 6 5 5 5 5 5 5 5 5 5 5 6 5 5 5 5 5 5 5 6 6 5 6 5 5 5 5 6 5 5 5 5 5 6 5 5 5 5 5 5 5 5 5 5 6 5 5 5 5 5 5 5 5 5 5 6 5 5 5 5 5 5 5 6 5 5 5 5 5 5 5 5 5 5 5 5 5 5 5 5 5 5 5 5 6 5 5 5 6 5 5 5 5 5 5 5 5 5 5 5 5 5 6 5 6 6 5 6 6 5 5 5 5 5 6 5 5 5 5 5 5 5 6 5 5 6 5 5 6 5 5 6 5 5 6 6 6 6 5 5 6 6 5 5 6 5 5 6 5 5 5 5 6 6 6 6 5 5 5 6 5 6 5 6 5 6 6 5 5 5 5 5 5 5 6 5 5 6 5 6 5 5 6 6 5 5 5 5 5 5 5 5 5 5 5 5 5 5 5 5 5 6 5 5 5 5 5 5 5 5 5 5 5 5 5 5 5 5 5 6 5 5 5 5 5 5 5 5 5 5 5 5 5 5 6 6 5 5 5 5 6 5 6 5 5 5 6 6 5 6 5 5 5 5 5 5 5 5 5 5 5 5 5 5 5 5 5 5 5 6 5 6 5 5 5 5 6 5 5 5 5 5 5 5 5 5 5 5 5 5 5 5 5 5 5 5 5 6 5 5 5 5 5 5 5 5 5 5 5 5 5 5 6 5 5 5 5 5 5 5 5 5 5 5 5 5 5 5 5 5 5 5 5 5 5 5 5 5 5 5 5 5 5 5 5 5 5 5 5 5 5 5 5 5 5 5 5 5 5 5 5 5 5 5 5 5 5 5 5 5 5 5 5 5 5 6 5 5 5 6 5 5 6 5 5 5 5 5 5 5 5 5 5 5 6 5 5 5 5 6 5 5 5 5 5 5 5 5 5 5 5 5 5 5 5 5 5 5 5 5 5 5 5 5 5 5 5 5 5 6 5 5 5 5 6 5 5 5 5 5 5 5 5 5 5 6 5 5 6 5 5 5 5 5 5 5 5 5 5 5 5 6 5 5 5 5 5 5 5 5 6 5 5 5 5 5 5 5 5 5 5 6 5 6 5 5 5 6 5 5 5 6 5 6 5 6 6 5 5 5 5 5 6 5 5 5 5 5 5 5 5 5 5 5 5 5 5 5 5 5 5 5 5 5 5 5 6 5 5 6 5 5 5 6 5 6 5 5 5 5 5 5 5 5 5 5 5 5 6 5 5 5 5 5 5 5 5 5 5 5 5 5 5 5 5 5 5 5 6 5 5 5 5 5 5 5 5 5 5 5 5 5 5 5 5 5 5 5 5 5 5 5 5 5 5 5 6 5 5 5 5 5 5 5 5 5 5 5 5 5 5 5 5 5 5 6 5 5 5 6 5 5 5 6 6 5 5 5 5 5 6 5 5 5 5 5 5 5 6 6 5 5 5 6 5 6 5 5 5 5 5 5 6 6 5 5 6 6 5 5 5 5 5 5 5 5 5 5 6 5 5 5 5 5 5 6 5 5 5 5 5 5 5 5 5 5 5 5 5 5 5 5 5 6 5 5 5 5 6 5 5 6 5 5 5 5 5 5 5 5 5 5 5 6 5 6 5 6 5 5 5 5 5 5 5 5 5 5 5 5 5 5 5 5 5 5 5 6 5 5 6 5 5 5 6 5 5 6 5 5 5 5 6 5 5 5 5 5 5 5 6 5 5 5 5 5 5 5 5 5 5 5 5 5 5 5 5 5 5 5 5 5 5 5 5 5 5 5 5 5 6 5 5 5 5 5 5 5 5 5 5 5 5 5 5 5 5 5 5 5 5 5 5 5 5 5 5 5 5 5 5 5 5 5 5 5 5 5 6 6 6 5 5 6 5 5 5 6 5 6 5 5 5 5 5 6 5 5 5 5 5 5 5 6 5 5 5 5 5 5 5 5 5 5 5 5 5 5 6 5 5 5 6 5 6 5 5 5 5 5 5 5 5 6 5 5 5 5 5 5 5 6 5 6 5 6 5 5 5 5 5 5 5 5 6 5 5 6 6 6 5 6 5 6 5 5 5 5 5 5 5 5 5 5 5 5 5 5 5 5 5 5 5 5 5 6 5 5 6 6 5 5 5 6 5 5 5 5 5 5 5 6 5 6 5 5 5 5 6 5 5 6 5 5 5 5 5 5 5 6 5 5 6 5 5 5 6 5 5 5 5 5 5 5 5 5 6 5 5 5 5 5 5 6 5 5 6 5 5 5 5 6 5 5 5 5 5 5 6 6 6 5 5 5 6 5 6 5 6 5 5 5 5 5 5 6 5 5 5 6 5 5 5 6 5 5 5 5 5 5 5 5 5 5 5 5 6 5 5 5 6 5 5 5 5 5 6 6 5 5 6 5 6 6 6 5 5 5 6 5 5 5 5 5 6 5 5 5 5 5 5 5 5 5 5 5 5 6 5 5 5 5 5 5 6 5 5 6 5 5 6 5 5 5 5 5 6 5 5 6 5 6 5 6 5 5 5 5 5 5 6 5 5 5 5 6 5 5 5 5 5 5 5 5 5 5 6 5 5 5 5 5 6 5 5 5 5 5 5 5 5 5 5 5 5 5 5 5 6 5 5 5 5 5 6 5 6 5 5 5 5 5 6 5 5 5 5 5 6 5 5 5 5 5 6 5 5 5 5 5 5 5 5 5 5 6 5 6 5 6 5 5 6 5 5 5 5 5 5 5 5 6 5 6 5 5 5 5 5 5 5 5 5 5 6 5 5 5 5 5 5 5 5 5 5 6 5 5 5 6 5 6 6 5 5 5 6 5 5 5 6 6 5 5 5 5 5 5 5 5 5 5 6 6 5 5 5 5 5 6 5 5 5 5 5 5 5 5 5 5 6 5 6 6 6 5 5 5 5 5 5 5 5 6 5 5 5 5 5 5 5 5 5 5 5 5 5 5 5 5 5 5 5 5 5 5 5 5 5 5 5 5 5 6 5 5 5 5 6 5 5 5 5 5 5 5 5 6 5 5 5 5 5 5 5 5 6 5 5 5 5 5 5 5 5 5 5 5 5 5 5 5 5 5 5 5 5 5 5 5 5 5 5 6 5 5 5 5 5 5 6 5 6 5 5 6 5 5 5 6 5 6 5 5 5 6 5 5 5 6 5 5 5 5 5 5 6 5 5 5 5 5 5 5 5 5 5 5 5 5 5 5 5 5 5 5 5 5 5 5 5 5 5 5 6 5 6 5 5 5 5 6 5 5 5 5 5 5 5 5 5 5 5 5 5 6 5 5 6 5 5 6 5 5 5 5 5 6 5 5 5 5 5 5 5 5 6 5 6 5 5 5 5 5 6 6 5 5 6 5 5 5 6 5 5 5 5 5 5 5 6 5 5 5 5 5 5 5 5 5 5 5 5 5 5 5 5 6 5 5 5 5 5 6 5 6 5 5 5 5 5 5 5 5 5 5 5 5 6 5 6 5 5 5 5 5 5 6 6 5 5 5 5 5 5 5 5 5 5 5 5 5 5 5 5 5 5 5 5 5 6 5 5 6 5 5 5 5 5 6 5 5 5 5 5 5 6 5 5 5 5 5 5 5 5 5 5 5 5 5 5 5 5 6 5 5 6 5 5 5 5 6 5 5 5 5 5 5 5 5 5 5 5 6 5 5 5 5 5 5 5 5 5 5 5 5 5 5 5 5 5 5 5 6 5 5 5 5 5 5 5 5 5 5 5 5 6 5 5 5 5 5 5 5 5 5 5 5 5 5 6 6 5 5 5 5 5 5 6 5 5 5 5 5 5 5 5 5 5 5 5 5 5 5 5 5 5 5 5 5 5 5 5 5 5 5 5 5 5 5 5 5 5 5 6 5 5 5 5 5 5 5 5 6 5 5 5 5 5 5 5 5 5 5 5 5 6 5 5 5 5 6 5 6 5 5 5 5 5 5 5 5 6 5 5 5 5 5 5 5 5 5 5 6 5 5 5 6 5 5 6 5 5 5 5 6 5 5 6 5 5 5 5 5 5 5 5 6 5 5 5 6 5 5 5 5 5 5 5 6 5 6 5 6 5 6 6 5 5 5 6 6 6 5 5 6 5 5 5 6 5 5 5 5 6 5 5 5 5 5 5 5 5 5 5 5 5 5 5 5 5 5 5 5 5 5 5 5 5 5 5 5 5 5 5 5 5 5 5 5 5 5 5 6 5 5 5 5 5 5 5 5 6 5 5 5 5 6 5 5 6 5 5 6 5 5 5 5 6 5 5 5 5 5 6 5 5 5 5 5 5 5 5 5 5 5 5 5 6 6 5 5 5 6 5 5 5 5 5 5 5 5 5 5 5 5 5 5 6 5 5 5 5 5 5 6 5 5 6 5 5 5 5 5 5 5 5 5 5 6 5 5 5 5 5 6 5 5 5 5 5 5 5 5 5 5 6 5 5 5 5 5 5 5 5 5 5 5 5 5 5 5 6 5 5 5 5 5 5 5 5 5 5 5 5 5 5 5 5 5 5 5 5 5 5 5 6 5 6 5 5 5 6 5 5 5 5 5 5 5 5 5 6 5 5 5 6 5 5 5 5 5 5 5 5 5 5 5 5 5 5 5 5 6 5 5 5 5 5 6 5 5 5 6 5 6 5 5 5 5 5 5 6 5 5 5 5 5 5 5 5 5 5 5 5 5 5 5 5 5 5 5 5 5 5 5 5 5 5 5 6 5 5 6 5 5 5 5 5 5 5 6 5 5 5 5 6 5 5 6 5 5 5 5 5 5 6 5 5 5 6 5 5 5 6 5 5 5 5 5 6 5 5 5 5 5 6 5 5 5 5 5 5 5 5 6 5 5 6 5 5 5 5 6 5 5 5 5 6 5 5 5 5 6 5 5 5 6 5 6 5 5 5 5 5 5 5 5 5 5 6 5 5 5 5 5 5 5 6 6 5 5 5 5 5 6 5 5 5 5 5 6 5 5 5 6 5 5 6 5 5 6 5 5 5 6 5 5 5 5 5 5 6 5 5 5 5 5 6 5 5 5 5 5 6 5 5 5 5 5 5 6 5 5 5 5 6 5 5 5 5 5 6 5 5 5 5 5 5 5 5 5 5 6 5 5 5 5 5 5 5 6 5 5 5 5 6 6 5 5 6 5 5 5 5 5 5 5 6 5 5 5 5 5 5 5 6 5 6 5 5 6 5 5 5 5 6 5 6 5 5 5 5 5 5 5 5 5 5 6 5 5 5 5 5 6 5 5 5 6 5 5 5 5 6 5 5 6 5 5 5 5 5 6 5 6 5 6 6 5 5 5 5 6 6 5 5 5 5 5 5 5 5 5 5 5 5 5 6 5 5 5 5 5 5 6 6 5 5 5 5 5 5 5 5 5 5 5 5 5 6 5 5 5 5 5 5 5 5 5 5 5 5 5 5 5 5 5 5 5 5 5 5 5 5 5 5 5 5 5 5 5 5 5 6 5 5 6 5 5 5 5 5 5 5 6 5 5 5 6 5 5 6 5 5 5 6 6 5 5 5 5 6 6 5 5 5 5 5 5 5 5 5 5 5 5 5 5 6 5 5 6 5 5 5 6 5 5 5 5 6 5 5 6 5 5 5 5 5 5 5 5 5 5 5 6 5 5 5 5 5 5 5 6 5 5 5 5 5 5 5 5 5 5 5 5 5 5 5 5 5 5 6 5 5 5 5 5 5 6 5 6 5 5 5 5 5 6 5 5 6 5 5 5 6 5 5 5 6 5 5 5 5 5 5 5 5 5 5 5 5 5 5 6 5 5 5 5 6 6 5 5 5 5 5 5 5 5 5 5 5 5 5 5 5 5 5 5 5 6 5 5 5 5 5 5 5 5 6 5 6 5 5 5 5 5 5 5 6 5 6 5 5 5 5 5 6 5 5 5 5 5 5 6 5 5 5 5 5 6 6 5 5 5 6 6 6 5 5 5 5 5 6 5 5 5 5 5 6 5 5 5 5 6 5 6 6 5 6 6 5 5 5 6 5 5 5 6 5 5 5 6 5 5 5 6 5 5 5 5 5 5 5 5 6 5 5 5 6 5 5 5 5 5 5 6 5 5 5 5 5 5 6 5 5 5 5 5 5 5 5 5 5 5 5 5 5 6 5 6 5 5 5 6 5 5 6 5 6 5 6 5 5 6 5 5 5 5 5 5 6 5 5 5 5 6 5 5 5 5 5 5 6 5 5 5 5 5 5 5 5 5 5 6 5 5 5 5 5 5 5 5 5 5 5 5 5 5 5 5 5 5 5 6 6 5 5 5 6 5 5 6 5 5 6 5 5 6 5 5 6 6 5 5 5 5 6 5 5 5 5 5 5 5 5 5 5 5 6 6 5 5 5 6 5 6 5 6 5 5 5 5 5 6 5 5 6 5 6 5 5 6 6 6 5 5 5 5 6 5 5 6 5 6 5 5 6 5 5 5 5 5 5 5 5 6 5 6 6 5 5 5 5 5 6 6 5 5 5 6 6 5 5 5 5 5 5 5 5 6 5 6 5 5 5 5 5 5 5 5 5 5 5 5 5 5 5 5 5 5 5 5 5 5 5 5 5 5 5 5 5 6 5 5 5 5 5 5 5 5 5 5 5 5 5 5 5 6 5 5 6 5 5 5 5 5 6 5 5 5 5 5 5 5 5 5 5 5 5 5 6 5 5 5 5 5 5 5 5 5 6 5 5 6 5 5 5 5 6 6 6 5 5 5 5 5 6 5 5 5 
</DataArray>
<DataArray type="Float64" Name="stress" NumberOfComponents="9" format="ascii">
-354070.444829855 990160711.56176758 0 990160711.56176758 -5952682711.864501 0 0 0 0 -1109892.2525236791 1660717.0835342407 0 1660717.0835342407 -352710621.53039551 0 0 0 0 121829.03247894032 1594173.0316975899 0 1594173.0316975899 -3027252.9158082604 0 0 0 0 811066382.29663098 -681589684.74332428 0 -681589684.74332428 -1618219196.7353516 0 0 0 0 877278382.64229059 793218352.91691589 0 793218352.91691589 -5974773745.5828247 0 0 0 0 -305795545.3518222 1626687752.7876968 0 1626687752.7876968 -1959699871.0072632 0 0 0 0 -470110820.8299706 1707835088.6124878 0 1707835088.6124878 -1319190913.2898312 0 0 0 0 75414.524762243789 1809603.6923253387 0 1809603.6923253387 -3169738.5005600005 0 0 0 0 -671944460.22891307 2269584925.7999344 0 2269584925.7999344 -2436927616.4458618 0 0 0 0 -27577078.999817193 1021994712.4327545 0 1021994712.4327545 -3422856931.076355 0 0 0 0 -28894193.361934531 870350711.50405884 0 870350711.50405884 -1596977803.3367004 0 0 0 0 117228515.98008394 558997718.49104309 0 558997718.49104309 -2118274796.8980637 0 0 0 0 -224607051.3054902 352212144.22254944 0 352212144.22254944 -1878402796.8192902 0 0 0 0 -206089851.4842099 269290171.42733765 0 269290171.42733765 -2085262114.5244446 0 0 0 0 -4405758.7704423806 251905272.97121429 0 251905272.97121429 -2388562323.2473221 0 0 0 0 512677460.69118977 1251101438.1672821 0 1251101438.1672821 -2690230768.6693573 0 0 0 0 108054879.71325636 577030640.80749512 0 577030640.80749512 -1786810475.8916626 0 0 0 0 377434181.84258711 164370970.13447571 0 164370970.13447571 -1841150039.8980885 0 0 0 0 983844967.79003274 -446414854.66957092 0 -446414854.66957092 -721030973.95730591 0 0 0 0 2579302691.1327085 407854194.18592834 0 407854194.18592834 -2411523282.3067322 0 0 0 0 78910.018852935929 2984306.7712600911 0 2984306.7712600911 -5486989.481870532 0 0 0 0 -722005125.77024245 1390925980.4739532 0 1390925980.4739532 416933508.97116852 0 0 0 0 -143528102.55361104 1571490291.4683075 0 1571490291.4683075 -2471853508.7870789 0 0 0 0 871985723.17829728 1639460659.1924286 0 1639460659.1924286 -2467304597.0104046 0 0 0 0 874275990.2272135 2443933581.165081 0 2443933581.165081 -5972689814.3916931 0 0 0 0 539240.13721755717 3854924.9247595817 0 3854924.9247595817 -5220731.4482520521 0 0 0 0 2451423533.9578495 -1174026928.8501778 0 -1174026928.8501778 -4275019685.8468628 0 0 0 0 -494508495.47303838 3144207421.733696 0 3144207421.733696 -2101131696.3571625 0 0 0 0 2211658067.5954623 -37810570.809684753 0 -37810570.809684753 -5971561532.6651764 0 0 0 0 124421969.94894843 290423769.8325882 0 290423769.8325882 -3398092235.7295074 0 0 0 0 123653245.2196835 990621449.72285151 0 990621449.72285151 -4635063536.5163574 0 0 0 0 827962000.8621968 -1335611549.1094131 0 -1335611549.1094131 -1366908918.0576172 0 0 0 0 -2393126086.5327096 2619445363.4182644 0 2619445363.4182644 -9253930070.8486328 0 0 0 0 227059.0227316746 -2387341.7660266459 0 -2387341.7660266459 -7819921.8438979983 0 0 0 0 -2513854554.6882315 2635263047.9288025 0 2635263047.9288025 -4028107203.631424 0 0 0 0 -576339643.20489883 2077378406.590271 0 2077378406.590271 -5988905703.989665 0 0 0 0 -1829413312.0580461 1531949989.3889465 0 1531949989.3889465 -2459956366.591095 0 0 0 0 -1872045627.471266 2244250401.4683609 0 2244250401.4683609 -2535197143.906168 0 0 0 0 -382043781.81557322 -847336613.54248047 0 -847336613.54248047 1786955932.7484741 0 0 0 0 216170594.01774514 -4297086322.0029526 0 -4297086322.0029526 22370079.01675415 0 0 0 0 140701823.56507635 -307247125.43470001 0 -307247125.43470001 -252205314.09710693 0 0 0 0 1652959271.8176014 443687102.55139542 0 443687102.55139542 -379826970.17712402 0 0 0 0 2959982.0144146248 -4751961.8724568486 0 -4751961.8724568486 -19471607.951636575 0 0 0 0 2157909804.4025588 -1423694508.9056787 0 -1423694508.9056787 295761011.43063354 0 0 0 0 1148688552.5041656 -81210080.240310669 0 -81210080.240310669 -10634157.84437561 0 0 0 0 571380098.97000539 -176424558.93122101 0 -176424558.93122101 23821090.161437988 0 0 0 0 1086106711.4425559 -93207509.975563049 0 -93207509.975563049 -108727305.25257874 0 0 0 0 644409098.49477684 -44048825.235961914 0 -44048825.235961914 -634938262.01254272 0 0 0 0 -555842447.71078134 886219564.26630402 0 886219564.26630402 -559592850.72816467 0 0 0 0 339987860.67376518 2734629601.3482742 0 2734629601.3482742 -1774144927.8563843 0 0 0 0 -921593907.46438694 2198449706.0219269 0 2198449706.0219269 433829126.77545166 0 0 0 0 -1267935401.8262925 2391594193.250946 0 2391594193.250946 -1730419347.1819699 0 0 0 0 -1258579445.9459825 1334550829.0347557 0 1334550829.0347557 -1726642149.7013855 0 0 0 0 1469688265.5271902 -599599804.03588104 0 -599599804.03588104 193934361.02520752 0 0 0 0 5114512.3277350068 -4653966.772446759 0 -4653966.772446759 -24212277.314522557 0 0 0 0 4175184.7842041319 2783330.8354383707 0 2783330.8354383707 -4479795.3178486079 0 0 0 0 963818031.19545448 2807027303.9680891 0 2807027303.9680891 -2800545952.8349609 0 0 0 0 1093501795.2821376 1235365953.0939484 0 1235365953.0939484 -2214781131.6936035 0 0 0 0 -683973319.3403244 -177024237.15246582 0 -177024237.15246582 93312122.22026062 0 0 0 0 -68619558.381607056 189027280.52174377 0 189027280.52174377 -478479704.68559265 0 0 0 0 1650963432.3201072 46834757.06652832 0 46834757.06652832 -762387664.04397583 0 0 0 0 1573303981.010587 -65854114.640377998 0 -65854114.640377998 -525149681.14706421 0 0 0 0 1486818136.0262315 893342610.74040222 0 893342610.74040222 622679113.73690796 0 0 0 0 1355351564.2258868 557031977.16386414 0 557031977.16386414 -208230442.77224731 0 0 0 0 2866319.0406804676 6469400.2996909097 0 6469400.2996909097 -28045917.051579773 0 0 0 0 1017666057.8747339 420768608.29029846 0 420768608.29029846 275262023.16711426 0 0 0 0 661144465.48028803 -223079110.62918091 0 -223079110.62918091 -4745851.1175918579 0 0 0 0 617584602.87638628 -378321920.31467438 0 -378321920.31467438 -253427074.23608398 0 0 0 0 875940904.34498143 28610571.086116791 0 28610571.086116791 -745770320.04260254 0 0 0 0 -872077004.9748323 515942095.37680054 0 515942095.37680054 -450403495.59107971 0 0 0 0 -90206631.095042944 704609791.02011108 0 704609791.02011108 -690183533.40409851 0 0 0 0 479953669.22196674 -50451028.686424255 0 -50451028.686424255 -238247860.61764526 0 0 0 0 1148047905.8912239 -46283448.555511475 0 -46283448.555511475 -531906257.75730896 0 0 0 0 353853250.38474274 866711546.1559906 0 866711546.1559906 -314207746.89820862 0 0 0 0 143418227.14390802 614085882.2459259 0 614085882.2459259 -597514149.06785583 0 0 0 0 647419752.83792615 -82576830.255332947 0 -82576830.255332947 227565141.6615448 0 0 0 0 91000397.706476688 453830813.23731995 0 453830813.23731995 -990856523.42907715 0 0 0 0 -1098182036.0366187 866023152.46055603 0 866023152.46055603 -253331031.90853882 0 0 0 0 -1024860250.6122432 579390777.24046326 0 579390777.24046326 98740879.041778564 0 0 0 0 -597482097.11148024 1011409774.4479065 0 1011409774.4479065 -431012243.64694214 0 0 0 0 -59189862.295224667 416921206.04776001 0 416921206.04776001 61781206.058959961 0 0 0 0 -441148527.2856884 425227041.75257874 0 425227041.75257874 372072773.41175842 0 0 0 0 -410846957.61835003 833950361.83435059 0 833950361.83435059 -351063936.18572998 0 0 0 0 -646553817.12459397 830152408.24594116 0 830152408.24594116 44446134.299827099 0 0 0 0 -646257138.78545082 602842260.61236453 0 602842260.61236453 175740674.35360718 0 0 0 0 1453907649.1931632 22229934.792869568 0 22229934.792869568 -406329069.46432495 0 0 0 0 1327673222.3465614 250901431.88161469 0 250901431.88161469 -318949151.34054565 0 0 0 0 1452048.7735596576 5149962.2591102673 0 5149962.2591102673 -20593741.814026132 0 0 0 0 241664702.38163376 -610306836.1214447 0 -610306836.1214447 -179996652.46272278 0 0 0 0 288503515.39550114 -688739659.05018616 0 -688739659.05018616 -385572255.56620026 0 0 0 0 475008890.40295249 -380650445.674366 0 -380650445.674366 -463904305.43597412 0 0 0 0 378410799.13846207 -101226049.59846497 0 -101226049.59846497 152708922.59602356 0 0 0 0 -6979434.0664172173 -351110637.35996246 0 -351110637.35996246 -584212574.5296936 0 0 0 0 90224311.595117807 -531304724.47358704 0 -531304724.47358704 -340127230.30679321 0 0 0 0 -108466802.27242112 -581623478.92472076 0 -581623478.92472076 -992342004.46075439 0 0 0 0 -166699015.33433414 -560819081.79212952 0 -560819081.79212952 -437596556.56517029 0 0 0 0 -282963864.49965143 -365427867.01686096 0 -365427867.01686096 -239148659.62388611 0 0 0 0 -540380419.99684429 -60280322.499328613 0 -60280322.499328613 -2224956.7524108887 0 0 0 0 -511777560.76720965 -615404706.80445862 0 -615404706.80445862 -472398728.05819702 0 0 0 0 912485.69386309455 -28285.534511441831 0 -28285.534511441831 -6404519.3008118868 0 0 0 0 31886.682119327343 -133248755.85939789 0 -133248755.85939789 467568993.17184448 0 0 0 0 125383036.38551182 -43610029.811460495 0 -43610029.811460495 12916788.697692871 0 0 0 0 -80444019.687117577 -116966003.43373108 0 -116966003.43373108 -161751455.91111755 0 0 0 0 147485.06839145219 -647573.01804799773 0 -647573.01804799773 -2568600.7603720874 0 0 0 0 -1202115653.435559 -598056212.78390503 0 -598056212.78390503 -109921660.08581543 0 0 0 0 443962938.52786613 121005851.99513245 0 121005851.99513245 -1463881133.341217 0 0 0 0 -1531896654.245749 -1166002861.9323425 0 -1166002861.9323425 -963345245.92733765 0 0 0 0 -337782509.28951418 -499050036.18759155 0 -499050036.18759155 -555002179.77619934 0 0 0 0 -499993116.10422766 -918577763.22555542 0 -918577763.22555542 -1408613327.6401367 0 0 0 0 -127952148.72462177 -461015450.38066101 0 -461015450.38066101 -1656767494.4768066 0 0 0 0 -341984070.663939 -850652020.30667114 0 -850652020.30667114 -2977625838.6076355 0 0 0 0 -213670327.0790863 -369968556.47485352 0 -369968556.47485352 -1477420619.9166088 0 0 0 0 -552614374.03230977 330134745.39672852 0 330134745.39672852 -2285332730.2526093 0 0 0 0 909703.16296586161 -778199616.93256378 0 -778199616.93256378 -3059808774.9978333 0 0 0 0 -823449792.84500396 18732925.428588867 0 18732925.428588867 -2101816719.381897 0 0 0 0 -501348590.65044719 -37416011.392547607 0 -37416011.392547607 -2161286864.0721436 0 0 0 0 148527257.11154771 452310431.37682343 0 452310431.37682343 -1999393813.3804779 0 0 0 0 -143160491.52513489 149836605.57801437 0 149836605.57801437 -1819816511.1742859 0 0 0 0 -149256765.54544157 244890413.95239258 0 244890413.95239258 -2330213250.5442505 0 0 0 0 890123455.16603649 663331196.73266602 0 663331196.73266602 -1878786576.9829407 0 0 0 0 178593616.67892575 231741532.5196228 0 231741532.5196228 -1277069536.8609924 0 0 0 0 174144140.39386749 580838517.86402893 0 580838517.86402893 -1887349384.7005997 0 0 0 0 -1121141947.6145263 1589297825.4517746 0 1589297825.4517746 -1126262476.9162292 0 0 0 0 230785834.62053061 455139704.76654053 0 455139704.76654053 -869991282.47901535 0 0 0 0 60578601.457386017 591263699.08668518 0 591263699.08668518 -911138146.36044312 0 0 0 0 305093049.7087779 49413143.145462036 0 49413143.145462036 -647906982.16663361 0 0 0 0 113955713.41885015 -130677993.97432709 0 -130677993.97432709 -802355802.05471802 0 0 0 0 96785031.064834446 29951578.987678528 0 29951578.987678528 -1462318074.493988 0 0 0 0 -72420454.925823689 -170470125.97387695 0 -170470125.97387695 -923504935.63228226 0 0 0 0 179599705.35313535 236708891.46505737 0 236708891.46505737 -1940289382.9772339 0 0 0 0 -288944234.48876846 209508244.1524353 0 209508244.1524353 206668266.36920166 0 0 0 0 -74431607.715591311 518542636.79682922 0 518542636.79682922 -923576058.56269836 0 0 0 0 79781762.542767048 378657233.96847534 0 378657233.96847534 -1112644339.2133179 0 0 0 0 -120114122.3195622 213140754.82460022 0 213140754.82460022 -1333700198.7546921 0 0 0 0 -29492320.176719278 590966757.38323498 0 590966757.38323498 -1898437726.1553192 0 0 0 0 -132282883.71310085 1341862137.1435699 0 1341862137.1435699 -2672731241.0167694 0 0 0 0 151624823.06925154 971414851.00471497 0 971414851.00471497 -2695079661.1149521 0 0 0 0 -740279656.07665396 919223829.60147858 0 919223829.60147858 -963368551.07073975 0 0 0 0 592089978.23901737 1671307542.2655563 0 1671307542.2655563 -5987020266.8862228 0 0 0 0 905952207.23266339 972328350.22228241 0 972328350.22228241 -4660077058.7796707 0 0 0 0 702611800.66456938 928735555.50490189 0 928735555.50490189 -4652154381.3171082 0 0 0 0 540329988.2498126 899881353.7590332 0 899881353.7590332 -3656299043.5196838 0 0 0 0 925251249.9798435 276223316.96152496 0 276223316.96152496 -4797998154.2544556 0 0 0 0 1179886796.4876289 765225075.51305389 0 765225075.51305389 -5984062464.1928864 0 0 0 0 918297863.23465645 476552318.69227874 0 476552318.69227874 -4742775381.2708435 0 0 0 0 202267246.18799251 239686966.57358932 0 239686966.57358932 -2453275035.0627518 0 0 0 0 418616449.29355884 -121395603.79279327 0 -121395603.79279327 -3075443957.4941978 0 0 0 0 -88976951.661695957 -333942881.87485504 0 -333942881.87485504 -879647572.93099213 0 0 0 0 170069172.48705411 -559351511.45671844 0 -559351511.45671844 -2310853257.5764942 0 0 0 0 -571153.97232837277 -1183332.6526676416 0 -1183332.6526676416 -1115824.9925599098 0 0 0 0 -433361676.69657016 -1183231159.7111206 0 -1183231159.7111206 -2204491100.9081573 0 0 0 0 -1083472.0140483698 1884135.0456446875 0 1884135.0456446875 -5927267.1251087636 0 0 0 0 169953067.71194148 433475783.51114655 0 433475783.51114655 -4287575692.7003937 0 0 0 0 188412119.9956288 -714195716.00915527 0 -714195716.00915527 -3995230439.7719269 0 0 0 0 285560818.95773107 -453971344.82767868 0 -453971344.82767868 -5983442639.720665 0 0 0 0 148953387.69839364 -378614243.30487633 0 -378614243.30487633 -4451600397.9589539 0 0 0 0 -444313387.63170928 -1490577393.4279938 0 -1490577393.4279938 -5983738384.4243326 0 0 0 0 -2038982872.6564357 -292298068.54058838 0 -292298068.54058838 -4121877445.4771576 0 0 0 0 -1834015761.6301219 -1360145256.0126266 0 -1360145256.0126266 -2879028793.5998077 0 0 0 0 -1009817374.801989 -2167962898.6331329 0 -2167962898.6331329 -4350101441.7912598 0 0 0 0 -404259106.32129264 -2286810646.6515274 0 -2286810646.6515274 -4330489694.6710205 0 0 0 0 73009940.022673488 -2008688529.8534088 0 -2008688529.8534088 -6987028768.6367416 0 0 0 0 -4176063993.2727642 -1178170070.0611877 0 -1178170070.0611877 -5986857166.221077 0 0 0 0 207119838.84479189 -4023114002.9168854 0 -4023114002.9168854 -4640685027.1901855 0 0 0 0 -565656076.4726603 -1691056981.5943909 0 -1691056981.5943909 -2088588943.5359802 0 0 0 0 -1098545580.4441297 -2315455692.5215569 0 -2315455692.5215569 -1593052335.8259277 0 0 0 0 -236634133.54808187 568135390.87913513 0 568135390.87913513 -2074553630.6242676 0 0 0 0 -1207345401.7297895 -688952259.28817749 0 -688952259.28817749 -787655628.72024536 0 0 0 0 -1243971656.6164737 -1184225918.9782181 0 -1184225918.9782181 -3568674015.4740601 0 0 0 0 -1429614856.7095306 1387127211.2168732 0 1387127211.2168732 -3068794504.6610203 0 0 0 0 -2743845388.312254 1370723869.7028198 0 1370723869.7028198 -546100330.06707764 0 0 0 0 -683596578.64123297 688540669.55555725 0 688540669.55555725 -598350085.98002625 0 0 0 0 -1353275925.4993956 952458442.64333344 0 952458442.64333344 -620367596.6913147 0 0 0 0 -843162787.04834056 722000669.92576599 0 722000669.92576599 -1350211007.1082153 0 0 0 0 -2046038131.4427481 825248440.33438873 0 825248440.33438873 -334803466.54663849 0 0 0 0 -1579336508.2545624 1348379630.1071815 0 1348379630.1071815 -784155445.5953064 0 0 0 0 -751244210.1691947 76779996.524749756 0 76779996.524749756 69937203.880737305 0 0 0 0 317145391.00281239 174252073.10270691 0 174252073.10270691 -562058770.59700584 0 0 0 0 -4782232.88104547 6500432.7849495709 0 6500432.7849495709 -11179430.793231031 0 0 0 0 -336527714.38619137 -15610006.340015411 0 -15610006.340015411 257444917.87960815 0 0 0 0 -3077800749.5763364 491572694.14265442 0 491572694.14265442 -73024424.186767578 0 0 0 0 -742228.36941052601 84472.621678709984 0 84472.621678709984 149402.77326928545 0 0 0 0 -2812979854.1260872 1291994059.2303925 0 1291994059.2303925 -490626778.56080627 0 0 0 0 -1621850.4392592332 2617612.0568305925 0 2617612.0568305925 -377061.83087681234 0 0 0 0 -1105713004.7287939 532079515.71871114 0 532079515.71871114 -645884199.40213013 0 0 0 0 -1522527280.0758171 1107853737.1673737 0 1107853737.1673737 -462345128.95823669 0 0 0 0 -446488830.0781765 -450884214.40907288 0 -450884214.40907288 -197139832.99255371 0 0 0 0 -2341098770.052927 121118063.5606842 0 121118063.5606842 437030660.44775391 0 0 0 0 -1465215622.2820396 -927503997.51144409 0 -927503997.51144409 181038738.50231934 0 0 0 0 -1068595329.8052826 306268512.2718811 0 306268512.2718811 351642344.89883423 0 0 0 0 -978615256.69118404 362605686.78874969 0 362605686.78874969 235858031.31292725 0 0 0 0 -964513340.27415085 743031038.84205627 0 743031038.84205627 168717759.44841766 0 0 0 0 -581429857.50367546 330179908.12825012 0 330179908.12825012 226650155.68392944 0 0 0 0 -724113676.87665939 508290881.23501587 0 508290881.23501587 63283886.232788086 0 0 0 0 -672487594.9428339 211029591.13083267 0 211029591.13083267 482851255.92312622 0 0 0 0 -223958733.87026501 245592566.95622444 0 245592566.95622444 23759993.220245361 0 0 0 0 -73586367.718205452 24030315.237953186 0 24030315.237953186 26337301.838684082 0 0 0 0 -20153197.727390289 15722388.528205872 0 15722388.528205872 6572225.0900115967 0 0 0 0 -6927045.56570464 6293251.4467561096 0 6293251.4467561096 13317335.406774879 0 0 0 0 33962243.074813843 51999409.020515442 0 51999409.020515442 -10718165.70173645 0 0 0 0 -5670672.5799189974 13562036.583475558 0 13562036.583475558 -11274925.553276241 0 0 0 0 -35352731.922421455 70891264.952281952 0 70891264.952281952 7374232.7107543945 0 0 0 0 34110052.197341919 -53875140.757095337 0 -53875140.757095337 -71080391.256599426 0 0 0 0 -40854730.306121826 20292272.844871521 0 20292272.844871521 -2547953.1467285156 0 0 0 0 -24834963.809739113 44890543.108768463 0 44890543.108768463 -32045862.707885742 0 0 0 0 -8269396.4246463776 12969439.291114807 0 12969439.291114807 -16104067.038505554 0 0 0 0 -17429070.906984329 12233303.437850952 0 12233303.437850952 -8863345.5326690674 0 0 0 0 -46651345.204672337 21393267.278320312 0 21393267.278320312 37071750.118148804 0 0 0 0 -10304274.774475718 8451457.9996922985 0 8451457.9996922985 -15393732.548335249 0 0 0 0 -103575504.4118824 320712084.71006775 0 320712084.71006775 -476685346.69094849 0 0 0 0 -3520580.4873480685 8620529.3364408854 0 8620529.3364408854 -14174661.484868258 0 0 0 0 67013942.314466484 79261101.809251785 0 79261101.809251785 -14948745.747070312 0 0 0 0 -18876659.989059925 11617851.442703247 0 11617851.442703247 13507008.088588715 0 0 0 0 -177460748.00620303 134135378.26039886 0 134135378.26039886 10220583.808792114 0 0 0 0 -186017770.68597996 -65412779.651656389 0 -65412779.651656389 -19493220.956848145 0 0 0 0 -207770145.48065782 -64777384.435264587 0 -64777384.435264587 -303588919.91601562 0 0 0 0 61601782.050960064 369143944.77705383 0 369143944.77705383 -251745046.21302795 0 0 0 0 -6642506.639488901 -4006124.8103409372 0 -4006124.8103409372 2217367.9698114768 0 0 0 0 123751543.74433899 93889940.61000061 0 93889940.61000061 -613803969.6450386 0 0 0 0 -42464976.006844997 -25220715.909172058 0 -25220715.909172058 20703229.872261047 0 0 0 0 -19375220.441696741 6495027.4648129791 0 6495027.4648129791 -14369604.316850327 0 0 0 0 -18729225.241958618 17854867.51802063 0 17854867.51802063 -30548141.090734482 0 0 0 0 -14618001.624497414 16459067.749437332 0 16459067.749437332 -32384185.98765564 0 0 0 0 -14310090.896564484 34389185.352863312 0 34389185.352863312 -33419957.467559814 0 0 0 0 -14321271.379772186 24852197.339736938 0 24852197.339736938 -47597433.845080614 0 0 0 0 -13483271.297672272 26244856.604930878 0 26244856.604930878 -54945974.450592041 0 0 0 0 -19388380.363620758 14066295.495840073 0 14066295.495840073 -47997248.173751831 0 0 0 0 -11724751.928368933 6890898.775948979 0 6890898.775948979 -23745449.344785564 0 0 0 0 291180.99072743952 -3490509.8054239983 0 -3490509.8054239983 -48605558.72621043 0 0 0 0 16752814.529835701 -74114866.016706467 0 -74114866.016706467 75463447.67798233 0 0 0 0 4848856.4442977905 292155140.81506729 0 292155140.81506729 104739825.29851532 0 0 0 0 6690646.0026818449 -4693398.6566096917 0 -4693398.6566096917 -12730927.909504805 0 0 0 0 116957374.30197906 -384008561.5324173 0 -384008561.5324173 -361934218.16685104 0 0 0 0 -5781368.6390504213 -4156890.9901410053 0 -4156890.9901410053 -21599572.090095341 0 0 0 0 -173753728.61360645 58833411.209075928 0 58833411.209075928 376558928.35655212 0 0 0 0 91979.884122474119 -1041627.3460389078 0 -1041627.3460389078 -3981918.2907921011 0 0 0 0 -8757746.0434138905 -1443025.290043667 0 -1443025.290043667 -13879156.530727232 0 0 0 0 -97107703.541539431 106119982.08859253 0 106119982.08859253 180326712.14741707 0 0 0 0 -802297.2471818924 -715755.59181594849 0 -715755.59181594849 -9330727.9639892578 0 0 0 0 -288380728.25504196 -133449752.07181168 0 -133449752.07181168 -50794927.071777344 0 0 0 0 -6383230.9293821724 -7039774.3847608501 0 -7039774.3847608501 -22827590.907029577 0 0 0 0 133864275.66725636 -317947715.01068687 0 -317947715.01068687 -315037633.32565308 0 0 0 0 -112336870.88070869 -17085380.583435059 0 -17085380.583435059 -44610881.850372314 0 0 0 0 -102508201.22616386 -53412011.881822586 0 -53412011.881822586 -139586360.46969604 0 0 0 0 -101964060.48799515 -152629784.93241882 0 -152629784.93241882 -284635421.67741394 0 0 0 0 3438164.9406452179 -52419281.785041809 0 -52419281.785041809 -218883401.58702087 0 0 0 0 -8371021.2995636463 -131526861.16585302 0 -131526861.16585302 -121351262.72687531 0 0 0 0 28525503.943042755 -83755032.915187836 0 -83755032.915187836 -68635200.380187988 0 0 0 0 -122016301.25813293 -80379437.217815399 0 -80379437.217815399 -61269307.340927124 0 0 0 0 -99186336.395123482 -11065417.759426117 0 -11065417.759426117 2895487.0734939575 0 0 0 0 96713370.975474358 -73349091.214468002 0 -73349091.214468002 4340686.2591400146 0 0 0 0 34264897.984760284 -124283148.43980217 0 -124283148.43980217 56945585.450202942 0 0 0 0 155007951.61985779 -176350970.23503876 0 -176350970.23503876 37335599.328889847 0 0 0 0 -1837222.9640746117 -105124752.37075996 0 -105124752.37075996 68986179.913032532 0 0 0 0 3228435.415609275 -7642657.8296297621 0 -7642657.8296297621 -55416521.631379403 0 0 0 0 19983311.826126099 38809434.847976685 0 38809434.847976685 -62936580.538475037 0 0 0 0 101259309.94755936 33076215.809234619 0 33076215.809234619 -80806122.163269043 0 0 0 0 -11295670.086978912 72284543.281646729 0 72284543.281646729 -40326300.298156738 0 0 0 0 -58487892.997680664 78336380.959197998 0 78336380.959197998 -40869495.481445312 0 0 0 0 26723856.782966614 27945127.126190186 0 27945127.126190186 -46696816.122711182 0 0 0 0 30209556.350131989 97371786.588020325 0 97371786.588020325 -76305503.558319092 0 0 0 0 643955582.47072029 40050468.909088135 0 40050468.909088135 -174430397.57385254 0 0 0 0 3533427.5216795309 -11645742.636240311 0 -11645742.636240311 -61293582.994075015 0 0 0 0 19678735.482330322 492523606.81513977 0 492523606.81513977 224935082.02780151 0 0 0 0 152516940.10216904 -51830965.415462494 0 -51830965.415462494 -87644744.322349548 0 0 0 0 251710693.49885798 -287016174.61955833 0 -287016174.61955833 69645461.38458252 0 0 0 0 112691916.17601776 -103397410.90777969 0 -103397410.90777969 -419155161.92327118 0 0 0 0 117295302.87966728 6865268.5959510803 0 6865268.5959510803 -340237060.87606049 0 0 0 0 381409495.86539268 -72845323.865169525 0 -72845323.865169525 -628854755.0953064 0 0 0 0 113982316.51763535 98447324.379127502 0 98447324.379127502 -85951530.879926682 0 0 0 0 3331845.8902450521 -14359592.838853743 0 -14359592.838853743 -65070038.538488634 0 0 0 0 240204099.57636833 -32557052.139389038 0 -32557052.139389038 -1673193252.2962036 0 0 0 0 943136765.95175552 -1022002958.2709351 0 -1022002958.2709351 -1791614739.3697052 0 0 0 0 -1015650946.3604355 -79871699.175422668 0 -79871699.175422668 417557753.23010254 0 0 0 0 -751101933.45111084 249983951.12208557 0 249983951.12208557 472247216.34289551 0 0 0 0 -724016.85747432942 2111019.6824103408 0 2111019.6824103408 -2317558.1102432907 0 0 0 0 448185328.48451996 -336494554.40751648 0 -336494554.40751648 -1229039743.4842567 0 0 0 0 -170022970.04798508 -627632447.14575195 0 -627632447.14575195 -731071933.14278316 0 0 0 0 209637899.96408367 -702150858.87532043 0 -702150858.87532043 -1029665337.5394897 0 0 0 0 -174074538.85906219 -681725791.56307983 0 -681725791.56307983 -1000832279.6320343 0 0 0 0 -489946596.79432869 -208574831.00901413 0 -208574831.00901413 834798065.75741577 0 0 0 0 1474073329.789032 332318979.23594666 0 332318979.23594666 -1473945377.5110474 0 0 0 0 -1192474.0247708932 1618093.0916713178 0 1618093.0916713178 1407119.4700107425 0 0 0 0 487831936.55927658 260824605.64910889 0 260824605.64910889 -771198217.47424316 0 0 0 0 -387297915.07335663 -85116564.008209229 0 -85116564.008209229 -170525788.08670044 0 0 0 0 13188881.816951752 252571199.63282776 0 252571199.63282776 -137335919.91174316 0 0 0 0 -1850772.0360469653 5404219.5609128531 0 5404219.5609128531 -6566405.1525526792 0 0 0 0 -342632829.92344475 118310649.21629333 0 118310649.21629333 -782829.19100952148 0 0 0 0 -75621534.365562439 41796006.362289429 0 41796006.362289429 -14889063.866363525 0 0 0 0 -52646106.214797974 54931419.204240799 0 54931419.204240799 -32974713.999450684 0 0 0 0 -49431159.973171234 57485193.955795288 0 57485193.955795288 -31937189.351165771 0 0 0 0 -43527428.312698364 51089421.41078186 0 51089421.41078186 -31526756.842672348 0 0 0 0 189081824.00957298 160297544.71588135 0 160297544.71588135 -20036095.363250732 0 0 0 0 -249188084.59262466 224435050.12953186 0 224435050.12953186 265982712.74069214 0 0 0 0 -3082727.6989421449 8107982.2766032908 0 8107982.2766032908 -9690222.6826009601 0 0 0 0 -333302714.56946564 -42829941.25440979 0 -42829941.25440979 176565135.46235657 0 0 0 0 369147435.60372162 -56150216.160923004 0 -56150216.160923004 -456950643.24935913 0 0 0 0 -1159828041.9902401 678276621.03488922 0 678276621.03488922 675498680.78591919 0 0 0 0 991759354.37716675 -484685623.52626038 0 -484685623.52626038 -1537247882.1426544 0 0 0 0 -245673461.32635117 -81409956.180450439 0 -81409956.180450439 283333257.51673889 0 0 0 0 641149299.98636246 816858293.8187294 0 816858293.8187294 62767438.832214355 0 0 0 0 -3692916.5144453687 4134657.9469797313 0 4134657.9469797313 5950222.2541979253 0 0 0 0 -448101857.85150242 123685367.94543457 0 123685367.94543457 39963368.250526428 0 0 0 0 -483348063.86380911 135798102.86502838 0 135798102.86502838 226167328.66418457 0 0 0 0 -1234505399.7596493 -608406565.79321289 0 -608406565.79321289 -14101648.705562592 0 0 0 0 -211329537.15009403 -767625139.17218018 0 -767625139.17218018 -910262466.47770691 0 0 0 0 -1306909002.9228964 184652374.58366013 0 184652374.58366013 -1532735942.3965607 0 0 0 0 -1337787390.5424042 431594707.73261261 0 431594707.73261261 -754918961.77966309 0 0 0 0 -3413972.0911968285 -2051320.0170864314 0 -2051320.0170864314 -643163.05009427643 0 0 0 0 -470502002.0820694 -742956340.05128479 0 -742956340.05128479 -1126479578.4122009 0 0 0 0 -349556658.04470444 -706577955.29792786 0 -706577955.29792786 -1963200499.7233276 0 0 0 0 -262691930.72281647 -418128223.02311707 0 -418128223.02311707 -1195852205.323822 0 0 0 0 -373246226.96630859 -922572011.42575073 0 -922572011.42575073 -1232666449.4950409 0 0 0 0 -799195833.31622696 -1151671268.4038849 0 -1151671268.4038849 -1552399946.1000214 0 0 0 0 -1434563009.597456 -1081286385.9531708 0 -1081286385.9531708 -712552009.61834717 0 0 0 0 -209340623.25906849 481950663.6368866 0 481950663.6368866 -706999944.43951416 0 0 0 0 965906.62461298518 1011984.8613192402 0 1011984.8613192402 -3822304.5591719896 0 0 0 0 -975758491.11731339 -474582909.15890503 0 -474582909.15890503 -44536687.975906372 0 0 0 0 -234591250.37312889 26729463.708404541 0 26729463.708404541 294641405.09236145 0 0 0 0 -591228160.8265152 -775463990.14099121 0 -775463990.14099121 -890977843.36669922 0 0 0 0 -531378681.0200882 -855934782.30319214 0 -855934782.30319214 -914179912.27224731 0 0 0 0 -173967397.22813034 -686419936.7822876 0 -686419936.7822876 -955682239.59588623 0 0 0 0 -331664948.83859253 -828263256.33804321 0 -828263256.33804321 -935410903.8145256 0 0 0 0 -292943562.24292374 -727201074.36720276 0 -727201074.36720276 -672746496.22106934 0 0 0 0 -506629606.44384384 -766681624.60124207 0 -766681624.60124207 -636851655.00939941 0 0 0 0 -916419260.07505989 -864206360.53482437 0 -864206360.53482437 -480299794.75561523 0 0 0 0 -424644392.49139404 -739499057.409729 0 -739499057.409729 -657135165.92276001 0 0 0 0 -647604600.05194092 -550146048.50131226 0 -550146048.50131226 -155811071.19537354 0 0 0 0 -325273725.77320862 -362728010.09136963 0 -362728010.09136963 -322081392.74859619 0 0 0 0 -23091517.688882828 -200405051.02148438 0 -200405051.02148438 -263006160.79049683 0 0 0 0 -396408093.1648674 -459175199.27296448 0 -459175199.27296448 -421480209.10089111 0 0 0 0 -38195488.895431519 -483747220.64891052 0 -483747220.64891052 -570055610.54098511 0 0 0 0 -234830981.75336456 -535801619.82687378 0 -535801619.82687378 -471299906.34979248 0 0 0 0 -298476776.52966118 -722815886.39654541 0 -722815886.39654541 -719294432.0223999 0 0 0 0 -141974022.31515408 -396534358.66879272 0 -396534358.66879272 -641050243.1975708 0 0 0 0 -3001515.7444343567 -66618314.593200684 0 -66618314.593200684 -389820690.0730896 0 0 0 0 -87033279.57056427 -163131759.2093811 0 -163131759.2093811 -259078717.6025238 0 0 0 0 65978995.932779312 911762.62061691284 0 911762.62061691284 10399510.463684082 0 0 0 0 5804274.1551150344 -393324.63356766477 0 -393324.63356766477 -11503074.723938748 0 0 0 0 1836583.9662512755 -1818475.3223626092 0 -1818475.3223626092 -280538.29800277948 0 0 0 0 -51982295.671325684 -183267357.44671631 0 -183267357.44671631 52134115.530853271 0 0 0 0 66825097.518877029 34007988.798568726 0 34007988.798568726 -244495711.06118774 0 0 0 0 165634762.59291744 -124480121.08314896 0 -124480121.08314896 -160546670.99865723 0 0 0 0 -602541270.20312119 -29487059.506088257 0 -29487059.506088257 220964308.50030518 0 0 0 0 96758738.761662483 -339577715.14870453 0 -339577715.14870453 169882480.70501709 0 0 0 0 10170833.147536371 -6115068.8709703609 0 -6115068.8709703609 -9424224.0080233738 0 0 0 0 7980713.3136855364 10693080.243667603 0 10693080.243667603 -1079642.6427307129 0 0 0 0 25569219.30947876 10893953.623786926 0 10893953.623786926 -6246710.254486084 0 0 0 0 36360933.046723366 22572107.177093506 0 22572107.177093506 -10861650.255767822 0 0 0 0 21435961.573371291 24936960.58052063 0 24936960.58052063 -5876364.1957092285 0 0 0 0 8343824.4141612053 8935129.0451660156 0 8935129.0451660156 -4387094.1546783447 0 0 0 0 76381857.58227253 -19599077.771102905 0 -19599077.771102905 -58117175.706756592 0 0 0 0 12887940.728651047 -10639692.772064209 0 -10639692.772064209 -13414082.312866211 0 0 0 0 7011708.8596715685 4992803.2013196442 0 4992803.2013196442 -18653230.625970185 0 0 0 0 -40785681.139122009 68194161.288650513 0 68194161.288650513 150339140.68009949 0 0 0 0 16652844.858514246 -10796143.590873286 0 -10796143.590873286 -17415706.512016095 0 0 0 0 -127138133.60171127 -142928832.72080994 0 -142928832.72080994 11521881.768005371 0 0 0 0 -75135142.339111328 -137034126.41247559 0 -137034126.41247559 -159072587.17282104 0 0 0 0 113330701.67824173 -53968071.964019775 0 -53968071.964019775 -130490107.06481934 0 0 0 0 16786562.139419712 19820887.349653713 0 19820887.349653713 -32192476.769713834 0 0 0 0 38690303.526210032 43868708.449539185 0 43868708.449539185 11031862.460571289 0 0 0 0 97019007.687721252 -176707262.14343262 0 -176707262.14343262 -165546368.47306061 0 0 0 0 36687228.640907772 38286843.65234375 0 38286843.65234375 5987075.7604503632 0 0 0 0 -1056779.5454775973 573344.50381431729 0 573344.50381431729 1662563.367844224 0 0 0 0 3598448.2870850563 -8736441.8107452393 0 -8736441.8107452393 -56239616.529022217 0 0 0 0 1101822.7074866239 338169.56477883831 0 338169.56477883831 -710887.80145150423 0 0 0 0 8064242.9355077744 -23806752.603729248 0 -23806752.603729248 -70672570.734558105 0 0 0 0 7893744.2656536102 -5233096.2449645996 0 -5233096.2449645996 -80598433.383850098 0 0 0 0 157647732.41094303 136138446.01548767 0 136138446.01548767 115934742.17643738 0 0 0 0 26295720.046057224 18381293.520874023 0 18381293.520874023 7537601.3432006836 0 0 0 0 23310064.706158221 40177082.994750977 0 40177082.994750977 36460070.420640469 0 0 0 0 24762748.300395489 28231702.683265686 0 28231702.683265686 36681711.796264648 0 0 0 0 -631372545.67246246 -829599201.03695679 0 -829599201.03695679 -963496844.6817627 0 0 0 0 7940094.8752993131 6203910.7159380838 0 6203910.7159380838 -59883575.545133978 0 0 0 0 -684792467.45186996 -584575822.94330883 0 -584575822.94330883 -546646256.38858032 0 0 0 0 36762728.466995567 49907943.500808716 0 49907943.500808716 20972903.284179688 0 0 0 0 -310755747.23677826 -597421249.34927368 0 -597421249.34927368 -1288930292.9790039 0 0 0 0 -362390949.42897415 -590661738.96512985 0 -590661738.96512985 -1112306626.7965698 0 0 0 0 -182936233.28637695 -406572476.00711441 0 -406572476.00711441 -1001844346.8895569 0 0 0 0 -362776848.77517319 -271842122.06440735 0 -271842122.06440735 -1029687542.9706192 0 0 0 0 -171840589.44333315 -1249048075.0860977 0 -1249048075.0860977 -775547487.6383667 0 0 0 0 6688203.4125337992 -13053935.793130975 0 -13053935.793130975 -68548798.29875204 0 0 0 0 -263756564.19115448 -345183276.11080933 0 -345183276.11080933 -1029040142.2163963 0 0 0 0 -363106453.38591999 -299340528.26817536 0 -299340528.26817536 -806790327.65933228 0 0 0 0 -309171129.01648712 -452159435.3404007 0 -452159435.3404007 -1277420413.6765432 0 0 0 0 6378583.1008910686 -3871639.8844949007 0 -3871639.8844949007 -9041349.6886039525 0 0 0 0 248130220.6007843 253972435.08917236 0 253972435.08917236 41387066.044845581 0 0 0 0 -174939416.61130142 -1155727161.1180267 0 -1155727161.1180267 -2362614970.8475952 0 0 0 0 151529912.02743149 -79133286.241409302 0 -79133286.241409302 -938320944.17480469 0 0 0 0 -158054201.15177917 -806461432.14724731 0 -806461432.14724731 -1218330997.0830383 0 0 0 0 -404223894.20328522 -909786903.12586975 0 -909786903.12586975 -570070424.71081543 0 0 0 0 -528944506.29579163 -754265897.50775146 0 -754265897.50775146 -617035180.12636566 0 0 0 0 -328000027.6309967 -744787262.34628296 0 -744787262.34628296 -681139428.60858154 0 0 0 0 -314725335.89425659 -679830535.11297607 0 -679830535.11297607 -662782017.90234375 0 0 0 0 -165524291.91769409 -619480262.82791138 0 -619480262.82791138 -937048363.12973022 0 0 0 0 -214204848.54273987 -129144900.79458618 0 -129144900.79458618 -1189819362.1353226 0 0 0 0 -58802875.664619446 -431364492.66486359 0 -431364492.66486359 -628502685.94281006 0 0 0 0 -578459148.8809185 122523734.27664185 0 122523734.27664185 -62240603.01751709 0 0 0 0 -542702074.41506124 -717135180.36231613 0 -717135180.36231613 93597784.093261719 0 0 0 0 137051149.11577225 -331159910.41291046 0 -331159910.41291046 -827456571.20102119 0 0 0 0 -209318308.61487961 -396464189.83094788 0 -396464189.83094788 -797035610.34552383 0 0 0 0 68542355.971515656 -243494953.41147995 0 -243494953.41147995 -747186788.29195023 0 0 0 0 242076524.24616194 21896.327163696289 0 21896.327163696289 -611611607.8591156 0 0 0 0 66303967.141126633 -298060488.40414429 0 -298060488.40414429 -774852270.82074738 0 0 0 0 157178565.62624645 -130163968.53465652 0 -130163968.53465652 -688298952.58278656 0 0 0 0 64425037.394554138 -374135432.73867416 0 -374135432.73867416 -937283581.33310699 0 0 0 0 -90777947.664203644 -354609617.5283165 0 -354609617.5283165 -843446755.30973816 0 0 0 0 153978627.7243824 -280770306.98532486 0 -280770306.98532486 -914906858.07568359 0 0 0 0 -116335512.40245056 -302558260.38627625 0 -302558260.38627625 -949294049.37291431 0 0 0 0 -256088802.15026855 -431742106.27512741 0 -431742106.27512741 -916823072.95573425 0 0 0 0 -183895824.59400177 -478774215.52809143 0 -478774215.52809143 -966790887.36047173 0 0 0 0 -73271098.362379074 -347187166.52111435 0 -347187166.52111435 -845878679.98233032 0 0 0 0 -28293566.534080505 -379437445.7923317 0 -379437445.7923317 -746930521.87158966 0 0 0 0 -128387519.48351479 -467535660.94551468 0 -467535660.94551468 -820486707.95881653 0 0 0 0 -322142315.15918732 -580092682.09062958 0 -580092682.09062958 -945027650.70663834 0 0 0 0 -254946174.16369247 -410963686.20884705 0 -410963686.20884705 -695087562.72218323 0 0 0 0 -206404311.49098969 -437739712.81694031 0 -437739712.81694031 -696338150.45710325 0 0 0 0 -82965027.876468658 -167741893.58456421 0 -167741893.58456421 -389248648.23617172 0 0 0 0 1379957.0325274183 13827402.173747379 0 13827402.173747379 -57106436.971246749 0 0 0 0 -301420602.84780121 -223832962.85448456 0 -223832962.85448456 -305108851.68748474 0 0 0 0 -516477166.79442978 -401257275.89460754 0 -401257275.89460754 -378288214.33448792 0 0 0 0 -100698182.6999588 -344201381.21894073 0 -344201381.21894073 -567966344.09045267 0 0 0 0 -100865291.07451439 -333035480.2037735 0 -333035480.2037735 -520980940.30348206 0 0 0 0 -196463106.72193718 -400292099.59469223 0 -400292099.59469223 -564177279.05345154 0 0 0 0 6986020.0162887573 -278501184.97232819 0 -278501184.97232819 -598744293.32466125 0 0 0 0 -21312562.2762146 -220827686.55961609 0 -220827686.55961609 -478386925.54478073 0 0 0 0 535056.92411804199 -321312658.03569794 0 -321312658.03569794 -664374450.19586182 0 0 0 0 49440279.230457306 -303258190.65487289 0 -303258190.65487289 -694918133.02050018 0 0 0 0 -5552108.227180481 -311660643.84107971 0 -311660643.84107971 -594174547.11190224 0 0 0 0 32039462.898103714 -366556781.05892181 0 -366556781.05892181 -769394438.98796082 0 0 0 0 -19368084.150611877 -350824314.99491882 0 -350824314.99491882 -670942524.73928833 0 0 0 0 66353421.546818495 -294383716.50893533 0 -294383716.50893533 -779865036.58943176 0 0 0 0 65439634.036338806 -317076629.26232529 0 -317076629.26232529 -805438790.50167084 0 0 0 0 20595571.02022171 -305920258.02383041 0 -305920258.02383041 -739599944.42119598 0 0 0 0 58488746.371704102 -306220185.63174438 0 -306220185.63174438 -757322866.29655266 0 0 0 0 42271304.688676834 -324745819.84002495 0 -324745819.84002495 -723657554.49699402 0 0 0 0 24845492.240116119 -195838006.7070961 0 -195838006.7070961 -646438774.79579163 0 0 0 0 -117865999.35006857 -194543147.27584267 0 -194543147.27584267 -860103267.04601288 0 0 0 0 -108469264.12945175 -237629652.36061096 0 -237629652.36061096 -726966548.09280586 0 0 0 0 -98031538.85136795 -261834507.50503159 0 -261834507.50503159 -724871026.71151733 0 0 0 0 20141563.39106369 -311207825.45747185 0 -311207825.45747185 -783541849.87729645 0 0 0 0 -55972717.592470169 -315348401.72905731 0 -315348401.72905731 -721987959.0689621 0 0 0 0 82452588.84204483 -282524876.66812897 0 -282524876.66812897 -767741884.68623924 0 0 0 0 1376983.4845085144 -224422263.9495697 0 -224422263.9495697 -584480815.77896881 0 0 0 0 36690508.245734453 -90454696.677481174 0 -90454696.677481174 -400949317.03746796 0 0 0 0 24259930.381090164 -181353453.49295044 0 -181353453.49295044 -526307055.66362 0 0 0 0 -57461047.165927887 -241360068.84672546 0 -241360068.84672546 -576580387.49902916 0 0 0 0 -115119114.61809254 -150271285.31892014 0 -150271285.31892014 -321181856.35287476 0 0 0 0 -87180044.765479565 -106715947.58203506 0 -106715947.58203506 -309338923.0326004 0 0 0 0 -83143163.895586967 -64388091.304794312 0 -64388091.304794312 -1374385281.0597839 0 0 0 0 -54535222.124711841 168697323.57797241 0 168697323.57797241 -1343820509.596283 0 0 0 0 590662.43570154184 -899120.58818104863 0 -899120.58818104863 -3126534.2553191246 0 0 0 0 64489868.152485847 -92695571.237426758 0 -92695571.237426758 -1561678016.5063782 0 0 0 0 131022086.56407976 23098783.989212036 0 23098783.989212036 -1689206437.910202 0 0 0 0 114674930.47429943 64156783.86618042 0 64156783.86618042 -1493105374.4299622 0 0 0 0 42657268.527264357 21163461.294250488 0 21163461.294250488 -1346703976.0346069 0 0 0 0 134466224.95521998 118767173.57391357 0 118767173.57391357 -1328163654.6366272 0 0 0 0 20196366.353062868 90481747.518821716 0 90481747.518821716 -881781154.35830688 0 0 0 0 -21689798.543750763 114747540.53437805 0 114747540.53437805 -893277097.48867798 0 0 0 0 70405800.32302618 138088982.88922119 0 138088982.88922119 -1200670391.8736877 0 0 0 0 85504336.581026793 98652855.464263916 0 98652855.464263916 -1206803841.5149078 0 0 0 0 -11522099.36688602 98712239.861763 0 98712239.861763 -1202302900.879303 0 0 0 0 6729810.1191489547 -2631388.3807449341 0 -2631388.3807449341 -885728968.21083069 0 0 0 0 59648708.952970088 43071533.217880249 0 43071533.217880249 -1131609048.2318258 0 0 0 0 51400983.683346629 42779621.993560791 0 42779621.993560791 -1244636243.3971252 0 0 0 0 27545892.197486997 32057814.43270874 0 32057814.43270874 -1130468027.6809521 0 0 0 0 -162359.79277963936 119156962.91577148 0 119156962.91577148 -1049080595.3402939 0 0 0 0 -109882709.42532289 -36859882.388977051 0 -36859882.388977051 -1113582364.8124161 0 0 0 0 84350.969334741967 149097728.54608154 0 149097728.54608154 -1380247608.0814209 0 0 0 0 -251050897.59739092 349428947.45535278 0 349428947.45535278 -532758437.29199219 0 0 0 0 13264221.240624845 -38981012.310699463 0 -38981012.310699463 -1399746515.0299683 0 0 0 0 108940848.36697268 50023249.53994751 0 50023249.53994751 -1484282155.3604126 0 0 0 0 380466.94443578832 -714572.94551028311 0 -714572.94551028311 -1054130.534530648 0 0 0 0 115689446.70147014 109230745.51895142 0 109230745.51895142 -1494059670.7277746 0 0 0 0 103354455.70735881 36256258.394210815 0 36256258.394210815 -1402166777.7200012 0 0 0 0 86923145.646853089 113142857.50254822 0 113142857.50254822 -1377976556.6617126 0 0 0 0 -17917268.361141443 48600447.985534668 0 48600447.985534668 -40604677.553466797 0 0 0 0 19378412.644389153 17502852.552734375 0 17502852.552734375 -75453287.802560806 0 0 0 0 -33553559.374949098 8259030.7309341431 0 8259030.7309341431 26249282.33984375 0 0 0 0 5982763.9380815029 -3545561.4636230469 0 -3545561.4636230469 -13636743.26512146 0 0 0 0 -37388.009166540724 227803.33774322923 0 227803.33774322923 -648186.9932231158 0 0 0 0 49880876.446360178 -102056839.41114807 0 -102056839.41114807 -358487897.70452881 0 0 0 0 -4697.1552294877038 45287355.328689575 0 45287355.328689575 129871835.04071045 0 0 0 0 -68783828.78955844 24587602.633712769 0 24587602.633712769 32442859.487854004 0 0 0 0 -7509545.6437410116 -18964556.707214355 0 -18964556.707214355 30807438.555871964 0 0 0 0 20041941.435215563 -16951773.016265869 0 -16951773.016265869 18980748.124969482 0 0 0 0 -119604.01902477251 515027.14555655979 0 515027.14555655979 -1658106.1883735061 0 0 0 0 -5157674.7841001749 -931202.51390075684 0 -931202.51390075684 23660271.831054688 0 0 0 0 26148044.32667803 6719864.1003913879 0 6719864.1003913879 -1348286.2061157227 0 0 0 0 892265.70381504297 -796476.2720175907 0 -796476.2720175907 -8327345.8651457503 0 0 0 0 -271094959.16789818 -59962112.611419678 0 -59962112.611419678 -33299056.955307007 0 0 0 0 661720.91034821875 1644038.939075686 0 1644038.939075686 -6721547.4470800981 0 0 0 0 -142756753.69036517 -318430862.11685562 0 -318430862.11685562 -289797988.45736694 0 0 0 0 -89045831.096879005 -360603837.56267548 0 -360603837.56267548 -469848298.09030151 0 0 0 0 -105248177.97797537 -331977571.36849976 0 -331977571.36849976 -351841832.1020813 0 0 0 0 -100483919.38656378 -250783057.13000488 0 -250783057.13000488 -332575145.6861763 0 0 0 0 -1780735.5263499105 3251761.2251695395 0 3251761.2251695395 -5481281.4149717316 0 0 0 0 -1892361.3578886986 26953991.694286346 0 26953991.694286346 -3098852.0455322266 0 0 0 0 -33864308.413744926 -12307890.3984375 0 -12307890.3984375 -9435392.6034088135 0 0 0 0 -4742211.8022899665 4162335.7665989622 0 4162335.7665989622 -4716498.8812324777 0 0 0 0 193065378.64204431 4390016.6070137024 0 4390016.6070137024 -386020931.99462891 0 0 0 0 13530494.793712854 6742911.3235092163 0 6742911.3235092163 -27293691.494873047 0 0 0 0 153438731.50037283 -433992267.21835041 0 -433992267.21835041 -801877272.881073 0 0 0 0 146835013.06697798 -467467899.5408783 0 -467467899.5408783 -435892379.83676147 0 0 0 0 -59839499.315379143 -259424956.50375366 0 -259424956.50375366 -452006223.47305298 0 0 0 0 377117309.92486334 -651246496.03795624 0 -651246496.03795624 -831789742.47790527 0 0 0 0 233108.89813966362 2447254.2597718062 0 2447254.2597718062 -7657150.1662507206 0 0 0 0 262562014.71415043 -852537930.78201294 0 -852537930.78201294 -1456593315.0490112 0 0 0 0 -847379836.06141472 888895758.52337646 0 888895758.52337646 1123679229.037384 0 0 0 0 414398709.59442329 547041807.50770569 0 547041807.50770569 -2860948609.3710632 0 0 0 0 -1019573746.9586191 1801427696.8572998 0 1801427696.8572998 -227057636.6139679 0 0 0 0 504891946.8572793 -133280265.62384796 0 -133280265.62384796 -639544092.78656006 0 0 0 0 509970667.04174042 -164492510.73825836 0 -164492510.73825836 -1263888042.9150238 0 0 0 0 511927010.4653337 39230233.590713501 0 39230233.590713501 -416571252.02636719 0 0 0 0 -43003693.306299269 471600428.64352417 0 471600428.64352417 -378176643.88745022 0 0 0 0 -315971905.97690338 141091310.28396606 0 141091310.28396606 -643050784.64736938 0 0 0 0 -698484827.01544523 983445692.62268066 0 983445692.62268066 -436441379.36065674 0 0 0 0 -162864392.94043303 963669404.64176941 0 963669404.64176941 -1948676112.9094238 0 0 0 0 273076440.92470908 -756032085.98796082 0 -756032085.98796082 -2199198951.343277 0 0 0 0 -884703929.39716148 -865576560.61044312 0 -865576560.61044312 1143382820.9358215 0 0 0 0 -574984244.14025879 -1770402396.9607391 0 -1770402396.9607391 -489055912.16072083 0 0 0 0 336276664.15340376 -166732303.36700439 0 -166732303.36700439 -678211239.53693962 0 0 0 0 91112253.927551746 -20388786.857093811 0 -20388786.857093811 -91454632.807479858 0 0 0 0 138534455.87188911 -653659461.18212891 0 -653659461.18212891 -2139834991.0772705 0 0 0 0 179693437.94378662 -448115855.66160583 0 -448115855.66160583 -1456739179.1949463 0 0 0 0 14615597.545524597 -122106344.16947937 0 -122106344.16947937 -802291631.84109497 0 0 0 0 -7931459.594375574 -2859520.6824404299 0 -2859520.6824404299 -1814261.8498829659 0 0 0 0 202924658.81997013 -418911259.01498413 0 -418911259.01498413 -1859013137.5216064 0 0 0 0 361267625.05635071 376652708.87414551 0 376652708.87414551 -1981642243.4634094 0 0 0 0 7881012.2347240448 -225316259.26806641 0 -225316259.26806641 -1319180581.5059509 0 0 0 0 187855914.51123047 -125512822.41146851 0 -125512822.41146851 -1329241225.148138 0 0 0 0 419864910.79313278 -243378450.73579407 0 -243378450.73579407 -1718321563.4725037 0 0 0 0 418112470.68595988 -191903547.85478497 0 -191903547.85478497 -1980232810.9353638 0 0 0 0 228311239.17615509 238133259.29075623 0 238133259.29075623 -1334520226.0962372 0 0 0 0 242705472.94023132 457851862.69535828 0 457851862.69535828 -2435181707.9448586 0 0 0 0 -112098613.05129421 -82848705.610702515 0 -82848705.610702515 -1394652504.8042603 0 0 0 0 20274109.92427206 99141762.418960571 0 99141762.418960571 -1527466084.7388306 0 0 0 0 55808102.249403 -331618731.74143982 0 -331618731.74143982 -1956769857.5909729 0 0 0 0 -2281156.7949311007 2410.3727266564965 0 2410.3727266564965 -373500.74123173207 0 0 0 0 -5852525.7525561256 55452.273853689432 0 55452.273853689432 -3898441.9755166341 0 0 0 0 199581204.26501656 -78268103.072479248 0 -78268103.072479248 -2708468242.4259491 0 0 0 0 -169783206.66710281 71061041.227478027 0 71061041.227478027 -40689293.407268524 0 0 0 0 -576209574.51877689 -200905742.06617737 0 -200905742.06617737 -1516598002.7742615 0 0 0 0 -145775941.05536628 244807165.46414375 0 244807165.46414375 -1404308799.0441895 0 0 0 0 121735102.83848953 -151006877.27566528 0 -151006877.27566528 -1513075950.138443 0 0 0 0 -58396124.824327469 -249654748.99664307 0 -249654748.99664307 -1234519175.797821 0 0 0 0 52885654.974546432 45989942.027145386 0 45989942.027145386 -999020187.76034546 0 0 0 0 245922737.79670429 -85128112.723876953 0 -85128112.723876953 -1148122484.0749817 0 0 0 0 52230019.970270157 187348162.24028015 0 187348162.24028015 -875595062.40045166 0 0 0 0 227154749.73686266 100692628.65696716 0 100692628.65696716 -1508468102.7673569 0 0 0 0 99211538.649124146 212740209.52435303 0 212740209.52435303 -914143981.68869019 0 0 0 0 96354775.308391303 235352562.73077297 0 235352562.73077297 -565282699.02355957 0 0 0 0 81609201.211214364 69955784.65786171 0 69955784.65786171 -192891681.11755371 0 0 0 0 374042055.41377926 -5795399.44972229 0 -5795399.44972229 -331160270.02571106 0 0 0 0 499270064.86657429 298828911.96682739 0 298828911.96682739 -876664097.90716553 0 0 0 0 -458648.52109336853 93156486.365631104 0 93156486.365631104 -844229817.49349976 0 0 0 0 338960831.30063772 -194822139.14147949 0 -194822139.14147949 -603136976.74047852 0 0 0 0 -9510526.7116674185 -157106607.99986982 0 -157106607.99986982 -736459580.11947632 0 0 0 0 51052317.355609894 75278072.780731201 0 75278072.780731201 -609676135.03901672 0 0 0 0 98462605.719936073 -281098423.52791357 0 -281098423.52791357 -233319034.26953125 0 0 0 0 405388686.08952713 193318343.59393311 0 193318343.59393311 88859242.28477478 0 0 0 0 204252.04551798804 -228512.81297829002 0 -228512.81297829002 88338.060288727283 0 0 0 0 -34918888.835824966 115006731.12796021 0 115006731.12796021 -376239459.40406799 0 0 0 0 48778.55534611558 22933.502762593795 0 22933.502762593795 -86018.572124630213 0 0 0 0 -84589.716296350118 -2426925.6691898257 0 -2426925.6691898257 -63348.881463080645 0 0 0 0 2000376.7529792041 -1133642.7854146957 0 -1133642.7854146957 -2270520.479888916 0 0 0 0 313257832.89385813 25268791.113461494 0 25268791.113461494 -137619259.91235352 0 0 0 0 2223856.2792133428 833594.82135616569 0 833594.82135616569 -866040.32422241569 0 0 0 0 229606858.89704609 -32730630.63293457 0 -32730630.63293457 12106873.333007812 0 0 0 0 213044987.35248971 -89403286.409660339 0 -89403286.409660339 -181718577.52426147 0 0 0 0 88505513.706983805 12100596.649581909 0 12100596.649581909 -126606579.80838013 0 0 0 0 144846951.91728401 -17894304.532730103 0 -17894304.532730103 -1080037131.1377106 0 0 0 0 -289626280.65834427 171047331.02178955 0 171047331.02178955 -8712549.2028884888 0 0 0 0 -20427790.9324646 -20623227.916229248 0 -20623227.916229248 -91786197.380249023 0 0 0 0 -139194913.7726593 364859712.39729309 0 364859712.39729309 -633303340.33184814 0 0 0 0 151009477.90026855 -76423325.802703857 0 -76423325.802703857 -677077995.30233765 0 0 0 0 -74751392.370153427 175800210.33154297 0 175800210.33154297 -309898265.94906616 0 0 0 0 70559014.061610222 83870642.275802612 0 83870642.275802612 -777887800.20596313 0 0 0 0 120362209.64069366 143130655.88803101 0 143130655.88803101 -323036113.38780212 0 0 0 0 -49434987.614152908 -30465388.451400757 0 -30465388.451400757 -284564220.7220459 0 0 0 0 -75771000.651968002 159384933.57402039 0 159384933.57402039 -9406837.9856948853 0 0 0 0 2561910.2480158196 -3141925.4646802023 0 -3141925.4646802023 -739248.12628853321 0 0 0 0 1666693.7929773331 -2313247.6695098877 0 -2313247.6695098877 -4557588.0639190674 0 0 0 0 1580951.5418624878 -460851.59182739258 0 -460851.59182739258 -1394465.6387481689 0 0 0 0 97408162.192486525 -128543413.15394402 0 -128543413.15394402 18967570.909667969 0 0 0 0 -91685496.977041245 130264622.50396729 0 130264622.50396729 216326796.81889343 0 0 0 0 7084120.6683731079 105752742.73794556 0 105752742.73794556 8987058.2222595215 0 0 0 0 -27571753.102996826 -150538883.97743225 0 -150538883.97743225 95166914.864387512 0 0 0 0 9995276.2348006964 1413758.8576278687 0 1413758.8576278687 4102975.1961669922 0 0 0 0 6547763.9807363739 -197858.53338254243 0 -197858.53338254243 -2678480.8853704408 0 0 0 0 4334015.9161586668 877491.37300670892 0 877491.37300670892 -1029464.5303348899 0 0 0 0 3757484.4954444766 -8483712.0668945312 0 -8483712.0668945312 6613471.2052001953 0 0 0 0 -13898222.625011683 11125184.584152222 0 11125184.584152222 850734.06657981873 0 0 0 0 8609284.8694473505 3850191.6884021759 0 3850191.6884021759 1116779.0659484863 0 0 0 0 7658887.758477211 -12412059.317382812 0 -12412059.317382812 -5878739.677734375 0 0 0 0 198521946.66137087 -158120654.84300232 0 -158120654.84300232 -37383172.023376465 0 0 0 0 72958430.183147907 -136655228.18681335 0 -136655228.18681335 -1527657.702041626 0 0 0 0 206259142.41023445 -70286604.273757935 0 -70286604.273757935 -20878411.4818573 0 0 0 0 3759152.5776767731 506836.61335754395 0 506836.61335754395 -2910803.2676696777 0 0 0 0 2472023.7246299814 863201.54450063361 0 863201.54450063361 -1443714.0672723204 0 0 0 0 1566713.4726581378 368822.89994096314 0 368822.89994096314 -527872.75876420736 0 0 0 0 5323225.7088886499 983613.22077941895 0 983613.22077941895 -6160713.8793029785 0 0 0 0 22038253.763224721 -2327545.2007751465 0 -2327545.2007751465 -1527323.1864395142 0 0 0 0 159923572.63584805 -172072074.12367249 0 -172072074.12367249 121117727.26266479 0 0 0 0 2379626.7857810194 264727.84618328512 0 264727.84618328512 -782119.40736526251 0 0 0 0 20436776.863904476 -85347144.434295654 0 -85347144.434295654 151978021.06880951 0 0 0 0 173146289.69932294 -84540361.878723145 0 -84540361.878723145 -40536358.651245117 0 0 0 0 144024745.47960484 -363916432.63464355 0 -363916432.63464355 261171928.43629074 0 0 0 0 -23500812.106453747 13239589.228424072 0 13239589.228424072 -157499945.24398804 0 0 0 0 76918371.827420294 -130502072.10204315 0 -130502072.10204315 -97305910.355072021 0 0 0 0 58159079.679528713 -32431270.487411499 0 -32431270.487411499 -48341143.894319534 0 0 0 0 -48949763.729101419 27059688.652374268 0 27059688.652374268 -234833010.49679565 0 0 0 0 43817272.381300449 96935253.86932373 0 96935253.86932373 -458385927.67474365 0 0 0 0 65711982.306710958 -102835162.76182556 0 -102835162.76182556 -228329074.79089355 0 0 0 0 61369859.262248278 -63769829.306549072 0 -63769829.306549072 -281870884.40402222 0 0 0 0 2332664.4417684078 -51451296.789642334 0 -51451296.789642334 -332540313.64318085 0 0 0 0 -54833866.181462616 53357010.326499939 0 53357010.326499939 -371455879.02603149 0 0 0 0 18306023.723626912 -18743512.620269775 0 -18743512.620269775 -510052772.38793945 0 0 0 0 -12895194.025717974 135259002.46977234 0 135259002.46977234 -600697860.11857605 0 0 0 0 37874779.512869775 15636223.654102325 0 15636223.654102325 -855701854.9987793 0 0 0 0 71392819.840675831 190571509.13635254 0 190571509.13635254 -822542353.73504639 0 0 0 0 68678219.842989922 57759169.40171814 0 57759169.40171814 -817436239.62535095 0 0 0 0 -2401338.8578968048 20457809.72945118 0 20457809.72945118 -536611611.69781494 0 0 0 0 -99774.971761450433 -56952094.374633789 0 -56952094.374633789 -756591370.67874146 0 0 0 0 19742074.853841722 -8645951.8924255371 0 -8645951.8924255371 -666262759.2980423 0 0 0 0 -19048651.511504214 126825786.43231964 0 126825786.43231964 -734843180.67330933 0 0 0 0 -54815023.856471404 -29942159.609344482 0 -29942159.609344482 -400037205.5531311 0 0 0 0 -3784552.6422760636 75440953.479949951 0 75440953.479949951 -587140376.98074341 0 0 0 0 -60998096.852956086 4295137.2464904785 0 4295137.2464904785 -111296430.14907837 0 0 0 0 -51463.575926002421 -60554395.122029848 0 -60554395.122029848 -293191736.02316284 0 0 0 0 5527597.209097147 -73738934.477203369 0 -73738934.477203369 -218056398.44335938 0 0 0 0 -45605244.356115818 62106209.234771729 0 62106209.234771729 -282704891.70901489 0 0 0 0 -23425440.642765805 -9471137.6851348877 0 -9471137.6851348877 -78257300.669219971 0 0 0 0 -9642825.0113680363 -117197233.20230103 0 -117197233.20230103 -17033246.28843689 0 0 0 0 -31516.327684234406 -95391051.090110779 0 -95391051.090110779 -77626775.925037384 0 0 0 0 -47279457.978696108 -55698289.253219604 0 -55698289.253219604 100056769.39892578 0 0 0 0 89352873.544399306 -127071984.99659729 0 -127071984.99659729 39917045.178871155 0 0 0 0 101576296.08140016 29604484.819065094 0 29604484.819065094 17874604.740814209 0 0 0 0 -44925.482994996535 -68718184.177772522 0 -68718184.177772522 3316879.1516571045 0 0 0 0 -11592469.525559396 -18927646.229698181 0 -18927646.229698181 -104899722.98944092 0 0 0 0 632359.1238500101 55670.574275836349 0 55670.574275836349 -161247.64257331938 0 0 0 0 99075746.362927377 -131299918.60279846 0 -131299918.60279846 -89170269.524917603 0 0 0 0 -6402259.7329431772 -367384629.62237549 0 -367384629.62237549 149161502.22697449 0 0 0 0 209468.97267132372 -59313.55741648376 0 -59313.55741648376 -203731.4647834897 0 0 0 0 -7789065.9918179363 -40006451.313476562 0 -40006451.313476562 8539253.8719711304 0 0 0 0 -158232701.92296875 20986287.083236694 0 20986287.083236694 -115580217.18305206 0 0 0 0 -1061595.6216216236 33263089.946105957 0 33263089.946105957 -190819145.24702454 0 0 0 0 28626633.126274444 40115073.287786484 0 40115073.287786484 -54197513.690307617 0 0 0 0 434286.13850753679 16742.385820478201 0 16742.385820478201 -665102.65805023909 0 0 0 0 -104763671.37433594 9170758.2885818481 0 9170758.2885818481 -23894069.604156494 0 0 0 0 68630266.341147229 -22636346.619750977 0 -22636346.619750977 -191505135.15505981 0 0 0 0 33134462.936546907 -54038177.384559631 0 -54038177.384559631 -122982369.07562256 0 0 0 0 193833.26941916317 10686.668559834361 0 10686.668559834361 -234323.3162035346 0 0 0 0 -19929306.038452748 -14179713.312637329 0 -14179713.312637329 -147078736.88474274 0 0 0 0 -12776038.147511959 -64196262.866134644 0 -64196262.866134644 -182996722.29023743 0 0 0 0 -25013978.400171638 -175070956.46897888 0 -175070956.46897888 -188166391.63389587 0 0 0 0 133212.18389750962 49813.740856602788 0 49813.740856602788 -166625.58382479846 0 0 0 0 -10521756.490166128 -43999001.561470032 0 -43999001.561470032 -281462108.80413818 0 0 0 0 4258055.0101562142 -54709334.437530518 0 -54709334.437530518 -278985779.92663574 0 0 0 0 70939.174834928417 -45021.520759820938 0 -45021.520759820938 -185130.92235343158 0 0 0 0 -16272689.110023178 -22134513.173568726 0 -22134513.173568726 -79732615.952537537 0 0 0 0 22422133.128174782 -101278661.58546448 0 -101278661.58546448 -31556228.090698242 0 0 0 0 -12561861.844305545 17149062.658996582 0 17149062.658996582 -77393650.745269775 0 0 0 0 11053441.434411628 -22701259.773895264 0 -22701259.773895264 -196701689.83346558 0 0 0 0 -4571395.997477591 -27798091.496749878 0 -27798091.496749878 -196841414.81197453 0 0 0 0 8109.4280441248684 2457971.5614700317 0 2457971.5614700317 -171258103.18878174 0 0 0 0 6817831.436964619 -32281696.509536743 0 -32281696.509536743 -202213528.17663574 0 0 0 0 13119.438805128375 6515508.0426330566 0 6515508.0426330566 -255312364.36872864 0 0 0 0 11326745.434516696 1253241.4267349243 0 1253241.4267349243 -281604696.60852051 0 0 0 0 -8821331.8887010887 26060755.584373474 0 26060755.584373474 -288179908.22177124 0 0 0 0 8421094.7367919087 -17975019.081802368 0 -17975019.081802368 -264541212.6864624 0 0 0 0 10698931.366415653 -3446233.021235466 0 -3446233.021235466 -250626194.52191162 0 0 0 0 2719779.5360515863 -11939135.685634613 0 -11939135.685634613 -254089045.5682373 0 0 0 0 -1043248.1842413545 -24976404.502151489 0 -24976404.502151489 -263366713.53517151 0 0 0 0 4545255.7477297932 9286480.8997802734 0 9286480.8997802734 -308442800.89596558 0 0 0 0 -10132694.732948512 -22860523.595546722 0 -22860523.595546722 -321879581.21264648 0 0 0 0 -13784503.599997401 -31098023.849914551 0 -31098023.849914551 -269564749.16479492 0 0 0 0 11263568.655285656 -16740597.773925781 0 -16740597.773925781 -328930349.01763916 0 0 0 0 2687121.5832185261 -2439140.0799446106 0 -2439140.0799446106 -310591627.65869141 0 0 0 0 2148469.7103374302 11945679.315788269 0 11945679.315788269 -383736636.90264893 0 0 0 0 -42246100.467608973 24855846.850372314 0 24855846.850372314 -331545309.21102905 0 0 0 0 -284558.28405639611 107539.6625822261 0 107539.6625822261 -424720.03815117665 0 0 0 0 12215265.347644389 26147673.210845947 0 26147673.210845947 -398959241.19137573 0 0 0 0 -14723182.494718641 38120750.018981934 0 38120750.018981934 -351860137.01898956 0 0 0 0 16280505.717279673 20210944.427635193 0 20210944.427635193 -344279990.35699463 0 0 0 0 -247484.43981702998 -14102.159062236547 0 -14102.159062236547 -571991.85896397568 0 0 0 0 -2033743.1520962417 1822826.836227417 0 1822826.836227417 -312950895.66117859 0 0 0 0 -122495541.52850068 -30050363.934799194 0 -30050363.934799194 -358222383.42708969 0 0 0 0 96143939.378343403 106291441.48712921 0 106291441.48712921 -586432672.4274292 0 0 0 0 -10041859.251961 -190168901.59642029 0 -190168901.59642029 -638508802.8402729 0 0 0 0 41073876.575861752 -23911093.511367798 0 -23911093.511367798 -23415245.138910294 0 0 0 0 -398035.55956327158 -192020.02583912015 0 -192020.02583912015 -1313226.8140842915 0 0 0 0 28505174.762081519 145209693.20912677 0 145209693.20912677 -277565897.05075073 0 0 0 0 28602256.616999388 134068636.07183838 0 134068636.07183838 -5894940.5310058594 0 0 0 0 -35060749.433615848 15790007.210327148 0 15790007.210327148 -131121260.54415894 0 0 0 0 2379286.153105855 -14078205.929611206 0 -14078205.929611206 -165049492.74516296 0 0 0 0 -6312684.7455187216 29402921.039367676 0 29402921.039367676 -259069737.46552277 0 0 0 0 57482599.786082149 43554651.646570206 0 43554651.646570206 -471002509.70603943 0 0 0 0 -60398.550420651802 -49367.930745191872 0 -49367.930745191872 -636921.37773058191 0 0 0 0 -56501.344927032478 -33160180.776664734 0 -33160180.776664734 -299228520.85197449 0 0 0 0 41439390.938529149 -7763251.3238220215 0 -7763251.3238220215 -437655519.9152832 0 0 0 0 23095133.830664515 28523104.123680115 0 28523104.123680115 -301103201.76205444 0 0 0 0 96284.754878640175 30832504.857223511 0 30832504.857223511 -177161214.46720695 0 0 0 0 25123430.98565203 1499009.3582839966 0 1499009.3582839966 -256762570.58728027 0 0 0 0 6414757.1777402163 -20069150.393203735 0 -20069150.393203735 -178036057.39071655 0 0 0 0 -6704963.2607083321 -30009108.657592773 0 -30009108.657592773 -39349541.639678955 0 0 0 0 -14761788.293039799 -1146344.2671508789 0 -1146344.2671508789 -100303950.96871948 0 0 0 0 -16414993.594552159 -15139149.606658936 0 -15139149.606658936 -114686359.70257568 0 0 0 0 8071427.6504184604 -20958766.445800781 0 -20958766.445800781 -196327506.55276489 0 0 0 0 -7562879.0083687305 -12454475.62121582 0 -12454475.62121582 -193918251.74278259 0 0 0 0 -27095279.953283966 -64077893.733047485 0 -64077893.733047485 -108065156.11364746 0 0 0 0 -41889867.178619683 -52687729.955566406 0 -52687729.955566406 -188384058.38986969 0 0 0 0 -15446017.138479888 -36834962.791442871 0 -36834962.791442871 -185308755.07072067 0 0 0 0 13259938.347231716 21353630.086471558 0 21353630.086471558 -404629987.94877625 0 0 0 0 -51796496.09677089 -115725268.89408493 0 -115725268.89408493 -322189037.98721313 0 0 0 0 14899339.024368167 6935023.4975891113 0 6935023.4975891113 -293851187.31448364 0 0 0 0 9940320.8031518459 -2505724.4510192871 0 -2505724.4510192871 -298244463.34194946 0 0 0 0 -106678.09629520017 101569.25167984515 0 101569.25167984515 -174736.35150764138 0 0 0 0 17765250.62154771 20058911.130838394 0 20058911.130838394 -309860353.24772644 0 0 0 0 -960427.56660139561 35003454.38067627 0 35003454.38067627 -442549307.82650375 0 0 0 0 -6005938.9310457706 16287827.227584839 0 16287827.227584839 -378490163.83602905 0 0 0 0 -8283925.3934247494 -53401104.915725708 0 -53401104.915725708 -283440464.95666504 0 0 0 0 19382676.729780197 -54034583.921539307 0 -54034583.921539307 -355936818.30200195 0 0 0 0 28357020.686335444 -49172217.522445679 0 -49172217.522445679 -503500088.43852234 0 0 0 0 16529556.01148057 -69965009.30229187 0 -69965009.30229187 -319115526.52862549 0 0 0 0 85978355.18870616 56983053.936920166 0 56983053.936920166 -347032650.43211746 0 0 0 0 -18255988.866002083 25736543.736999512 0 25736543.736999512 -427608127.56141663 0 0 0 0 -2500038.4993350506 -7897155.0797576904 0 -7897155.0797576904 -356220291.70918274 0 0 0 0 60924419.35430944 31593812.343406677 0 31593812.343406677 -378546570.55451965 0 0 0 0 5918653.0650178641 -26545535.044212341 0 -26545535.044212341 -339565427.37521362 0 0 0 0 71716612.303522468 24572631.196029663 0 24572631.196029663 -413944719.618927 0 0 0 0 58890988.566789031 27762075.406337738 0 27762075.406337738 -335015969.09710693 0 0 0 0 33441495.70669198 -37548652.136276245 0 -37548652.136276245 -343760409.37053299 0 0 0 0 8568828.6659905016 -478660.57508087158 0 -478660.57508087158 -203501105.25079346 0 0 0 0 9621735.289435029 -4888958.4511871338 0 -4888958.4511871338 -189905820.21218872 0 0 0 0 -5746960.4687588215 -48730034.73576355 0 -48730034.73576355 -133635266.19067383 0 0 0 0 3658084.09976542 -43924662.919311523 0 -43924662.919311523 -183827591.25969887 0 0 0 0 -11543071.443548679 -50243657.671936035 0 -50243657.671936035 -117058991.94511414 0 0 0 0 -10352851.408568382 -127356714.59802246 0 -127356714.59802246 -359663278.81896973 0 0 0 0 223558.06288802161 68009.181350074708 0 68009.181350074708 -474865.82445274293 0 0 0 0 9735958.2076179981 88823287.587127686 0 88823287.587127686 58059802.439758301 0 0 0 0 91827969.535156727 177931528.05682373 0 177931528.05682373 -53274331.130004883 0 0 0 0 44620857.279263496 80914944.411239624 0 80914944.411239624 -62558607.33001709 0 0 0 0 106020295.02863553 133185548.3367157 0 133185548.3367157 -187193003.95623779 0 0 0 0 9904597.2542524338 24701607.51260376 0 24701607.51260376 -152844584.82649994 0 0 0 0 2292053.5936253071 25471298.356552124 0 25471298.356552124 -126162615.74871826 0 0 0 0 -27910156.597751856 -38245779.633544922 0 -38245779.633544922 -130037935.84517479 0 0 0 0 -55916048.224611282 -36626935.757003784 0 -36626935.757003784 -102277566.50757027 0 0 0 0 1610063.8601810932 -28060968.198699951 0 -28060968.198699951 -58767684.574893951 0 0 0 0 -2568926.6166213155 -4941786.8954391479 0 -4941786.8954391479 -100046590.79733276 0 0 0 0 57898149.35740228 -65653110.445404053 0 -65653110.445404053 -80185100.306335449 0 0 0 0 -1180953.6209275723 5919819.9094543457 0 5919819.9094543457 56407525.705064297 0 0 0 0 56937213.33920911 -19522211.674087524 0 -19522211.674087524 -146417457.69723511 0 0 0 0 46308072.212284088 -47708939.995330811 0 -47708939.995330811 -202589251.90940857 0 0 0 0 43713603.381384194 -7217342.434677124 0 -7217342.434677124 -194336409.71896362 0 0 0 0 477885.17170033435 -5772.3879009524826 0 -5772.3879009524826 -221682.06636829674 0 0 0 0 -33840048.992079526 -83236820.189209461 0 -83236820.189209461 -112569928.55422974 0 0 0 0 6020572.1823536232 53157666.37447691 0 53157666.37447691 -89613896.588409424 0 0 0 0 -16692659.301453292 -2074700.0477294922 0 -2074700.0477294922 -3239308.5003128052 0 0 0 0 23623393.834237829 17080314.673828125 0 17080314.673828125 -140297867.00952148 0 0 0 0 9623805.5041496754 -18040951.93321228 0 -18040951.93321228 -120514322.52452087 0 0 0 0 -1261319.1851606369 -15329557.222312927 0 -15329557.222312927 -76791593.262512207 0 0 0 0 -32457199.659699738 -73308790.774250031 0 -73308790.774250031 -150451002.66827393 0 0 0 0 22451948.700148344 -27532770.010787964 0 -27532770.010787964 -194794554.25982666 0 0 0 0 -4139286.4338687658 26314562.70267868 0 26314562.70267868 -65839360.141693115 0 0 0 0 -20096377.242743731 7856088.6326599121 0 7856088.6326599121 -1312052.149810791 0 0 0 0 -7089371.7287931442 1373599.8915100098 0 1373599.8915100098 -18254175.834136963 0 0 0 0 -1669825.5127950311 19924710.009838104 0 19924710.009838104 -16372931.545043945 0 0 0 0 19268214.596843719 7097057.7104797363 0 7097057.7104797363 -46824678.024078369 0 0 0 0 17541329.185600042 2997671.6114578247 0 2997671.6114578247 -6811166.2833557129 0 0 0 0 10397270.375405312 18592410.025817871 0 18592410.025817871 -24974381.91796875 0 0 0 0 -16607714.273147106 -25288173.648895264 0 -25288173.648895264 -38339144.919815063 0 0 0 0 120190712.80026102 56919271.732460022 0 56919271.732460022 -44542510.567932129 0 0 0 0 61061460.810503721 13723469.791152954 0 13723469.791152954 -39702831.484771729 0 0 0 0 2386032.6659831284 5249809.1717403047 0 5249809.1717403047 -13152666.379278213 0 0 0 0 14638911.236855507 39676039.9793396 0 39676039.9793396 15735514.211990356 0 0 0 0 -1243509.4156594276 -22699966.738243103 0 -22699966.738243103 -50411914.415771484 0 0 0 0 1086968.9457381964 -24346059.181747437 0 -24346059.181747437 -53486235.898864746 0 0 0 0 -20892684.164030313 17970319.808883667 0 17970319.808883667 -16559703.091705322 0 0 0 0 12580890.960736103 3134861.59953022 0 3134861.59953022 -71743353.518615723 0 0 0 0 10719588.269413471 19791781.231033325 0 19791781.231033325 -6944528.3058929443 0 0 0 0 23452169.223325729 -1440297.0378265381 0 -1440297.0378265381 -317009006.37548828 0 0 0 0 -1163809.9111567615 -441312.02520736307 0 -441312.02520736307 1330324.7568727955 0 0 0 0 -23749429.058916092 -41156886.234741211 0 -41156886.234741211 -164885092.06958008 0 0 0 0 -25885306.280841827 -41246162.403762817 0 -41246162.403762817 -104900385.6673584 0 0 0 0 -10730239.735233903 -14235649.184143066 0 -14235649.184143066 -56825202.988847733 0 0 0 0 -32332846.506545067 41890421.285736084 0 41890421.285736084 -82964051.76512146 0 0 0 0 -22219743.920177221 29385715.932510376 0 29385715.932510376 -71224934.300415039 0 0 0 0 -57856203.915884018 84178885.057144165 0 84178885.057144165 -39970398.522827148 0 0 0 0 -29112066.014568329 54061703.718688965 0 54061703.718688965 -186489089.92432404 0 0 0 0 3578864.7503547668 59199343.084716797 0 59199343.084716797 -55501651.576568604 0 0 0 0 -60020536.434164524 57975719.162158966 0 57975719.162158966 -42616993.244232178 0 0 0 0 -61932702.221364498 53542092.180999756 0 53542092.180999756 -26851271.083511353 0 0 0 0 -35116043.440079331 30062714.526382446 0 30062714.526382446 -14848754.565979004 0 0 0 0 4273911.6352419853 5948965.3979187012 0 5948965.3979187012 19369247.118011475 0 0 0 0 85271531.811071873 -895999.10475921631 0 -895999.10475921631 -37842867.00994873 0 0 0 0 -10929260.657810688 44406339.691635132 0 44406339.691635132 -34909002.881202698 0 0 0 0 -3649057.2008752823 17768572.128974915 0 17768572.128974915 -31633402.193771362 0 0 0 0 48600821.884109497 67573336.419891357 0 67573336.419891357 -19341976.148170471 0 0 0 0 -59788981.150776863 129392516.7228508 0 129392516.7228508 -132996621.93539429 0 0 0 0 -96273271.352659464 67644176.71736145 0 67644176.71736145 -4145590.6575927734 0 0 0 0 -12411712.293374062 160040967.38502502 0 160040967.38502502 -123014901.78088379 0 0 0 0 -62629867.753518626 243913064.5206604 0 243913064.5206604 -262198592.16421509 0 0 0 0 -33728294.236675262 222714889.9756012 0 222714889.9756012 -262620485.89876461 0 0 0 0 -192974.41089093994 1726313.015901953 0 1726313.015901953 -2719261.3696018606 0 0 0 0 -558405139.47945499 349809314.26167297 0 349809314.26167297 -150316745.47704315 0 0 0 0 -286362485.80525947 84995624.748512268 0 84995624.748512268 38174261.659790039 0 0 0 0 -9645937.8918945789 -74469459.977386475 0 -74469459.977386475 -122962709.92704582 0 0 0 0 -267935213.74545836 -472699847.28044891 0 -472699847.28044891 -665100351.2973175 0 0 0 0 21875531.343577623 -46122700.794914246 0 -46122700.794914246 -196507224.59298706 0 0 0 0 13627562.532833099 -126941827.04702759 0 -126941827.04702759 -408714259.55004883 0 0 0 0 -21797639.688343048 -59671285.50567627 0 -59671285.50567627 -66636190.346847534 0 0 0 0 18310545.498476744 -57145960.541290283 0 -57145960.541290283 -198213513.16955566 0 0 0 0 17548680.420071244 -45542189.446594238 0 -45542189.446594238 -128433605.70904541 0 0 0 0 408236.35595686524 3995739.4167913161 0 3995739.4167913161 -8103041.9831692427 0 0 0 0 -107013954.00484276 148239038.10080338 0 148239038.10080338 -426678463.28848267 0 0 0 0 -126782248.37218666 55411508.015408516 0 55411508.015408516 -238369838.24103546 0 0 0 0 8527448.9323196411 36223664.644363403 0 36223664.644363403 -753148821.07973623 0 0 0 0 -4990824.5837402344 -264229699.15540314 0 -264229699.15540314 -759061197.84632874 0 0 0 0 -35305968.584962845 -71895524.710430145 0 -71895524.710430145 -337058933.23281097 0 0 0 0 -39918770.216994286 -1083530.46459198 0 -1083530.46459198 -107554816.80682373 0 0 0 0 -70903761.68592453 112761857.3523941 0 112761857.3523941 -378824370.52374744 0 0 0 0 77869797.76089859 113695156.87485504 0 113695156.87485504 -254038369.14076233 0 0 0 0 -129877.26513960632 17571990.532852337 0 17571990.532852337 -60545179.397721373 0 0 0 0 125362984.75135612 105348419.1945343 0 105348419.1945343 -144733719.20123291 0 0 0 0 24211281.949346542 -67068410.177745819 0 -67068410.177745819 -500313666.94242096 0 0 0 0 -107548288.17785835 -94876340.647109985 0 -94876340.647109985 -96029979.662727356 0 0 0 0 -22834357.154352188 -227968986.34251022 0 -227968986.34251022 -436872110.09359741 0 0 0 0 80960679.455879211 262153025.64196777 0 262153025.64196777 -90959503.264404297 0 0 0 0 -79105135.239242554 -284706663.33429337 0 -284706663.33429337 -363623194.97083282 0 0 0 0 -21170438.315116882 -66274852.790466309 0 -66274852.790466309 93227272.001106262 0 0 0 0 -38171938.061607361 187117226.74407959 0 187117226.74407959 -272272179.89751434 0 0 0 0 -198580214.47202682 237913552.53193665 0 237913552.53193665 221802536.26538086 0 0 0 0 -30934821.348501205 49102226.647323608 0 49102226.647323608 -52065694.190704346 0 0 0 0 7987693.0537414551 93712666.531814575 0 93712666.531814575 -136959000.17922974 0 0 0 0 131953880.63417244 405728.94557952881 0 405728.94557952881 -71273440.403167725 0 0 0 0 49892396.927768707 92912672.916633606 0 92912672.916633606 -176929056.86860657 0 0 0 0 53722960.215886593 140262687.07135391 0 140262687.07135391 -240546785.4102478 0 0 0 0 35811239.745930672 177400393.81437683 0 177400393.81437683 -268835634.09069824 0 0 0 0 46973550.428859711 76384785.742866516 0 76384785.742866516 -198933728.14837646 0 0 0 0 92624435.551523209 140841197.67279053 0 140841197.67279053 -310228870.41044617 0 0 0 0 136797531.84826279 93230512.999664307 0 93230512.999664307 -273508593.07128906 0 0 0 0 109125427.60738611 93351297.084640503 0 93351297.084640503 -253401233.35211182 0 0 0 0 1443620.8051122352 -29528482.007080793 0 -29528482.007080793 -64842099.853703603 0 0 0 0 45589295.393789291 100573797.73465729 0 100573797.73465729 -232020017.95656967 0 0 0 0 2270811.8870916367 60570984.711158752 0 60570984.711158752 -223461405.67256165 0 0 0 0 35059118.755937576 114955820.19815063 0 114955820.19815063 -145210947.07309055 0 0 0 0 -77900136.180824757 162690663.15464377 0 162690663.15464377 -239546955.0383606 0 0 0 0 -66508226.189292908 226843968.35679626 0 226843968.35679626 -138776904.01742792 0 0 0 0 1859441.3132712329 18376184.399587564 0 18376184.399587564 -67988704.342001498 0 0 0 0 969901782.42070389 854233632.71094894 0 854233632.71094894 -882318359.17396164 0 0 0 0 -43067910.987236977 219177160.01605797 0 219177160.01605797 -125042074.85287857 0 0 0 0 2896743628.9773407 -38779721.145996094 0 -38779721.145996094 -690659399.86958313 0 0 0 0 2287928.1156840483 -2098873.5978593845 0 -2098873.5978593845 -3590910.1833730787 0 0 0 0 -1701819104.3648491 -520399758.36053467 0 -520399758.36053467 212213916.12671661 0 0 0 0 -174344543.6082077 -267946855.12392807 0 -267946855.12392807 -400869053.40596771 0 0 0 0 -127241864.66466141 -64955914.679916382 0 -64955914.679916382 -569084533.72012329 0 0 0 0 -198391912.57242298 -39951377.974952698 0 -39951377.974952698 -90318517.301048279 0 0 0 0 -297674875.93161774 -609284061.50281906 0 -609284061.50281906 132110694.84708786 0 0 0 0 82786461.151395798 133612285.79232979 0 133612285.79232979 -161244302.8709259 0 0 0 0 7397261.9638831224 6580917.9115701262 0 6580917.9115701262 -31684501.362337507 0 0 0 0 -244457212.49046707 70570263.730781555 0 70570263.730781555 -33766903.760829926 0 0 0 0 -166187569.10679626 9271514.6954231262 0 9271514.6954231262 7075664.4901199341 0 0 0 0 -56669062.361412048 -27108023.997821808 0 -27108023.997821808 -247971815.93752289 0 0 0 0 -125177755.12478924 -140103655.69491482 0 -140103655.69491482 -528532933.31852722 0 0 0 0 -233526364.58040047 -300978618.04118729 0 -300978618.04118729 -287321694.07558441 0 0 0 0 -170933983.39806747 -309425041.13001251 0 -309425041.13001251 -211091278.37674713 0 0 0 0 -145481036.02978802 -111525751.49271965 0 -111525751.49271965 -163292890.97544861 0 0 0 0 -99228915.237579346 -117150200.20246887 0 -117150200.20246887 -241868202.86790466 0 0 0 0 -116764425.11540985 -216672787.19952011 0 -216672787.19952011 -71132816.371635437 0 0 0 0 2959021.7248535156 -13179697.939208984 0 -13179697.939208984 -129838224.50688934 0 0 0 0 -954219.66798519343 1145262.2445736257 0 1145262.2445736257 -7507601.876073163 0 0 0 0 -118957523.24887085 -123322816.09278107 0 -123322816.09278107 -55613287.337493896 0 0 0 0 -59886634.378307343 -43383610.922168732 0 -43383610.922168732 47976799.714233398 0 0 0 0 42828684.056274414 65092858.500759125 0 65092858.500759125 -1911864.7743301392 0 0 0 0 122297777.53728485 54099333.170379639 0 54099333.170379639 -98403968.969373941 0 0 0 0 99781491.868583679 55881763.031707764 0 55881763.031707764 -98460799.956710815 0 0 0 0 -59764127.847985506 11236961.680175543 0 11236961.680175543 -94778215.655189514 0 0 0 0 57544093.988731384 9560323.0655517578 0 9560323.0655517578 -120861863.49933624 0 0 0 0 80949912.020393372 22865230.866256714 0 22865230.866256714 -118748405.36783409 0 0 0 0 65498688.413002014 47832305.167503357 0 47832305.167503357 -97852347.822692871 0 0 0 0 52561596.261825085 37772116.548509121 0 37772116.548509121 -96646210.326477051 0 0 0 0 111666922.62489319 26422928.814571381 0 26422928.814571381 -98420422.573074341 0 0 0 0 96932950.467933655 35264669.986778259 0 35264669.986778259 -95346400.19216156 0 0 0 0 -2691471.2949005533 -6031762.5617822167 0 -6031762.5617822167 -35799666.306677073 0 0 0 0 116020476.03652954 26265489.302434921 0 26265489.302434921 -99340248.292785645 0 0 0 0 4948114.4660003893 3947624.440867262 0 3947624.440867262 -34289444.850555494 0 0 0 0 124147231.57621002 34367363.239692688 0 34367363.239692688 -100132215.97193909 0 0 0 0 98398067.809638977 29740007.671401978 0 29740007.671401978 -98660508.479560852 0 0 0 0 174825089.17908382 205198639.93367004 0 205198639.93367004 -258500487.6047678 0 0 0 0 -413333822.54550838 -188032972.47691917 0 -188032972.47691917 -58643715.387565613 0 0 0 0 216670930.23192549 -273102027.66201782 0 -273102027.66201782 -125937018.02807617 0 0 0 0 111309573.95335579 -38024147.158859253 0 -38024147.158859253 -39305633.200439453 0 0 0 0 163844087.63789678 31475443.815261841 0 31475443.815261841 -404301660.58868408 0 0 0 0 4100429.3829459492 -32007634.533768915 0 -32007634.533768915 -64945233.906350151 0 0 0 0 -35564130.506186008 -17149749.317722321 0 -17149749.317722321 -102230289.0168457 0 0 0 0 1238025.9378192537 18257344.768491983 0 18257344.768491983 -65479629.417396165 0 0 0 0 25048901.717968822 -2889887.8378896713 0 -2889887.8378896713 -134331333.99290466 0 0 0 0 -32101336.729972064 75852109.081749439 0 75852109.081749439 -75700745.282440186 0 0 0 0 -52655073.407012939 34145520.394851685 0 34145520.394851685 111480065.65661621 0 0 0 0 103703997.14812469 -88834357.444946289 0 -88834357.444946289 -13413434.77557373 0 0 0 0 13547738.468452454 -9160324.4026794434 0 -9160324.4026794434 -63389680.42893219 0 0 0 0 31380839.754528046 -7078339.3802871704 0 -7078339.3802871704 -128846404.90133667 0 0 0 0 75977951.936214447 -9117957.9104385376 0 -9117957.9104385376 -134496105.78937149 0 0 0 0 110707221.08933258 -52487128.122695923 0 -52487128.122695923 -106240343.54293823 0 0 0 0 135527828.87581253 -15462148.733514786 0 -15462148.733514786 -180742541.16616821 0 0 0 0 172424752.00931549 8232852.8215255737 0 8232852.8215255737 -165853699.88135529 0 0 0 0 71552497.559352875 33405351.339324951 0 33405351.339324951 -168225577.91201019 0 0 0 0 -5387102.1156311035 181720172.68262482 0 181720172.68262482 -159153643.47930908 0 0 0 0 44446891.018074036 96706381.942390442 0 96706381.942390442 -94512336.749549866 0 0 0 0 185395440.76988268 143436161.07755208 0 143436161.07755208 -303676051.1111908 0 0 0 0 156084134.2546463 -537098549.31615067 0 -537098549.31615067 647428229.29291916 0 0 0 0 326506472.45492554 90514181.687606812 0 90514181.687606812 -284014209.61949921 0 0 0 0 995589.74969482422 -58141962.386711121 0 -58141962.386711121 246317817.42526245 0 0 0 0 525177025.55169678 -234382828.40511322 0 -234382828.40511322 -315905209.34164429 0 0 0 0 327835809.2298584 26286190.498733521 0 26286190.498733521 -387471022.44699097 0 0 0 0 105572331.6439743 -89700900.116043091 0 -89700900.116043091 -49751390.45275116 0 0 0 0 310448984.41188812 -133538786.2317276 0 -133538786.2317276 -107729976.61305237 0 0 0 0 275278482.2515564 -344703527.47306824 0 -344703527.47306824 209237854.45805359 0 0 0 0 523698775.16761017 -140084164.12757111 0 -140084164.12757111 -556954173.605896 0 0 0 0 1731449401.1977234 -1845092203.5830994 0 -1845092203.5830994 -343527547.65275669 0 0 0 0 1067179686.3927002 907990311.34385681 0 907990311.34385681 -1874272341.145813 0 0 0 0 4174604660.5485229 -1349946682.3756866 0 -1349946682.3756866 -4377039489.6083679 0 0 0 0 -1441063391.4247513 1793573222.64785 0 1793573222.64785 -1410403667.4855042 0 0 0 0 4467848475.5607071 476731476.20370865 0 476731476.20370865 -6881550806.8057251 0 0 0 0 807563616.14221954 2936241719.3063326 0 2936241719.3063326 -4662024026.7637634 0 0 0 0 -334830369.5581665 659955486.33851624 0 659955486.33851624 -348758828.72013855 0 0 0 0 -276827361.76022339 622674027.57321167 0 622674027.57321167 -343859094.10051155 0 0 0 0 200293193.47633362 391678614.66750336 0 391678614.66750336 -716603498.82518387 0 0 0 0 573215225.00241089 1245747275.8946915 0 1245747275.8946915 -2102644006.3782043 0 0 0 0 905414121.59677124 21133932.70880127 0 21133932.70880127 -578588252.19537354 0 0 0 0 -229242009.78572083 353990958.48194122 0 353990958.48194122 -178263731.58140564 0 0 0 0 -27657694.638511658 349930624.54491425 0 349930624.54491425 -187654954.91667175 0 0 0 0 -7612743.3484835625 159776089.36518812 0 159776089.36518812 -8074391.2961425781 0 0 0 0 -201177359.36553955 101375540.28540039 0 101375540.28540039 82912240.85218811 0 0 0 0 -690168736.26454163 319303311.32605362 0 319303311.32605362 975032.35458374023 0 0 0 0 -193807814.37324619 108235154.28682709 0 108235154.28682709 89296853.859466553 0 0 0 0 71747575.694839478 -113316113.28569412 0 -113316113.28569412 8277389.1266326904 0 0 0 0 -301462250.41547394 -64916678.889568329 0 -64916678.889568329 46744694.450027466 0 0 0 0 165665985.86233521 -29467749.522417068 0 -29467749.522417068 18162433.313278198 0 0 0 0 -449849959.89508438 -570720087.80883026 0 -570720087.80883026 -237634118.81112289 0 0 0 0 -1709713259.3847599 1638920276.509697 0 1638920276.509697 -317870639.37618256 0 0 0 0 -8130774.3589478713 83077.288530245423 0 83077.288530245423 -14480713.133153835 0 0 0 0 -3727446.136398226 4693230.3081572708 0 4693230.3081572708 -1582265.1732754558 0 0 0 0 -961403621.89299011 329594153.28485203 0 329594153.28485203 -173653149.33335114 0 0 0 0 59140061.772694111 -92300976.277130127 0 -92300976.277130127 -482007394.98888779 0 0 0 0 -347626.66980291391 -1047727.8574086875 0 -1047727.8574086875 -9465201.5742416866 0 0 0 0 -181795359.62352467 572365129.56951904 0 572365129.56951904 284545536.1893158 0 0 0 0 -68264869.501000166 -127182267.49682617 0 -127182267.49682617 -336680721.56124878 0 0 0 0 -117216848.37569594 96442781.990875244 0 96442781.990875244 -312658291.26852417 0 0 0 0 71412546.451128244 14051101.137763977 0 14051101.137763977 -364849314.42443848 0 0 0 0 88633432.565326452 59828989.023712158 0 59828989.023712158 -247227845.90115356 0 0 0 0 301663647.18683314 154973863.38983917 0 154973863.38983917 -1180635528.2166748 0 0 0 0 107077521.98987484 849014734.28707886 0 849014734.28707886 -635420056.05253601 0 0 0 0 -208473690.77616286 529228634.81423187 0 529228634.81423187 -789662645.79696655 0 0 0 0 207992899.3909204 -13481860.966766357 0 -13481860.966766357 -1317218320.1092377 0 0 0 0 -761817596.3420217 -953702885.24075317 0 -953702885.24075317 -215816567.31724548 0 0 0 0 292752371.24729204 -220450977.0995636 0 -220450977.0995636 -235822580.43348694 0 0 0 0 113868112.58184594 209672946.65267944 0 209672946.65267944 -595734313.51696777 0 0 0 0 135467456.45424271 -67436873.092376709 0 -67436873.092376709 -346000096.56182861 0 0 0 0 302726479.46582699 -71428279.49281311 0 -71428279.49281311 -404350819.57072449 0 0 0 0 -468852180.10476065 -135353995.49054718 0 -135353995.49054718 757905565.72653198 0 0 0 0 -112262597.10271311 -96830427.553207397 0 -96830427.553207397 -214588046.85746002 0 0 0 0 1321800.2175720739 -2167094.2980486602 0 -2167094.2980486602 -34750051.410612434 0 0 0 0 19849662.214216881 -94528559.455307484 0 -94528559.455307484 -426004568.4692688 0 0 0 0 -496620220.95434809 -102782899.05105591 0 -102782899.05105591 353373698.9296875 0 0 0 0 -268356667.36515141 191041725.0534668 0 191041725.0534668 -113208244.60742188 0 0 0 0 45475180.832091808 40780858.712799072 0 40780858.712799072 -481679422.76405334 0 0 0 0 6042560.7583003435 -32521855.652746242 0 -32521855.652746242 -75499968.311166957 0 0 0 0 235465957.1220409 104618947.24215698 0 104618947.24215698 -636892288.39996338 0 0 0 0 38539690.376939148 -71757789.37361145 0 -71757789.37361145 -128405694.73231316 0 0 0 0 9852392.2695731129 3103469.1591593549 0 3103469.1591593549 -20528282.573290244 0 0 0 0 -58917806.447382212 -14541122.733720779 0 -14541122.733720779 -108279439.74594116 0 0 0 0 -178079.45291900635 -36880462.098426819 0 -36880462.098426819 -129863241.95070076 0 0 0 0 -52274930.277398348 8501932.1594648361 0 8501932.1594648361 -112410657.26533508 0 0 0 0 -17893325.635421753 14567591.072357178 0 14567591.072357178 -114308452.81436539 0 0 0 0 43196390.792784929 60990780.655700684 0 60990780.655700684 14514272.817077637 0 0 0 0 135923550.36184859 -124929598.50338745 0 -124929598.50338745 -26911247.288642883 0 0 0 0 5358416.4540789053 -27362787.43293751 0 -27362787.43293751 -67420107.226284698 0 0 0 0 -99691139.323634386 -375373111.96981812 0 -375373111.96981812 262726535.20096588 0 0 0 0 6718330.4712182265 -23392299.813758057 0 -23392299.813758057 -65111804.99643781 0 0 0 0 21484340.912843704 -73765559.562896729 0 -73765559.562896729 130330385.61071777 0 0 0 0 -28455984.448557854 3555224.7885437012 0 3555224.7885437012 43167059.124305725 0 0 0 0 2227664.7189468639 602499.56906042993 0 602499.56906042993 -15975382.384568006 0 0 0 0 -38726470.397934079 -17083158.844165802 0 -17083158.844165802 36212902.635040283 0 0 0 0 22870448.146534681 -46289306.773925781 0 -46289306.773925781 -159690453.68765259 0 0 0 0 14330571.58069551 27476496.20539093 0 27476496.20539093 -189567501.98803711 0 0 0 0 8657072.5153638124 3850461.303691864 0 3850461.303691864 -227276050.54882812 0 0 0 0 24069219.174524307 -34615903.724133492 0 -34615903.724133492 -377925260.06698608 0 0 0 0 54127732.308975458 -69217332.271087646 0 -69217332.271087646 -357710065.97155762 0 0 0 0 29648984.717915297 -98244681.330078125 0 -98244681.330078125 -164795210.03282166 0 0 0 0 21705589.714234591 78460920.848693848 0 78460920.848693848 -137722842.3760376 0 0 0 0 35941144.714407787 -12447865.6728158 0 -12447865.6728158 -85415437.596282959 0 0 0 0 34666153.625499271 -42306870.988119125 0 -42306870.988119125 -72601935.290649414 0 0 0 0 194333.51464680256 -6000157.9324165955 0 -6000157.9324165955 -15794810.434507817 0 0 0 0 14482366.602371335 -20238197.377624512 0 -20238197.377624512 -52550867.585784912 0 0 0 0 -18647.679637908936 2085355.9719848633 0 2085355.9719848633 -9278499.6832065582 0 0 0 0 -2182338.7210459709 2660943.2037200928 0 2660943.2037200928 -8343536.4547729492 0 0 0 0 -5891545.0892276764 1856764.3326377869 0 1856764.3326377869 -36173923.896057129 0 0 0 0 -3330097.3014373779 6188043.4849090576 0 6188043.4849090576 -44091651.71697998 0 0 0 0 -951542.07330432348 198132.34817837179 0 198132.34817837179 -11866933.514980011 0 0 0 0 110254.41071525367 -2609581.6396295577 0 -2609581.6396295577 -6898279.2294305712 0 0 0 0 2955715.7443225831 2809736.101234436 0 2809736.101234436 -28133417.141465187 0 0 0 0 -3472413.258702755 7468389.1788406372 0 7468389.1788406372 -46833220.442108154 0 0 0 0 -7035866.7697253227 10305365.331832886 0 10305365.331832886 -41167210.627120972 0 0 0 0 2371146.2035591602 1824648.9880447388 0 1824648.9880447388 -80455965.946990967 0 0 0 0 1221594.204055557 -3272807.688122116 0 -3272807.688122116 -36962751.623212293 0 0 0 0 2463881.3786048889 9306190.886505127 0 9306190.886505127 -99371055.688964844 0 0 0 0 2909560.9003059864 2812844.5206832886 0 2812844.5206832886 -20466601.909240723 0 0 0 0 6788323.1124933949 -1326900.4799939916 0 -1326900.4799939916 -49825117.105861649 0 0 0 0 3233967.0960925817 3226858.9924240112 0 3226858.9924240112 -34564844.412155151 0 0 0 0 -6457558.3185514528 15921309.292444453 0 15921309.292444453 -28569231.169422872 0 0 0 0 -4322597.0722665787 7314319.8297271729 0 7314319.8297271729 -33749665.972976685 0 0 0 0 -28998821.352262497 -124942.16058349609 0 -124942.16058349609 -121043945.4955864 0 0 0 0 -12699345.390417099 10741771.054275513 0 10741771.054275513 -32880476.851799011 0 0 0 0 -6980436.5096902847 -17650936.503593445 0 -17650936.503593445 -112270861.975811 0 0 0 0 -276321.20199161768 2632174.3112311363 0 2632174.3112311363 -58642456.771942139 0 0 0 0 -1024780.495188274 -5095178.0026359484 0 -5095178.0026359484 -14426196.870749194 0 0 0 0 31701415.897844315 7494188.5299377441 0 7494188.5299377441 -95079174.813598633 0 0 0 0 -19104369.197254181 4007836.3107910156 0 4007836.3107910156 -58483150.725959778 0 0 0 0 71044.724450899288 -1323722.7949895561 0 -1323722.7949895561 -2177644.6015157811 0 0 0 0 11849641.642822742 -706619.48994445801 0 -706619.48994445801 -88479638.496637344 0 0 0 0 -3740703.968460083 2089473.4187088013 0 2089473.4187088013 -29335422.959716797 0 0 0 0 1291358.7542381287 16036647.781326294 0 16036647.781326294 -96290937.70980835 0 0 0 0 26637374.487524033 26409004.028060913 0 26409004.028060913 -93572100.520782471 0 0 0 0 -5276793.2810064554 33339877.286758423 0 33339877.286758423 -95431938.424407959 0 0 0 0 114559782.54629326 102789550.39907074 0 102789550.39907074 -152680582.21929932 0 0 0 0 58867337.871622086 11946224.198577881 0 11946224.198577881 -111389874.83187866 0 0 0 0 -1012993.2858963013 35874204.600730896 0 35874204.600730896 -86098593.681182861 0 0 0 0 26779825.539468765 26360667.650604248 0 26360667.650604248 -116115114.24766541 0 0 0 0 -10215094.952629566 6890710.9442539215 0 6890710.9442539215 -58586734.604400635 0 0 0 0 -123771838.74108696 58135065.210113525 0 58135065.210113525 -73976993.195953369 0 0 0 0 53606568.044063568 5356391.1201553345 0 5356391.1201553345 -71106074.37828064 0 0 0 0 2426106.8136682138 -6898104.1730585806 0 -6898104.1730585806 2064733.4433762729 0 0 0 0 13376381.591854095 -5403320.5702972412 0 -5403320.5702972412 -63180415.63671875 0 0 0 0 36229362.808675766 18099198.720184326 0 18099198.720184326 -83642877.782073975 0 0 0 0 12223765.944046021 16247169.901641846 0 16247169.901641846 -56925380.74187088 0 0 0 0 17599864.466936588 33010778.864463806 0 33010778.864463806 -63966814.210784912 0 0 0 0 4291599.9561262131 15090179.035690308 0 15090179.035690308 -81865776.573928833 0 0 0 0 6209191.0141516924 18849942.302780151 0 18849942.302780151 -96850987.062713623 0 0 0 0 9363358.0560970306 55832769.487716675 0 55832769.487716675 -40320201.673576355 0 0 0 0 -51541368.671904564 30318418.618988037 0 30318418.618988037 -48833130.54498291 0 0 0 0 -42596109.470230818 35710489.455722809 0 35710489.455722809 -64067175.068267822 0 0 0 0 -7835228.394090414 3339746.3323822021 0 3339746.3323822021 -29942879.787139893 0 0 0 0 -5099185.089242816 10799177.511604309 0 10799177.511604309 -40801157.843200684 0 0 0 0 -35448430.23545146 21822310.785247803 0 21822310.785247803 -42291063.421386719 0 0 0 0 -463474.80089068413 -1316906.576675415 0 -1316906.576675415 -66914291.314361572 0 0 0 0 -111290.49954128265 619729.99282836914 0 619729.99282836914 -5608912.7032775879 0 0 0 0 76809.005065023899 -11887747.864362955 0 -11887747.864362955 -16610206.362701416 0 0 0 0 780125.65799187613 -4018133.4831051007 0 -4018133.4831051007 -13481357.80311672 0 0 0 0 560593.47055149078 9447904.572845459 0 9447904.572845459 -30096988.985107422 0 0 0 0 121523.24544168031 242744.21309533715 0 242744.21309533715 -1921611.2092235088 0 0 0 0 -6170569.4107131958 5477673.5322875977 0 5477673.5322875977 -19788761.764404297 0 0 0 0 -3070326.2118474497 865956.07940553874 0 865956.07940553874 -17948698.467320353 0 0 0 0 1300970.5675759804 -1391133.9702499211 0 -1391133.9702499211 -7107019.1127418131 0 0 0 0 -4329302.095495224 132591.31829833984 0 132591.31829833984 -46601498.484046936 0 0 0 0 -550024.57582449401 -4735298.1302011609 0 -4735298.1302011609 -16483590.367667176 0 0 0 0 -13444428.622373581 13672500.528091431 0 13672500.528091431 -84067877.937469482 0 0 0 0 -35016217.034579277 21526433.811706543 0 21526433.811706543 -65614214.472251892 0 0 0 0 12744.262401781045 -464659.50508978963 0 -464659.50508978963 -3922999.6088840291 0 0 0 0 -6781370.6877670288 3440727.2783813477 0 3440727.2783813477 -38937035.145442963 0 0 0 0 12290657.876563072 3936943.3191814423 0 3936943.3191814423 -38779801.62411499 0 0 0 0 15075770.723029137 -1442627.9162473679 0 -1442627.9162473679 -36383274.600822449 0 0 0 0 63626556.352643967 -7267832.2544841766 0 -7267832.2544841766 -59765879.705375671 0 0 0 0 16916648.886604309 45993547.852329254 0 45993547.852329254 -13640651.953712463 0 0 0 0 11556522.614187241 -5650824.219789505 0 -5650824.219789505 -25451535.861923218 0 0 0 0 16019855.46802742 2588741.9854657166 0 2588741.9854657166 -33612121.982986726 0 0 0 0 -19151626.838180542 100641084.56240463 0 100641084.56240463 -59196421.536487579 0 0 0 0 8952829.6052522156 3227830.642331711 0 3227830.642331711 -10304334.489476915 0 0 0 0 -50603820.216278076 -37460524.322387695 0 -37460524.322387695 111250886.96874523 0 0 0 0 -10865207.618133545 92339697.065380096 0 92339697.065380096 -57566104.265289307 0 0 0 0 11981900.815638067 11984978.722264688 0 11984978.722264688 -31983282.299434524 0 0 0 0 19993377.262568474 -14180081.232845306 0 -14180081.232845306 -33242785.749542236 0 0 0 0 9223412.2402935028 -429068.97671127319 0 -429068.97671127319 -31125635.017738342 0 0 0 0 176527507.5160141 -86872215.845275879 0 -86872215.845275879 -64727529.065063477 0 0 0 0 14477814.05026383 -8213029.826479353 0 -8213029.826479353 -38219021.220301419 0 0 0 0 313203182.54388428 -39829170.166969299 0 -39829170.166969299 -398909580.29868317 0 0 0 0 36910920.521606445 -36094678.159301758 0 -36094678.159301758 62515635.864471436 0 0 0 0 -507130.95489871502 -562688.2899196595 0 -562688.2899196595 1514355.3701214753 0 0 0 0 314940104.87605667 42043604.225738525 0 42043604.225738525 -162992799.92518616 0 0 0 0 799416.66702270508 39143095.179519653 0 39143095.179519653 -9149965.0164680481 0 0 0 0 64242686.41182518 58840615.784074783 0 58840615.784074783 -126730268.77572632 0 0 0 0 -236054.24208545685 29182033.004092216 0 29182033.004092216 -102891665.58547974 0 0 0 0 30933275.664161682 12672165.947944641 0 12672165.947944641 -117523859.37629318 0 0 0 0 -1063042.1224908764 12429898.773556229 0 12429898.773556229 -15966613.767736901 0 0 0 0 424937.94119405746 190569.23816585541 0 190569.23816585541 -122614456.03176117 0 0 0 0 -22347.897605895996 -444975.5205283165 0 -444975.5205283165 -58989698.857299805 0 0 0 0 -346436.7521797996 -5704818.7075677738 0 -5704818.7075677738 -20161944.406752564 0 0 0 0 -427244928.97592163 -59797821.731445312 0 -59797821.731445312 -245453277.20248413 0 0 0 0 -11307591.304588318 252274486.72731018 0 252274486.72731018 -167029675.62781525 0 0 0 0 193569472.92081261 -99627700.427852631 0 -99627700.427852631 -51417611.820327759 0 0 0 0 -189585012.03187275 -123610805.70452118 0 -123610805.70452118 102652570.75907898 0 0 0 0 -154158402.02942467 227207346.81568909 0 227207346.81568909 -73529047.192382812 0 0 0 0 1976202.3781886147 -529525.26760189608 0 -529525.26760189608 -832523.91933941841 0 0 0 0 -28934020.949093819 -93646550.295528412 0 -93646550.295528412 97693718.831062317 0 0 0 0 10939870.06637183 -4320946.264679566 0 -4320946.264679566 -34799798.673238575 0 0 0 0 15713402.800405502 2454181.9738311768 0 2454181.9738311768 -40566991.553539276 0 0 0 0 21067762.578957558 -19303248.575977325 0 -19303248.575977325 -34844163.64039135 0 0 0 0 10050114.243517291 -7066390.4763513301 0 -7066390.4763513301 -34114561.117579401 0 0 0 0 13464953.502182484 2787798.1134638786 0 2787798.1134638786 -37517945.49256134 0 0 0 0 4663968.1236801147 -6056777.3778419495 0 -6056777.3778419495 -46371427.544845581 0 0 0 0 10442668.473697167 -12559695.382920858 0 -12559695.382920858 -25161540.508378815 0 0 0 0 3420219.1886398792 13714879.16438067 0 13714879.16438067 -60222950.004890442 0 0 0 0 -25131712.28849268 24524389.751548767 0 24524389.751548767 -81005614.368988037 0 0 0 0 591003617.38101578 153164431.8447876 0 153164431.8447876 -203117237.34859753 0 0 0 0 213677434.54517269 226472132.8834877 0 226472132.8834877 67426879.043563843 0 0 0 0 253856488.97377431 52778530.499137878 0 52778530.499137878 -192228499.61956024 0 0 0 0 294477057.62767792 76502732.94846344 0 76502732.94846344 -206966005.75485587 0 0 0 0 204573980.75136757 -78998638.991281509 0 -78998638.991281509 -163961790.03322983 0 0 0 0 72632777.976676106 46998362.296504974 0 46998362.296504974 -188248612.77033997 0 0 0 0 12859140.446582973 -11021594.544568326 0 -11021594.544568326 -25774918.023318026 0 0 0 0 6379572.196434021 16448644.512004852 0 16448644.512004852 -63110422.341304779 0 0 0 0 102331761.06010914 85691087.490666389 0 85691087.490666389 -204741683.33181763 0 0 0 0 58354397.150843859 38793000.663599014 0 38793000.663599014 -190654108.53421021 0 0 0 0 80184566.763193071 94612935.680225372 0 94612935.680225372 -74265059.317237854 0 0 0 0 68089500.79895401 47897827.02368927 0 47897827.02368927 -84804002.961147308 0 0 0 0 -33389310.744249344 68188379.794668198 0 68188379.794668198 -145885089.78438568 0 0 0 0 3185511.3070510626 -5768417.046872139 0 -5768417.046872139 -45045072.463775635 0 0 0 0 21344654.627452552 -17396596.029794693 0 -17396596.029794693 -37736666.414749146 0 0 0 0 1609369.4666488767 1321813.8846664429 0 1321813.8846664429 -34467601.677627563 0 0 0 0 12245875.28357172 10018761.857116699 0 10018761.857116699 -56548340.502048492 0 0 0 0 13818839.946795003 -7664462.4992255196 0 -7664462.4992255196 -28962885.208261579 0 0 0 0 -18792286.378730744 35798780.855245352 0 35798780.855245352 -105379630.00403214 0 0 0 0 -2149780.7596797943 22884254.045402527 0 22884254.045402527 -41228606.917175293 0 0 0 0 15520843.799304962 19047461.848228455 0 19047461.848228455 -75582253.212121964 0 0 0 0 15893691.04478693 27257626.798455238 0 27257626.798455238 -56374545.242446899 0 0 0 0 264046.7368086623 8542628.8984644972 0 8542628.8984644972 -6765712.4818835892 0 0 0 0 7638170.2323317528 61594626.189601898 0 61594626.189601898 -51026143.415161133 0 0 0 0 65595802.977798462 47494532.603416443 0 47494532.603416443 -89056778.174257278 0 0 0 0 6954800.1899120864 6605785.6748978905 0 6605785.6748978905 -3145279.3986755833 0 0 0 0 13307284.34955883 -13916116.494873047 0 -13916116.494873047 -56370212.21697998 0 0 0 0 33959426.126806974 -27419132.686494827 0 -27419132.686494827 -47743977.693939209 0 0 0 0 -870159.6916217804 -25533863.520202637 0 -25533863.520202637 -24634409.557250977 0 0 0 0 14350759.410471201 139055708.95514297 0 139055708.95514297 -44461895.148414612 0 0 0 0 -7722412.0131616592 -12209559.12348175 0 -12209559.12348175 -36319114.274688721 0 0 0 0 4122646.248973662 -2011477.6961984783 0 -2011477.6961984783 -22360508.43429251 0 0 0 0 55976194.181852102 165125347.50362396 0 165125347.50362396 -65525098.716690063 0 0 0 0 128836694.03778648 143707337.33462524 0 143707337.33462524 -94446050.385147095 0 0 0 0 239694545.64965057 -311172650.60016632 0 -311172650.60016632 -198979566.76391602 0 0 0 0 175250904.88840342 169086365.72271824 0 169086365.72271824 -83558605.41293335 0 0 0 0 384960352.86571884 97468158.646842957 0 97468158.646842957 -73372731.673294067 0 0 0 0 60975.286170864478 -136605.31846115179 0 -136605.31846115179 -405188.26105406322 0 0 0 0 -127491769.96881294 40181841.542442322 0 40181841.542442322 32576847.939178467 0 0 0 0 2559618.9675471624 3717471.2866603853 0 3717471.2866603853 -2656063.1778084002 0 0 0 0 941798886.75143814 -182158271.7648468 0 -182158271.7648468 3852626.2544193268 0 0 0 0 1094306976.4387264 203066294.80246925 0 203066294.80246925 -152206820.26327515 0 0 0 0 -161639552.70488262 198393571.08831787 0 198393571.08831787 -68195345.030410767 0 0 0 0 18538639.081299782 -30751455.309280396 0 -30751455.309280396 133606102.70941162 0 0 0 0 73681357.078926086 -293128.03121948242 0 -293128.03121948242 -360104647.27236938 0 0 0 0 -119105510.67015672 291651428.14355469 0 291651428.14355469 -269666042.87488556 0 0 0 0 -1186933.457293069 156475.93655148149 0 156475.93655148149 -727744.4900175631 0 0 0 0 -52331682.050201893 -163746490.38751984 0 -163746490.38751984 48900314.590423584 0 0 0 0 15348947.023068488 91734890.764743805 0 91734890.764743805 -41959679.553588867 0 0 0 0 -250382624.60384297 27500786.743217468 0 27500786.743217468 12427503.095703125 0 0 0 0 -68136628.550827026 4379758.6159820557 0 4379758.6159820557 -4854720.2751464844 0 0 0 0 -91091069.821164966 78800698.166334152 0 78800698.166334152 -20086844.980682373 0 0 0 0 4524569.1995067596 50728754.147369385 0 50728754.147369385 -37856025.131652832 0 0 0 0 23940494.635387421 34751605.416275024 0 34751605.416275024 -34918296.858673096 0 0 0 0 169118236.10107613 -45870887.364723206 0 -45870887.364723206 -32747124.979219675 0 0 0 0 8060778.0386675457 -10575159.601973206 0 -10575159.601973206 -11454377.05050344 0 0 0 0 6149112.9024273716 -1382833.6610106006 0 -1382833.6610106006 -20375515.968291782 0 0 0 0 13146026.410199814 -1566902.3212321028 0 -1566902.3212321028 -37532161.735133648 0 0 0 0 29704907.138462067 -21595211.312736511 0 -21595211.312736511 -2530397.443145752 0 0 0 0 15663633.763105869 -10978617.267986298 0 -10978617.267986298 -29557695.105499268 0 0 0 0 6300517.0757665634 4858676.8119430542 0 4858676.8119430542 -32845813.080699921 0 0 0 0 96387259.703381538 124305448.9340744 0 124305448.9340744 -69108983.826873779 0 0 0 0 9624121.1519255769 -6563625.8358831331 0 -6563625.8358831331 -13155992.605992556 0 0 0 0 14390831.191833496 -14024074.471893311 0 -14024074.471893311 11088154.217727661 0 0 0 0 1686960.8258774832 7052975.7402076125 0 7052975.7402076125 -30156468.037203282 0 0 0 0 20928613.209626794 -14625183.035125732 0 -14625183.035125732 -11693055.518966675 0 0 0 0 1663011.1874163151 5974637.8146743774 0 5974637.8146743774 -30327410.780258179 0 0 0 0 10254551.112762451 99743995.237083435 0 99743995.237083435 -195430866.50141907 0 0 0 0 20830187.409697969 -1945614.7294984236 0 -1945614.7294984236 -35288035.347085185 0 0 0 0 403580.3767676577 3144996.6403061152 0 3144996.6403061152 -7438013.3148975 0 0 0 0 -15510378.040343285 63895724.151852608 0 63895724.151852608 -142578232.86277771 0 0 0 0 -58759618.70149231 56804644.981552124 0 56804644.981552124 -124608595.0854187 0 0 0 0 -33248222.087860107 22977571.339546204 0 22977571.339546204 -98012249.820785522 0 0 0 0 -7624601.4445685837 14664618.920833336 0 14664618.920833336 -15192260.510388002 0 0 0 0 -25084154.218765259 34755612.681182861 0 34755612.681182861 -98901460.08139801 0 0 0 0 -6431846.2744750977 20493717.413322449 0 20493717.413322449 -39676526.565301895 0 0 0 0 3030729.530377388 9004857.9986419678 0 9004857.9986419678 -21891683.58234787 0 0 0 0 3051615.0192777212 9556006.6842570268 0 9556006.6842570268 -21723347.246237904 0 0 0 0 1481253.8063049316 -3134262.9747924805 0 -3134262.9747924805 -32472481.932434082 0 0 0 0 -2376260.0554062077 9918834.8309618011 0 9918834.8309618011 -23645405.667812765 0 0 0 0 1311558.0785446167 5254896.3576965332 0 5254896.3576965332 -10039070.576873779 0 0 0 0 4100966.7267616387 3202203.3282010965 0 3202203.3282010965 -18546454.642642483 0 0 0 0 16777391.038762525 3802668.6905959547 0 3802668.6905959547 -31461514.034355156 0 0 0 0 5635929.316819191 15281228.353122711 0 15281228.353122711 -39050436.589050293 0 0 0 0 89644.856669832952 -33891.012467935681 0 -33891.012467935681 -3358537.0569011457 0 0 0 0 4210887.3545131683 8720537.9001464844 0 8720537.9001464844 -41268468.036819458 0 0 0 0 1369400.618221283 14903523.198074341 0 14903523.198074341 -37201849.270938873 0 0 0 0 261565833.72825432 -365071781.01330566 0 -365071781.01330566 -89069835.388519287 0 0 0 0 300361792.49914587 76552976.909592628 0 76552976.909592628 -279449656.13793945 0 0 0 0 4123126.0549069415 -5075192.6646795422 0 -5075192.6646795422 -15039598.145830773 0 0 0 0 -352520336.2813288 17598468.547538757 0 17598468.547538757 -94481847.092559814 0 0 0 0 -41776202.895188451 -91934621.223312378 0 -91934621.223312378 -162237828.94866943 0 0 0 0 127437459.31138092 72556628.944393158 0 72556628.944393158 -294835762.73007202 0 0 0 0 -637796.86982848216 200334.13273986429 0 200334.13273986429 -562590.48071698844 0 0 0 0 -254856162.79267782 -235863692.82761383 0 -235863692.82761383 426517568.33992004 0 0 0 0 5179746.3289271696 1527294.1642028913 0 1527294.1642028913 -35555214.892965481 0 0 0 0 4440620.4635696411 6443602.4177246094 0 6443602.4177246094 -45759895.220367432 0 0 0 0 1240103.0070628498 1977225.5634221286 0 1977225.5634221286 -28148985.473017514 0 0 0 0 15511365.628343999 -1195069.2933197021 0 -1195069.2933197021 -51069672.394195557 0 0 0 0 -1721053.0740717053 -16650360.346176147 0 -16650360.346176147 -41050867.231414795 0 0 0 0 12579392.186949968 -14229530.378623962 0 -14229530.378623962 -67006119.651153564 0 0 0 0 -20548410.42910862 13060227.762695312 0 13060227.762695312 -8859521.7027435303 0 0 0 0 -12389395.975492001 324960016.46699524 0 324960016.46699524 1430775.3088378906 0 0 0 0 -93826107.68763876 -364027570.27020264 0 -364027570.27020264 19781410.629722595 0 0 0 0 -412803774.09629774 -224896214.30944443 0 -224896214.30944443 109476069.44616699 0 0 0 0 -107320.37633519967 -271295.91057294328 0 -271295.91057294328 -425683.8433355391 0 0 0 0 21880341.27420187 16447636.513755798 0 16447636.513755798 -29818610.456726074 0 0 0 0 33585303.224376678 -56839985.441360474 0 -56839985.441360474 -113860863.20314026 0 0 0 0 -134112104.25483036 -22613604.352020264 0 -22613604.352020264 -78433251.392120361 0 0 0 0 269580503.98063374 -167042715.63794327 0 -167042715.63794327 -139607776.14916992 0 0 0 0 -2352281.4893706329 5593581.153799057 0 5593581.153799057 -22610936.725768298 0 0 0 0 57333952.544623852 13424581.396575928 0 13424581.396575928 58763569.021728516 0 0 0 0 228018288.51360014 58809835.066552162 0 58809835.066552162 -89591482.870727539 0 0 0 0 8410718.3265094757 33988867.184814453 0 33988867.184814453 -34588229.055908203 0 0 0 0 72476094.559038877 29695368.289169312 0 29695368.289169312 -16099602.777282715 0 0 0 0 29081595.1617558 -46053965.055580139 0 -46053965.055580139 -29995839.349884033 0 0 0 0 12723563.8214252 -11783227.1822052 0 -11783227.1822052 -27675890.240566254 0 0 0 0 57685369.046033382 1358521.8024940491 0 1358521.8024940491 -31415027.782928467 0 0 0 0 6348994.3046836853 3569222.4168701172 0 3569222.4168701172 -20464260.080871582 0 0 0 0 482061.61202331109 628403.56509844959 0 628403.56509844959 -2898690.2290660962 0 0 0 0 -6745096.8554193974 -23718015.992965698 0 -23718015.992965698 1068889.7250976562 0 0 0 0 -137153.66826987214 -1646474.3550392604 0 -1646474.3550392604 -1548792.3262779415 0 0 0 0 -227090.3190482682 -1089582.6292151101 0 -1089582.6292151101 -3215978.0132685006 0 0 0 0 -88273561.837719858 -72779831.179449081 0 -72779831.179449081 -13793040.625854492 0 0 0 0 -20640272.031247616 -28359918.552215576 0 -28359918.552215576 -20221349.913024902 0 0 0 0 23828.800341844559 -1269317.7495574951 0 -1269317.7495574951 -9847103.8656158447 0 0 0 0 -310568.23132625455 2809857.428677097 0 2809857.428677097 -8081954.31816677 0 0 0 0 -4348188.6003006995 3656674.2288513184 0 3656674.2288513184 -27052630.307250977 0 0 0 0 893016.7422041297 224118.30712890625 0 224118.30712890625 -9461864.4457092285 0 0 0 0 864987.83458447456 -289876.7731628418 0 -289876.7731628418 -9890587.2971191406 0 0 0 0 4596351.5298670828 6127702.1698455811 0 6127702.1698455811 -32016123.632301331 0 0 0 0 -307992.8022359134 3495029.5620344281 0 3495029.5620344281 -10898036.714391895 0 0 0 0 -178644.1782636866 525294.84351965412 0 525294.84351965412 -6471683.8674737215 0 0 0 0 288793.23679852486 -457701.39611816406 0 -457701.39611816406 -9336885.5841064453 0 0 0 0 5485004.8300543427 5821046.3725128174 0 5821046.3725128174 23871429.554626465 0 0 0 0 1598544.5091461737 3137767.0002538934 0 3137767.0002538934 -28182782.235012889 0 0 0 0 3461149.2342420965 3520650.9055706561 0 3520650.9055706561 -9746679.5780691355 0 0 0 0 15374095.20106402 9052069.2008209229 0 9052069.2008209229 -22668606.257202148 0 0 0 0 6393470.0868653059 4293000.741394043 0 4293000.741394043 -16527355.42388916 0 0 0 0 6878299.2853522301 24429262.754348755 0 24429262.754348755 -48692758.562988281 0 0 0 0 -7062094.4737069011 14415766.196121216 0 14415766.196121216 -10146159.559188843 0 0 0 0 1235335.7093011737 9617180.0365829468 0 9617180.0365829468 -29602745.177276611 0 0 0 0 557792.53473337193 992250.88140399754 0 992250.88140399754 -2431283.0631375462 0 0 0 0 -8340462.7823458016 -9119707.9191589355 0 -9119707.9191589355 -21221121.537857056 0 0 0 0 -5833703.143726483 -18336753.197383881 0 -18336753.197383881 -60941370.680175781 0 0 0 0 3247073.1782934964 730155.79803466797 0 730155.79803466797 -105521484.24069595 0 0 0 0 -25293840.606664389 25534985.211952209 0 25534985.211952209 -66582365.907531738 0 0 0 0 -8976005.0921225548 37644226.842254639 0 37644226.842254639 -97952678.858032227 0 0 0 0 8967374.7573411763 6265997.655380249 0 6265997.655380249 -105091419.73838806 0 0 0 0 -8462380.1433196664 -8556336.200302124 0 -8556336.200302124 -76763714.178009033 0 0 0 0 -5814108.4411871433 -15451806.584323883 0 -15451806.584323883 4360975.9399719238 0 0 0 0 -21831.763129030791 -75023.649424694479 0 -75023.649424694479 -70551.121734559536 0 0 0 0 -1094427.9875069857 8774843.0769195557 0 8774843.0769195557 -16208772.437866211 0 0 0 0 -39911.991038410153 -144406.16223124415 0 -144406.16223124415 -138985.83979529142 0 0 0 0 -5434100.9969078302 -17239311.428146362 0 -17239311.428146362 -31899172.433692932 0 0 0 0 -3271674.6307420284 3015340.03125 0 3015340.03125 -49487178.312400818 0 0 0 0 2851692.2141460627 14960629.845581055 0 14960629.845581055 -63056973.330200195 0 0 0 0 -4991211.1736260382 1450810.8032302856 0 1450810.8032302856 -23876472.167190552 0 0 0 0 7872631.898733139 -5290245.3823699951 0 -5290245.3823699951 -79411765.407012939 0 0 0 0 10900237.14663361 -136272.15278625488 0 -136272.15278625488 -73320704.053070068 0 0 0 0 13806068.618037 -1642794.9187774658 0 -1642794.9187774658 -73502182.002044678 0 0 0 0 14040388.370685905 -456302.28021240234 0 -456302.28021240234 -101405756.66131592 0 0 0 0 3631260.0028105397 6450957.6493682861 0 6450957.6493682861 -55312173.32783699 0 0 0 0 -3850182.9359857705 13023714.230175018 0 13023714.230175018 -18938423.871826172 0 0 0 0 2357322.1559934169 -276646.5326385498 0 -276646.5326385498 -52324577.425429344 0 0 0 0 -3447822.5685746889 2344914.7514877319 0 2344914.7514877319 -52181408.751617432 0 0 0 0 -10176865.357263042 -12088483.67741394 0 -12088483.67741394 -79208093.418151855 0 0 0 0 -21951151.157865506 759177.84005737305 0 759177.84005737305 -68141711.911529541 0 0 0 0 -8606101.1773153897 15296887.239074707 0 15296887.239074707 -56112282.931261063 0 0 0 0 22123.80469603058 8678351.3600739073 0 8678351.3600739073 -86276429.312072754 0 0 0 0 -2434613.4262320995 -30312097.443572998 0 -30312097.443572998 -59631764.513626099 0 0 0 0 145723.9674603733 216590.4747608304 0 216590.4747608304 -823739.53746432066 0 0 0 0 -32044.376888860017 -14082352.513092041 0 -14082352.513092041 -6903913.2066650391 0 0 0 0 -1885313.0354281086 -3565815.5730209351 0 -3565815.5730209351 -125750241.51879883 0 0 0 0 -6710015.8475552239 7806793.366607666 0 7806793.366607666 -76166172.309707642 0 0 0 0 -28244856.236211535 14748406.93173027 0 14748406.93173027 -53776086.980957031 0 0 0 0 -30791314.131249983 57069895.435302734 0 57069895.435302734 -119794564.60975075 0 0 0 0 7328328.2700899225 7726138.0039978027 0 7726138.0039978027 -11654933.960449219 0 0 0 0 7906998.0378088858 2483919.8401088715 0 2483919.8401088715 -15405651.527832031 0 0 0 0 6267730.9768466353 3125613.9278717041 0 3125613.9278717041 -14130555.244750977 0 0 0 0 -3806294.8775779922 -512593.6576461792 0 -512593.6576461792 -15533542.993164062 0 0 0 0 -16889.226739559323 4336177.5774536133 0 4336177.5774536133 -13208316.872070312 0 0 0 0 3276682.4465511441 3724955.9043273926 0 3724955.9043273926 -15303187.414039612 0 0 0 0 -16355.901637144623 6899764.2489318848 0 6899764.2489318848 -18501324.519348145 0 0 0 0 5198103.6017284933 2093398.3168945312 0 2093398.3168945312 -39488201.387710571 0 0 0 0 -567887.91668847203 1255874.0146942139 0 1255874.0146942139 -40415322.267852783 0 0 0 0 724586.88352695107 6681563.4250335693 0 6681563.4250335693 -35377064.969573975 0 0 0 0 11219360.110915571 5196379.3675765991 0 5196379.3675765991 -66974850.258178711 0 0 0 0 10526228.804860797 3466145.975944519 0 3466145.975944519 -68567829.034790039 0 0 0 0 10573693.126193568 5725586.8132019043 0 5725586.8132019043 -75343638.522605896 0 0 0 0 3296188.3564539403 -5728385.0525894165 0 -5728385.0525894165 -91886758.347229004 0 0 0 0 5116010.0597722083 26207618.86428833 0 26207618.86428833 -82497436.046264648 0 0 0 0 5773380.149620086 14969614.543518066 0 14969614.543518066 -53966593.796447754 0 0 0 0 11627206.915213615 24287608.529571533 0 24287608.529571533 -46750122.235534668 0 0 0 0 1430961.3209952638 8170324.3930053711 0 8170324.3930053711 -35804126.719238281 0 0 0 0 -2210380.2744254619 30293547.179321289 0 30293547.179321289 -9010497.0831604004 0 0 0 0 -14892471.001073599 14343345.628173828 0 14343345.628173828 -33214279.067596436 0 0 0 0 385312.4872877975 64025.592362046242 0 64025.592362046242 -2170869.7380332351 0 0 0 0 -6888411.7348100543 6077256.7642822266 0 6077256.7642822266 -3928673.7970733643 0 0 0 0 744514.41096906492 654061.44536057115 0 654061.44536057115 -2904512.1408856809 0 0 0 0 15064720.257617116 37396974.555541992 0 37396974.555541992 -17443909.087158203 0 0 0 0 23186100.588316545 5901425.227142334 0 5901425.227142334 -63416540.758422852 0 0 0 0 18090220.859968349 45064217.804260254 0 45064217.804260254 -37568676.746078491 0 0 0 0 2948205.5214368403 -230166.23974609375 0 -230166.23974609375 -16743451.107727051 0 0 0 0 1775694.2895287275 -953169.53204345703 0 -953169.53204345703 -11577532.618164062 0 0 0 0 59034.140038604455 -25214.807721555233 0 -25214.807721555233 -477452.41468206048 0 0 0 0 -231489.47023612325 157503.08121287823 0 157503.08121287823 378618.84563413262 0 0 0 0 2181173.5711137354 -15698995.468566895 0 -15698995.468566895 -30908781.571258545 0 0 0 0 -60966399.504812956 -8808696.0090332031 0 -8808696.0090332031 -13562092.306884766 0 0 0 0 -6530280.309086293 10682019.827697754 0 10682019.827697754 338385.24533081055 0 0 0 0 45708202.687023908 11629497.675109863 0 11629497.675109863 -14950925.428283691 0 0 0 0 1520927.9961381156 -2451427.244442828 0 -2451427.244442828 -2248706.2045096457 0 0 0 0 -289975.51816528261 2481814.219186604 0 2481814.219186604 -4538278.9593754746 0 0 0 0 309726.43513955548 423186.68341064453 0 423186.68341064453 -3574152.4299316406 0 0 0 0 1856023.0042709461 -2449625.9373225197 0 -2449625.9373225197 -11303060.13464731 0 0 0 0 -2095958.5981734097 11680598.595092773 0 11680598.595092773 -20054841.031364441 0 0 0 0 -771306.17243695259 6717934.0232543945 0 6717934.0232543945 -34275930.532287598 0 0 0 0 -608364.97492931434 2657487.2852255255 0 2657487.2852255255 -10599778.552363161 0 0 0 0 3345338.1770122945 4617662.9746551514 0 4617662.9746551514 -27286263.513916016 0 0 0 0 -1253006.8903777376 14306222.873069763 0 14306222.873069763 -30707917.611755371 0 0 0 0 987857.60116215167 -1322653.7362201735 0 -1322653.7362201735 -9187286.4721084014 0 0 0 0 3169073.2748705149 -7147265.3342437744 0 -7147265.3342437744 9137386.8997421265 0 0 0 0 -1632571.3760586977 9984749.8816833496 0 9984749.8816833496 -55010835.982269287 0 0 0 0 1897014.8513146639 -10651939.173461914 0 -10651939.173461914 2514595.7957458496 0 0 0 0 -1068446.1385734081 5257153.6519012451 0 5257153.6519012451 -20789365.173629761 0 0 0 0 -1054011.5384756308 -1638162.6464589164 0 -1638162.6464589164 1581465.9725190699 0 0 0 0 485762.4154388755 -208704.24026231468 0 -208704.24026231468 -7505121.5257885829 0 0 0 0 2264169.7470571399 -3605642.760345459 0 -3605642.760345459 -8582878.8772277832 0 0 0 0 46408645.376954406 -45437787.648452759 0 -45437787.648452759 -51710543.610172272 0 0 0 0 6351097.8444282487 -28901619.713586807 0 -28901619.713586807 -53692437.824813843 0 0 0 0 28016830.568118453 -5249529.4363861084 0 -5249529.4363861084 -74948728.153701782 0 0 0 0 6821271.3665184379 4417886.3233947754 0 4417886.3233947754 -60977191.328369141 0 0 0 0 16728065.29257071 -318679.25756835938 0 -318679.25756835938 -58783339.490150452 0 0 0 0 54810002.192183763 -11824943.750167847 0 -11824943.750167847 -95325825.209106445 0 0 0 0 -30097316.857273221 44309447.705413818 0 44309447.705413818 -96193042.651794434 0 0 0 0 -47169.982284876744 -365526.13367727399 0 -365526.13367727399 -2143544.2755726688 0 0 0 0 -4854969.4866830297 1838629.7136993408 0 1838629.7136993408 593433.45303344727 0 0 0 0 873670.39794246713 -2500336.4847869873 0 -2500336.4847869873 -7146343.5575256348 0 0 0 0 9847.6075927354941 -356881.13533418626 0 -356881.13533418626 -2775267.229655318 0 0 0 0 1882536.9076893106 4359746.5793151855 0 4359746.5793151855 -12350983.360031128 0 0 0 0 -16326860.226929083 -30268812.421840668 0 -30268812.421840668 -45668284.695678711 0 0 0 0 873670.39794195443 -295718.69276428223 0 -295718.69276428223 -5612507.6405639648 0 0 0 0 252711.08030760224 -891418.32963920385 0 -891418.32963920385 -1591977.3883292526 0 0 0 0 -7212.727665676387 558723.07705688477 0 558723.07705688477 -1926949.064956665 0 0 0 0 4368.4393666070955 563293.8207244873 0 563293.8207244873 -1929777.2786560059 0 0 0 0 -269870.23211508169 -465789.67162382603 0 -465789.67162382603 -561589.54024334252 0 0 0 0 -50739591.937509283 -62116316.283546448 0 -62116316.283546448 -88089117.676940918 0 0 0 0 -48728402.575049266 -50079424.784053802 0 -50079424.784053802 -21923483.318054199 0 0 0 0 -2299765.3779369295 5402952.2841415405 0 5402952.2841415405 -65794465.451400757 0 0 0 0 -21417231.662822343 -30731855.055274963 0 -30731855.055274963 -134055516.44381714 0 0 0 0 -110413.93619878947 -36849878.602537297 0 -36849878.602537297 -160465401.03771973 0 0 0 0 -36856458.316429049 -20564150.223297119 0 -20564150.223297119 -97428500.341342926 0 0 0 0 142577.24985767255 -140005.63360656053 0 -140005.63360656053 -2361115.071462037 0 0 0 0 31229237.329479635 -48725474.082351685 0 -48725474.082351685 -18171054.813382149 0 0 0 0 23413408.686706245 -18734001.852836609 0 -18734001.852836609 -54978913.942871094 0 0 0 0 53153343.191221982 -48000996.65209198 0 -48000996.65209198 -76834285.379730225 0 0 0 0 14704461.672541261 24186101.95565033 0 24186101.95565033 -108571952.94308472 0 0 0 0 56287064.827906847 -20929985.304634094 0 -20929985.304634094 -44333940.273742676 0 0 0 0 5700390.1792097092 -22238766.68372345 0 -22238766.68372345 -42297190.083343506 0 0 0 0 -1028729.7568338632 -827702.48837596923 0 -827702.48837596923 -4507485.5454837233 0 0 0 0 23155654.995487809 18878235.815326691 0 18878235.815326691 -8976642.9282531738 0 0 0 0 2700815.5441470146 -20055714.196838379 0 -20055714.196838379 -27526579.247772217 0 0 0 0 -146965025.32271984 -107537211.51062012 0 -107537211.51062012 22227009.552278519 0 0 0 0 26388088.938282553 50986699.262218475 0 50986699.262218475 -154419734.04544067 0 0 0 0 24765879.002477169 -11088558.512985229 0 -11088558.512985229 -72889802.380950928 0 0 0 0 524508.17440927657 -736844.97051152587 0 -736844.97051152587 -8043758.4565430311 0 0 0 0 254711.34336662292 -5761451.5082397461 0 -5761451.5082397461 -69633748.72366333 0 0 0 0 -9347880.013235569 -1448489.85496521 0 -1448489.85496521 -39430128.765869141 0 0 0 0 -710443.71421125333 -5934515.4453722909 0 -5934515.4453722909 -6919866.6825039126 0 0 0 0 261106.66963316058 -1870953.8715119883 0 -1870953.8715119883 -11707902.868704617 0 0 0 0 38056902.832114577 56037860.879974365 0 56037860.879974365 -3784154.3208618164 0 0 0 0 313646.15246963501 -3179686.0361557007 0 -3179686.0361557007 -39146570.154205322 0 0 0 0 1604870.4079206227 4419551.8894897923 0 4419551.8894897923 -13483227.461499535 0 0 0 0 5171523.1184678152 3046295.4647989273 0 3046295.4647989273 -43445233.630767822 0 0 0 0 6058154.406414032 -15810733.56640625 0 -15810733.56640625 -73433233.453369141 0 0 0 0 214329.32119980047 129234.00910700113 0 129234.00910700113 -1659476.7126668692 0 0 0 0 -36074825.533322334 -20471905.642837524 0 -20471905.642837524 -46651694.816879272 0 0 0 0 -15741566.591153383 -17098703.376251221 0 -17098703.376251221 -47213663.511613846 0 0 0 0 -5253503.4426198006 -34473842.220611572 0 -34473842.220611572 -112727056.44033623 0 0 0 0 -17200468.475165367 -23532948.723022461 0 -23532948.723022461 -62026616.613220215 0 0 0 0 17298059.412539959 -42142593.956970215 0 -42142593.956970215 -60210431.841064453 0 0 0 0 -580772.61228895187 -49785955.072235107 0 -49785955.072235107 -75145419.218231201 0 0 0 0 -4942452.8674798012 -44202907.361083984 0 -44202907.361083984 -43605170.277832031 0 0 0 0 -6642768.260708034 -38119418.386478424 0 -38119418.386478424 -10444157.714111328 0 0 0 0 3456208.6589128971 -36173568.892562866 0 -36173568.892562866 -55669912.390899658 0 0 0 0 3517428.890173912 -38634547.042251587 0 -38634547.042251587 -68943239.052597046 0 0 0 0 -962527.38295149803 -24509834.892364502 0 -24509834.892364502 -46461262.64906311 0 0 0 0 -2041546.8733906746 -19614665.95803833 0 -19614665.95803833 -31269766.448913574 0 0 0 0 -275056.67676469905 -4439019.1702394411 0 -4439019.1702394411 -15041320.211007565 0 0 0 0 -9941477.7186765671 -18289279.992507935 0 -18289279.992507935 1493054.6946411133 0 0 0 0 614526.25744209008 -2168701.7066510124 0 -2168701.7066510124 -5034046.1080576777 0 0 0 0 3251266.1915237904 -2195340.1268005371 0 -2195340.1268005371 -4155289.0488090515 0 0 0 0 2985416.3396188021 -2755386.1273803711 0 -2755386.1273803711 -4306168.9772949219 0 0 0 0 1579877.6681811146 -3611198.5600602031 0 -3611198.5600602031 -6631815.8953079432 0 0 0 0 2579396.8712282181 744662.62716674805 0 744662.62716674805 -8903486.5539550781 0 0 0 0 -5410950.9395999908 -6355921.5954589844 0 -6355921.5954589844 -14512027.208206177 0 0 0 0 121023.12497901917 1049088.7570800781 0 1049088.7570800781 -15437052.813201904 0 0 0 0 -11545123.260455132 -36935556.025192261 0 -36935556.025192261 -14965253.398864746 0 0 0 0 -11093465.850660801 -23137106.297912598 0 -23137106.297912598 -12554121.649429321 0 0 0 0 18205441.172482252 -12840716.656311035 0 -12840716.656311035 -26886253.656677246 0 0 0 0 1387683.0507713999 -2005376.8289393932 0 -2005376.8289393932 -2257280.6289052069 0 0 0 0 2771626.4589526355 -16253713.372760773 0 -16253713.372760773 -35621468.585449219 0 0 0 0 2366479.4922736399 -1446325.9979813099 0 -1446325.9979813099 -13551104.069854736 0 0 0 0 2348017.1869750023 -2570606.4682312012 0 -2570606.4682312012 -9082785.6981258392 0 0 0 0 1153249.046637415 -3090881.6227563694 0 -3090881.6227563694 -12310874.145512529 0 0 0 0 -1151257.1377243293 -4675145.8172085658 0 -4675145.8172085658 -14221200.698493749 0 0 0 0 50536.492175346764 -108936.28556946293 0 -108936.28556946293 -116882.1702850759 0 0 0 0 24075876.652660906 -3042653.0847854614 0 -3042653.0847854614 -55037564.59552002 0 0 0 0 17243922.724179029 -5757387.2153167725 0 -5757387.2153167725 -34533518.122436523 0 0 0 0 4107889.0937523842 -1126122.7862243652 0 -1126122.7862243652 -8235795.749420166 0 0 0 0 5277087.8875490073 972487.4633808285 0 972487.4633808285 -17960980.835927635 0 0 0 0 1992241.4930768625 -1236442.4636485204 0 -1236442.4636485204 -10482615.539205074 0 0 0 0 -209790.20863310248 1964802.4486083984 0 1964802.4486083984 -15783429.529754639 0 0 0 0 1523661.1227230667 -6821985.5879514962 0 -6821985.5879514962 -11116557.233444989 0 0 0 0 -760974.10194526298 -4744944.0988789797 0 -4744944.0988789797 -15603352.728735164 0 0 0 0 17740036.429600716 -20352391.656097412 0 -20352391.656097412 -25491450.805664062 0 0 0 0 25741038.722276509 -18403084.35168457 0 -18403084.35168457 -44481990.41015625 0 0 0 0 -1775839.6010936641 2707980.8021473438 0 2707980.8021473438 -9439119.6509596109 0 0 0 0 1332751.6357879639 -963871.36764526367 0 -963871.36764526367 -2346769.1570129395 0 0 0 0 -418096.34470176697 1503881.9879150391 0 1503881.9879150391 -3298795.4261474609 0 0 0 0 -182520.29390644166 -2226724.5734939873 0 -2226724.5734939873 -19945529.449826829 0 0 0 0 -76305.070465087891 1537616.4550170898 0 1537616.4550170898 -8632847.7967529297 0 0 0 0 660371.16522432328 -2294244.9518360421 0 -2294244.9518360421 -17393452.871028006 0 0 0 0 -42351.856506466866 1269739.4404296875 0 1269739.4404296875 -7242721.5286254883 0 0 0 0 714841.58080556989 3365756.9448028207 0 3365756.9448028207 -12289330.377686925 0 0 0 0 2433540.3590431213 -198969.23638916016 0 -198969.23638916016 -6839274.417175293 0 0 0 0 2169887.4103283882 -1685485.9560852051 0 -1685485.9560852051 -6044275.4032897949 0 0 0 0 1601735.9574832916 -2250254.6062011719 0 -2250254.6062011719 -13426327.708496094 0 0 0 0 1440699.0605464687 -5480599.701636821 0 -5480599.701636821 -4398453.32163845 0 0 0 0 1397350.8832784072 -6497209.9438517466 0 -6497209.9438517466 -7277469.1468454599 0 0 0 0 4547532.2747292519 -5823965.211517334 0 -5823965.211517334 -4099574.8020019531 0 0 0 0 4127363.6316509247 -1953484.0740356445 0 -1953484.0740356445 -7450252.6608276367 0 0 0 0 2523310.4444913869 -3839638.0884714313 0 -3839638.0884714313 -9579975.9349424243 0 0 0 0 2140484.2562012896 -4462273.7046597824 0 -4462273.7046597824 -10657241.098710634 0 0 0 0 315294.43550375843 1949774.6516398638 0 1949774.6516398638 -9264402.6578244567 0 0 0 0 660062.98688459897 3004319.8908225223 0 3004319.8908225223 -14189489.972768597 0 0 0 0 2546320.6694765091 -3735448.7862854004 0 -3735448.7862854004 -5047437.15234375 0 0 0 0 3032800.3125553131 -3184167.5027008057 0 -3184167.5027008057 -5233507.9020385742 0 0 0 0 3808676.8034992218 -926930.60290527344 0 -926930.60290527344 -5265307.9495849609 0 0 0 0 1874120.9438460614 1452641.2200820446 0 1452641.2200820446 -17781562.942637026 0 0 0 0 958498.80495230784 -5973551.2909427518 0 -5973551.2909427518 -3928300.1632255763 0 0 0 0 1979747.0426635742 -1105232.0409545898 0 -1105232.0409545898 -4885894.6577911377 0 0 0 0 5966723.7662243843 -6126412.6974716187 0 -6126412.6974716187 -5147763.8845214844 0 0 0 0 1412217.4667450553 -7051597.5341347717 0 -7051597.5341347717 -7571620.26641348 0 0 0 0 328240.83276460972 949735.46812004596 0 949735.46812004596 -22735270.182412736 0 0 0 0 -1263886.1039870174 -109157.56173949689 0 -109157.56173949689 -3281772.0793905556 0 0 0 0 4365426.736789465 -21993195.416778564 0 -21993195.416778564 -18630588.897129059 0 0 0 0 1768675.5676327299 -7385544.0115135908 0 -7385544.0115135908 -2139896.7065095901 0 0 0 0 1501125.8826530059 -3950800.0302404203 0 -3950800.0302404203 -7876691.1238366365 0 0 0 0 -32548481.174274445 -28545460.7890625 0 -28545460.7890625 -2953983.4874267578 0 0 0 0 10312768.78029187 -2999806.8294219971 0 -2999806.8294219971 -4303106.944152832 0 0 0 0 1641261.5310706287 -3004425.5933745457 0 -3004425.5933745457 -10459644.373411894 0 0 0 0 21648713.831385136 -65520455.523445129 0 -65520455.523445129 -36911597.392318249 0 0 0 0 90649.572768765094 2586394.4444159418 0 2586394.4444159418 -6063484.9987536222 0 0 0 0 219204.73829480895 -2799495.1314081326 0 -2799495.1314081326 -8141707.108878985 0 0 0 0 1308247.3937185407 2773136.7905654907 0 2773136.7905654907 -10502177.601623535 0 0 0 0 87056.382089890511 819273.58814994246 0 819273.58814994246 -16437745.00729163 0 0 0 0 1269961.6156826019 905278.04652404785 0 905278.04652404785 -10418574.000518799 0 0 0 0 4800301.7335948944 -1200086.3090820312 0 -1200086.3090820312 -21082600.28515625 0 0 0 0 815875.36472568498 1567575.6093237475 0 1567575.6093237475 -11296039.301553655 0 0 0 0 1637338.4263526499 2562450.9448680878 0 2562450.9448680878 -9891168.6032409668 0 0 0 0 -146007.32534369893 -3360228.1296303943 0 -3360228.1296303943 -11130458.697481751 0 0 0 0 8871.4310377368238 1442623.5385710523 0 1442623.5385710523 -11391609.554293398 0 0 0 0 -7869591.3301551342 12445467.288635254 0 12445467.288635254 -22905453.941070557 0 0 0 0 9530337.1270463467 11902288.587738037 0 11902288.587738037 73786404.775024414 0 0 0 0 -10947712.712869585 -34269714.750732422 0 -34269714.750732422 18829618.448974609 0 0 0 0 -12944.382824897766 -621211.22602844238 0 -621211.22602844238 -4120692.3013916016 0 0 0 0 159911.13849955227 354939.99144102633 0 354939.99144102633 -7576496.7830985934 0 0 0 0 400572.24588904518 -1214386.1404520348 0 -1214386.1404520348 -19179260.467599314 0 0 0 0 12070919.882847548 -24389083.997894287 0 -24389083.997894287 13875835.115936279 0 0 0 0 324583.14801979065 1908116.3253479004 0 1908116.3253479004 -21421548.346923828 0 0 0 0 1699737.5044423039 -1188171.4493235126 0 -1188171.4493235126 -2528076.7019722015 0 0 0 0 -37435782.286798552 -60653102.973510742 0 -60653102.973510742 55350411.25769043 0 0 0 0 -39728408.219339184 6122726.5243225098 0 6122726.5243225098 9168333.1983337402 0 0 0 0 -13534327.328145366 92390747.327171326 0 92390747.327171326 -139592633.30078125 0 0 0 0 -386716.9935225799 -490786.79881557822 0 -490786.79881557822 474756.66205817461 0 0 0 0 21463677.744744241 25628344.258422852 0 25628344.258422852 15018824.344486237 0 0 0 0 105726683.13651541 80006180.493209839 0 80006180.493209839 -251720277.63150024 0 0 0 0 -85609576.034521908 -93409104.781311035 0 -93409104.781311035 -14161631.652893066 0 0 0 0 -5742070.5185297728 -113100228.84204102 0 -113100228.84204102 -130562285.65971375 0 0 0 0 36520969.074961007 -37090754.093231201 0 -37090754.093231201 -36361293.592224121 0 0 0 0 -29140615.157498121 -55424777.361968994 0 -55424777.361968994 24830104.060623169 0 0 0 0 -9557401.4044704437 -39646606.200714111 0 -39646606.200714111 -4227720.6331787109 0 0 0 0 -177150619.29793167 -151243040.26738548 0 -151243040.26738548 -297592605.29213595 0 0 0 0 -174232772.55075073 -200735121.18526626 0 -200735121.18526626 -265601823.13431334 0 0 0 0 -242938162.50640965 -105573082.98465419 0 -105573082.98465419 -190497997.93680143 0 0 0 0 -273499785.66718102 -80065473.843069077 0 -80065473.843069077 -279593752.31037641 0 0 0 0 -130364054.56583405 -33865798.655236483 0 -33865798.655236483 -264760826.95671964 0 0 0 0 -217380622.75511265 -37235321.693841219 0 -37235321.693841219 -175010808.40840816 0 0 0 0 -213273243.41373754 83664538.147649407 0 83664538.147649407 -333378337.81103039 0 0 0 0 -367452865.42784119 -12685676.001785278 0 -12685676.001785278 -316468143.2302289 0 0 0 0 -449962280.88491249 43175484.888265371 0 43175484.888265371 -442140817.89459574 0 0 0 0 -286791568.00546551 -6730195.793248415 0 -6730195.793248415 -430788047.55389643 0 0 0 0 -403057598.31128502 -122148049.28702259 0 -122148049.28702259 -436578749.21988159 0 0 0 0 -302346781.26066029 -192158207.39586455 0 -192158207.39586455 -308403073.48678303 0 0 0 0 -257053337.62822819 -72436631.901892424 0 -72436631.901892424 -426591218.9390583 0 0 0 0 -248280752.29491711 -99902072.039440155 0 -99902072.039440155 -419428339.30900121 0 0 0 0 -309944585.01542759 -247080593.30102253 0 -247080593.30102253 -268548500.70521414 0 0 0 0 -174091695.4079771 -230035462.82280421 0 -230035462.82280421 -293696568.02674937 0 0 0 0 -11395447.450624466 -280477436.68602538 0 -280477436.68602538 -275073551.9928565 0 0 0 0 -57915689.690103531 -335427790.36521578 0 -335427790.36521578 -222508587.46702766 0 0 0 0 -192806664.94807756 -312813155.91840184 0 -312813155.91840184 -168779688.2893362 0 0 0 0 -157949496.30064678 -322399539.90854502 0 -322399539.90854502 -204349434.70473838 0 0 0 0 17761443.009123802 -381894528.3004868 0 -381894528.3004868 -244136675.44603086 0 0 0 0 -3677825.7432646751 -449562446.05647457 0 -449562446.05647457 -438160678.46104622 0 0 0 0 -49980470.093575478 -247217885.12844491 0 -247217885.12844491 -252840829.67852977 0 0 0 0 -236218969.90241647 -232064655.63544393 0 -232064655.63544393 -254057871.1470809 0 0 0 0 -131305548.84277821 -314779137.40642285 0 -314779137.40642285 -255442710.7029922 0 0 0 0 -132136680.18524551 -143103894.36430776 0 -143103894.36430776 -193453309.16284084 0 0 0 0 -79891395.639659405 -296801755.90716743 0 -296801755.90716743 -318241862.01875782 0 0 0 0 61793233.09735775 -213710861.56667209 0 -213710861.56667209 -273661628.34730816 0 0 0 0 79074982.584020257 -302400926.35452998 0 -302400926.35452998 -454080354.69234133 0 0 0 0 91114116.659861088 34808701.522894382 0 34808701.522894382 -78054922.031059504 0 0 0 0 -35720323.325586915 -65303940.529710144 0 -65303940.529710144 -33412272.020507336 0 0 0 0 4261432.5019350052 -157610769.60154676 0 -157610769.60154676 -307626277.44246006 0 0 0 0 -110898726.20438623 -17811533.574781299 0 -17811533.574781299 28294445.089205265 0 0 0 0 -11358293.220808029 -98423688.390384912 0 -98423688.390384912 -139896446.64561176 0 0 0 0 -156813108.13105488 -167976370.91971445 0 -167976370.91971445 -159628081.45144272 0 0 0 0 -56464068.778035164 -83799334.951244354 0 -83799334.951244354 -187970772.48679256 0 0 0 0 -61645217.319123268 -13027996.928212166 0 -13027996.928212166 -171826556.33825684 0 0 0 0 -44197617.964792252 -66588963.933321476 0 -66588963.933321476 -82962862.24842 0 0 0 0 -145925168.38175488 -46825477.592379093 0 -46825477.592379093 -86531376.358412743 0 0 0 0 -131079723.07377338 -28419989.219876051 0 -28419989.219876051 -73396842.240993977 0 0 0 0 -57618155.26730448 47278392.108332083 0 47278392.108332083 -34224255.36695385 0 0 0 0 13887567.671788216 -48517330.867847681 0 -48517330.867847681 35552229.02729249 0 0 0 0 16172331.975831985 118013995.46741223 0 118013995.46741223 102130559.15214324 0 0 0 0 -84117983.049747467 79132327.842845917 0 79132327.842845917 284850789.85847831 0 0 0 0 -2134369235.4521141 3042208388.8788929 0 3042208388.8788929 137677392.27506638 0 0 0 0 -19717545.929084778 72478311.060736179 0 72478311.060736179 -24007005.785834312 0 0 0 0 -61259894.264253616 -27195935.255278587 0 -27195935.255278587 56117900.553297043 0 0 0 0 4834353.8832416534 -23639522.224770069 0 -23639522.224770069 112639237.03595066 0 0 0 0 79853768.922933578 -72369039.924207687 0 -72369039.924207687 124538530.35167313 0 0 0 0 2798132922.47651 -918274539.32211876 0 -918274539.32211876 2620397090.1936512 0 0 0 0 -113312329.61110401 109818295.92517781 0 109818295.92517781 97820094.894635201 0 0 0 0 -10385527.540189518 4326066.0678358199 0 4326066.0678358199 -1110504.9325117138 0 0 0 0 -23671996.850549221 181886844.83821166 0 181886844.83821166 94404134.676645279 0 0 0 0 -2863516.1010087933 354587.23704874329 0 354587.23704874329 -833983.3272429608 0 0 0 0 190633408.97309303 55913270.760072351 0 55913270.760072351 -930101.09932327271 0 0 0 0 66735378.441634655 126108623.32004404 0 126108623.32004404 -30307893.991774559 0 0 0 0 -4299704.4691638947 67616347.476441383 0 67616347.476441383 -61906174.313427925 0 0 0 0 -3274124.1777477264 140950989.80732489 0 140950989.80732489 -146865276.82996416 0 0 0 0 -19185837.57652092 33476750.525123596 0 33476750.525123596 -202006046.27355003 0 0 0 0 -3770247.3308268376 185566911.36233526 0 185566911.36233526 -50681880.265324593 0 0 0 0 -47445802.849159241 198315857.76290894 0 198315857.76290894 -312779287.94132519 0 0 0 0 -17441139.729339719 197342585.35216874 0 197342585.35216874 -318253939.94216633 0 0 0 0 -1015189.3288820982 79996702.336071253 0 79996702.336071253 -209624495.58883667 0 0 0 0 -109451880.51478195 186292503.99493742 0 186292503.99493742 -263764767.90041018 0 0 0 0 -38784765.157642365 77156182.174712658 0 77156182.174712658 -172865582.84753871 0 0 0 0 -155514581.11642838 59739593.358622074 0 59739593.358622074 -174156840.46834898 0 0 0 0 -25451925.206130505 2198097.981957525 0 2198097.981957525 -63396677.461600304 0 0 0 0 -244672338.46824932 -121629721.43832517 0 -121629721.43832517 1550349590.0170698 0 0 0 0 -8560690.3441733755 1917313.8892057035 0 1917313.8892057035 -3216784.2574324389 0 0 0 0 95239138.775424957 69591436.775306702 0 69591436.775306702 1657922155.4755058 0 0 0 0 -376640180.98361778 861477829.14471817 0 861477829.14471817 3363174636.4054461 0 0 0 0 -70537846.959882736 17852012.729596615 0 17852012.729596615 31008886.086919308 0 0 0 0 31341558.788632393 283256294.80208445 0 283256294.80208445 -465685087.90329647 0 0 0 0 -82917952.211672783 414299706.46996927 0 414299706.46996927 -599528322.4802326 0 0 0 0 -125211684.5310297 403809480.99715996 0 403809480.99715996 -539160775.44607925 0 0 0 0 124624744.85182571 -43559306.100236177 0 -43559306.100236177 -522526573.87878799 0 0 0 0 -321473911.87117124 729749053.65353394 0 729749053.65353394 -1035234627.2069368 0 0 0 0 12122634.861025691 244249816.3709296 0 244249816.3709296 -1250005552.9036822 0 0 0 0 -839113549.82377148 755420578.91225576 0 755420578.91225576 -489681520.34418535 0 0 0 0 -4220420.7378089419 1073201.8817216381 0 1073201.8817216381 88392.726019213209 0 0 0 0 -414648625.0002774 342418265.28619051 0 342418265.28619051 -161601407.01668453 0 0 0 0 -305103199.75595188 548659752.41865492 0 548659752.41865492 -500763869.65579641 0 0 0 0 -202307343.13283789 421936347.3838048 0 421936347.3838048 -344921310.57423496 0 0 0 0 -208073464.27697301 398889950.03575081 0 398889950.03575081 -413086027.55056572 0 0 0 0 -81770309.977930069 391210194.18408346 0 391210194.18408346 -490438520.26173735 0 0 0 0 -209634840.24345684 353584694.07803416 0 353584694.07803416 -388608864.33907962 0 0 0 0 -215599930.15608597 365830703.45360088 0 365830703.45360088 -410176853.94601679 0 0 0 0 -193804143.38077068 295419084.12560344 0 295419084.12560344 -279737350.43259382 0 0 0 0 -235987412.92691839 268876354.55923724 0 268876354.55923724 -200407326.93377113 0 0 0 0 -236580558.3186512 157154262.93166399 0 157154262.93166399 -347187381.64960098 0 0 0 0 -169866203.19926119 192430751.81643206 0 192430751.81643206 -328535620.42480755 0 0 0 0 -236998208.34380913 52552791.092392445 0 52552791.092392445 -254147461.60480499 0 0 0 0 -109306708.66179848 73968729.825757265 0 73968729.825757265 -251134419.46237946 0 0 0 0 -47697772.274290085 117061039.76001382 0 117061039.76001382 -296042549.51573372 0 0 0 0 -34729370.916212559 244090147.94635415 0 244090147.94635415 -394086294.43562889 0 0 0 0 -129639917.19967842 256938096.51752234 0 256938096.51752234 -364571837.72849226 0 0 0 0 -151670266.25669384 297083597.91535735 0 297083597.91535735 -400151319.55343509 0 0 0 0 -229844533.86119795 276437810.25524133 0 276437810.25524133 -398891082.53729725 0 0 0 0 -186466953.06105042 381564505.50210333 0 381564505.50210333 -399457761.53042316 0 0 0 0 -245872632.54771519 325533306.23470354 0 325533306.23470354 -424200080.50498486 0 0 0 0 -244002848.744874 340921053.66436553 0 340921053.66436553 -481681803.84583092 0 0 0 0 -356950143.27699852 299749018.97887993 0 299749018.97887993 -399151456.40186763 0 0 0 0 -289838386.25594521 190173454.05155945 0 190173454.05155945 -449003545.06186104 0 0 0 0 -321381123.38405037 220938330.23651052 0 220938330.23651052 -389331225.21966887 0 0 0 0 -392071441.00147057 32994141.466436863 0 32994141.466436863 -347367651.20137906 0 0 0 0 -416446205.18461895 143260887.75864887 0 143260887.75864887 -605036807.89238262 0 0 0 0 -558315440.69311523 201985377.79908967 0 201985377.79908967 -438972476.40093851 0 0 0 0 -640478117.51650429 177822762.20819616 0 177822762.20819616 -606802236.64206076 0 0 0 0 -303168653.30763102 255944873.52110052 0 255944873.52110052 -466313003.99902344 0 0 0 0 -307087437.82660007 291586097.66678143 0 291586097.66678143 -639076219.71519041 0 0 0 0 -192728697.65697956 189081936.9358952 0 189081936.9358952 -1011320016.1020396 0 0 0 0 -561959743.39709544 -122636875.07808578 0 -122636875.07808578 -569985863.32649326 0 0 0 0 -138805814.93667889 8611822.3039731979 0 8611822.3039731979 -505598859.76666319 0 0 0 0 -548502767.18972111 -14322283.971971989 0 -14322283.971971989 -2195140040.3228884 0 0 0 0 -1206668470.9717083 150555389.85199761 0 150555389.85199761 -786862587.99770546 0 0 0 0 -688130508.00736248 14716159.822457954 0 14716159.822457954 -767386421.89028454 0 0 0 0 -645859009.35404396 327778214.49138546 0 327778214.49138546 -630910528.65544343 0 0 0 0 -126808404.41274214 184940202.06136227 0 184940202.06136227 -320003997.39882755 0 0 0 0 -584500.94761371613 116737361.65126038 0 116737361.65126038 -314982558.84623671 0 0 0 0 -190257260.40176582 288554143.58639002 0 288554143.58639002 -618424920.80342865 0 0 0 0 -127092692.25475502 171564120.88485718 0 171564120.88485718 -409453435.30566466 0 0 0 0 -94634931.056204319 40765286.501759052 0 40765286.501759052 -483319187.21045828 0 0 0 0 -11563928.671274185 -68500033.552659988 0 -68500033.552659988 -340508084.47942793 0 0 0 0 -36615607.709908009 -98233964.331369877 0 -98233964.331369877 -182427075.00335312 0 0 0 0 -15211618.852461338 -135868105.72010362 0 -135868105.72010362 -212809355.41266537 0 0 0 0 -162663241.04226875 -265844798.63163829 0 -265844798.63163829 -403350135.60517645 0 0 0 0 1012529.0243273722 -515155.31626857026 0 -515155.31626857026 -840799.70407740213 0 0 0 0 -144747124.50455236 -85800963.539505482 0 -85800963.539505482 -216443036.70715523 0 0 0 0 -568712111.95433807 -495330853.9525032 0 -495330853.9525032 -235261192.221367 0 0 0 0 -36830779.765332699 -124633654.18396521 0 -124633654.18396521 -174284831.35355926 0 0 0 0 2499759.9002466048 -1497825.8365090247 0 -1497825.8365090247 -1442084.9219093663 0 0 0 0 -893283333.005867 -372612898.56720257 0 -372612898.56720257 -109969064.53035069 0 0 0 0 -472608.91794875055 -146915.23891915474 0 -146915.23891915474 -1962583.9109665316 0 0 0 0 -1470048463.8976793 -996642807.14146948 0 -996642807.14146948 -760129119.70985365 0 0 0 0 -367607792.18016911 -549063051.81584358 0 -549063051.81584358 -977681614.57528019 0 0 0 0 -201725177.90775585 -139441022.25766325 0 -139441022.25766325 -183739036.65039444 0 0 0 0 -437331711.86441028 -307755854.25931364 0 -307755854.25931364 -212186774.1424799 0 0 0 0 -429839768.51887131 -278975567.43808842 0 -278975567.43808842 -183548282.51387119 0 0 0 0 -1316619.0852165418 58301.980285475962 0 58301.980285475962 -5157414.1991622718 0 0 0 0 82015280.33276248 115890452.99027884 0 115890452.99027884 61948291.32598114 0 0 0 0 -4746883.9537697714 1382495.5923184361 0 1382495.5923184361 -4189962.9325304781 0 0 0 0 -7375742.7798538208 16962554.147340626 0 16962554.147340626 -133821036.36738211 0 0 0 0 100304290.68834114 36030784.134839535 0 36030784.134839535 -208977405.48257256 0 0 0 0 6885279.0087788105 205544605.8070223 0 205544605.8070223 -1582318819.4853547 0 0 0 0 114415933.22346163 -25806065.15432781 0 -25806065.15432781 -1196960850.4797444 0 0 0 0 -247656551.08647537 -28299673.514586926 0 -28299673.514586926 -142058322.24753553 0 0 0 0 -34315828.830632269 615742910.84378266 0 615742910.84378266 -1223903795.1548212 0 0 0 0 87583588.331231117 -181223667.60061538 0 -181223667.60061538 -1679792308.2177906 0 0 0 0 -825509888.7435894 -406874921.82111174 0 -406874921.82111174 -1083672757.6043298 0 0 0 0 -74570222.814872742 183231972.99147999 0 183231972.99147999 -1307679505.3291039 0 0 0 0 -265671671.45796394 274496168.09907949 0 274496168.09907949 -966063304.46225715 0 0 0 0 -356040732.26939678 -26796966.120601773 0 -26796966.120601773 -647922279.30880618 0 0 0 0 -291124740.98864365 -47910201.624171913 0 -47910201.624171913 -756372741.2860229 0 0 0 0 -340285661.27671707 -137226828.24535549 0 -137226828.24535549 -434569010.35414314 0 0 0 0 -336140948.50714123 -9588727.6457570419 0 -9588727.6457570419 -639595328.00128746 0 0 0 0 -379857908.57992363 -113644520.63676906 0 -113644520.63676906 -960533759.99284172 0 0 0 0 -520220528.12332153 -53017711.817294121 0 -53017711.817294121 -536563657.79497576 0 0 0 0 -701371520.38242912 -32423787.12396574 0 -32423787.12396574 -536314216.49174976 0 0 0 0 -197013112.62702525 -120475577.38101825 0 -120475577.38101825 -407790610.78674555 0 0 0 0 -221215706.93806255 -223460501.6827113 0 -223460501.6827113 -217294035.11860275 0 0 0 0 -280227915.35593033 -180309428.15169716 0 -180309428.15169716 -449909641.0793817 0 0 0 0 -466910646.71656609 69499681.864864945 0 69499681.864864945 -567018154.71389437 0 0 0 0 -704636843.5540061 226622191.08584696 0 226622191.08584696 -483352884.18584061 0 0 0 0 -392691425.13201571 483552192.77238655 0 483552192.77238655 -1261295223.6700168 0 0 0 0 -322562448.74180555 -252029078.17699325 0 -252029078.17699325 -512764924.32458854 0 0 0 0 11181079.942898273 482416587.65980959 0 482416587.65980959 -922128243.32005477 0 0 0 0 -2369460.5208743531 290080.84978275187 0 290080.84978275187 -889851.10280424287 0 0 0 0 -581995151.36249924 531957884.65575647 0 531957884.65575647 -304168374.15625954 0 0 0 0 -314642248.33780289 55531045.853249073 0 55531045.853249073 184449342.00242043 0 0 0 0 -282722725.0144577 846860196.68867826 0 846860196.68867826 -489989863.33017302 0 0 0 0 -69989540.286776781 1047827053.09691 0 1047827053.09691 -77844108.22019738 0 0 0 0 -3041322.7563943863 872309881.83016348 0 872309881.83016348 -996809671.60662079 0 0 0 0 164188145.1264669 53257905.59390074 0 53257905.59390074 4068914.4771294594 0 0 0 0 1786881.4698446663 3298621.648228317 0 3298621.648228317 -16063731.839168698 0 0 0 0 986106629.51191068 378411985.38425845 0 378411985.38425845 -242258114.0833714 0 0 0 0 566300.79793292691 964359.00375472009 0 964359.00375472009 -5825452.9932609675 0 0 0 0 -1234863028.0395303 -1565153387.2709799 0 -1565153387.2709799 -1190574664.4300823 0 0 0 0 -309169445.09786701 -304250335.12662125 0 -304250335.12662125 -308790381.66584301 0 0 0 0 31102135.094939232 -399728645.38642883 0 -399728645.38642883 -447206977.30572033 0 0 0 0 -14119747.658602374 15217274.984338848 0 15217274.984338848 -14534643.290044187 0 0 0 0 27052633.940554142 -332312354.91105938 0 -332312354.91105938 -786758976.936306 0 0 0 0 -72306817.46084404 -377805267.38543892 0 -377805267.38543892 -439296159.49382401 0 0 0 0 2823625.5443994985 6324559.8624703046 0 6324559.8624703046 -23568681.596432772 0 0 0 0 155667412.51271629 81568458.191043854 0 81568458.191043854 -212373692.80505562 0 0 0 0 -31648764.993898392 33332065.666044235 0 33332065.666044235 -615947085.64703369 0 0 0 0 1770536.3603539467 -95967634.327950478 0 -95967634.327950478 -240874761.49092102 0 0 0 0 -39235028.870502472 193351990.77761078 0 193351990.77761078 4189513.0248184204 0 0 0 0 665823868.28002524 122096741.14224523 0 122096741.14224523 -100456001.80498695 0 0 0 0 463985696.51748598 -178133994.36555123 0 -178133994.36555123 -230068975.50553465 0 0 0 0 87462099.693629742 -255809541.50654066 0 -255809541.50654066 -403747424.30894673 0 0 0 0 226039833.52156448 -52650868.742448628 0 -52650868.742448628 -165205630.22666943 0 0 0 0 130758223.78325343 74519608.693614066 0 74519608.693614066 -361455420.58719212 0 0 0 0 174596988.0352354 -59124247.353504851 0 -59124247.353504851 2342841.3351720683 0 0 0 0 415238050.67803192 397912125.73451233 0 397912125.73451233 100794748.03765869 0 0 0 0 215945629.85788727 208273843.24098206 0 208273843.24098206 39032794.673839569 0 0 0 0 -45665174.295864105 372086691.53131866 0 372086691.53131866 -2155250.4645996094 0 0 0 0 188162924.11465454 303606537.03347015 0 303606537.03347015 -275647640.17745972 0 0 0 0 73485668.568040848 372920127.46135902 0 372920127.46135902 -21056950.919403076 0 0 0 0 104804409.9859066 307094341.27683067 0 307094341.27683067 -56182282.119506836 0 0 0 0 352816089.85993958 418272054.88755035 0 418272054.88755035 -66863526.455562592 0 0 0 0 127895704.6830368 299828488.66825104 0 299828488.66825104 -53909429.558094025 0 0 0 0 -26803098.589504242 221348935.92164612 0 221348935.92164612 -14918619.27023077 0 0 0 0 -35733506.335510254 364246219.36180496 0 364246219.36180496 -3691127.0963897705 0 0 0 0 45430725.531585693 274188564.03338623 0 274188564.03338623 -11214530.665710449 0 0 0 0 -32228443.629421234 195874526.11394501 0 195874526.11394501 103242910.33333683 0 0 0 0 -112151653.96340942 284043270.2881546 0 284043270.2881546 93999628.276175976 0 0 0 0 -109872148.16303635 303160510.73428345 0 303160510.73428345 53405323.869590759 0 0 0 0 -89204772.566638947 480131158.80117226 0 480131158.80117226 -269901824.17532349 0 0 0 0 -322560480.2052002 334356273.75963593 0 334356273.75963593 94917840.893795013 0 0 0 0 -112231282.13769796 115673123.4592157 0 115673123.4592157 285459143.84208679 0 0 0 0 -100962949.53799057 565840956.45425797 0 565840956.45425797 154844874.17144585 0 0 0 0 236554306.16843796 93692112.607273102 0 93692112.607273102 96480516.735935211 0 0 0 0 260440418.34055328 298572860.30777359 0 298572860.30777359 173293749.62046814 0 0 0 0 -377506016.21726227 -65218492.117328644 0 -65218492.117328644 -505790659.23381424 0 0 0 0 -569897775.53215027 -252075391.03159142 0 -252075391.03159142 -496833881.89306641 0 0 0 0 -186591533.70132446 -248318004.42830944 0 -248318004.42830944 -705745439.22003937 0 0 0 0 -234120278.47444725 -23507592.361095428 0 -23507592.361095428 55990137.676765442 0 0 0 0 -215634287.14859772 218161247.87096405 0 218161247.87096405 -288973377.40543747 0 0 0 0 242181837.19609451 -72868718.8491745 0 -72868718.8491745 3899566.178352356 0 0 0 0 -235621801.26629102 -202877685.3617667 0 -202877685.3617667 139114197.5783844 0 0 0 0 -2326700.911941384 1985611.777255144 0 1985611.777255144 5477966.5271672867 0 0 0 0 992244214.03217316 1509981599.887476 0 1509981599.887476 731321169.6069994 0 0 0 0 -5165599.2064925097 4888494.7443504687 0 4888494.7443504687 -4604264.5019104667 0 0 0 0 -79743042.258153915 -1382331602.1742029 0 -1382331602.1742029 -2402243018.9573288 0 0 0 0 2819867825.4380798 1696391047.0191269 0 1696391047.0191269 -2393279434.8319473 0 0 0 0 -3848701867.7095108 427918910.36586761 0 427918910.36586761 1722433641.0473709 0 0 0 0 -101795699.8900528 619663689.51398849 0 619663689.51398849 -643985162.41579437 0 0 0 0 -42993302.692779541 110868724.33581543 0 110868724.33581543 -2156714777.6914978 0 0 0 0 -41388891.395041496 456733650.19230515 0 456733650.19230515 -617084673.71156311 0 0 0 0 34948876.679367065 270545498.89698792 0 270545498.89698792 -377177728.77106857 0 0 0 0 -237344344.83604431 -776381153.06451035 0 -776381153.06451035 -1562431176.9237518 0 0 0 0 -1834225880.559639 -2340845245.4267197 0 -2340845245.4267197 -2724110402.4423885 0 0 0 0 -636819617.04512787 -447898272.82773972 0 -447898272.82773972 243229328.74391937 0 0 0 0 205069.81924963929 -65341.81741450727 0 -65341.81741450727 -553822.57687933277 0 0 0 0 -196991012.85520554 -346934378.22532272 0 -346934378.22532272 169220348.82796288 0 0 0 0 -418304927.11838531 -432024688.38516808 0 -432024688.38516808 218335598.28112411 0 0 0 0 177269854.6006813 -65620325.954990387 0 -65620325.954990387 -90239668.497390747 0 0 0 0 198983797.82103348 -163024590.06528091 0 -163024590.06528091 -317804290.04000092 0 0 0 0 432992802.69896889 -44609747.145996094 0 -44609747.145996094 -346371817.38287354 0 0 0 0 -43166331.005428314 -262660869.44018173 0 -262660869.44018173 -238918296.53574371 0 0 0 0 54667687.110022545 337533660.57178974 0 337533660.57178974 -279968158.97346497 0 0 0 0 335750804.15268707 -109300082.75112152 0 -109300082.75112152 -778091291.2628479 0 0 0 0 467951612.17243481 -76368830.674081802 0 -76368830.674081802 -192896712.9599762 0 0 0 0 353643716.58171463 -5157593.0183486938 0 -5157593.0183486938 -235313720.11255646 0 0 0 0 -1401041.3504238129 13211876.575489044 0 13211876.575489044 -42532821.221008301 0 0 0 0 300804.22817230225 -1368485.3632087708 0 -1368485.3632087708 -41115778.794361115 0 0 0 0 -63806781.937004089 -183297455.03115654 0 -183297455.03115654 -65735412.57121563 0 0 0 0 -16070856.327708721 36395345.509322643 0 36395345.509322643 51958093.129528046 0 0 0 0 3703815.0869216919 14929654.360025406 0 14929654.360025406 -22390168.850833893 0 0 0 0 -2895258.0248355865 -15039561.045217514 0 -15039561.045217514 40073332.777599335 0 0 0 0 -19694185.239490509 -25745270.851804733 0 -25745270.851804733 52506088.377919331 0 0 0 0 5600003.6791827735 -11580496.330397591 0 -11580496.330397591 -25230238.221330531 0 0 0 0 2094242.6177444458 13358133.123046875 0 13358133.123046875 -52829943.963684082 0 0 0 0 26190338.392877579 24873365.23832798 0 24873365.23832798 -58668249.339258909 0 0 0 0 75647865.476142883 -77687661.890396118 0 -77687661.890396118 -41903104.135047913 0 0 0 0 806862.13952540234 -171825.34562960826 0 -171825.34562960826 -1821319.5244482681 0 0 0 0 -107189.78467536625 -3261057.8105280288 0 -3261057.8105280288 -2681941.64249699 0 0 0 0 -118811061.26964951 -108813549.95192719 0 -108813549.95192719 140184832.06297302 0 0 0 0 -3255140.9641712736 9127087.2881626692 0 9127087.2881626692 -2351158.6035501752 0 0 0 0 -1754712.2703018188 6857340.5693740845 0 6857340.5693740845 291129.22763061523 0 0 0 0 27109880.361491203 41110080.462741852 0 41110080.462741852 71888817.8934021 0 0 0 0 -7999815.9001922607 -17441565.603285789 0 -17441565.603285789 76493147.109012604 0 0 0 0 -36913652.557304382 -50221602.42149353 0 -50221602.42149353 73911073.399188757 0 0 0 0 31731378.424530029 -95048914.691156387 0 -95048914.691156387 63368824.871631622 0 0 0 0 6388322.12707901 -25817737.352214813 0 -25817737.352214813 76238096.319194794 0 0 0 0 -104463356.25341368 -2366688.5451524258 0 -2366688.5451524258 73328848.018539429 0 0 0 0 -88586844.902517319 -118129324.03720224 0 -118129324.03720224 64882101.516738892 0 0 0 0 989014.71401084214 1118305.8352444638 0 1118305.8352444638 -5586735.7299469784 0 0 0 0 -73727768.208860397 762043515.5837698 0 762043515.5837698 -1044234210.1758537 0 0 0 0 -352415683.77088356 333933762.65536404 0 333933762.65536404 -258505421.8980217 0 0 0 0 759936663.16654205 236321096.29378891 0 236321096.29378891 -810248994.53895223 0 0 0 0 1213746687.749691 334002032.77412796 0 334002032.77412796 -1637895527.0495052 0 0 0 0 -1769262.8265068103 -2861534.64327808 0 -2861534.64327808 -2358727.1880762167 0 0 0 0 -492031097.66039276 -411888013.01455402 0 -411888013.01455402 323833274.04857635 0 0 0 0 793969474.69285583 -30328752.736200333 0 -30328752.736200333 -1901878501.4292526 0 0 0 0 -1118416058.9454651 -2565757889.9983253 0 -2565757889.9983253 -1088562571.0376701 0 0 0 0 -352177148.88421822 -505407007.81461906 0 -505407007.81461906 1021617188.1133804 0 0 0 0 37095029.800193787 -452918697.92522049 0 -452918697.92522049 -816664015.29338932 0 0 0 0 23229133.138427734 -62375521.498188019 0 -62375521.498188019 -45375194.880702972 0 0 0 0 -30665177.622661591 -16073274.749433517 0 -16073274.749433517 -42686126.344976425 0 0 0 0 3523623.5015726723 -1288169.6564358789 0 -1288169.6564358789 -6139793.4936123919 0 0 0 0 -1766183.2836940587 433356892.27437305 0 433356892.27437305 850314997.45252991 0 0 0 0 -3444048.3716163635 6339434.1049957275 0 6339434.1049957275 -35034230.2292099 0 0 0 0 4544936.2707528519 8220484.8941404782 0 8220484.8941404782 -29237242.288426295 0 0 0 0 2360393.1329650879 3599082.1979675293 0 3599082.1979675293 -44036397.939559937 0 0 0 0 5700038.4749429319 7116753.5930929929 0 7116753.5930929929 -30229610.712379146 0 0 0 0 9932772.8888692856 118411202.71976709 0 118411202.71976709 -484841606.81065369 0 0 0 0 -19533887.793991089 -8975535.2220916748 0 -8975535.2220916748 -49938038.271530151 0 0 0 0 -1017903.0384590849 4452177.7785057947 0 4452177.7785057947 906627.24670866691 0 0 0 0 322351946.46712303 -604849041.5713501 0 -604849041.5713501 -3568149660.4806824 0 0 0 0 6423895.5979309082 -109645.70777511597 0 -109645.70777511597 -26646602.009199142 0 0 0 0 18400810.667549841 5998475.7562084906 0 5998475.7562084906 -29235192.389222905 0 0 0 0 44485.943122254685 251889.62135947496 0 251889.62135947496 -1717771.0742116105 0 0 0 0 8365602.1468048096 7341235.15574646 0 7341235.15574646 -34964618.595909119 0 0 0 0 192005021.87988997 -40208774.674392939 0 -40208774.674392939 393235783.28395879 0 0 0 0 238456625.25430971 -161476114.10817629 0 -161476114.10817629 -20987849.237110138 0 0 0 0 -994791382.86385918 1513318310.6667616 0 1513318310.6667616 -417616508.35845959 0 0 0 0 -228856642.10664368 -997053984.3668282 0 -997053984.3668282 931425887.59161186 0 0 0 0 -30578369.57474947 -863712333.17492485 0 -863712333.17492485 -855402409.07117701 0 0 0 0 28103172.982132912 -590038903.49269462 0 -590038903.49269462 -44879595.721449792 0 0 0 0 -2426500.1349930763 -354528366.44828844 0 -354528366.44828844 -132782477.07944435 0 0 0 0 -2923677.2796215005 -314649456.15001243 0 -314649456.15001243 63090355.499007702 0 0 0 0 120824607.12911081 -268949199.88097763 0 -268949199.88097763 -161327092.00795874 0 0 0 0 -63630491.387816429 -346013681.46683824 0 -346013681.46683824 -88801494.1911304 0 0 0 0 43730156.5915308 -190963861.41274726 0 -190963861.41274726 -143920902.20499563 0 0 0 0 286486634.14069557 -147564016.50142598 0 -147564016.50142598 -106647663.29639053 0 0 0 0 288510513.95994091 -97795387.051173925 0 -97795387.051173925 -162466445.02448982 0 0 0 0 286068474.48654854 -146213985.89518273 0 -146213985.89518273 -16643119.182632446 0 0 0 0 3903323.6938962266 10914616.289632367 0 10914616.289632367 -28441995.721206445 0 0 0 0 252845970.69530648 -77189944.646148384 0 -77189944.646148384 4222297.082198143 0 0 0 0 1472069.7280530892 13171220.716151774 0 13171220.716151774 -6975109.8892787788 0 0 0 0 97498940.584466934 146719332.54578781 0 146719332.54578781 19777581.282514572 0 0 0 0 -31624439.538244247 21617414.309432983 0 21617414.309432983 122246122.5206871 0 0 0 0 21189248.951646805 10104710.977125168 0 10104710.977125168 -14583065.722969055 0 0 0 0 961519.58889259445 6554310.378343082 0 6554310.378343082 -12860829.055112988 0 0 0 0 92667486.944454193 -33644918.952884674 0 -33644918.952884674 11974956.837692261 0 0 0 0 2400071.6566426144 4597501.0190225337 0 4597501.0190225337 -4646977.6617005356 0 0 0 0 223842432.50267029 -94034089.909217 0 -94034089.909217 -304335817.8110671 0 0 0 0 -626639660.47994614 66765823.088743091 0 66765823.088743091 774002651.72313869 0 0 0 0 222197679.24370223 -153143569.27411109 0 -153143569.27411109 67596365.161999702 0 0 0 0 93061605.40602684 157952761.49789762 0 157952761.49789762 -559177414.42687845 0 0 0 0 81255783.81228447 -336227207.91824245 0 -336227207.91824245 -251036701.07340574 0 0 0 0 -59972546.769695282 -756696801.61962414 0 -756696801.61962414 -1502852546.4699335 0 0 0 0 342050219.55543327 20879619.50565064 0 20879619.50565064 -546092714.98092222 0 0 0 0 -404457115.72719049 -679039915.73895788 0 -679039915.73895788 -443883680.27796364 0 0 0 0 -619758333.29733467 -1019866949.9455681 0 -1019866949.9455681 -952102527.19980431 0 0 0 0 -342642703.29053932 -484317989.65970993 0 -484317989.65970993 -682012954.53082085 0 0 0 0 84311842.19871521 -496902685.96176338 0 -496902685.96176338 -745706712.68713379 0 0 0 0 81572245.21313858 -390021305.52259445 0 -390021305.52259445 284076711.08214092 0 0 0 0 67597.490856139921 284295.17293386348 0 284295.17293386348 -947023.54666364798 0 0 0 0 -739675841.13194609 -1025843955.3609459 0 -1025843955.3609459 -1416753298.0753012 0 0 0 0 417405.61067596619 -953614.89894986583 0 -953614.89894986583 -4298611.3090038821 0 0 0 0 -329866890.07146615 653596679.99745142 0 653596679.99745142 -956740215.00557542 0 0 0 0 209001462.40283632 -1906389284.3953998 0 -1906389284.3953998 -1216925664.1197999 0 0 0 0 523770583.55361223 -146898672.81896257 0 -146898672.81896257 -2709575736.618824 0 0 0 0 87133031.035479814 50220427.905786209 0 50220427.905786209 -2320550013.3692822 0 0 0 0 213658224.89726067 -280317713.8022722 0 -280317713.8022722 -560065693.34820032 0 0 0 0 392481147.66322374 -343465222.15654659 0 -343465222.15654659 -780966222.49086165 0 0 0 0 108575090.0389905 -6580147.9568533897 0 -6580147.9568533897 -528331145.13272822 0 0 0 0 -173873388.95740962 51963521.184903741 0 51963521.184903741 -7704630.2626190186 0 0 0 0 107689.48972994508 142164.1991716304 0 142164.1991716304 -5678664.5996246831 0 0 0 0 -908245.92785072327 487306.40282452106 0 487306.40282452106 -8089023.6601705551 0 0 0 0 2539452.9010715485 329958.76828545332 0 329958.76828545332 -9833841.9457046986 0 0 0 0 5732632.592918247 5537621.7557524154 0 5537621.7557524154 -14846181.670581929 0 0 0 0 3680587.9850072861 263612.6530995965 0 263612.6530995965 -10769259.075895309 0 0 0 0 282542549.9508307 94095388.869304657 0 94095388.869304657 11823021.961410522 0 0 0 0 6596041.7725315094 -2380388.2757672071 0 -2380388.2757672071 -9256264.5493027195 0 0 0 0 2936023.441519964 -1229750.4815724194 0 -1229750.4815724194 -14673963.636670537 0 0 0 0 1680413.1463124983 -4519848.9582492672 0 -4519848.9582492672 -9269883.9662399217 0 0 0 0 443660762.55491471 -78274589.86908564 0 -78274589.86908564 -291048969.43876266 0 0 0 0 3624877.212064743 1403122.2534018755 0 1403122.2534018755 -8981331.3919816017 0 0 0 0 -49154312.345371246 -224842075.24682808 0 -224842075.24682808 -401865565.81436539 0 0 0 0 170448925.39634895 51534516.720432281 0 51534516.720432281 -686600051.91435051 0 0 0 0 -97657552.605847836 271609262.24838161 0 271609262.24838161 -141887688.66583252 0 0 0 0 174668007.4961319 -2499109.5251312256 0 -2499109.5251312256 623537.42788696289 0 0 0 0 -61461779.63329947 -454516655.44725204 0 -454516655.44725204 -1763421347.1125298 0 0 0 0 -344899933.60108185 662925762.50607967 0 662925762.50607967 -1300582379.6883297 0 0 0 0 -155337546.96801949 81928524.643075943 0 81928524.643075943 -334924232.22293854 0 0 0 0 -507954713.61897087 110870458.02794456 0 110870458.02794456 330175279.21401978 0 0 0 0 -265892714.04917717 345768965.26990128 0 345768965.26990128 -41752204.343490601 0 0 0 0 630857.90713500977 82234858.967357635 0 82234858.967357635 127760299.2545929 0 0 0 0 -202067398.27091312 -27112628.49296093 0 -27112628.49296093 357143684.65139771 0 0 0 0 -53038831.412706375 206586667.13258171 0 206586667.13258171 162921071.09729004 0 0 0 0 -155664368.58415222 -153172209.15342999 0 -153172209.15342999 432279183.26950073 0 0 0 0 -213110130.71177292 -174001037.49687958 0 -174001037.49687958 454091961.62221909 0 0 0 0 185149397.41669369 218274075.45845222 0 218274075.45845222 -120908756.93916512 0 0 0 0 75511367.92824173 197177898.92190933 0 197177898.92190933 -109918823.65213776 0 0 0 0 31951239.695423126 189345326.14438248 0 189345326.14438248 102920968.4031933 0 0 0 0 68825850.118017673 170016995.29232883 0 170016995.29232883 102826038.69034576 0 0 0 0 -18910225.58026123 118435965.99760437 0 118435965.99760437 284270403.89559937 0 0 0 0 4139990.4906644048 3786201.3069866691 0 3786201.3069866691 -17125685.983105205 0 0 0 0 66622360.119300842 139119686.19749069 0 139119686.19749069 100543566.99754333 0 0 0 0 220140789.89622116 183129724.59449005 0 183129724.59449005 305732650.23271942 0 0 0 0 20811142.120149612 154202287.94001007 0 154202287.94001007 316766444.13076782 0 0 0 0 112633027.19776726 201906108.87151146 0 201906108.87151146 319882729.72367096 0 0 0 0 132285850.2657547 70270496.829769135 0 70270496.829769135 255874452.48866272 0 0 0 0 289920.20408522058 515110.85784711386 0 515110.85784711386 -409279.27627339214 0 0 0 0 218859416.75037003 -320185034.11780167 0 -320185034.11780167 659804743.81277657 0 0 0 0 1545081.2986408155 829926.39683175087 0 829926.39683175087 -2667164.4385392647 0 0 0 0 23138784.142208099 -364799883.00294685 0 -364799883.00294685 607544286.87366104 0 0 0 0 344887038.64978409 -165040052.55078125 0 -165040052.55078125 319133697.85309124 0 0 0 0 320603619.05151367 119891804.37090302 0 119891804.37090302 242283792.50503922 0 0 0 0 -216336935.30023193 -363057770.528965 0 -363057770.528965 675863479.30430984 0 0 0 0 -1441608.6331583876 -1774559.9703027736 0 -1774559.9703027736 -353824.40883537009 0 0 0 0 -559098017.28888893 270525826.6377182 0 270525826.6377182 60540766.818026543 0 0 0 0 409408777.60738468 -26846931.482492447 0 -26846931.482492447 -85698612.721115112 0 0 0 0 -496823.70826540235 -6725620.9569608914 0 -6725620.9569608914 -7632887.7891781591 0 0 0 0 14682430.090618134 -2978274.1628437042 0 -2978274.1628437042 -9294522.5870361328 0 0 0 0 478640273.52749109 -450333628.69262981 0 -450333628.69262981 22119346.145942688 0 0 0 0 128350345.73183489 513590059.73505855 0 513590059.73505855 234199347.13220406 0 0 0 0 122566899.849967 357808373.27824306 0 357808373.27824306 281288886.90272999 0 0 0 0 659379888.18884087 284581585.37501383 0 284581585.37501383 75226318.297485352 0 0 0 0 3212659.1845126217 -3838589.4759540409 0 -3838589.4759540409 -17019065.276067749 0 0 0 0 9612291.0421218872 -4490528.088051796 0 -4490528.088051796 -5190861.474401474 0 0 0 0 308043527.71996689 -255997901.7296505 0 -255997901.7296505 -590754924.51917267 0 0 0 0 99442999.300977707 114930367.61696815 0 114930367.61696815 -152385058.93373871 0 0 0 0 -160261974.55702591 -460801063.08865738 0 -460801063.08865738 -502259656.19592285 0 0 0 0 -8403736.5513126999 14715243.802669212 0 14715243.802669212 -6592904.0120675601 0 0 0 0 2519674.0417499542 -320800924.06511879 0 -320800924.06511879 -309848179.27610016 0 0 0 0 -89989064.800209045 -126599638.07823944 0 -126599638.07823944 -656650026.83180237 0 0 0 0 -297109323.02180481 -183379233.8456459 0 -183379233.8456459 -369543269.27674866 0 0 0 0 -238099671.89809418 -556749438.73500061 0 -556749438.73500061 -515590787.21534038 0 0 0 0 -713474793.63899612 -434086819.99793625 0 -434086819.99793625 36843689.768592834 0 0 0 0 -303961893.69203091 -9836319.0063856244 0 -9836319.0063856244 264771450.13961029 0 0 0 0 -372331660.55651283 187746378.6000309 0 187746378.6000309 41860744.215053558 0 0 0 0 -3064722.9471006114 1299597.0831316281 0 1299597.0831316281 -4124126.1307405084 0 0 0 0 -228119494.31929016 -448957497.22704697 0 -448957497.22704697 -529955347.79809856 0 0 0 0 -193040065.34622765 172883124.57423782 0 172883124.57423782 -28956779.350017548 0 0 0 0 627365780.20312357 -1149396350.4521713 0 -1149396350.4521713 -755810030.72206116 0 0 0 0 -3626369.5326932799 -5949632.9016678967 0 -5949632.9016678967 -4530220.209374683 0 0 0 0 -339762076.62409782 310825161.42859459 0 310825161.42859459 440949893.68871307 0 0 0 0 -595072730.62531281 -170916153.79575157 0 -170916153.79575157 613894376.49446106 0 0 0 0 930352855.71789169 956533448.49594808 0 956533448.49594808 -1343892367.1581726 0 0 0 0 -913357559.10157776 -1551825445.5395565 0 -1551825445.5395565 157242964.37142944 0 0 0 0 -1495629950.6584663 383702172.3601532 0 383702172.3601532 52136894.125934601 0 0 0 0 1069171075.638443 -1371272649.2997398 0 -1371272649.2997398 -241865422.9432373 0 0 0 0 79366969.180330276 72452332.745679855 0 72452332.745679855 412490425.4912262 0 0 0 0 -199715033.60699463 -231232528.7062912 0 -231232528.7062912 116148092.48954535 0 0 0 0 -217184137.32564545 -227490232.45018005 0 -227490232.45018005 679756926.54440689 0 0 0 0 -232292028.97963715 -259304125.12319565 0 -259304125.12319565 647130231.38195038 0 0 0 0 709351266.39560032 -16025892.748533249 0 -16025892.748533249 -160082416.64957428 0 0 0 0 -3285927.881798726 -4798542.6814316511 0 -4798542.6814316511 -2588676.0995208137 0 0 0 0 35122560.856805801 92133861.162517548 0 92133861.162517548 585017.23777770996 0 0 0 0 144584159.63696671 152298544.10833359 0 152298544.10833359 -89634946.173816681 0 0 0 0 24973992.479150772 61856995.559396744 0 61856995.559396744 -85765532.729709625 0 0 0 0 -259742977.88605118 488409393.19438553 0 488409393.19438553 310980128.32792854 0 0 0 0 -662827003.68987799 -346515999.26002693 0 -346515999.26002693 -123184266.12837219 0 0 0 0 -80493921.80214119 96088316.610816956 0 96088316.610816956 -32844878.47399044 0 0 0 0 -139231920.14026237 -196315260.84327531 0 -196315260.84327531 -511652452.80596924 0 0 0 0 -260953083.76095009 40249604.768218994 0 40249604.768218994 178809267.18310165 0 0 0 0 -1173368.6827294789 -96805.50216915831 0 -96805.50216915831 271020.16011648998 0 0 0 0 -144865841.30813408 -329925524.41425323 0 -329925524.41425323 -388711194.520401 0 0 0 0 -230786661.97867584 117165503.45359039 0 117165503.45359039 -191027514.0430069 0 0 0 0 -65196518.055524826 217596480.52670288 0 217596480.52670288 1679424.7278404236 0 0 0 0 -323236257.63630867 -197549083.28084564 0 -197549083.28084564 -258011907.64332581 0 0 0 0 -100868284.45520496 141470320.07560539 0 141470320.07560539 -95268716.720298767 0 0 0 0 131692102.89630508 -26082595.129341125 0 -26082595.129341125 -309366297.22916412 0 0 0 0 -2407781.2285502516 -515064.95206959359 0 -515064.95206959359 241851.92540714704 0 0 0 0 51548777.206180573 76109452.637207031 0 76109452.637207031 -90840437.66532135 0 0 0 0 -159439633.7746582 -151190879.24231339 0 -151190879.24231339 195682700.5664444 0 0 0 0 119878853.1273632 -148139436.83188057 0 -148139436.83188057 5788006.5516643524 0 0 0 0 62714899.216586113 41673784.513772011 0 41673784.513772011 -202397354.12493134 0 0 0 0 97993311.994916916 70426249.054901123 0 70426249.054901123 -355687536.55370712 0 0 0 0 8851841.4156918526 -300811412.59547663 0 -300811412.59547663 -96279484.964164734 0 0 0 0 -2483913.7065330707 -752164.66444035806 0 -752164.66444035806 -6867.7811486553401 0 0 0 0 47578204.020853996 -319401646.4052372 0 -319401646.4052372 -924345629.18264771 0 0 0 0 66456318.330769539 -395373864.75527954 0 -395373864.75527954 -1098440207.0935669 0 0 0 0 -73766646.954929352 -323192032.42731094 0 -323192032.42731094 -973764105.29255676 0 0 0 0 53873810.942672729 -259395080.32533646 0 -259395080.32533646 -946900636.16102982 0 0 0 0 -436507520.53525734 26676289.698116302 0 26676289.698116302 -1003175812.7427149 0 0 0 0 -41003524.768232346 -230136200.31623268 0 -230136200.31623268 -1003716338.4372025 0 0 0 0 -35835237.251596451 -29136539.866210938 0 -29136539.866210938 -309419044.82887733 0 0 0 0 -123369709.41172791 -368455525.10053444 0 -368455525.10053444 -898780033.74480057 0 0 0 0 -343158443.41716003 -337662493.63043213 0 -337662493.63043213 -881202500.83759499 0 0 0 0 -102796563.53339624 134272221.25334752 0 134272221.25334752 -1193742278.8708038 0 0 0 0 -541060644.04774857 -23611270.240066528 0 -23611270.240066528 66740421.888646126 0 0 0 0 -1237650.1193221817 1756792.192855252 0 1756792.192855252 -5994027.5745315291 0 0 0 0 809331972.38416767 -638608367.46440315 0 -638608367.46440315 -311680575.63256836 0 0 0 0 379517505.31009007 -591744102.82980728 0 -591744102.82980728 -256742828.75618744 0 0 0 0 1203540953.3668289 166752091.60443115 0 166752091.60443115 433928329.29924011 0 0 0 0 -41935.097905704373 -2105500.1295752651 0 -2105500.1295752651 518015.25470328704 0 0 0 0 -425738320.29702777 -1378310185.5762918 0 -1378310185.5762918 -3983237992.3475933 0 0 0 0 -452227160.56771374 -193867340.80153275 0 -193867340.80153275 1216453086.7852459 0 0 0 0 -587551554.37113333 -209753897.49489236 0 -209753897.49489236 371363875.10505962 0 0 0 0 1345245.7786089494 -2383158.712742514 0 -2383158.712742514 -12078778.35611894 0 0 0 0 23621698.274623871 -15122456.956362128 0 -15122456.956362128 -1830875.5628890991 0 0 0 0 122775.56150193693 -11694057.349095333 0 -11694057.349095333 -9849537.0213451572 0 0 0 0 2065969339.0941601 206778790.53177732 0 206778790.53177732 -1585244675.4714117 0 0 0 0 -115548346.45378685 -519166985.63771057 0 -519166985.63771057 193259606.65362167 0 0 0 0 274234365.59753418 312428922.57953262 0 312428922.57953262 -418873412.42080307 0 0 0 0 808640344.03094006 -128594675.94375992 0 -128594675.94375992 -211964296.78627014 0 0 0 0 116117678.96019363 -266599172.4505806 0 -266599172.4505806 -585673251.33115768 0 0 0 0 162135543.34423304 126696523.82052898 0 126696523.82052898 -202768393.59989929 0 0 0 0 -1277876.7266294993 -310446.20780424029 0 -310446.20780424029 26627.437482956797 0 0 0 0 -298198750.65849495 132696097.16165161 0 132696097.16165161 263291271.37158203 0 0 0 0 -590700023.93623352 301973244.3677578 0 301973244.3677578 196576389.17795563 0 0 0 0 -411796600.25945663 -111689937.921875 0 -111689937.921875 9471101.7972793579 0 0 0 0 24991957.927124023 196632357.11692524 0 196632357.11692524 -1890655100.5149536 0 0 0 0 106733056.2112484 -130803266.16318512 0 -130803266.16318512 -1035478747.2835693 0 0 0 0 66934261.972412109 -118226285.00898361 0 -118226285.00898361 -1038674330.4061852 0 0 0 0 209020790.82114601 -357052715.91493988 0 -357052715.91493988 -1385438434.2422409 0 0 0 0 207420887.29739857 -330308275.13760376 0 -330308275.13760376 -1071409434.5303421 0 0 0 0 198613950.62913895 -527951745.56131744 0 -527951745.56131744 -1078854869.5877304 0 0 0 0 197850441.12344551 -578662926.01219177 0 -578662926.01219177 -1538863986.0129967 0 0 0 0 579186040.78751945 -384368460.85993576 0 -384368460.85993576 -1454654059.6732674 0 0 0 0 -332535462.64966202 -2013393788.6112328 0 -2013393788.6112328 -2434992316.1979523 0 0 0 0 627336042.62798846 -539169607.10909271 0 -539169607.10909271 -3866839032.3193359 0 0 0 0 -660389813.39932966 289261023.21703875 0 289261023.21703875 -156981147.5868988 0 0 0 0 -10691631.545397758 735702144.60037804 0 735702144.60037804 -412880125.73609924 0 0 0 0 -1803451.6400747038 -6333924.5415182337 0 -6333924.5415182337 -6766283.7081858106 0 0 0 0 451982371.0859766 964073451.04137993 0 964073451.04137993 -2680914732.1632462 0 0 0 0 -1271846055.2266598 -2401184689.0573692 0 -2401184689.0573692 -1154505141.7501335 0 0 0 0 -1278532878.2139609 -2439511791.7607994 0 -2439511791.7607994 -866155649.80443573 0 0 0 0 596130717.67402363 1581969467.5936394 0 1581969467.5936394 -2832397629.0597439 0 0 0 0 -143169448.30991802 124234204.40681648 0 124234204.40681648 -95066744.277994156 0 0 0 0 301977.89964198897 -4881322.831544131 0 -4881322.831544131 -17838366.229868755 0 0 0 0 1597968238.3818741 364181799.58385861 0 364181799.58385861 -1453496239.031662 0 0 0 0 -236292623.34749365 73653978.836779594 0 73653978.836779594 -96192510.252532959 0 0 0 0 -476711155.86619139 329180837.25154972 0 329180837.25154972 -128074749.16035843 0 0 0 0 -122852748.74551392 150880133.00587177 0 150880133.00587177 -114230410.84297371 0 0 0 0 -267394751.65201664 257085079.28741837 0 257085079.28741837 -191955475.32108116 0 0 0 0 380292185.49552345 -474765646.98509789 0 -474765646.98509789 -1081858172.3182747 0 0 0 0 -92880463.63752985 520011181.08537149 0 520011181.08537149 -701838935.76004791 0 0 0 0 -1881498515.1419907 -2564843681.5324659 0 -2564843681.5324659 -522590460.16385174 0 0 0 0 -31980.831284574611 -3448501.9549721787 0 -3448501.9549721787 -7247642.7813298181 0 0 0 0 -415790357.25475168 170858338.52877045 0 170858338.52877045 -81205202.103981972 0 0 0 0 -1028807542.3263131 698649620.62641144 0 698649620.62641144 -527753873.20766544 0 0 0 0 132697559.9531002 -178864679.45701909 0 -178864679.45701909 -229575182.69042969 0 0 0 0 183334621.87791061 142772327.36773491 0 142772327.36773491 -471912583.4181366 0 0 0 0 279851762.02820396 264501622.75596142 0 264501622.75596142 -356669032.76193428 0 0 0 0 -122796151.91260052 178264804.56177235 0 178264804.56177235 -239624829.58559418 0 0 0 0 164389126.2540741 235975455.22945404 0 235975455.22945404 -338336646.94137001 0 0 0 0 156509904.0024929 192505911.41695118 0 192505911.41695118 -323233648.95223522 0 0 0 0 341254425.70067978 -269457728.09219074 0 -269457728.09219074 -430997502.69260025 0 0 0 0 136229928.05035973 207194049.0576582 0 207194049.0576582 -201811373.8113575 0 0 0 0 252929871.86121893 -502901894.69054008 0 -502901894.69054008 151476469.34784555 0 0 0 0 173074933.93314886 14346423.232871205 0 14346423.232871205 -7551229.2802457809 0 0 0 0 195713723.00871468 -147982823.95536757 0 -147982823.95536757 68438862.770227432 0 0 0 0 4826513.1194572449 -72175642.922988892 0 -72175642.922988892 -2936325.0432755947 0 0 0 0 55637136.225017548 169913929.82313645 0 169913929.82313645 -25013024.409983873 0 0 0 0 -442136101.55975342 -440067156.96966243 0 -440067156.96966243 -563387767.33380497 0 0 0 0 991874.29521155916 1898702.3988674972 0 1898702.3988674972 325795.79359735164 0 0 0 0 58482035.965119362 -416474882.5159936 0 -416474882.5159936 471970414.10358 0 0 0 0 -855900285.55060005 -714907966.07563317 0 -714907966.07563317 -277971864.1238122 0 0 0 0 264313245.47452426 -1016671115.1496403 0 -1016671115.1496403 -1866334187.9243212 0 0 0 0 -689437117.42742538 -341573741.22704458 0 -341573741.22704458 -104552723.25467825 0 0 0 0 -3027973.7135512587 -1769881.3860261107 0 -1769881.3860261107 603132.01991712768 0 0 0 0 73837034.474601746 103755641.54376268 0 103755641.54376268 -2158697666.2810187 0 0 0 0 -197751688.83987939 -1024708700.9764044 0 -1024708700.9764044 -3649328788.5098333 0 0 0 0 -3534820652.7180891 -525265555.11225104 0 -525265555.11225104 -130087836.02406764 0 0 0 0 -88535297.870120764 -412748692.31502926 0 -412748692.31502926 -264792196.08095598 0 0 0 0 82155759.441156864 -1428621923.2594004 0 -1428621923.2594004 -1643349095.5034537 0 0 0 0 -301453651.53513718 -298780592.84030914 0 -298780592.84030914 -233926269.80540973 0 0 0 0 -1108492121.6897492 -874298047.72395849 0 -874298047.72395849 -492258168.97190857 0 0 0 0 -337327176.8934229 -42370160.533658504 0 -42370160.533658504 114257941.74539948 0 0 0 0 -140903557.7884357 -5029725.6677284241 0 -5029725.6677284241 -468783366.53846121 0 0 0 0 207619448.37416267 301192496.88441658 0 301192496.88441658 123355946.66311309 0 0 0 0 -30361937.633572578 213385364.71821976 0 213385364.71821976 -126896664.90655708 0 0 0 0 -524195195.41495132 -162357021.16508055 0 -162357021.16508055 -64504558.310833275 0 0 0 0 -297750459.9630177 -590500222.80034256 0 -590500222.80034256 -831904526.49739456 0 0 0 0 -887819351.75161934 7963031.1038446426 0 7963031.1038446426 -1334014623.2252302 0 0 0 0 -539902769.05227375 -1292362542.0008078 0 -1292362542.0008078 -1577710641.0744562 0 0 0 0 -161896509.67022324 -690278963.36935902 0 -690278963.36935902 -888758487.64348459 0 0 0 0 8319146.6678686142 -866584709.95302868 0 -866584709.95302868 -828914821.21789551 0 0 0 0 -558705904.97356701 -583768515.53030539 0 -583768515.53030539 -251183250.25704765 0 0 0 0 -131991064.93815804 -24051640.677269936 0 -24051640.677269936 -409178448.80125332 0 0 0 0 -198362735.3795228 -199249926.9728632 0 -199249926.9728632 16442485.64557457 0 0 0 0 -72785592.046258926 -159343916.46902847 0 -159343916.46902847 426101968.34878349 0 0 0 0 237438511.88579226 153303361.62886715 0 153303361.62886715 146589013.03367233 0 0 0 0 79844098.763438225 61877576.593708038 0 61877576.593708038 1060444569.6995869 0 0 0 0 357288345.68575096 -173836954.722929 0 -173836954.722929 -200757859.53830981 0 0 0 0 -23082866.685443878 -423270782.75079727 0 -423270782.75079727 32836288.529785156 0 0 0 0 867456437.04194736 -155229050.18755054 0 -155229050.18755054 -165246931.71310425 0 0 0 0 -7198833.8422598178 7945458.4958544848 0 7945458.4958544848 -7955587.6858837996 0 0 0 0 173400388.22434235 397642855.1025238 0 397642855.1025238 799307058.02523041 0 0 0 0 -47633069.163593769 28244059.220855474 0 28244059.220855474 152993674.28560257 0 0 0 0 318495217.4919908 438054218.76075077 0 438054218.76075077 728700015.24213409 0 0 0 0 -83395.43965673307 345198.064986201 0 345198.064986201 -627903.62079879269 0 0 0 0 -38544190.425492525 -59516124.819734812 0 -59516124.819734812 48056028.558020592 0 0 0 0 -1970449.5508869602 216675.62457065811 0 216675.62457065811 -5173557.7456779014 0 0 0 0 21851616.853993416 -30034843.819008112 0 -30034843.819008112 -33449159.488657262 0 0 0 0 -805623.41052246094 2516936.4316709042 0 2516936.4316709042 -12466143.390441418 0 0 0 0 -201501579.96563959 30887950.195618629 0 30887950.195618629 486793469.08616638 0 0 0 0 -80351672.750782013 449188649.84468079 0 449188649.84468079 635133036.53088188 0 0 0 0 -1097369.4927935803 7247115.9859376941 0 7247115.9859376941 -8405816.6299609207 0 0 0 0 -542064139.62393188 -558837057.75596809 0 -558837057.75596809 1216339679.4536667 0 0 0 0 -2305394.4978671763 -473442.8942830395 0 -473442.8942830395 -458099.97080256091 0 0 0 0 -952443333.95187044 -308875403.58802271 0 -308875403.58802271 -1751633929.2968369 0 0 0 0 11132873.534202576 -160351845.21630669 0 -160351845.21630669 -3157432939.5351372 0 0 0 0 -207928619.28300095 -588536237.44618797 0 -588536237.44618797 -3975983827.8711448 0 0 0 0 -375482005.53489685 434129679.21662903 0 434129679.21662903 -527001153.45728785 0 0 0 0 -281172963.48949051 -1072431384.3990231 0 -1072431384.3990231 -3692867863.0962601 0 0 0 0 -1913043.9102329779 -220576.81516333297 0 -220576.81516333297 277700.85655354522 0 0 0 0 222261413.44027328 -554389880.40218925 0 -554389880.40218925 -2569997829.2252045 0 0 0 0 -691838527.89585495 -1069105135.3493996 0 -1069105135.3493996 -2313873505.0799789 0 0 0 0 93668320.62111783 269198123.52027321 0 269198123.52027321 -1876187071.2347298 0 0 0 0 -155556333.9223175 634563255.02357483 0 634563255.02357483 -1940016197.0444245 0 0 0 0 -341040802.78765869 456350731.4829483 0 456350731.4829483 -1763835338.5619659 0 0 0 0 -268464010.50555801 879326270.92978096 0 879326270.92978096 -1599132638.7653503 0 0 0 0 -378747429.40620995 566492238.42698956 0 566492238.42698956 -1167202544.1198006 0 0 0 0 -328963870.28329849 -70286865.996370316 0 -70286865.996370316 -1310401286.1389227 0 0 0 0 -243738442.89193344 28566442.140039444 0 28566442.140039444 1362558015.2604408 0 0 0 0 -11279715.591166941 7108337.2850175947 0 7108337.2850175947 -4081425.2822699617 0 0 0 0 -299625729.64495373 770497791.50547385 0 770497791.50547385 -575846817.08571625 0 0 0 0 353707770.79280376 -626957184.91109848 0 -626957184.91109848 -754722616.4803009 0 0 0 0 -285524889.44200897 -345067571.72180748 0 -345067571.72180748 87640410.458734512 0 0 0 0 -265787970.38114166 -1212999802.1415625 0 -1212999802.1415625 -1572562656.6489449 0 0 0 0 -588785549.98995876 77923315.055016518 0 77923315.055016518 -1381751941.8215809 0 0 0 0 -189794625.45899582 -785196555.99867773 0 -785196555.99867773 -698998413.40544891 0 0 0 0 -199505937.19160461 -783308416.21172428 0 -783308416.21172428 -699361494.80942392 0 0 0 0 -198918003.99270821 -797316090.19559288 0 -797316090.19559288 -501185528.50186157 0 0 0 0 -106136745.70318604 -796203298.69113064 0 -796203298.69113064 -790689599.73019218 0 0 0 0 16771588.258548737 -360323790.53083229 0 -360323790.53083229 -1060904332.0495517 0 0 0 0 -449203448.37145042 -549521026.11031389 0 -549521026.11031389 -268331032.90379715 0 0 0 0 -8823026.3873176575 -228861849.00948715 0 -228861849.00948715 -431652719.85800314 0 0 0 0 -64371870.921823502 -219115258.65831757 0 -219115258.65831757 -274073008.39743423 0 0 0 0 -823764975.28789711 -1151892553.1100483 0 -1151892553.1100483 98084600.255702972 0 0 0 0 -166557427.94554138 -330559885.57913876 0 -330559885.57913876 -99003219.984653473 0 0 0 0 -160826658.65500546 -368359463.56917477 0 -368359463.56917477 144270475.96813965 0 0 0 0 304906440.38176155 -381449267.80797434 0 -381449267.80797434 75865185.356477737 0 0 0 0 134973021.56159973 -9443991.3594970703 0 -9443991.3594970703 418714846.06400871 0 0 0 0 -7074076.0013494492 -443838182.16810906 0 -443838182.16810906 65558401.252088547 0 0 0 0 41855219.941001892 -153366678.20970058 0 -153366678.20970058 -155741869.18538284 0 0 0 0 -36163623.431659698 -161073184.49737453 0 -161073184.49737453 -154645066.11459589 0 0 0 0 -78451821.293931961 -117126034.86692619 0 -117126034.86692619 -199689540.25058556 0 0 0 0 4197514.6202964783 -4564748.9398740232 0 -4564748.9398740232 -6964249.2433172762 0 0 0 0 -10385870.622400284 -53452891.558451653 0 -53452891.558451653 -166459899.41349411 0 0 0 0 3321600.6216184814 -1916640.6606376413 0 -1916640.6606376413 -1909443.6256619073 0 0 0 0 3307155.5020445809 -3832444.7220958862 0 -3832444.7220958862 -5407477.4657792347 0 0 0 0 50576403.831687927 -92929798.301643848 0 -92929798.301643848 -285183654.60516953 0 0 0 0 801956.31176567078 -1073079.9533662796 0 -1073079.9533662796 -3332767.9184975624 0 0 0 0 -30056381.421422005 12674726.940483212 0 12674726.940483212 40913751.540017158 0 0 0 0 3344394.3920249939 -1508809.9020245075 0 -1508809.9020245075 -4377484.5772814751 0 0 0 0 2377905.9183387756 -603297.70741081238 0 -603297.70741081238 -5078518.7388671637 0 0 0 0 2808374.0552762654 -4632839.1534737498 0 -4632839.1534737498 -3019381.4289534381 0 0 0 0 42749438.88292861 77697092.057020843 0 77697092.057020843 -471385942.5942812 0 0 0 0 -44145000.983268738 -173443150.88778782 0 -173443150.88778782 -328344067.31141663 0 0 0 0 -2040108.2663908005 -175290085.23017526 0 -175290085.23017526 -336748789.35920238 0 0 0 0 2618037.0091781942 -1067992.8541002925 0 -1067992.8541002925 -4160049.0053633056 0 0 0 0 1327182.9775390625 256079.65490722656 0 256079.65490722656 -8938672.5003604889 0 0 0 0 -63788896.700996399 51889114.916747332 0 51889114.916747332 -118269612.07261479 0 0 0 0 844438.59931182861 -720742.54671096802 0 -720742.54671096802 -7605651.7483713627 0 0 0 0 4845045.5707560331 2161861.7883003759 0 2161861.7883003759 -838784.83060171921 0 0 0 0 170553353.32528114 69115533.580419302 0 69115533.580419302 28404376.249289513 0 0 0 0 -2411835.9774227142 -125365105.42590737 0 -125365105.42590737 -311696613.31738722 0 0 0 0 -5176848.8932463368 -5606131.5128984489 0 -5606131.5128984489 -667867.82060779398 0 0 0 0 -15175521.282802582 4636245.2609233856 0 4636245.2609233856 -8361099.2169876099 0 0 0 0 2345346.9901668504 649625.83831205172 0 649625.83831205172 -2453718.9867086355 0 0 0 0 18500248.600292206 -879525.16017913818 0 -879525.16017913818 -48404425.150436401 0 0 0 0 14337763.112518311 -396346.46442985535 0 -396346.46442985535 -74417089.496430397 0 0 0 0 13960955.623256683 17269225.289867401 0 17269225.289867401 -69131941.01436615 0 0 0 0 4466376.7605018616 -4889256.8553981781 0 -4889256.8553981781 10087651.090711594 0 0 0 0 1256212.0520200823 -631672.07236432377 0 -631672.07236432377 -980066.67236454657 0 0 0 0 21344604.392213821 11992928.345991135 0 11992928.345991135 -91381518.246341705 0 0 0 0 -9955189.4796028137 3160969.3800754547 0 3160969.3800754547 -16614259.034309387 0 0 0 0 15484320.158223629 -14579223.285435915 0 -14579223.285435915 -35561082.332233429 0 0 0 0 13903567.300465584 -25139272.930324078 0 -25139272.930324078 68336383.918212891 0 0 0 0 1534251.2661834247 -1111048.3940330972 0 -1111048.3940330972 3306272.1503598983 0 0 0 0 -844913.92101464327 -865634.1687502563 0 -865634.1687502563 3258147.0422708187 0 0 0 0 -2326253.2041664124 70831998.216022491 0 70831998.216022491 -89853200.685208321 0 0 0 0 -6463239.8794193268 72528252.860126495 0 72528252.860126495 -86597185.568847656 0 0 0 0 26586571.605953217 89808833.598712921 0 89808833.598712921 -194084040.14109039 0 0 0 0 56802872.499685287 75497700.522293091 0 75497700.522293091 -217205689.09465218 0 0 0 0 35634412.453420639 73602333.233828545 0 73602333.233828545 -170878852.522789 0 0 0 0 156284363.26940918 22435677.986971855 0 22435677.986971855 -528143519.03010178 0 0 0 0 17233286.742092133 -8543874.0176830292 0 -8543874.0176830292 -106326407.38887405 0 0 0 0 68480177.345245361 62939393.901288986 0 62939393.901288986 -250433101.69421816 0 0 0 0 68472849.128610611 62727651.578912735 0 62727651.578912735 -203840840.49531174 0 0 0 0 16083545.167310715 -57548821.45967865 0 -57548821.45967865 -219747048.02341843 0 0 0 0 1766638.6012382507 -1988653.3348405361 0 -1988653.3348405361 -2596380.0612521172 0 0 0 0 2124338.5403289795 -4322781.7996940613 0 -4322781.7996940613 4906354.4198093414 0 0 0 0 960361.63679783419 -226432.50460575474 0 -226432.50460575474 -1407209.8312308183 0 0 0 0 1106236.7115707397 -3484824.0184440613 0 -3484824.0184440613 12473341.992858887 0 0 0 0 1747727.1918983459 -7526421.1132545471 0 -7526421.1132545471 7396938.4584493637 0 0 0 0 -28389961.50219059 8197891.4666202068 0 8197891.4666202068 -43273756.150375366 0 0 0 0 1114121.979598999 -8108721.1309642792 0 -8108721.1309642792 11009022.18837595 0 0 0 0 -455400.20470635686 -250156.40562177729 0 -250156.40562177729 1178648.3334879372 0 0 0 0 -56946168.604354858 143395790.23193073 0 143395790.23193073 -182285520.50764275 0 0 0 0 -147136252.05318832 79000150.166278839 0 79000150.166278839 -33077139.040281057 0 0 0 0 -61657597.154720306 -27114476.575129509 0 -27114476.575129509 30545125.486875534 0 0 0 0 -56279763.826947212 -83672501.543155193 0 -83672501.543155193 -13145511.374537468 0 0 0 0 30108962.578907013 -12896299.217608452 0 -12896299.217608452 -30357768.982788086 0 0 0 0 2015301.6510536214 -2298043.1125207837 0 -2298043.1125207837 -4858970.0985004846 0 0 0 0 -102144452.6503067 -38823380.049000263 0 -38823380.049000263 -24513770.183242798 0 0 0 0 -280761393.59972191 -226549103.55800056 0 -226549103.55800056 -212744713.2078495 0 0 0 0 730133.69433131581 -991965.59471605765 0 -991965.59471605765 -1795438.8898791568 0 0 0 0 -149019695.10786247 303454303.99161577 0 303454303.99161577 -326047782.52809334 0 0 0 0 -305972026.35820007 150382178.18179607 0 150382178.18179607 -84528024.932229996 0 0 0 0 -31758260.010103226 -137956982.36722755 0 -137956982.36722755 -346678944.73257828 0 0 0 0 22610506.097232819 -56908752.716687202 0 -56908752.716687202 -572487120.10655022 0 0 0 0 -82686970.255630493 242627235.41633224 0 242627235.41633224 -406362902.97072506 0 0 0 0 -98351812.89768219 2285641.6065711975 0 2285641.6065711975 -39743520.492330551 0 0 0 0 -17519312.290554047 135929324.49737072 0 135929324.49737072 -183136899.79671097 0 0 0 0 44278029.902496338 68338687.115310669 0 68338687.115310669 -203903170.30725098 0 0 0 0 -340302131.82833576 148519547.79823017 0 148519547.79823017 -124183524.589674 0 0 0 0 -289393615.10957575 -111763364.92310393 0 -111763364.92310393 -13027127.322315216 0 0 0 0 4092977.0418367386 -99773701.607552528 0 -99773701.607552528 -82186021.106877327 0 0 0 0 -56682455.111763954 -65393659.99583149 0 -65393659.99583149 -76923840.505086899 0 0 0 0 -15183762.049613953 5208934.4673042297 0 5208934.4673042297 -46908888.200242996 0 0 0 0 -8689677.1754922867 55826051.373011112 0 55826051.373011112 -35649495.986801147 0 0 0 0 -24187414.803693771 147519481.63911438 0 147519481.63911438 -142270140.93190002 0 0 0 0 -93920841.42393589 318147813.84089851 0 318147813.84089851 -438650270.41717529 0 0 0 0 1012008.7143599314 -434383.98903391301 0 -434383.98903391301 -285640.11698373966 0 0 0 0 6206071.3668785095 -1187120.296257019 0 -1187120.296257019 974399.96858215332 0 0 0 0 59891481.90557003 240395407.72406578 0 240395407.72406578 -154619803.1481781 0 0 0 0 -762865.54021983594 -893514.8266263986 0 -893514.8266263986 100620.61979794875 0 0 0 0 -53172628.189391136 261728223.76343822 0 261728223.76343822 -196435854.92850876 0 0 0 0 30903354.047008514 -208353590.1644659 0 -208353590.1644659 107052091.43782377 0 0 0 0 51360055.284858704 46802424.108229637 0 46802424.108229637 -42926064.717055321 0 0 0 0 -1243300.3632001383 -1560084.7947165761 0 -1560084.7947165761 -19091.099978731945 0 0 0 0 160104125.82920265 -64276915.057682991 0 -64276915.057682991 -69617460.182487488 0 0 0 0 39077549.462737083 134597928.0009613 0 134597928.0009613 -236715629.62002563 0 0 0 0 -219741092.21369743 -14710598.534301758 0 -14710598.534301758 88206872.585626602 0 0 0 0 272377211.3442831 -120795643.61757278 0 -120795643.61757278 -177326877.2928009 0 0 0 0 45705106.348180771 133175056.48396015 0 133175056.48396015 -501609770.29209232 0 0 0 0 53741502.911046982 41601847.976924896 0 41601847.976924896 -82321660.005754948 0 0 0 0 22049157.315544367 153261086.49455333 0 153261086.49455333 -259429811.89810562 0 0 0 0 23025709.094293594 145681600.8137579 0 145681600.8137579 -201401420.81961823 0 0 0 0 43761425.819437027 197523884.1245842 0 197523884.1245842 -208286601.07989502 0 0 0 0 26631364.616749763 252580744.71646881 0 252580744.71646881 -369811039.40665245 0 0 0 0 314297491.90746307 -163939478.84745598 0 -163939478.84745598 -145320396.12290955 0 0 0 0 -730316.17040818045 -876638.20357975177 0 -876638.20357975177 113541.92158078961 0 0 0 0 236753500.88253021 1408660.0762443542 0 1408660.0762443542 -386595853.33232117 0 0 0 0 28972953.916893601 87300212.460267425 0 87300212.460267425 -187520585.04948807 0 0 0 0 -122135168.7948103 97752258.797365189 0 97752258.797365189 -108416948.62288666 0 0 0 0 37540233.713561058 25539879.885744095 0 25539879.885744095 -115442578.53400803 0 0 0 0 -23065870.712523937 58037119.241626978 0 58037119.241626978 -39620991.358802795 0 0 0 0 -33948121.023746729 101285382.48994827 0 101285382.48994827 -130658202.77190018 0 0 0 0 -165993841.0001173 97311686.278402328 0 97311686.278402328 -53847916.576162338 0 0 0 0 11294704.788824081 136543939.93345261 0 136543939.93345261 -67325526.652089119 0 0 0 0 88313501.507936239 122334953.73773718 0 122334953.73773718 4978359.5127983093 0 0 0 0 65959921.719406128 -45302221.448286057 0 -45302221.448286057 98507357.764984131 0 0 0 0 69200243.968618393 49383708.106708527 0 49383708.106708527 -133644925.57201672 0 0 0 0 -215441575.56216955 88430069.679088593 0 88430069.679088593 16551844.261037827 0 0 0 0 -212787081.71296227 106941990.98014724 0 106941990.98014724 -134927835.45337296 0 0 0 0 -122143543.47958279 96034734.078536987 0 96034734.078536987 -164927595.24728584 0 0 0 0 -28284713.016289949 -10822873.689885139 0 -10822873.689885139 5546650.8346939087 0 0 0 0 -210959553.80535221 165857793.19547081 0 165857793.19547081 -108481643.6918993 0 0 0 0 -682403.40189408872 -1228727.3619975047 0 -1228727.3619975047 955643.66439657472 0 0 0 0 77355949.754204571 239737513.57879418 0 239737513.57879418 472547673.8886261 0 0 0 0 47158847.372689158 -5863785.5690975189 0 -5863785.5690975189 -44004896.214054108 0 0 0 0 398625.77314298321 -3219191.7955121133 0 -3219191.7955121133 -23159754.331992846 0 0 0 0 13805095.834729671 -58288130.050638199 0 -58288130.050638199 -125774305.76802444 0 0 0 0 -2391763.2134446157 -3569867.1487784218 0 -3569867.1487784218 -8403674.7727147564 0 0 0 0 1511643.6263175011 709861.08036994934 0 709861.08036994934 -7581182.8406906128 0 0 0 0 -12658598.011384964 -28652622.923622131 0 -28652622.923622131 15770482.995422363 0 0 0 0 -1894579.8280549974 872096.59183684923 0 872096.59183684923 -13447585.629712775 0 0 0 0 1893905.7576031685 -6781135.6923513412 0 -6781135.6923513412 12778392.056434631 0 0 0 0 -1591170.7802747614 -3484834.9284160743 0 -3484834.9284160743 2570843.6423513331 0 0 0 0 2160902.0121753216 -4075458.4466991425 0 -4075458.4466991425 4928557.4763031006 0 0 0 0 -999811.22865732457 1468790.6873010807 0 1468790.6873010807 -10991705.651833931 0 0 0 0 -2194245.6887538433 1470945.4748401642 0 1470945.4748401642 -8371096.1462135315 0 0 0 0 -791974.40068215132 1422854.0014510155 0 1422854.0014510155 -8912341.4331512451 0 0 0 0 -8736574.5213569999 -8938555.3830353022 0 -8938555.3830353022 -3202792.2295532227 0 0 0 0 -741454.73347592354 1738663.9262385368 0 1738663.9262385368 -6961523.0513763428 0 0 0 0 12838459.179413795 95084616.26411438 0 95084616.26411438 -144861116.16857147 0 0 0 0 -13284508.760457993 99261378.746559143 0 99261378.746559143 -78546439.798961639 0 0 0 0 44110361.991444588 59318226.606769562 0 59318226.606769562 -80064109.365200043 0 0 0 0 -58083312.629984856 95437041.454013824 0 95437041.454013824 -78687501.914142609 0 0 0 0 -78863183.048077583 93053970.349311829 0 93053970.349311829 -68605092.947492599 0 0 0 0 -57961520.712409973 94428165.684509277 0 94428165.684509277 -70878727.047115326 0 0 0 0 -59503433.531758308 71796686.147354126 0 71796686.147354126 -87594502.099399567 0 0 0 0 -8567970.695142746 103623042.32581711 0 103623042.32581711 -79657939.804680586 0 0 0 0 -16231094.652420044 27990887.062713623 0 27990887.062713623 -64649966.057308197 0 0 0 0 -446769.85402442142 1298527.8063268866 0 1298527.8063268866 -3462182.6093542622 0 0 0 0 -441608.00251960754 1069516.2414321899 0 1069516.2414321899 -1650918.3246955872 0 0 0 0 -333192.51300055836 -384516.68127401732 0 -384516.68127401732 -3919941.449852854 0 0 0 0 2020654.1183166448 574531.48208148032 0 574531.48208148032 -5331868.9761085669 0 0 0 0 8214751.5826721191 -2460980.9343757629 0 -2460980.9343757629 1305292.3824958801 0 0 0 0 33894402.195152283 1888266.2259578705 0 1888266.2259578705 -291894317.29942131 0 0 0 0 2471386.3391044931 873186.34657241218 0 873186.34657241218 -5060560.639072191 0 0 0 0 1197223.6330034509 1234241.5561527237 0 1234241.5561527237 -2093993.9860384092 0 0 0 0 -7437641.8099594116 22700951.431179047 0 22700951.431179047 -148913900.39764202 0 0 0 0 5870553.1910095215 -2714834.5557861328 0 -2714834.5557861328 1386867.8906173706 0 0 0 0 222289.12018695567 160690.24801727291 0 160690.24801727291 -216380.16093419306 0 0 0 0 1235891.0201831865 2446092.1733160513 0 2446092.1733160513 -2197621.2436388331 0 0 0 0 1554257.1933994293 2633739.5427722931 0 2633739.5427722931 -2405408.6547832489 0 0 0 0 10409203.482501984 -293435.02226257324 0 -293435.02226257324 -1675929.9351501465 0 0 0 0 2482940.8410515785 1620248.2782115936 0 1620248.2782115936 -4199214.3984546661 0 0 0 0 2215555.3341691233 2692410.7781446334 0 2692410.7781446334 -4605116.646999253 0 0 0 0 1682786.8180046082 3139509.5337333679 0 3139509.5337333679 -696421.28227996826 0 0 0 0 3561419.1984086232 4993421.6749208178 0 4993421.6749208178 -10499720.277630948 0 0 0 0 2424007.5776338577 1795109.4006538391 0 1795109.4006538391 -4606469.2194252014 0 0 0 0 1397447.094219923 591292.33980751038 0 591292.33980751038 -8350173.6767539978 0 0 0 0 1596480.2081831396 3624369.3567648456 0 3624369.3567648456 -6451016.5307854004 0 0 0 0 -32670.636579632759 15015419.54554081 0 15015419.54554081 20846432.722816467 0 0 0 0 3308264.1243144274 12309999.681127548 0 12309999.681127548 15830434.747673035 0 0 0 0 751564.60786318779 6295867.5430979729 0 6295867.5430979729 -1492864.7079658508 0 0 0 0 1192892.2468266487 5821251.9553108215 0 5821251.9553108215 -1583814.1841797829 0 0 0 0 -647935.73190912302 5079699.04276348 0 5079699.04276348 4495711.8835983407 0 0 0 0 -418590.54441704368 7966440.9985193694 0 7966440.9985193694 2423433.8165926039 0 0 0 0 2976011.5836993456 -490775.64031600952 0 -490775.64031600952 -9207684.7063484192 0 0 0 0 -576612.14620308182 -899919.55555168993 0 -899919.55555168993 -10876782.027140979 0 0 0 0 4672504.1895637512 -10216467.109428406 0 -10216467.109428406 -61778888.860671997 0 0 0 0 -701397.31269812584 -617067.66110610962 0 -617067.66110610962 -6633563.5531716347 0 0 0 0 1336342.6160556043 -502270.56826602854 0 -502270.56826602854 -8975032.1817458365 0 0 0 0 635721.38613932359 3383233.0889317011 0 3383233.0889317011 -49051.078542754054 0 0 0 0 -650038.906498909 -99200.251131057739 0 -99200.251131057739 -9830581.2518596649 0 0 0 0 910085.35359477997 856.27176666259766 0 856.27176666259766 -8215920.0905189514 0 0 0 0 -272047.07994278509 913739.42165724933 0 913739.42165724933 -9155155.6861778013 0 0 0 0 1858448.7759085894 2529892.2409629822 0 2529892.2409629822 -7966219.2089614868 0 0 0 0 -5365522.0794112682 11564351.575415611 0 11564351.575415611 18752743.654564857 0 0 0 0 -4350406.3713066578 65918973.255199432 0 65918973.255199432 -30174935.228967667 0 0 0 0 3303151.6236589802 4501148.4683507504 0 4501148.4683507504 -15621371.715399543 0 0 0 0 1895310.0957744122 2191203.771156311 0 2191203.771156311 -7912507.6351470947 0 0 0 0 14203452.60512352 38756905.600064278 0 38756905.600064278 8976444.4846363068 0 0 0 0 4525882.6319656372 6437378.5842819214 0 6437378.5842819214 -1519391.4222106934 0 0 0 0 269555.72360559116 6477816.8080216618 0 6477816.8080216618 -2701335.2314734757 0 0 0 0 1764952.9962100813 4217988.6054866156 0 4217988.6054866156 -10437704.480014496 0 0 0 0 3782948.7289159279 1551955.6334575936 0 1551955.6334575936 -26909522.596569024 0 0 0 0 6620151.3687880244 5159119.3690769747 0 5159119.3690769747 18401655.621185303 0 0 0 0 4345065.2187814713 6395719.2783126831 0 6395719.2783126831 -1107440.8731536865 0 0 0 0 626544.65868845396 -491979.78434338793 0 -491979.78434338793 -16353578.965836074 0 0 0 0 146079228.56140852 42944591.515896797 0 42944591.515896797 -95094855.284378052 0 0 0 0 2885406.2559239599 -2090682.5413809395 0 -2090682.5413809395 -29729956.686297439 0 0 0 0 900795.17276985687 6499976.8142003454 0 6499976.8142003454 127942.14903933927 0 0 0 0 70049215.288819835 20066920.418839276 0 20066920.418839276 -51261934.9621315 0 0 0 0 97715776.151219368 -16516629.501667976 0 -16516629.501667976 44319839.570305824 0 0 0 0 53352844.456733704 50119942.278329849 0 50119942.278329849 -85569926.08556366 0 0 0 0 53578961.755694389 45184685.043931007 0 45184685.043931007 -44517429.350824833 0 0 0 0 77663224.208058357 62477032.569465637 0 62477032.569465637 -150922116.80688858 0 0 0 0 -30423602.758443199 49096006.431676269 0 49096006.431676269 -55872520.508789062 0 0 0 0 -26777344.07990855 80583114.420690417 0 80583114.420690417 -23991531.252784729 0 0 0 0 78590446.337200165 12418696.372986794 0 12418696.372986794 41060260.656593323 0 0 0 0 119059578.31088543 94911855.193775177 0 94911855.193775177 -58138755.773597717 0 0 0 0 26969090.606056213 22082079.412180901 0 22082079.412180901 -30059227.444705963 0 0 0 0 57936703.057421684 -27490684.408148289 0 -27490684.408148289 -52736373.680402756 0 0 0 0 1455787.7783364682 625965.84198851732 0 625965.84198851732 -1675811.6341888644 0 0 0 0 476872.97948305099 269131.77689331956 0 269131.77689331956 -3929195.2607221375 0 0 0 0 23759078.166182518 17997191.3708148 0 17997191.3708148 15658897.935081482 0 0 0 0 4954485.810537938 4265651.3415749855 0 4265651.3415749855 -6585750.1671348969 0 0 0 0 1075435.7823791504 3745991.8016376495 0 3745991.8016376495 -217000.49610900879 0 0 0 0 -634109.62742890744 5048268.2118448783 0 5048268.2118448783 289978.9766764883 0 0 0 0 23616530.123655438 -14266104.45239687 0 -14266104.45239687 12075490.922704697 0 0 0 0 1011828.4810940856 5617604.5393167697 0 5617604.5393167697 1633497.4288334239 0 0 0 0 -74589946.03616631 39957754.52040863 0 39957754.52040863 -8941777.5348567963 0 0 0 0 -19583327.724165916 25745715.014287949 0 25745715.014287949 -22490836.614242554 0 0 0 0 426182.51031303406 10266371.288918495 0 10266371.288918495 14531401.396824837 0 0 0 0 583339.09454633354 2007643.915475758 0 2007643.915475758 764010.56797164143 0 0 0 0 -191186461.25272489 85243227.51085186 0 85243227.51085186 -2973179.7227241993 0 0 0 0 -9948422.8803246021 -11238094.509269714 0 -11238094.509269714 -18629504.969158173 0 0 0 0 10071561.655889988 23911059.946436882 0 23911059.946436882 51819347.349464417 0 0 0 0 -77108025.830242157 2208976.623210907 0 2208976.623210907 63150959.990328312 0 0 0 0 -500477152.33312416 -295651919.77847862 0 -295651919.77847862 -151959952.98875713 0 0 0 0 -595388.43498841114 -645298.88138116803 0 -645298.88138116803 -700621.69009151589 0 0 0 0 -335728869.84734154 -216598069.57488441 0 -216598069.57488441 -71437352.492553711 0 0 0 0 43352755.897420883 40995263.728078842 0 40995263.728078842 -43183238.868498802 0 0 0 0 -138087961.16707611 15684250.869452477 0 15684250.869452477 30906053.269877434 0 0 0 0 -101782274.54931068 -13635185.015111923 0 -13635185.015111923 -16108922.766384125 0 0 0 0 -46371731.473777771 -17812445.016719937 0 -17812445.016719937 -30760521.229501009 0 0 0 0 -75603875.527789593 -88988839.683231711 0 -88988839.683231711 -46197379.105558395 0 0 0 0 13754690.203337669 -5462913.1602873802 0 -5462913.1602873802 -32745698.67387104 0 0 0 0 -113790318.79870415 -129815387.3128624 0 -129815387.3128624 -89080404.153785899 0 0 0 0 78306460.090547562 -51366404.190362573 0 -51366404.190362573 -87763991.537299201 0 0 0 0 59347366.14730072 -112089144.61431199 0 -112089144.61431199 -246956572.57693559 0 0 0 0 56944470.616378784 -256540300.53271914 0 -256540300.53271914 -124531655.04010201 0 0 0 0 -96865512.299926758 -195815432.06522083 0 -195815432.06522083 -141427170.49573803 0 0 0 0 -88383342.56511116 -162301102.88436413 0 -162301102.88436413 -323133142.33877945 0 0 0 0 -99462659.356405258 -167538336.76691484 0 -167538336.76691484 -105210133.69950104 0 0 0 0 -108368006.71331787 162810993.87659454 0 162810993.87659454 -422976937.36545753 0 0 0 0 -108688865.1775589 215989856.86079597 0 215989856.86079597 456160022.77003479 0 0 0 0 -381494950.41199112 -175584826.92831802 0 -175584826.92831802 80949449.083192825 0 0 0 0 -236691784.6628952 -728414762.11255836 0 -728414762.11255836 1529628692.1304634 0 0 0 0 303216164.07556534 -793288680.17220974 0 -793288680.17220974 251562040.72826767 0 0 0 0 219968020.38976288 -502337570.86826134 0 -502337570.86826134 -368558645.67663956 0 0 0 0 220521902.1771431 -468707135.5919199 0 -468707135.5919199 -139181842.83967209 0 0 0 0 -86278131.236789703 -354594768.39672565 0 -354594768.39672565 184495468.25175667 0 0 0 0 316175702.13000941 -599015136.8872993 0 -599015136.8872993 -411673757.43498898 0 0 0 0 -251961608.49001694 183225021.16937637 0 183225021.16937637 65841078.131601334 0 0 0 0 270512.91294813994 540192.61227644514 0 540192.61227644514 -3772895.5970935104 0 0 0 0 -9755536.8566970825 74613591.756004333 0 74613591.756004333 -116136467.3821044 0 0 0 0 -46284.957359313965 18929625.092205524 0 18929625.092205524 -64743414.803571224 0 0 0 0 -17869416.349273682 73903910.131855488 0 73903910.131855488 -115260843.12067223 0 0 0 0 -24047167.701133728 82114201.033874989 0 82114201.033874989 -79733813.865375042 0 0 0 0 -5429429.0252914429 13522076.887395859 0 13522076.887395859 -3447458.4689731351 0 0 0 0 -38753654.759179115 149319188.71288723 0 149319188.71288723 -202444583.201828 0 0 0 0 8681585.5296096802 140266355.43177414 0 140266355.43177414 -285472450.46927595 0 0 0 0 -55881040.769388199 805210295.42529929 0 805210295.42529929 1021441680.9734993 0 0 0 0 34242812.025901794 171402343.71179867 0 171402343.71179867 -291789892.67380905 0 0 0 0 96099392.491615295 266936178.76515007 0 266936178.76515007 -503063343.59253788 0 0 0 0 353837793.23395538 -366520528.76803207 0 -366520528.76803207 -1012598405.9185295 0 0 0 0 372560773.79464722 38314488.615474701 0 38314488.615474701 -1335171449.2657213 0 0 0 0 75987128.329050064 -286467874.97162151 0 -286467874.97162151 -316355580.23052216 0 0 0 0 317916927.99816895 -160302095.15186977 0 -160302095.15186977 -257316267.82693481 0 0 0 0 321979365.49684906 -213203921.69028997 0 -213203921.69028997 -762285930.29274416 0 0 0 0 369130422.76364136 -478565995.80087328 0 -478565995.80087328 -392766203.55936623 0 0 0 0 391737608.2745533 -104567229.69558442 0 -104567229.69558442 -621530720.36199188 0 0 0 0 -121109515.99905491 95164623.995082855 0 95164623.995082855 128794984.47352028 0 0 0 0 800618.97582536377 11460592.336405115 0 11460592.336405115 -4181695.6704783416 0 0 0 0 111943658.10977459 256396832.03397304 0 256396832.03397304 9391796.943020761 0 0 0 0 256246514.0217247 442060077.36798102 0 442060077.36798102 -706518306.13178658 0 0 0 0 -3241367.9406795502 68413715.136562347 0 68413715.136562347 91736717.432069778 0 0 0 0 -468325532.2670126 -102160243.04041632 0 -102160243.04041632 359645364.15956557 0 0 0 0 255138946.09434128 465733693.71034586 0 465733693.71034586 -1021813957.9704471 0 0 0 0 1975801.0848064423 2166809.2346992493 0 2166809.2346992493 -56736919.730491638 0 0 0 0 44346872.666017771 76298085.293774128 0 76298085.293774128 -2190033.0019989014 0 0 0 0 31250271.204320908 618985.06116521358 0 618985.06116521358 -93021050.125358582 0 0 0 0 -60129972.309169769 -140243436.58201218 0 -140243436.58201218 -45464354.417888641 0 0 0 0 71681144.773780823 -4868323.4298820496 0 -4868323.4298820496 -348458833.86870003 0 0 0 0 221114475.67594528 -50035138.503643036 0 -50035138.503643036 -2376217.7522907257 0 0 0 0 -522463.28312235582 4063310.3357445477 0 4063310.3357445477 1776848.0923489779 0 0 0 0 55500526.179733276 -79406680.383174896 0 -79406680.383174896 -58162139.841442108 0 0 0 0 73056533.471658707 16904294.958473206 0 16904294.958473206 -6247366.5373382568 0 0 0 0 92891767.959413528 -20552958.527979851 0 -20552958.527979851 34307327.419364929 0 0 0 0 -3420409.029750824 -33246101.357133865 0 -33246101.357133865 123456217.64642715 0 0 0 0 -38292139.83882618 -76287805.639969826 0 -76287805.639969826 92829846.483970642 0 0 0 0 3902615.6248727571 10794269.418645501 0 10794269.418645501 -4856529.8759531397 0 0 0 0 -170119511.91524887 -243141475.71432495 0 -243141475.71432495 -475869377.37865448 0 0 0 0 -280837375.91794205 -157708796.95648193 0 -157708796.95648193 -199682654.58134413 0 0 0 0 -404004185.5351572 -127923962.35972023 0 -127923962.35972023 -80680126.920852661 0 0 0 0 -262423279.9262228 -171303906.91702843 0 -171303906.91702843 -315375991.74693298 0 0 0 0 -367931554.31830215 -281261679.86774445 0 -281261679.86774445 -319969018.3886981 0 0 0 0 -439523545.23028946 -500077603.6420517 0 -500077603.6420517 -757513818.53941345 0 0 0 0 -185209073.30013275 -259766629.19322205 0 -259766629.19322205 -477952927.44153023 0 0 0 0 -213491749.49688911 -367715498.88196182 0 -367715498.88196182 -751305950.73529053 0 0 0 0 -298087154.22252178 -195049027.54481125 0 -195049027.54481125 -734492493.10910797 0 0 0 0 -157436831.23740768 -332214479.77923012 0 -332214479.77923012 -785416076.7440567 0 0 0 0 -327107073.4593277 -244764129.62373352 0 -244764129.62373352 -806224587.54827118 0 0 0 0 -583143384.34765434 -68903168.849731445 0 -68903168.849731445 -855831659.14714813 0 0 0 0 -540324667.9297905 -17037482.640441895 0 -17037482.640441895 -962461621.08479309 0 0 0 0 -31235170.412691116 -311097626.66594124 0 -311097626.66594124 -1613128616.2714462 0 0 0 0 -1297745.2602853514 174592.7073503267 0 174592.7073503267 -246002.82382922526 0 0 0 0 -653600868.11964512 -299932485.05081272 0 -299932485.05081272 -1001696579.0295181 0 0 0 0 4017029.3173313141 -145610197.31116009 0 -145610197.31116009 -839612399.71572876 0 0 0 0 38081141.736419201 -89276009.498939514 0 -89276009.498939514 -95182355.007331848 0 0 0 0 -233290849.14454079 89233574.479923248 0 89233574.479923248 115917782.69230938 0 0 0 0 -599128385.22249556 -237151871.68931961 0 -237151871.68931961 -92344965.772521973 0 0 0 0 -211576129.52952003 64886149.64358902 0 64886149.64358902 -64112859.970627308 0 0 0 0 -14128927.67760849 38643227.046653748 0 38643227.046653748 -92664260.206382751 0 0 0 0 -147733833.10112762 -17314120.724058151 0 -17314120.724058151 -38273005.920120239 0 0 0 0 36835990.380064011 -6850440.9917297363 0 -6850440.9917297363 -17120109.929168701 0 0 0 0 33007448.196977615 -17661893.063247681 0 -17661893.063247681 -45811327.150957108 0 0 0 0 32685591.169158936 32421620.943008423 0 32421620.943008423 -58956399.39834404 0 0 0 0 37338749.14612484 -7053203.2445411682 0 -7053203.2445411682 -17100237.928192139 0 0 0 0 31050093.980876923 18453042.209205627 0 18453042.209205627 16540322.938667297 0 0 0 0 3300740.3866930008 -270151.98253631592 0 -270151.98253631592 -4404160.9574890137 0 0 0 0 1717657.4069875977 108582.78901161626 0 108582.78901161626 -3902413.6999529526 0 0 0 0 36541080.654166371 1904670.0156290531 0 1904670.0156290531 -9002718.3034667969 0 0 0 0 -5195927.6525954148 1653386.694177147 0 1653386.694177147 -676980.01720322762 0 0 0 0 29848873.387625456 -7701760.7234315872 0 -7701760.7234315872 -6630335.5842971802 0 0 0 0 2314029.1830415726 -6341301.6987533569 0 -6341301.6987533569 7836574.3466663361 0 0 0 0 608703.86108779907 -64508884.564407349 0 -64508884.564407349 80493764.557394028 0 0 0 0 24254792.115137577 -20083050.506978989 0 -20083050.506978989 -21270590.229385376 0 0 0 0 -3398484.5639875056 327475.39476034418 0 327475.39476034418 -599528.91141414642 0 0 0 0 -50935267.288629532 -218383682.08032608 0 -218383682.08032608 -680741443.91973877 0 0 0 0 85387654.711869478 -382138225.80345583 0 -382138225.80345583 -849730460.30207062 0 0 0 0 90392079.863782883 -384522404.83465958 0 -384522404.83465958 -1106678337.2706451 0 0 0 0 -89916435.42257309 -506687691.25720596 0 -506687691.25720596 -621419385.55083466 0 0 0 0 -104102135.89756393 -909818382.36713028 0 -909818382.36713028 -769063105.28756714 0 0 0 0 -47293941.501335144 -405624017.17853546 0 -405624017.17853546 -411746765.55343628 0 0 0 0 -32136033.964191437 -45699734.279533386 0 -45699734.279533386 -86013589.633922577 0 0 0 0 43084250.937765121 -76173852.886257172 0 -76173852.886257172 -474624048.33383179 0 0 0 0 -261291711.99093056 -440679227.52690887 0 -440679227.52690887 101754739.69940186 0 0 0 0 -158178368.29167366 -82119045.951206207 0 -82119045.951206207 -50154029.878211975 0 0 0 0 21427319.017503738 21737714.344284058 0 21737714.344284058 -46733570.982479095 0 0 0 0 -2573169.2966699004 2454632.1061420441 0 2454632.1061420441 -8968700.9334259033 0 0 0 0 751243.80217344465 658934.05334852636 0 658934.05334852636 -6148265.1808625646 0 0 0 0 164413588.9717083 254497595.70954514 0 254497595.70954514 351880150.07476425 0 0 0 0 -1223950.4476480326 1133771.2533585168 0 1133771.2533585168 680201.88265922479 0 0 0 0 -38498370.580646515 -33668727.07824707 0 -33668727.07824707 23028726.08706665 0 0 0 0 -32782123.97359848 -34359073.325874329 0 -34359073.325874329 -43823210.018127441 0 0 0 0 -1585947105.2890129 -2014724613.4419289 0 -2014724613.4419289 -48562973.875610352 0 0 0 0 -321773070.36980057 -674195163.41571045 0 -674195163.41571045 -303165855.28173065 0 0 0 0 -1905339.7648030072 346832.85945481621 0 346832.85945481621 2558800.3203920424 0 0 0 0 -640460634.71598721 16677755.252764702 0 16677755.252764702 1093709606.1573181 0 0 0 0 -120950545.41805887 -880712316.29110813 0 -880712316.29110813 -126774981.64866638 0 0 0 0 -558825808.58703709 232785033.40671158 0 232785033.40671158 774016064.88323212 0 0 0 0 -498133529.4849062 -168544274.85998535 0 -168544274.85998535 1194248187.5695648 0 0 0 0 -2142325205.2320538 1182395562.1297798 0 1182395562.1297798 84740599.62008667 0 0 0 0 114035711.81917 128156546.19361115 0 128156546.19361115 -11379334.248054504 0 0 0 0 -6146766.0684709549 -1719652.2972412109 0 -1719652.2972412109 -10457600.752067566 0 0 0 0 -7001255.7113768943 4989446.2793890871 0 4989446.2793890871 -4976101.4797665812 0 0 0 0 -20399978.591212273 -406085443.67049789 0 -406085443.67049789 341769709.84112549 0 0 0 0 -2898955.4089207649 664350.1227722168 0 664350.1227722168 -10833069.304748535 0 0 0 0 -9637207.527888298 -3211214.2243041992 0 -3211214.2243041992 -10107915.357765198 0 0 0 0 -12364875.224941254 -4476565.5673599243 0 -4476565.5673599243 -6303549.7242279053 0 0 0 0 -9607269.7952814102 -532956.7399597168 0 -532956.7399597168 -6684824.9101638794 0 0 0 0 -13296893.243852615 590895.04011535645 0 590895.04011535645 -2355088.8708648682 0 0 0 0 -10122523.607372284 1304038.7189025879 0 1304038.7189025879 -10807695.124465942 0 0 0 0 -280366.25328864902 884196.31617439538 0 884196.31617439538 -219595.32067915611 0 0 0 0 -7226965.3289451599 -1004992.1398773193 0 -1004992.1398773193 -7432283.9636688232 0 0 0 0 -3211924.611880064 580323.11375427246 0 580323.11375427246 -10849535.077087402 0 0 0 0 -4738928.2434439659 6002879.650806427 0 6002879.650806427 -13727066.131774902 0 0 0 0 -1566331.2678452993 132342.18878017087 0 132342.18878017087 -6545138.1096389592 0 0 0 0 -15899349.098494053 7902917.9472045898 0 7902917.9472045898 11008095.320983887 0 0 0 0 639786.9050974024 -49024.480713211 0 -49024.480713211 -648005.5638919957 0 0 0 0 -11321764.921339989 2300189.5894699097 0 2300189.5894699097 -5331459.4292907715 0 0 0 0 -10425250.866499901 615532.8681640625 0 615532.8681640625 -8160386.0644836426 0 0 0 0 -6342643.4847478867 2326366.4770050049 0 2326366.4770050049 -11678131.400360107 0 0 0 0 -11678079.468479156 4043111.5857543945 0 4043111.5857543945 -818587.99052429199 0 0 0 0 -9288265.6400661469 9558306.4114608765 0 9558306.4114608765 -9672504.004989624 0 0 0 0 -13878874.221755028 2345948.0616836548 0 2345948.0616836548 -4968541.2686157227 0 0 0 0 -11677006.691683769 4254792.2965621948 0 4254792.2965621948 -3333665.2321014404 0 0 0 0 -11299964.440024376 4673790.9763870239 0 4673790.9763870239 -4723396.984664917 0 0 0 0 6070569.3028936014 16538095.275475979 0 16538095.275475979 -7950520.6595916748 0 0 0 0 -1455943.9598002911 550400.42811627593 0 550400.42811627593 -4046471.4119667932 0 0 0 0 -17399057.907279968 4231015.4593200684 0 4231015.4593200684 -1005925.276260376 0 0 0 0 -7798317.0996608734 4996921.1335144043 0 4996921.1335144043 -2938750.277923584 0 0 0 0 -9663713.5175333023 1845237.5290527344 0 1845237.5290527344 -1450072.8007240295 0 0 0 0 7075656.6478983164 2257483.0767745972 0 2257483.0767745972 -6705111.7783355713 0 0 0 0 -3950349.9812774658 -3710426.601272583 0 -3710426.601272583 3674563.4763412476 0 0 0 0 -2551578.248064518 9177006.32862854 0 9177006.32862854 -5709932.1645507812 0 0 0 0 -6765045.286499083 21710557.669826508 0 21710557.669826508 -830950.95416259766 0 0 0 0 -10216462.763494968 7888022.6207809448 0 7888022.6207809448 -5326512.3487548828 0 0 0 0 -3652719.9705960751 13208229.355644226 0 13208229.355644226 -6355679.4333190918 0 0 0 0 -16769484.486820221 5969313.1777267456 0 5969313.1777267456 -11553148.771626782 0 0 0 0 -15535424.300186872 2289142.1182956696 0 2289142.1182956696 -4076535.631362915 0 0 0 0 -11496328.56760931 9179361.5837478638 0 9179361.5837478638 -6233297.2412567139 0 0 0 0 -26904008.641031265 4361294.6368789673 0 4361294.6368789673 -1845633.9458770752 0 0 0 0 -16872679.498607516 3382177.8991937637 0 3382177.8991937637 -17773086.914627075 0 0 0 0 -22833651.225306511 -6055407.8736839294 0 -6055407.8736839294 10332702.982154846 0 0 0 0 -18416696.087526321 566731.68682861328 0 566731.68682861328 -1875920.3515281677 0 0 0 0 -15780927.3125844 -3210460.5444107056 0 -3210460.5444107056 1922570.169593811 0 0 0 0 -13073336.487576485 -11896090.302879333 0 -11896090.302879333 -48225818.417007446 0 0 0 0 -19416221.370914459 -22402688.285873413 0 -22402688.285873413 -39980182.975624084 0 0 0 0 -18958012.79885006 -22437364.819206238 0 -22437364.819206238 -42926192.037567139 0 0 0 0 -40703599.8199066 -28792260.423474785 0 -28792260.423474785 -37238667.737365723 0 0 0 0 -28871025.228591919 -33202556.988319397 0 -33202556.988319397 -54093645.721694946 0 0 0 0 -11557012.324867249 -1771105.5482254028 0 -1771105.5482254028 -73823267.679954529 0 0 0 0 -22197763.268072605 21200774.336856842 0 21200774.336856842 -13352154.864242554 0 0 0 0 -14931589.974289894 994100.51814651489 0 994100.51814651489 -27315900.88168335 0 0 0 0 -19014500.569993019 -3271661.9301834106 0 -3271661.9301834106 -18420645.481227875 0 0 0 0 -19538258.543878555 -1044481.6946563721 0 -1044481.6946563721 -11550279.742635973 0 0 0 0 -16735970.868397713 -5664329.4624862671 0 -5664329.4624862671 -24801973.589645386 0 0 0 0 -16807245.105620861 -871827.28086853027 0 -871827.28086853027 -6034375.8310775757 0 0 0 0 -16562187.307641149 17692818.090921402 0 17692818.090921402 5246511.9794311523 0 0 0 0 -15005356.81499052 2129438.819480896 0 2129438.819480896 -10559950.363113403 0 0 0 0 -20929810.211325645 8911005.4243621826 0 8911005.4243621826 -491870.80635070801 0 0 0 0 -14440876.154085159 -18899160.691261292 0 -18899160.691261292 -38377537.671768188 0 0 0 0 -17098099.465743542 -16199937.41091156 0 -16199937.41091156 -21360311.320663452 0 0 0 0 -14885597.390155792 -10023989.740371704 0 -10023989.740371704 -21442323.551292419 0 0 0 0 -14761000.063512802 -16833099.695430756 0 -16833099.695430756 -42466029.926300049 0 0 0 0 -14445406.08215332 -18457849.006530762 0 -18457849.006530762 -39055096.429321289 0 0 0 0 -17425539.627576783 -19337169.605676651 0 -19337169.605676651 -35794255.514984131 0 0 0 0 -19366729.243402004 -19016327.466712952 0 -19016327.466712952 -39063328.915603638 0 0 0 0 -52952690.274866819 -44106550.713973999 0 -44106550.713973999 -53071266.3646698 0 0 0 0 -19288604.792429924 -19647788.255630493 0 -19647788.255630493 -35063139.538879395 0 0 0 0 -26300918.495635033 -25524526.077781677 0 -25524526.077781677 -39975588.986694336 0 0 0 0 -33250070.789514542 -21373995.706413269 0 -21373995.706413269 -30495486.762786865 0 0 0 0 1083512.9861573644 -480255.12876933627 0 -480255.12876933627 -7874074.7350857444 0 0 0 0 2304806.3417004282 -13874960.172917556 0 -13874960.172917556 -40533358.384292603 0 0 0 0 -26093841.006761551 -17611847.139877319 0 -17611847.139877319 -29901461.482208252 0 0 0 0 5076886.1011345647 -2385023.642638823 0 -2385023.642638823 -11411197.959946901 0 0 0 0 43498117.852698445 -50486761.133651733 0 -50486761.133651733 10326217.099227905 0 0 0 0 -17067646.548051357 -6053453.2211761475 0 -6053453.2211761475 -39693732.140632153 0 0 0 0 46924518.960134149 -54478051.80355756 0 -54478051.80355756 14212514.734237671 0 0 0 0 22137202.873478174 -38776138.769927979 0 -38776138.769927979 13783307.661056519 0 0 0 0 38213455.651289999 -55872865.552806854 0 -55872865.552806854 31955420.64251709 0 0 0 0 26339796.632801533 -106230186.75081635 0 -106230186.75081635 7877956.6263427734 0 0 0 0 11703640.088289499 -221322800.29195404 0 -221322800.29195404 -127069555.52870178 0 0 0 0 21890480.273334742 -142493271.15659332 0 -142493271.15659332 144687219.36486053 0 0 0 0 16525405.475773573 -25081858.898223877 0 -25081858.898223877 86250285.72820282 0 0 0 0 -132109850.12212944 -40158184.730010986 0 -40158184.730010986 -45294346.650260925 0 0 0 0 593837.23777754745 35925.106098722667 0 35925.106098722667 -2711149.1334744319 0 0 0 0 54668743.875829339 -37835495.78943634 0 -37835495.78943634 -121314208.81227112 0 0 0 0 -37242680.765481293 -650587.89757347107 0 -650587.89757347107 -94750848.596008301 0 0 0 0 -38214856.285704136 -60950059.03087616 0 -60950059.03087616 -71422752.02230835 0 0 0 0 18414528.328549862 -28627395.964385986 0 -28627395.964385986 -120739671.54350281 0 0 0 0 -11030310.707250595 -22463167.697380066 0 -22463167.697380066 -46128506.700054646 0 0 0 0 187435.77114686696 -477480.85138398781 0 -477480.85138398781 -737559.90292583033 0 0 0 0 3310321.9287608862 -77938378.163336754 0 -77938378.163336754 -74490148.055099487 0 0 0 0 146820404.56019258 -136671352.99193192 0 -136671352.99193192 -54184318.907669067 0 0 0 0 1565826.1943853563 -717306.70631314442 0 -717306.70631314442 -3182414.6835669801 0 0 0 0 -109605445.39455628 13229252.687000275 0 13229252.687000275 441556451.28700256 0 0 0 0 -189433673.09065914 -274123786.91902161 0 -274123786.91902161 352697750.36970901 0 0 0 0 -55396744.938486457 167383789.77140951 0 167383789.77140951 43169612.285163879 0 0 0 0 -338027751.57596636 297929687.37772751 0 297929687.37772751 214270898.9427948 0 0 0 0 -103981973.60496795 -85974920.730822563 0 -85974920.730822563 39965335.956542969 0 0 0 0 -180224713.519804 -104673503.21443176 0 -104673503.21443176 505162923.94002533 0 0 0 0 1484109.6715291282 537138.94113042019 0 537138.94113042019 -4106269.854038842 0 0 0 0 18435192.843999624 -30937190.352687836 0 -30937190.352687836 62195709.486446381 0 0 0 0 5573178.5486986637 4480936.1944048405 0 4480936.1944048405 -3738641.9603805542 0 0 0 0 -29291530.459334314 11390921.536906242 0 11390921.536906242 -995725.98623657227 0 0 0 0 -25568462.1401124 -35633535.852390289 0 -35633535.852390289 -27596199.84702301 0 0 0 0 1719885.8541345196 -281304.92390038446 0 -281304.92390038446 -1679241.0212054104 0 0 0 0 12887654.880870104 -7871881.1581573486 0 -7871881.1581573486 -12923623.675811768 0 0 0 0 3319416.9167427421 2066840.2765340805 0 2066840.2765340805 -2893192.5753326416 0 0 0 0 -562549.61228502588 -85638.23069407139 0 -85638.23069407139 -3764285.347216621 0 0 0 0 60686478.936208725 71494536.96471405 0 71494536.96471405 -3591941.9439849854 0 0 0 0 1244975.7301900964 288367.04001486674 0 288367.04001486674 -2861986.2668073587 0 0 0 0 2909111.9339389801 -2055201.365776062 0 -2055201.365776062 -7690886.2573623657 0 0 0 0 69553842.365427017 16323555.110589504 0 16323555.110589504 -33605542.023620605 0 0 0 0 -29450045.86317879 4824009.3753842115 0 4824009.3753842115 -61976427.027481079 0 0 0 0 -3399797.3543319702 -8394446.4002418518 0 -8394446.4002418518 11474562.930183411 0 0 0 0 -122868623.40262604 49033843.463241577 0 49033843.463241577 -16045842.130256653 0 0 0 0 -30488268.381830215 29277676.01285553 0 29277676.01285553 -14857732.198478699 0 0 0 0 -211624415.84636784 -5844014.1178245544 0 -5844014.1178245544 26600612.043823242 0 0 0 0 -212869844.64506531 -18977725.717868805 0 -18977725.717868805 45310968.019309998 0 0 0 0 -78423898.315037727 3915785.5005264282 0 3915785.5005264282 -4442573.4168395996 0 0 0 0 3542618.2423912287 -10644664.264987469 0 -10644664.264987469 -8055952.3077087402 0 0 0 0 -62654717.303444862 67131799.302314758 0 67131799.302314758 44397606.737295151 0 0 0 0 1063472.4230500162 253135.70174152218 0 253135.70174152218 -2154815.9732119739 0 0 0 0 -7605917.830537796 467735.16400146484 0 467735.16400146484 2467880.8694610596 0 0 0 0 1199136.1138733029 498927.8880633302 0 498927.8880633302 -3184050.2398946136 0 0 0 0 16717857.945146561 25296448.736251831 0 25296448.736251831 -16467273.32881546 0 0 0 0 -344399239.09122086 1694957.5304107666 0 1694957.5304107666 20984130.174812317 0 0 0 0 13246943.556974173 4190941.9937772751 0 4190941.9937772751 -53355873.095756531 0 0 0 0 -352181902.51852417 -18188502.818893433 0 -18188502.818893433 46412643.548080444 0 0 0 0 584775.08789804764 81158.705376770347 0 81158.705376770347 -993501.43974380195 0 0 0 0 -10631628.414103508 -21111798.016979456 0 -21111798.016979456 -37175652.922286987 0 0 0 0 -176877879.43825626 12446633.373649597 0 12446633.373649597 35110227.577766418 0 0 0 0 -310995893.97016716 -37950441.726013184 0 -37950441.726013184 16930509.571815491 0 0 0 0 -225131646.46075344 80958911.742015839 0 80958911.742015839 -39703141.67313385 0 0 0 0 -47449411.34353447 92997478.563011169 0 92997478.563011169 33589333.615779877 0 0 0 0 -190273224.24743843 61200721.706298828 0 61200721.706298828 16206804.849378586 0 0 0 0 -203889793.79660606 -14292112.093711853 0 -14292112.093711853 -28302462.944389343 0 0 0 0 -98870077.281035423 -18866579.912136078 0 -18866579.912136078 -28118723.479881287 0 0 0 0 -256114553.44274521 8862711.8234329224 0 8862711.8234329224 32430678.610713959 0 0 0 0 -244861206.02648449 33052804.706855774 0 33052804.706855774 21954627.446502686 0 0 0 0 -266451094.16243744 4837716.8842468262 0 4837716.8842468262 -25722358.128684998 0 0 0 0 -205652103.7733984 -1913853.2294120789 0 -1913853.2294120789 -35494703.810150146 0 0 0 0 -200817149.32374001 -85331483.930877686 0 -85331483.930877686 -193791592.55729866 0 0 0 0 -298025264.43140745 -93881507.163336754 0 -93881507.163336754 -65385628.018692017 0 0 0 0 -208955116.82717896 -122476228.7324295 0 -122476228.7324295 -160876787.9535675 0 0 0 0 -197746793.60115814 -20121057.690872192 0 -20121057.690872192 -64862398.577285767 0 0 0 0 -118358024.66550255 83673795.915493011 0 83673795.915493011 133103516.94857788 0 0 0 0 -193155713.10563564 151247334.65893555 0 151247334.65893555 73436320.286827087 0 0 0 0 -129325785.12236977 -42248508.90221405 0 -42248508.90221405 230172373.7648468 0 0 0 0 -256022995.90949249 -130513155.9420929 0 -130513155.9420929 172716622.03269196 0 0 0 0 -195567632.44596815 -78579734.065387726 0 -78579734.065387726 28045195.349319458 0 0 0 0 -4303020.3890247475 1048772.2710913122 0 1048772.2710913122 330545.14940703288 0 0 0 0 -41768359.156839401 -183586353.47685051 0 -183586353.47685051 333933501.56204224 0 0 0 0 -195352201.85905981 10815400.920778275 0 10815400.920778275 272350704.99225616 0 0 0 0 -12523090.084852219 77111881.857154846 0 77111881.857154846 107914039.7678566 0 0 0 0 47555775.181717873 -171181054.37968063 0 -171181054.37968063 -421753197.63024139 0 0 0 0 -1939543.2443987206 674887.90837035328 0 674887.90837035328 461276.7895948831 0 0 0 0 -143439828.95917892 -101744649.94324875 0 -101744649.94324875 189502972.7996521 0 0 0 0 -26055615.656157136 -340630167.57728326 0 -340630167.57728326 -150842142.18390656 0 0 0 0 -154615660.66990852 -42439966.535030365 0 -42439966.535030365 -121642268.94673157 0 0 0 0 -233075125.92101288 62571271.51776123 0 62571271.51776123 -219944595.58045197 0 0 0 0 87696666.503656387 -75405386.477365494 0 -75405386.477365494 -291619431.45264435 0 0 0 0 -66573133.67190361 165360883.58810425 0 165360883.58810425 -93815283.760162354 0 0 0 0 -208060461.478055 -159077027.84381485 0 -159077027.84381485 77317150.956871033 0 0 0 0 729352.20562300598 175386.72078336962 0 175386.72078336962 -1561422.8976160772 0 0 0 0 -306337989.3140583 68552501.362491608 0 68552501.362491608 -11127648.62959671 0 0 0 0 29231544.817564011 54753499.405612946 0 54753499.405612946 70570043.067223549 0 0 0 0 141785211.54818058 23711927.110900879 0 23711927.110900879 -325982375.59182739 0 0 0 0 63121406.573873043 -4711442.9458713531 0 -4711442.9458713531 -49299779.315895081 0 0 0 0 71630108.878640175 41050621.075912476 0 41050621.075912476 -329630841.42374802 0 0 0 0 -5023196.4789093118 1025207.4691921473 0 1025207.4691921473 -977593.91222447157 0 0 0 0 -32099835.244462967 23792111.599636078 0 23792111.599636078 108162409.77581024 0 0 0 0 107956008.45438433 -207561337.09279633 0 -207561337.09279633 103715714.79647827 0 0 0 0 -249399109.60718155 -245046063.6922226 0 -245046063.6922226 101241860.63087082 0 0 0 0 158762.5721822395 -440345.36397143453 0 -440345.36397143453 -8734497.6683523506 0 0 0 0 123255466.15431841 -166844153.02034283 0 -166844153.02034283 100054995.48381042 0 0 0 0 425349758.80610967 -141571240.03365707 0 -141571240.03365707 -1163242.2710723877 0 0 0 0 385958675.88292289 1075404806.8419113 0 1075404806.8419113 -1733287826.210495 0 0 0 0 -2704400.0753827919 680898.54148985818 0 680898.54148985818 -2196609.4733656049 0 0 0 0 -812450521.09573841 -733486200.57792664 0 -733486200.57792664 895986509.23446274 0 0 0 0 315330855.85698986 -399740479.27946091 0 -399740479.27946091 -138471468.82756042 0 0 0 0 -1176406.422766885 -34743.560661252588 0 -34743.560661252588 -776661.94281644188 0 0 0 0 -152423677.14821637 127240179.43178558 0 127240179.43178558 -76743374.825431824 0 0 0 0 -131803229.49698329 56694301.185054779 0 56694301.185054779 -33897603.145954132 0 0 0 0 36262282.431789637 57641831.227050781 0 57641831.227050781 -52089146.482910156 0 0 0 0 -294597.04193811637 -181216.08495733142 0 -181216.08495733142 -4446254.9286499545 0 0 0 0 -134380184.70826125 64504555.147186279 0 64504555.147186279 -40396365.70539093 0 0 0 0 28398165.375238895 -132055321.63202477 0 -132055321.63202477 -371810836.30667877 0 0 0 0 30645.747346392367 -167935.59647991415 0 -167935.59647991415 -1694154.4321544617 0 0 0 0 -50274018.474704742 275311484.51055336 0 275311484.51055336 -510983039.09246063 0 0 0 0 -146101416.23075163 -407545433.82921219 0 -407545433.82921219 -85919612.413589478 0 0 0 0 37733120.158966064 -40447238.268814087 0 -40447238.268814087 -657228193.85662842 0 0 0 0 -595062378.97287858 234631000.48637581 0 234631000.48637581 -107797925.09049988 0 0 0 0 -251328878.33346856 71149565.051101685 0 71149565.051101685 62559359.489456177 0 0 0 0 -228037749.70943308 51703877.359111786 0 51703877.359111786 -16736879.199867249 0 0 0 0 -37919339.725385904 73959776.101661682 0 73959776.101661682 -149965106.25323677 0 0 0 0 59851188.640568972 -129540727.30054474 0 -129540727.30054474 -134322040.42865705 0 0 0 0 4126648.2294950187 -93482624.642807961 0 -93482624.642807961 -109968368.03822327 0 0 0 0 102331258.68028939 -63653935.035629272 0 -63653935.035629272 -33297005.33001709 0 0 0 0 251627651.91085601 -160507457.35422134 0 -160507457.35422134 -56821265.145301819 0 0 0 0 14990527.975427359 -43848133.488277435 0 -43848133.488277435 5490562.2362213135 0 0 0 0 474536775.09109378 -79596492.753643036 0 -79596492.753643036 -88370050.215759277 0 0 0 0 -83575871.744100094 -192941236.05111027 0 -192941236.05111027 70686169.47933197 0 0 0 0 -333801558.18624091 158165589.35414124 0 158165589.35414124 15606202.24042511 0 0 0 0 -472177296.9881109 -84524910.795373201 0 -84524910.795373201 75660167.548233032 0 0 0 0 -380615924.93505526 348418809.4914856 0 348418809.4914856 -231473849.35237122 0 0 0 0 617758773.18489861 -14666779.968330383 0 -14666779.968330383 -390836389.94116974 0 0 0 0 -366238954.10575968 179265155.43122482 0 179265155.43122482 50044857.291313171 0 0 0 0 -422293601.22158277 11934199.41327095 0 11934199.41327095 -340219357.18430328 0 0 0 0 -91887125.054497004 338598622.71313477 0 338598622.71313477 -92793628.514865875 0 0 0 0 -744990939.99935603 694965217.89445972 0 694965217.89445972 -274721907.48840332 0 0 0 0 393700656.98472452 303785760.98426437 0 303785760.98426437 -201746564.71901321 0 0 0 0 -1557709820.4516554 1523963952.138401 0 1523963952.138401 -674634776.91828918 0 0 0 0 -523307196.11941534 -10389682.705230236 0 -10389682.705230236 -3552.259635925293 0 0 0 0 122306023.96442688 1845133554.5932293 0 1845133554.5932293 -5978521835.2359619 0 0 0 0 -1696731754.8485973 2305695526.2169266 0 2305695526.2169266 -2591980092.8097458 0 0 0 0 787818043.27080417 568028236.13004398 0 568028236.13004398 -5966079965.9180832 0 0 0 0 615782407.94652212 525454963.11886024 0 525454963.11886024 -3154898530.3316574 0 0 0 0 102244490.61601639 882721829.76897049 0 882721829.76897049 -1174973938.0737934 0 0 0 0 495332706.80393499 -1017640140.2536163 0 -1017640140.2536163 875858339.61992645 0 0 0 0 887534.40975646791 367767.43818522245 0 367767.43818522245 -9443281.8579163402 0 0 0 0 789754441.15718555 -879740681.62809753 0 -879740681.62809753 -1516485162.2796078 0 0 0 0 315216373.77037269 1983721811.2339935 0 1983721811.2339935 -5984012370.7201262 0 0 0 0 361856008.32736242 1037143169.5148163 0 1037143169.5148163 -2377533486.4846191 0 0 0 0 671901208.90483856 -297548510.16013336 0 -297548510.16013336 -574338189.80971527 0 0 0 0 330234424.55306315 187051320.12804794 0 187051320.12804794 -301055299.33782959 0 0 0 0 513651173.10789418 -20336142.147789001 0 -20336142.147789001 -115620576.04082489 0 0 0 0 480944195.5618881 344899959.75920868 0 344899959.75920868 -546907788.98635864 0 0 0 0 -35202489.454251051 534304416.53194046 0 534304416.53194046 -390869735.9941597 0 0 0 0 553911890.47268319 -126008560.17382145 0 -126008560.17382145 -1369177474.7452469 0 0 0 0 299728659.10936213 632463049.66471481 0 632463049.66471481 -941743463.45089722 0 0 0 0 223538785.273525 674506567.36150551 0 674506567.36150551 -157484157.09431458 0 0 0 0 537244.23419523588 396958.23810535483 0 396958.23810535483 -4742595.7282559574 0 0 0 0 -1658035757.8967619 -2166328217.5267639 0 -2166328217.5267639 -36659613.116596222 0 0 0 0 133440833.1222868 -294153464.64966583 0 -294153464.64966583 113471226.85531616 0 0 0 0 119848132.20733261 -218207479.37945271 0 -218207479.37945271 -145978189.83839417 0 0 0 0 -100513674.81951904 -153862444.21420288 0 -153862444.21420288 -54806135.3673172 0 0 0 0 -8321223.8034582138 -108229467.67134094 0 -108229467.67134094 -695683890.27444458 0 0 0 0 -166812394.4904747 -365227998.40887833 0 -365227998.40887833 -728513991.40129089 0 0 0 0 242522433.26908493 244037344.52947235 0 244037344.52947235 246703711.69382286 0 0 0 0 220775648.97542667 55468013.806770325 0 55468013.806770325 -792736570.66654968 0 0 0 0 555944689.00672054 641289610.75256348 0 641289610.75256348 -1167939712.2269135 0 0 0 0 522299663.9725399 415968996.26626587 0 415968996.26626587 -524783792.83061218 0 0 0 0 360903298.47340584 -48975656.572158813 0 -48975656.572158813 -1762183505.0238342 0 0 0 0 745245482.80644035 852124201.86849213 0 852124201.86849213 -1340717132.8293304 0 0 0 0 570482641.05562353 914349983.50624466 0 914349983.50624466 -381236629.29650879 0 0 0 0 -704119462.44712675 -1091977000.3276939 0 -1091977000.3276939 -811631688.04283142 0 0 0 0 553073846.44830179 658252917.5446701 0 658252917.5446701 -560140827.16732788 0 0 0 0 1116531.2397156139 1794178.4102829946 0 1794178.4102829946 -13127948.634242877 0 0 0 0 794422.26651913382 -620383.01294900477 0 -620383.01294900477 -4873836.7764012441 0 0 0 0 844963512.1800108 -288037455.97994995 0 -288037455.97994995 -2293363206.1577225 0 0 0 0 539774398.0171082 19392816.005533218 0 19392816.005533218 -69118694.466629028 0 0 0 0 587469569.43339527 -384061413.54497528 0 -384061413.54497528 114699304.95043182 0 0 0 0 952736.45530091599 66358.241551093757 0 66358.241551093757 -11791874.077141073 0 0 0 0 -467259191.56660265 -1529544490.2287674 0 -1529544490.2287674 -4046122957.6578293 0 0 0 0 -706333443.40626943 -1368364315.1699142 0 -1368364315.1699142 -1946572681.765152 0 0 0 0 438342954.60505259 -236172267.75656128 0 -236172267.75656128 -5973530696.8096848 0 0 0 0 -1903627384.1435771 4026817170.9456449 0 4026817170.9456449 -2745800915.8123169 0 0 0 0 -856481.85184371483 -992891.71099452674 0 -992891.71099452674 -8783990.945661597 0 0 0 0 -2252586001.1140757 1630143084.2599869 0 1630143084.2599869 -850511386.06100464 0 0 0 0 570971268.35136986 -2157707736.3996811 0 -2157707736.3996811 1324213970.2672119 0 0 0 0 -1476620.4382008612 261260.2513368167 0 261260.2513368167 -7192968.1390939057 0 0 0 0 -1589239844.5869946 -1635804293.455368 0 -1635804293.455368 -424398516.62405419 0 0 0 0 1613154736.5055718 767567080.93846703 0 767567080.93846703 -4710262099.7502899 0 0 0 0 -2424175020.9522862 -1455296650.5245819 0 -1455296650.5245819 2558825286.3635559 0 0 0 0 -1487818057.0262208 2321542948.5852966 0 2321542948.5852966 -3588974830.4125519 0 0 0 0 -2730899772.3303127 2682797097.3442917 0 2682797097.3442917 -4924633411.6492462 0 0 0 0 -795739716.42907095 2235043139.4401703 0 2235043139.4401703 -5972378860.0706139 0 0 0 0 -552084525.655195 1400442218.4835892 0 1400442218.4835892 -4774096812.8265381 0 0 0 0 15020229.637459427 1444827807.3908463 0 1444827807.3908463 -4132207581.9939423 0 0 0 0 -482555466.70487988 1912215744.3532333 0 1912215744.3532333 -4488202326.1978912 0 0 0 0 -668131123.56351423 1480796463.8089142 0 1480796463.8089142 -4231072437.0136414 0 0 0 0 -1295807790.6721544 1671200845.6825943 0 1671200845.6825943 -1434869976.5525055 0 0 0 0 -638776433.1229887 347864848.37783813 0 347864848.37783813 -281583394.14675903 0 0 0 0 -2369079789.3942595 -703739150.52540588 0 -703739150.52540588 1283731216.1636047 0 0 0 0 -2195543.2381356172 -2585243.9505578838 0 -2585243.9505578838 -6320720.6223492473 0 0 0 0 -2280467.2200358608 -613427.11511266232 0 -613427.11511266232 -2243865.7320093326 0 0 0 0 544067062.8803544 355321409.22666168 0 355321409.22666168 -2551088315.3219147 0 0 0 0 -1884123699.2377739 -2123922889.8588562 0 -2123922889.8588562 2329593430.7276421 0 0 0 0 -567034944.50684357 -1018004026.8664856 0 -1018004026.8664856 -2176127165.2935753 0 0 0 0 -394235897.49881744 -1434137347.7869568 0 -1434137347.7869568 -1395140642.3987732 0 0 0 0 -739557979.17410469 1559190623.0407944 0 1559190623.0407944 -20235232.03401947 0 0 0 0 -2116335394.5572295 -470538791.49186707 0 -470538791.49186707 -292480722.55747986 0 0 0 0 -350611766.38214302 165008008.68097687 0 165008008.68097687 -163877448.08579063 0 0 0 0 -787569076.18545532 -170998920.55174255 0 -170998920.55174255 21800493.543258667 0 0 0 0 -283598921.63364601 46123111.973602295 0 46123111.973602295 40744268.599227905 0 0 0 0 73966727.271031022 -34716101.708572388 0 -34716101.708572388 -835818599.34338379 0 0 0 0 488574303.4486351 29009231.440971375 0 29009231.440971375 -518861117.87359619 0 0 0 0 -4893172.9819453973 -6234536.6652535908 0 -6234536.6652535908 -16130149.005754285 0 0 0 0 667592909.08825994 652922714.09877074 0 652922714.09877074 203094433.95194244 0 0 0 0 519935322.2273941 533919560.0966835 0 533919560.0966835 388992926.13266754 0 0 0 0 698475.14425477944 3060057.8289989298 0 3060057.8289989298 -8644579.067423936 0 0 0 0 480808263.65788734 362122090.14988279 0 362122090.14988279 59944643.892559052 0 0 0 0 478242753.01847458 99777074.211494446 0 99777074.211494446 19623429.945350647 0 0 0 0 440065804.47590637 458703081.14379692 0 458703081.14379692 733524877.69083023 0 0 0 0 255078114.50506592 180490212.80576706 0 180490212.80576706 -14701933.349250793 0 0 0 0 307118921.30007172 204936402.78593445 0 204936402.78593445 36552432.181510925 0 0 0 0 118988114.62539673 123040315.51219559 0 123040315.51219559 54837918.442463875 0 0 0 0 177508069.34981489 46607138.899094582 0 46607138.899094582 -81485186.629768372 0 0 0 0 81069977.192922592 79509413.59280777 0 79509413.59280777 40761822.262767792 0 0 0 0 53325025.484942794 -131402907.19559884 0 -131402907.19559884 -74086834.163574219 0 0 0 0 40506144.250478745 -7720782.9037303925 0 -7720782.9037303925 75284535.846616745 0 0 0 0 206261438.70859146 4834242.2126054764 0 4834242.2126054764 44194323.975502014 0 0 0 0 306822689.46358109 101847109.25331879 0 101847109.25331879 22775343.240613937 0 0 0 0 256129715.51559258 145493669.67468071 0 145493669.67468071 214377073.11994934 0 0 0 0 261488688.54410172 157847054.35854721 0 157847054.35854721 146105322.22124863 0 0 0 0 479931491.38522816 219943869.56403351 0 219943869.56403351 51904188.737960815 0 0 0 0 229321526.70232868 -27485442.938081741 0 -27485442.938081741 11459396.399028778 0 0 0 0 268993833.02630806 60600634.795211792 0 60600634.795211792 59612459.93935585 0 0 0 0 135278731.04184532 140711168.21283448 0 140711168.21283448 -170761657.52363873 0 0 0 0 582427742.80941677 -7736870.8490359783 0 -7736870.8490359783 -659050345.20643282 0 0 0 0 961251.53907605447 4977355.286850702 0 4977355.286850702 -13153114.108896332 0 0 0 0 313420176.4567852 61511561.925197601 0 61511561.925197601 180331765.2226181 0 0 0 0 727815898.51825333 124411229.39388371 0 124411229.39388371 402317678.84335709 0 0 0 0 -370982648.24586487 -65623835.74499321 0 -65623835.74499321 814420004.11077571 0 0 0 0 -50203.977025125176 244261.49703616765 0 244261.49703616765 -219316.94596864493 0 0 0 0 20305018.972076416 -649979448.77849388 0 -649979448.77849388 -421279693.75421524 0 0 0 0 -408830809.25947571 -448635949.79475403 0 -448635949.79475403 -835955725.39628792 0 0 0 0 46090942.117874146 -65747794.917630196 0 -65747794.917630196 -634440716.31646347 0 0 0 0 -117091417.81728363 82339431.96578455 0 82339431.96578455 -298669130.07690811 0 0 0 0 73289570.042396545 -215205944.19197464 0 -215205944.19197464 -601811995.34871149 0 0 0 0 3310725.3325415961 -1406251.2464147764 0 -1406251.2464147764 -517935.26863445027 0 0 0 0 -97371588.600379944 -29384742.592151642 0 -29384742.592151642 -179815778.56173897 0 0 0 0 24205787.921897888 -19677089.169216156 0 -19677089.169216156 -529159892.36199379 0 0 0 0 -9356797.0946388245 -5541415.8333859444 0 -5541415.8333859444 -291186524.28348541 0 0 0 0 -20916026.256713867 -76269150.661766052 0 -76269150.661766052 -346134212.47913742 0 0 0 0 -5256002.4166412354 -1817708.9720745087 0 -1817708.9720745087 -373518765.2878089 0 0 0 0 3166924.8044815063 -16655942.97351265 0 -16655942.97351265 -140043713.23573399 0 0 0 0 -28513118.916278839 -87718408.800358772 0 -87718408.800358772 -139834179.83392715 0 0 0 0 -21079528.760574341 -69584860.174417496 0 -69584860.174417496 -268281648.29357243 0 0 0 0 8615755.2133216858 -283836525.51272488 0 -283836525.51272488 -465421362.99126005 0 0 0 0 -33278523.370445251 -19672192.541296959 0 -19672192.541296959 -527099581.08023262 0 0 0 0 151396656.82755089 -19537523.519665956 0 -19537523.519665956 -236924698.04150867 0 0 0 0 53437021.453346252 -145428315.4218092 0 -145428315.4218092 -297219591.70164967 0 0 0 0 -55055744.998168945 -30381095.190175056 0 -30381095.190175056 43107612.757987022 0 0 0 0 -4063140.526550293 -191392175.23497677 0 -191392175.23497677 -63275498.250309944 0 0 0 0 -129576912.49671173 -251149020.12688875 0 -251149020.12688875 -239382567.85596371 0 0 0 0 -116497624.3993628 11211791.34625046 0 11211791.34625046 -232144296.39055347 0 0 0 0 10986709.667602539 3040320.3691881895 0 3040320.3691881895 -2158883.4176771641 0 0 0 0 3102120.1873531342 -19309518.305796981 0 -19309518.305796981 18252420.074404955 0 0 0 0 16129711.549144745 -856529.84677195549 0 -856529.84677195549 -13663166.237527251 0 0 0 0 13174658.610061646 -2793244.1230680943 0 -2793244.1230680943 -5966059.5884082317 0 0 0 0 -657950.52430624329 2897519.8946631574 0 2897519.8946631574 -4437899.743674635 0 0 0 0 232253555.129776 1189518168.4958649 0 1189518168.4958649 -342960854.81633759 0 0 0 0 1428898025.6583214 -426251237.51582241 0 -426251237.51582241 593559602.32361221 0 0 0 0 709677.9176975498 629943.04943154566 0 629943.04943154566 -3177360.3237730172 0 0 0 0 9579013.2159080505 476358.75906932354 0 476358.75906932354 11840111.528475761 0 0 0 0 54319023.110988617 13421649.981241822 0 13421649.981241822 10623751.137426898 0 0 0 0 9835650.6457366943 -32159323.504706383 0 -32159323.504706383 11165717.301868081 0 0 0 0 35995359.543312073 -21929978.394178867 0 -21929978.394178867 -6375158.8704662323 0 0 0 0 47894980.298206329 -29398545.13335526 0 -29398545.13335526 -21305307.181434631 0 0 0 0 14465115.46331501 -36348502.718914509 0 -36348502.718914509 -15961816.101199627 0 0 0 0 40403522.97202301 -33639383.901942015 0 -33639383.901942015 -41741379.065646648 0 0 0 0 70381018.829017639 -19345244.183153629 0 -19345244.183153629 -40700088.144845009 0 0 0 0 41802569.478167534 -26542688.422535717 0 -26542688.422535717 -17898930.066238403 0 0 0 0 42671238.964569092 -45626021.240171432 0 -45626021.240171432 -3371615.4448995497 0 0 0 0 94815252.825145721 -48151831.549481034 0 -48151831.549481034 -42786458.885780334 0 0 0 0 325923.29256439209 -9871500.9562425613 0 -9871500.9562425613 -28403463.755412102 0 0 0 0 50204575.65555191 -41054203.961129427 0 -41054203.961129427 -35061286.214851379 0 0 0 0 15049781.233352661 -16062657.307937145 0 -16062657.307937145 -35275534.173548341 0 0 0 0 13493029.425340652 12143886.288094401 0 12143886.288094401 -74626307.409758568 0 0 0 0 14906830.135650635 -21526851.437510967 0 -21526851.437510967 -50309719.0436759 0 0 0 0 109457097.52671051 170005.17345917225 0 170005.17345917225 -39340314.451269627 0 0 0 0 253653564.86506248 -114351101.98235536 0 -114351101.98235536 -783337577.53470993 0 0 0 0 802079970.60358429 1042516603.0029831 0 1042516603.0029831 -1467179399.7522125 0 0 0 0 -324090.08958588354 2531747.7324226219 0 2531747.7324226219 -6423040.0510566821 0 0 0 0 -958358737.63109589 1316411653.2012672 0 1316411653.2012672 1905415608.3575263 0 0 0 0 -263723623.13354683 1112048267.5624609 0 1112048267.5624609 -992500716.23369598 0 0 0 0 293820926.17496109 199817354.99850082 0 199817354.99850082 -1309962585.6345024 0 0 0 0 182387512.9423027 31291297.271272659 0 31291297.271272659 -592154855.04750633 0 0 0 0 125941169.99101257 -100931802.52721024 0 -100931802.52721024 -737069268.62717819 0 0 0 0 -64994863.954883575 -238787764.07168961 0 -238787764.07168961 -372348732.8508091 0 0 0 0 121510267.93057394 -31579968.948829889 0 -31579968.948829889 -674121188.44456863 0 0 0 0 271932064.20730972 -127189495.29603767 0 -127189495.29603767 -614023580.08633614 0 0 0 0 319225125.2711525 -38187338.616592407 0 -38187338.616592407 -855452100.61835861 0 0 0 0 312586623.3393054 75290549.208654165 0 75290549.208654165 -719450092.07715607 0 0 0 0 260403469.7228446 -195050321.08558655 0 -195050321.08558655 -315473031.16420746 0 0 0 0 210888018.14354706 -225862933.99546814 0 -225862933.99546814 -222856775.85467148 0 0 0 0 160143854.89408493 30894617.49439621 0 30894617.49439621 -444562257.43478012 0 0 0 0 24628194.243017197 32470130.652561188 0 32470130.652561188 88428992.828865051 0 0 0 0 145491799.98033905 99531471.256351471 0 99531471.256351471 -35383579.044288635 0 0 0 0 164277824.21342468 -194361454.69323349 0 -194361454.69323349 163118024.8036499 0 0 0 0 156398820.05893326 324850591.83202744 0 324850591.83202744 347102611.35604095 0 0 0 0 47373892.842605591 -22861461.717277527 0 -22861461.717277527 405188357.97031307 0 0 0 0 -104301784.38305092 -66307154.278564453 0 -66307154.278564453 -84183113.541549683 0 0 0 0 -56706191.095411539 -171916996.51352453 0 -171916996.51352453 -378653105.08944321 0 0 0 0 -111315650.33905029 -17037924.236158371 0 -17037924.236158371 -63327957.711680889 0 0 0 0 79211402.530657768 59667680.245516777 0 59667680.245516777 -258565149.55311203 0 0 0 0 26372021.944355011 -143984236.71460438 0 -143984236.71460438 -370737010.69600677 0 0 0 0 -447553325.68316603 -243513736.07485962 0 -243513736.07485962 -365946545.91657639 0 0 0 0 11952372.389356136 19046201.563667297 0 19046201.563667297 -724457751.50775146 0 0 0 0 -246098800.10079098 121658681.15293407 0 121658681.15293407 -611146163.35852814 0 0 0 0 119849273.01702809 -79724727.417723119 0 -79724727.417723119 -1005079183.5926323 0 0 0 0 -168359951.87158108 -458051202.84891796 0 -458051202.84891796 -829259095.99069977 0 0 0 0 -44164421.796693325 -208687014.17356873 0 -208687014.17356873 -651091909.96721077 0 0 0 0 14531059.568586349 -222846437.29287243 0 -222846437.29287243 -653346643.40252686 0 0 0 0 -50079692.424871445 -389487305.46641922 0 -389487305.46641922 -888784780.29796171 0 0 0 0 -109432879.53735805 165902411.7469902 0 165902411.7469902 -155932994.40898609 0 0 0 0 749840.13673669368 -294974.63230407913 0 -294974.63230407913 -1007031.8409055844 0 0 0 0 -96615302.64724654 -300162913.86100197 0 -300162913.86100197 -239775403.56741142 0 0 0 0 -266075354.03144455 -256773223.18862247 0 -256773223.18862247 -176903577.91739273 0 0 0 0 -182095346.34523535 -331893510.20625687 0 -331893510.20625687 -251492464.89852142 0 0 0 0 -142241926.24287081 -100513738.92359352 0 -100513738.92359352 -488928680.45138359 0 0 0 0 -113586248.10992339 -256346751.31326038 0 -256346751.31326038 -152205020.0151062 0 0 0 0 223660298.21827745 -30326633.528586388 0 -30326633.528586388 -126325146.64525223 0 0 0 0 1455131.4808740935 -3100272.1710638581 0 -3100272.1710638581 -28038150.069700502 0 0 0 0 119228285.22337961 30410284.3309412 0 30410284.3309412 -104549920.60346985 0 0 0 0 17787688.293689847 -48468117.777079582 0 -48468117.777079582 -502634012.64684677 0 0 0 0 16962157.935542107 -22454071.51558876 0 -22454071.51558876 -69022922.317991257 0 0 0 0 -70697130.580132484 -197547425.09834671 0 -197547425.09834671 -94230786.134065449 0 0 0 0 -160788900.47775078 -135612751.8848896 0 -135612751.8848896 -17742708.715749741 0 0 0 0 642378.34933217103 -3013181.3093910883 0 -3013181.3093910883 -25627620.128290258 0 0 0 0 26820516.854981147 -142048313.1828303 0 -142048313.1828303 -84690975.91696167 0 0 0 0 -62240150.918675125 -217566332.27684116 0 -217566332.27684116 -48306387.086204529 0 0 0 0 -211862192.38784802 -266491986.24213982 0 -266491986.24213982 -57374313.779914856 0 0 0 0 -356232343.2597065 -121188394.61172485 0 -121188394.61172485 62368427.721128464 0 0 0 0 -59257.548840547992 -2268299.3591550696 0 -2268299.3591550696 -22110686.658191942 0 0 0 0 109244463.27859879 -200287354.44346619 0 -200287354.44346619 -52016836.39302063 0 0 0 0 -132015753.36732769 -141851465.74489594 0 -141851465.74489594 -36309990.021018982 0 0 0 0 -84624182.481284559 -300727477.34305549 0 -300727477.34305549 -95697885.281005859 0 0 0 0 -161410434.47896731 -205732319.54469872 0 -205732319.54469872 -153766637.6708889 0 0 0 0 -52984974.212949038 -231788027.9150753 0 -231788027.9150753 -38764368.292938232 0 0 0 0 -150439815.0957619 -337157466.95844364 0 -337157466.95844364 21081613.08367157 0 0 0 0 -156253751.49118143 -275871754.90649414 0 -275871754.90649414 8291810.6033363342 0 0 0 0 244801338.59524918 -197574249.63385391 0 -197574249.63385391 -18589688.641788483 0 0 0 0 -77274940.286142826 -230286395.01062584 0 -230286395.01062584 2536786.4935340881 0 0 0 0 181093883.96015251 -146962534.42097378 0 -146962534.42097378 -39860155.341705322 0 0 0 0 505995181.36052561 -32009257.640954971 0 -32009257.640954971 -37484390.750473022 0 0 0 0 -102574988.05898368 -353322651.32908249 0 -353322651.32908249 30388666.993415833 0 0 0 0 301438098.51741141 -385673307.66763401 0 -385673307.66763401 -80930909.224880219 0 0 0 0 298762763.70074153 -268455745.60381699 0 -268455745.60381699 -55089900.330439568 0 0 0 0 -295061062.4955281 -725675775.59239006 0 -725675775.59239006 -28669124.91835022 0 0 0 0 1772331894.4834423 -349793009.86105347 0 -349793009.86105347 -249993775.06701088 0 0 0 0 869870693.93184948 181186394.06082201 0 181186394.06082201 -34549116.501838684 0 0 0 0 1712656387.9647627 909469247.15269732 0 909469247.15269732 396877844.29216003 0 0 0 0 573607559.86983252 -465631667.24756241 0 -465631667.24756241 -164836433.07027435 0 0 0 0 -554274676.57053399 -22412153.839902878 0 -22412153.839902878 25184409.237663269 0 0 0 0 -460475289.7354815 -384840743.68703651 0 -384840743.68703651 139489690.47412109 0 0 0 0 -515631534.85504282 -210250053.87716293 0 -210250053.87716293 -60810917.667430878 0 0 0 0 -942787.62813520164 -1326814.4464145971 0 -1326814.4464145971 -17142440.413973562 0 0 0 0 -499834656.00449896 -89065114.671445847 0 -89065114.671445847 -111346963.25814819 0 0 0 0 -1161759363.6027884 58573683.316265106 0 58573683.316265106 101585908.16091156 0 0 0 0 -1119294870.3006783 -888638942.63597465 0 -888638942.63597465 -821538691.12026978 0 0 0 0 -97118713.487894773 -114787595.37093735 0 -114787595.37093735 -2568102375.4424019 0 0 0 0 623793484.21883225 -57570400.799104691 0 -57570400.799104691 -2589172024.4893341 0 0 0 0 -2601114458.3290009 -2081795218.2044392 0 -2081795218.2044392 -2028171021.4798393 0 0 0 0 24994903.807772215 -1521192250.5505819 0 -1521192250.5505819 -5974249211.0941048 0 0 0 0 -1947200.2792358466 -670286.28889020532 0 -670286.28889020532 -7130152.7310160734 0 0 0 0 2093725782.9830885 105600929.70452881 0 105600929.70452881 -428761538.65385056 0 0 0 0 632058827.62857008 709150276.7414875 0 709150276.7414875 292003775.71518707 0 0 0 0 5299679.5813654447 -910202.08167542238 0 -910202.08167542238 -11230202.871454068 0 0 0 0 703215623.09408343 -128366048.79046822 0 -128366048.79046822 -1573545348.5786009 0 0 0 0 2076218397.1664774 -85589816.253802061 0 -85589816.253802061 -25256653.625427246 0 0 0 0 1525162.6476327158 360719.64476465806 0 360719.64476465806 -1983119.3204911128 0 0 0 0 476726224.14227843 -335160777.41937065 0 -335160777.41937065 434506180.36689377 0 0 0 0 440270394.80662084 -105583692.70363617 0 -105583692.70363617 -996007187.74155807 0 0 0 0 -170938627.25635815 -17843198.359054565 0 -17843198.359054565 -832412784.45815086 0 0 0 0 1448776658.8741529 597575618.96661282 0 597575618.96661282 -5977166046.9702339 0 0 0 0 1129573846.5139537 2616357193.7617798 0 2616357193.7617798 -2857813230.6805787 0 0 0 0 773599663.74544144 552485206.24806118 0 552485206.24806118 -2775373897.6421204 0 0 0 0 3786452.1715609608 -887630.24382345937 0 -887630.24382345937 -6042332.6886525471 0 0 0 0 15916673.029892646 -2332275367.0408001 0 -2332275367.0408001 -5978805110.9830246 0 0 0 0 930283482.99041915 2624650289.9788942 0 2624650289.9788942 -952119089.95617676 0 0 0 0 420455803.89805752 -124135886.83953285 0 -124135886.83953285 -1564451735.4795876 0 0 0 0 372697797.22469842 -311336535.49891853 0 -311336535.49891853 -1537876071.0693207 0 0 0 0 424866481.8475365 908752932.08760166 0 908752932.08760166 -5971750356.7910147 0 0 0 0 -904859102.1904037 1215538910.2693205 0 1215538910.2693205 -818091228.75167465 0 0 0 0 16454536.297327876 -158574845.88855457 0 -158574845.88855457 -802057900.4553299 0 0 0 0 -560715316.92630494 459689084.56764507 0 459689084.56764507 143792450.04596424 0 0 0 0 590110305.94155622 -290455839.57545471 0 -290455839.57545471 -1541000575.2062199 0 0 0 0 77083399.118221283 -49544860.415166378 0 -49544860.415166378 4421068.1995382309 0 0 0 0 10970260.716831859 -6489448.0205736207 0 -6489448.0205736207 -3820714.5242153844 0 0 0 0 690210713.80235672 239039088.66118622 0 239039088.66118622 3519563.03814888 0 0 0 0 2665850.7076895619 5917159.2584775845 0 5917159.2584775845 -16454751.169274185 0 0 0 0 -32596447.269371271 43045206.898205042 0 43045206.898205042 31201761.290868759 0 0 0 0 -6820390.8981473446 -37369295.883313417 0 -37369295.883313417 61814419.009257317 0 0 0 0 -20785881.64166832 35857447.445680737 0 35857447.445680737 -16734633.079673767 0 0 0 0 -24052360.439949036 64986922.80592823 0 64986922.80592823 -162480878.77715063 0 0 0 0 356023480.39196491 43661180.629047394 0 43661180.629047394 34868935.20306015 0 0 0 0 447527355.92064667 38592809.583744049 0 38592809.583744049 -3641433.8547172546 0 0 0 0 12821127.812539101 2143084.6486505866 0 2143084.6486505866 13099692.866631508 0 0 0 0 196023169.90765381 34747740.142452478 0 34747740.142452478 -33423882.792116165 0 0 0 0 1036295.1110176973 -237868.38226792589 0 -237868.38226792589 49786.745908953249 0 0 0 0 -76274842.708503723 56371175.923664093 0 56371175.923664093 -67442702.582627296 0 0 0 0 -70716167.728481293 45236143.778641701 0 45236143.778641701 47154664.848499298 0 0 0 0 12757592.726597227 -7494213.5016691582 0 -7494213.5016691582 -3348511.7017135816 0 0 0 0 -14119255.590408325 -34758531.090576172 0 -34758531.090576172 11485616.81268692 0 0 0 0 -107327460.49238586 10394626.531180382 0 10394626.531180382 -14275678.864442825 0 0 0 0 113471885.86304951 -120058351.04424381 0 -120058351.04424381 127715852.7967453 0 0 0 0 5459197.7995548444 5176876.0417209044 0 5176876.0417209044 -15294806.057691941 0 0 0 0 15809381.793050528 8585000.6069070697 0 8585000.6069070697 -14319432.919201851 0 0 0 0 9680646.2556877136 6575595.8221529722 0 6575595.8221529722 -9881186.4346209764 0 0 0 0 17512355.928620338 1633925.8952921778 0 1633925.8952921778 -18293003.569708213 0 0 0 0 3369705.5242892322 5718612.1579941884 0 5718612.1579941884 -11162258.884884594 0 0 0 0 437789220.77617788 289580208.47475433 0 289580208.47475433 -692119085.33271122 0 0 0 0 -54010339.887054682 -169743927.10297298 0 -169743927.10297298 133276149.48847771 0 0 0 0 -452915664.95799613 101942898.14574122 0 101942898.14574122 616159614.88535309 0 0 0 0 6234200.5109332204 2868793.2771644681 0 2868793.2771644681 570309.03702992294 0 0 0 0 -966554.19565773557 846827.40151420841 0 846827.40151420841 -10409944.754895234 0 0 0 0 1399418.6564852858 2328676.7674446106 0 2328676.7674446106 -5976756899.1267462 0 0 0 0 11780979.827669144 4173277.4724340737 0 4173277.4724340737 -17382888.925955534 0 0 0 0 6984554.0984740555 784012.66057554842 0 784012.66057554842 -9913372.8045258168 0 0 0 0 -665504069.51478553 -1883454753.7334747 0 -1883454753.7334747 -5317882566.7126522 0 0 0 0 -16745491.796961736 -1072108405.2387524 0 -1072108405.2387524 -5976080358.2553482 0 0 0 0 6727602.856851453 974690.11328316736 0 974690.11328316736 -8839828.150356954 0 0 0 0 879290.25223759376 -491254013.77183437 0 -491254013.77183437 -4186341354.6752582 0 0 0 0 -421879564.05290163 -2118263259.0291805 0 -2118263259.0291805 -5984072664.8567266 0 0 0 0 687033.79519070941 354826.16455194075 0 354826.16455194075 -5918446.255067613 0 0 0 0 -648452582.18553782 -825123807.47939968 0 -825123807.47939968 -3302699490.315258 0 0 0 0 2432415.5758724213 -3919240.4710838795 0 -3919240.4710838795 -25981391.313343763 0 0 0 0 6792343.9507522583 -1174380.1815152168 0 -1174380.1815152168 -25435471.50918591 0 0 0 0 5465299.1324605942 -2821601.5647980571 0 -2821601.5647980571 -17690020.947467804 0 0 0 0 11346010.989780426 6330068.6581375599 0 6330068.6581375599 -23216326.973395228 0 0 0 0 1133578730.3109391 -474164839.07920647 0 -474164839.07920647 -5982328499.4782476 0 0 0 0 1100542223.3759482 224781313.48698235 0 224781313.48698235 -5408865520.2653084 0 0 0 0 886597102.42681599 -1893940494.2843704 0 -1893940494.2843704 -6268448946.6439972 0 0 0 0 -338775554.63004673 -1779750234.6300478 0 -1779750234.6300478 -6019840520.9626055 0 0 0 0 338660.86937198101 427488.96649177279 0 427488.96649177279 -3023891.2907424653 0 0 0 0 325159558.71360898 45754167.353412628 0 45754167.353412628 -4014251314.0472231 0 0 0 0 60002786.84530127 -1187405569.2470474 0 -1187405569.2470474 -4202106999.0346279 0 0 0 0 10890915.967521667 5676437.9305392504 0 5676437.9305392504 -39030118.014988422 0 0 0 0 6886399.4805578524 2841717.6468445603 0 2841717.6468445603 -9945814.5421845634 0 0 0 0 -2014155.599067688 6008976.1279221773 0 6008976.1279221773 -31951777.147837579 0 0 0 0 9409926.0859045982 -1114019.7843304873 0 -1114019.7843304873 -32449219.456612587 0 0 0 0 -1027990063.7559409 543779489.99932098 0 543779489.99932098 -2662215868.7800293 0 0 0 0 7924437.4025817746 4764632.5855241865 0 4764632.5855241865 -12384277.132392466 0 0 0 0 6760902.1977477074 3413070.2232702374 0 3413070.2232702374 -22482668.219872952 0 0 0 0 2873676.5275917053 -8717841.4851531982 0 -8717841.4851531982 -7758404.3052575588 0 0 0 0 9845984.5685806274 -11551759.320174694 0 -11551759.320174694 -26812041.794413567 0 0 0 0 810919.46931696218 -91455.364882451482 0 -91455.364882451482 -118798.37094183546 0 0 0 0 9584937.3695087433 36544.505525827408 0 36544.505525827408 -4563480.5674204826 0 0 0 0 2458614.8709464124 -13843.433745129034 0 -13843.433745129034 -219792.10135330819 0 0 0 0 7813633.2419142723 4766559.2237950563 0 4766559.2237950563 -1132688.5390043259 0 0 0 0 24144283.8671875 -10524699.643405914 0 -10524699.643405914 -6660657.9454884529 0 0 0 0 5515004.7011910016 4058533.495009379 0 4058533.495009379 -5698947.0036013778 0 0 0 0 25241557.813367575 54407280.525498599 0 54407280.525498599 -94966734.463220596 0 0 0 0 6951478.7995281219 8610536.3282222748 0 8610536.3282222748 -12246756.802473307 0 0 0 0 7519711.4002571106 10781634.859525204 0 10781634.859525204 -37578757.981324434 0 0 0 0 -6846955.524310112 16476296.585703433 0 16476296.585703433 -6565808.3571810722 0 0 0 0 1643496.4413509369 6799696.3106806278 0 6799696.3106806278 258493.94838619232 0 0 0 0 5642685.0163898468 3211834.7303295135 0 3211834.7303295135 -1553814.3322938681 0 0 0 0 8723676.3211174011 9301014.8741810322 0 9301014.8741810322 -12763054.247567892 0 0 0 0 8761539.6557664871 8549369.8333524466 0 8549369.8333524466 -7331213.4902563095 0 0 0 0 7482076.8280129544 3124267.9051490859 0 3124267.9051490859 -8290909.2280194107 0 0 0 0 -52035150.8021698 -4700737.8150305748 0 -4700737.8150305748 12412634.141682267 0 0 0 0 43739240.756409645 -47122336.281824827 0 -47122336.281824827 -229794840.65582657 0 0 0 0 2441682.2906180657 -910792.24324883521 0 -910792.24324883521 -285743.35623638355 0 0 0 0 1457136.0847148895 -24049529.769072831 0 -24049529.769072831 35551073.661226749 0 0 0 0 -103434830.21245193 -127004287.77711058 0 -127004287.77711058 -186726035.21352255 0 0 0 0 43528897.111272812 -117497791.98928595 0 -117497791.98928595 -486483122.71531272 0 0 0 0 77808259.109798431 -95055142.393291235 0 -95055142.393291235 -387161929.1133461 0 0 0 0 61229352.257164001 -138877294.59013128 0 -138877294.59013128 -268551790.34223306 0 0 0 0 -1933284.6698417664 -88244477.131795406 0 -88244477.131795406 -125892507.63111401 0 0 0 0 -88606791.642531633 6297497.7965758741 0 6297497.7965758741 -222603050.03070354 0 0 0 0 56819711.41784668 -58935452.284435272 0 -58935452.284435272 -277511131.44434357 0 0 0 0 64241693.757423401 -10111794.727420807 0 -10111794.727420807 -214380763.25730133 0 0 0 0 21589629.20117569 20329573.01514101 0 20329573.01514101 -92716159.809278488 0 0 0 0 17345195.359050751 -19808097.051430225 0 -19808097.051430225 -47118613.038929939 0 0 0 0 6656663.1375846863 6357239.2529861927 0 6357239.2529861927 -564935.3577311039 0 0 0 0 -10732550.797925949 50014936.834137201 0 50014936.834137201 -83019122.682829857 0 0 0 0 7086349.8358627381 2323646.1968170358 0 2323646.1968170358 -6816799.671637903 0 0 0 0 6713228.082359314 -2108520.9029092789 0 -2108520.9029092789 -15130782.231258392 0 0 0 0 856483.53173762187 130599.78418058995 0 130599.78418058995 -875016.80366110522 0 0 0 0 8104287.2433509827 2697008.428185463 0 2697008.428185463 694693.58400917053 0 0 0 0 2836573.5409183502 1664746.3699705005 0 1664746.3699705005 -1984687.0471684933 0 0 0 0 26381290.325282097 23834207.446207285 0 23834207.446207285 -30802446.566779137 0 0 0 0 3106596.8629051391 3764712.4980882499 0 3764712.4980882499 -1982826.3441015291 0 0 0 0 3099029.2502762862 4028837.7382476591 0 4028837.7382476591 -2213716.0854301122 0 0 0 0 -14118986.05291748 21822349.822575569 0 21822349.822575569 -63974690.374479294 0 0 0 0 4463966.3121329006 2449485.5392207438 0 2449485.5392207438 -4150146.2590062083 0 0 0 0 -89214329.933486938 39586573.223280907 0 39586573.223280907 30868612.635024071 0 0 0 0 -77045401.854752064 126306934.83127078 0 126306934.83127078 -19578034.326014519 0 0 0 0 -97960588.213043213 66181567.673667073 0 66181567.673667073 -41320141.301580548 0 0 0 0 -144286911.13187695 90618185.83601737 0 90618185.83601737 -18289004.721749306 0 0 0 0 1145862.2885276638 1112784.5023804856 0 1112784.5023804856 -1139168.5633586214 0 0 0 0 -125927204.6866951 53980465.38599962 0 53980465.38599962 7742748.6273772717 0 0 0 0 2124721.4143871428 1924457.2980239941 0 1924457.2980239941 -3609317.2592412392 0 0 0 0 -172941983.58763981 -229455101.27453661 0 -229455101.27453661 -88721425.979532242 0 0 0 0 -33500368.326469421 -14617950.316545486 0 -14617950.316545486 -78770502.074264526 0 0 0 0 -131963663.77000046 -108280848.71672058 0 -108280848.71672058 -164584731.61056614 0 0 0 0 -23409558.556587219 -62325119.298037529 0 -62325119.298037529 -185556569.60875893 0 0 0 0 74959126.432918549 -184233238.87655616 0 -184233238.87655616 -160482820.3313117 0 0 0 0 -481680744.45251179 -276802111.23022473 0 -276802111.23022473 -206955341.08345056 0 0 0 0 -12628758.438976288 -315000249.25624061 0 -315000249.25624061 -92145380.694834709 0 0 0 0 -164963314.8146553 170818824.47216177 0 170818824.47216177 165450707.66280723 0 0 0 0 119283654.82684708 -282691018.94714916 0 -282691018.94714916 -287298574.7906189 0 0 0 0 556153.43458977435 571368.14770472143 0 571368.14770472143 -1100118.0844636799 0 0 0 0 -576263744.16581345 68356948.829948187 0 68356948.829948187 44774960.268872738 0 0 0 0 -237882902.80569327 161125328.2721138 0 161125328.2721138 13314750.465799332 0 0 0 0 -237055016.6817894 20841641.393132567 0 20841641.393132567 -233399.45547521114 0 0 0 0 -149377393.63496399 -228009784.94201022 0 -228009784.94201022 -642349309.31332612 0 0 0 0 -341753122.27029991 302482761.90664244 0 302482761.90664244 -137565049.59308374 0 0 0 0 72407709.133422852 30640113.383745432 0 30640113.383745432 -392515634.99309969 0 0 0 0 -99666985.343254089 159260085.63883877 0 159260085.63883877 -743802665.10167408 0 0 0 0 -51967599.225547791 4156656.7962964773 0 4156656.7962964773 -324365825.60429871 0 0 0 0 73633763.566093445 27839099.186550856 0 27839099.186550856 -331447700.6806941 0 0 0 0 84549757.181740761 -81299301.430775061 0 -81299301.430775061 -217935475.94479799 0 0 0 0 58027466.054634094 -54645337.25199008 0 -54645337.25199008 -170041818.01670575 0 0 0 0 69035747.540485382 -102750818.9158299 0 -102750818.9158299 -114150308.5406518 0 0 0 0 44684285.153663635 875616.80537438393 0 875616.80537438393 -175085737.90447807 0 0 0 0 70146651.771888733 -12970323.880096912 0 -12970323.880096912 -210109800.24619532 0 0 0 0 51840300.740791321 -36165558.989699125 0 -36165558.989699125 -123741460.838377 0 0 0 0 13657733.011947632 40848701.940108776 0 40848701.940108776 -181644524.74315524 0 0 0 0 24574191.09488678 -4370434.1402935982 0 -4370434.1402935982 -99759124.432566643 0 0 0 0 5232343.6896114349 5844878.6252464056 0 5844878.6252464056 -82156605.099187851 0 0 0 0 9303280.2394332886 -36054053.892916203 0 -36054053.892916203 -51107484.788866043 0 0 0 0 16199416.320280552 -26382119.184661672 0 -26382119.184661672 -44078172.069584846 0 0 0 0 17301824.578094482 -46158276.143857479 0 -46158276.143857479 -62373259.350404024 0 0 0 0 10088704.432673454 -11309640.793756951 0 -11309640.793756951 -77487487.915374756 0 0 0 0 5385314.1673355103 -61086890.701738954 0 -61086890.701738954 39321907.327941895 0 0 0 0 3188649.3066329956 -51915473.15182209 0 -51915473.15182209 -258689.07885098457 0 0 0 0 10466829.497449875 -29117895.676575884 0 -29117895.676575884 8687779.270960331 0 0 0 0 12251711.804336548 -38774325.682875395 0 -38774325.682875395 21874874.03511858 0 0 0 0 29076681.704492569 -10404167.647676349 0 -10404167.647676349 25646896.890289783 0 0 0 0 -63127416.673107147 -22863442.637598515 0 -22863442.637598515 314811860.82735085 0 0 0 0 1003561.4483284336 -183045.88550749514 0 -183045.88550749514 -206134.73589393403 0 0 0 0 17171922.781227112 -282194998.77437699 0 -282194998.77437699 107145124.76035166 0 0 0 0 55918581.303264618 42842101.714320421 0 42842101.714320421 -15048401.656665564 0 0 0 0 109978644.13136864 18932558.291869342 0 18932558.291869342 -62734596.873514652 0 0 0 0 81139375.265981674 57042909.775687218 0 57042909.775687218 -66277788.614856243 0 0 0 0 153875127.91306877 83216711.883006811 0 83216711.883006811 -64789750.716926716 0 0 0 0 46785704.411830187 144789425.84826103 0 144789425.84826103 -77982564.757431626 0 0 0 0 480512.36233854387 899718.29484132677 0 899718.29484132677 -1864301.6066137727 0 0 0 0 94860457.148805618 30793510.812630892 0 30793510.812630892 -19647906.391657948 0 0 0 0 20502077.803146362 38865754.567584276 0 38865754.567584276 -5767115.7843207121 0 0 0 0 -95891110.893196106 -25742937.739458054 0 -25742937.739458054 119541331.66706949 0 0 0 0 414890867.97074318 39772479.397167504 0 39772479.397167504 -280629680.70531893 0 0 0 0 -35612857.931346297 42153819.828903273 0 42153819.828903273 37515176.124625444 0 0 0 0 -29097468.924491882 125652590.65911281 0 125652590.65911281 -103896831.72427273 0 0 0 0 504160.82180693769 1100368.1068563517 0 1100368.1068563517 -1557660.4455178631 0 0 0 0 153809793.49791169 5540325.8221662045 0 5540325.8221662045 -38407070.282440186 0 0 0 0 -74570747.788269043 156978260.28325295 0 156978260.28325295 30534945.879838273 0 0 0 0 56414992.645915985 115797011.96239614 0 115797011.96239614 -40981197.944636345 0 0 0 0 -78020570.752185822 129438955.16811204 0 129438955.16811204 -8523146.3129756451 0 0 0 0 -87708019.107494354 93014548.162884712 0 93014548.162884712 -38749043.478492022 0 0 0 0 -70354257.765556335 127735073.14803481 0 127735073.14803481 -33265785.994865417 0 0 0 0 248199.61511731311 622120.09400802758 0 622120.09400802758 -632130.83161352575 0 0 0 0 -248651849.90055466 197401718.7984252 0 197401718.7984252 -78928394.426410675 0 0 0 0 167332417.8609333 -61584497.854723454 0 -61584497.854723454 -43954887.24516058 0 0 0 0 113730753.91432381 -4665311.4786832333 0 -4665311.4786832333 -11794772.163957357 0 0 0 0 6667124.2247759951 6407769.5598011184 0 6407769.5598011184 -10516696.377160994 0 0 0 0 116612772.93661737 -6308397.4775234461 0 -6308397.4775234461 -38988272.667888641 0 0 0 0 137556545.55497169 87356.680183768272 0 87356.680183768272 -37378623.894672394 0 0 0 0 6029091.1006584167 -45787510.042037964 0 -45787510.042037964 -98904617.986435652 0 0 0 0 4077609.8504009377 -3354915.9108156431 0 -3354915.9108156431 -9165907.9282097146 0 0 0 0 149220213.50640154 2088343.5492976904 0 2088343.5492976904 -158347351.55207062 0 0 0 0 24464008.480667114 103564435.65446091 0 103564435.65446091 -132863857.72481632 0 0 0 0 10381290.727612253 8350703.9965193551 0 8350703.9965193551 -17431026.476920735 0 0 0 0 69820026.696072578 45625222.530186415 0 45625222.530186415 -61551556.168887138 0 0 0 0 18704106.240283966 -8853403.1662969589 0 -8853403.1662969589 -77714786.916099548 0 0 0 0 -17161957.867889404 47356763.582609653 0 47356763.582609653 -19703704.869565964 0 0 0 0 -6983996.2832183838 113431011.87871552 0 113431011.87871552 -233565753.72751904 0 0 0 0 -65145228.541479111 -30405021.850245476 0 -30405021.850245476 -42511321.14897728 0 0 0 0 -2971856.7458454072 44623729.972981282 0 44623729.972981282 31328716.036333084 0 0 0 0 10195808.955163777 3465474.9216594948 0 3465474.9216594948 -13120115.643343836 0 0 0 0 1643753.7919445038 -68072734.114603043 0 -68072734.114603043 1559434.5402722359 0 0 0 0 -546621125.47849333 1637352671.3217964 0 1637352671.3217964 -3525576933.0412846 0 0 0 0 -1128417671.5388811 605509265.80863571 0 605509265.80863571 612765777.28962708 0 0 0 0 15715722.483695429 7887103.9326394517 0 7887103.9326394517 -16855694.049760591 0 0 0 0 3979728.3988566059 -2730216.8209753074 0 -2730216.8209753074 -12142449.778236665 0 0 0 0 -1969902837.6133418 -772587907.0182085 0 -772587907.0182085 -7438243105.0541611 0 0 0 0 -1556499474.478447 -897643906.83647919 0 -897643906.83647919 -365343645.35505486 0 0 0 0 -508366913.94345176 1800696718.1088886 0 1800696718.1088886 -5911889676.0652199 0 0 0 0 -33259004.850433309 1075047523.4630814 0 1075047523.4630814 -5986719177.2282887 0 0 0 0 758298094.53320909 67810427.278565407 0 67810427.278565407 -4911504941.152565 0 0 0 0 814617173.5109638 -556744367.28330231 0 -556744367.28330231 -3927329431.3989258 0 0 0 0 -269214504.18792951 -882723647.9634285 0 -882723647.9634285 -800223456.74176216 0 0 0 0 451586653.12409949 -745973393.5945797 0 -745973393.5945797 -2280718849.8561401 0 0 0 0 -2756207950.6708474 -755575783.66855431 0 -755575783.66855431 -5986076625.5405693 0 0 0 0 1068761052.9916043 -2148602737.0582829 0 -2148602737.0582829 -6356278283.5585556 0 0 0 0 -1579875883.6488953 -3028329512.9826913 0 -3028329512.9826913 -3299819465.5258865 0 0 0 0 966857052.29481411 -1197426737.0228996 0 -1197426737.0228996 -3805106354.3451843 0 0 0 0 1104056673.5438883 -892469825.39739513 0 -892469825.39739513 -5983602280.8851509 0 0 0 0 605898686.71201074 -65951801.976398468 0 -65951801.976398468 -4426234346.2971687 0 0 0 0 678537961.4497298 -928316629.67045498 0 -928316629.67045498 -3961085359.7079086 0 0 0 0 -330009353.60145688 584907104.76444817 0 584907104.76444817 -931328262.85708618 0 0 0 0 -618897904.74194145 -743771202.58325005 0 -743771202.58325005 -703952364.58360291 0 0 0 0 606745.75763936341 -606897.01671826839 0 -606897.01671826839 -6229340.9752883092 0 0 0 0 -346585780.8314175 1086117187.8807373 0 1086117187.8807373 -4521585376.8645306 0 0 0 0 442770892.44994533 -468998785.57916164 0 -468998785.57916164 -5208353091.0319138 0 0 0 0 216019231.26960459 1162680187.9632225 0 1162680187.9632225 -5102891083.7835388 0 0 0 0 -471323249.08830225 381621869.75798035 0 381621869.75798035 -5983318428.5149612 0 0 0 0 785875078.03562546 1173945962.0500565 0 1173945962.0500565 -5131526809.4755707 0 0 0 0 969661287.66006267 1128909163.9237061 0 1128909163.9237061 -5985339216.1505661 0 0 0 0 782463334.25016963 352571632.29226857 0 352571632.29226857 -4330471008.8510742 0 0 0 0 618554.03567627212 189085.74568939954 0 189085.74568939954 -4726471.8686348926 0 0 0 0 89069011.432717383 53333982.461994171 0 53333982.461994171 -1435805.2406921387 0 0 0 0 249397275.68346965 762981398.86937714 0 762981398.86937714 -1607133039.4196472 0 0 0 0 34635816.298452497 692516447.80812073 0 692516447.80812073 -833882619.55281067 0 0 0 0 261160397.61600399 -47475032.201370239 0 -47475032.201370239 -95418633.722229004 0 0 0 0 714191937.54458046 -749891600.90127563 0 -749891600.90127563 -4045648392.8674812 0 0 0 0 554918.32773897937 -10528563.346162096 0 -10528563.346162096 -25312161.65303646 0 0 0 0 92522164.992438793 344385946.39492798 0 344385946.39492798 12110415.049751282 0 0 0 0 -299568040.33708 227695587.55337524 0 227695587.55337524 601014077.91368103 0 0 0 0 39675544.249538898 -291126692.62406921 0 -291126692.62406921 -1437749029.571764 0 0 0 0 -884546826.23723841 -330148639.6917038 0 -330148639.6917038 239281630.26112366 0 0 0 0 456995905.27627039 -268628324.47753906 0 -268628324.47753906 109885849.31990051 0 0 0 0 300097.87510132964 -369720.51627469808 0 -369720.51627469808 -1797147.232075077 0 0 0 0 -128391491.5629344 -151396498.58546448 0 -151396498.58546448 212317703.70069885 0 0 0 0 166434539.51517487 -571202859.9008255 0 -571202859.9008255 -51721397.224399567 0 0 0 0 2016046.43747831 -9734513.8875555322 0 -9734513.8875555322 -21669278.255419508 0 0 0 0 -96060504.634282112 15553463.187232971 0 15553463.187232971 94970590.092582703 0 0 0 0 61655853.588163018 -58277010.31565094 0 -58277010.31565094 -65351760.175880432 0 0 0 0 -14201712.271138549 -69312838.453166962 0 -69312838.453166962 -67221224.667114258 0 0 0 0 -39821153.096003771 -5640508.573135376 0 -5640508.573135376 11432081.086807251 0 0 0 0 -1381706.2483479572 -298828.9532443285 0 -298828.9532443285 2036679.7669974566 0 0 0 0 28932225.055815697 -37693952.008522034 0 -37693952.008522034 -95683269.765762329 0 0 0 0 29696486.318492174 -41880663.672489166 0 -41880663.672489166 -82984530.481674194 0 0 0 0 22888683.376526833 -38201440.183067322 0 -38201440.183067322 -64045308.826257706 0 0 0 0 48249720.000369072 -22988522.310546875 0 -22988522.310546875 -65356914.962796211 0 0 0 0 4331883.3169441223 -36150062.51852417 0 -36150062.51852417 -40878421.384737015 0 0 0 0 23823536.316832066 -6433148.9366531372 0 -6433148.9366531372 -69942458.01083374 0 0 0 0 8165727.5597927626 -12769716.616079163 0 -12769716.616079163 -53824374.894575998 0 0 0 0 27429993.164045334 -8970963.7160582542 0 -8970963.7160582542 -81629688.266407013 0 0 0 0 7818414.0140862977 5736472.7669878732 0 5736472.7669878732 -22929999.125873934 0 0 0 0 18080932.812432766 -7722981.6241562366 0 -7722981.6241562366 -78894755.281168938 0 0 0 0 7853465.7028937489 -14804782.900793033 0 -14804782.900793033 -51938550.833534032 0 0 0 0 3678483.7963678911 -11097236.821045902 0 -11097236.821045902 -29479211.24379706 0 0 0 0 12628459.847428799 -35121385.173744202 0 -35121385.173744202 -23815627.633575439 0 0 0 0 1811981.0383561309 995606.17736962438 0 995606.17736962438 -1517732.5798291829 0 0 0 0 -1085550645.0425947 -377454014.53911972 0 -377454014.53911972 161012760.02973938 0 0 0 0 262755465.5134697 251890040.18999481 0 251890040.18999481 -334157014.1597805 0 0 0 0 -1666378347.7545419 -816324909.9128952 0 -816324909.9128952 -85740222.776504517 0 0 0 0 -3795319.0361170764 -2274065.453143172 0 -2274065.453143172 -1971079.9320813417 0 0 0 0 -165015057.26509714 -43655201.151317596 0 -43655201.151317596 6430816.6635742188 0 0 0 0 130248474.54854466 17805883.774215698 0 17805883.774215698 -5958973453.1780825 0 0 0 0 314478277.81162262 109027994.4868927 0 109027994.4868927 24085316.050094604 0 0 0 0 285004513.06661034 92131176.121818542 0 92131176.121818542 19561293.543121338 0 0 0 0 309886606.77931881 114063591.33892059 0 114063591.33892059 22140433.766357422 0 0 0 0 -4815294.4148378167 -6911697.5673436671 0 -6911697.5673436671 -7159955.6998604313 0 0 0 0 1437084.5884826183 -6151322.9949035645 0 -6151322.9949035645 -451248.25497436523 0 0 0 0 1450443.2115187645 -6162393.3217697144 0 -6162393.3217697144 -7901340.9315490723 0 0 0 0 -1262885968.8281837 3342640065.6382675 0 3342640065.6382675 -5979685245.6849289 0 0 0 0 808748.2547615862 -1252581.386593014 0 -1252581.386593014 -4108240.9807591587 0 0 0 0 -145020572.52460054 1605445443.338829 0 1605445443.338829 -3506906521.4363022 0 0 0 0 151149256.62657934 1692817137.5470734 0 1692817137.5470734 -5082011415.2691574 0 0 0 0 -220848620.54026529 865449289.87114716 0 865449289.87114716 -3532068184.8014412 0 0 0 0 -219151720.05595911 845509030.20548248 0 845509030.20548248 -3393853559.400856 0 0 0 0 -2555747.9799815882 -4463020.7823018245 0 -4463020.7823018245 -3493295.6134504937 0 0 0 0 271065.45529198973 -4721339.6693547666 0 -4721339.6693547666 -14590926.442035969 0 0 0 0 138073.37347481414 -7650794.6037188638 0 -7650794.6037188638 -9491597.6807364486 0 0 0 0 -12451309.774831951 -27319687.725189209 0 -27319687.725189209 -12023260.350799561 0 0 0 0 5273192.9679097533 -2654410.551361084 0 -2654410.551361084 -41936270.043022156 0 0 0 0 -4514759.0340995789 2577708.053024292 0 2577708.053024292 -38456988.801948547 0 0 0 0 498363.60803461075 -626981.05097198486 0 -626981.05097198486 -9235419.8374176025 0 0 0 0 203823.06372109818 -4373308.888088163 0 -4373308.888088163 -11070195.630196087 0 0 0 0 -1267182.755364212 2288067.9128749967 0 2288067.9128749967 -10849877.848360134 0 0 0 0 -7202006.2506097257 -212171.1573638916 0 -212171.1573638916 -49230044.54335022 0 0 0 0 -3267172.0437666005 3932759.1963671446 0 3932759.1963671446 -6298331.0826457702 0 0 0 0 -48991938.481519699 19805102.599876404 0 19805102.599876404 34220509.293298721 0 0 0 0 1908245.2010236979 -12546659.30039978 0 -12546659.30039978 -76183409.217147827 0 0 0 0 -180232.88148349524 -9278623.9552612305 0 -9278623.9552612305 -70037467.194641113 0 0 0 0 -846063.7791364193 -9003338.435836792 0 -9003338.435836792 -73618111.347473145 0 0 0 0 -4665186.3000110183 -15808591.437348306 0 -15808591.437348306 -65722498.351074219 0 0 0 0 -1947608.8605158329 -3996602.8688354492 0 -3996602.8688354492 -71908305.156578064 0 0 0 0 -1119792.2854281296 -339588.14607368037 0 -339588.14607368037 2196960.9193868265 0 0 0 0 -10797418.14793539 -2169116.3898010254 0 -2169116.3898010254 9440075.9647216797 0 0 0 0 9714562.8577111959 -1228517.4677556157 0 -1228517.4677556157 -18514860.071968473 0 0 0 0 -292250703.58361816 -99631655.769287109 0 -99631655.769287109 -42292217.135742188 0 0 0 0 -10547087.790844321 -17882523.101806641 0 -17882523.101806641 -70771577.76109314 0 0 0 0 1216398.2841030376 273557.27834238857 0 273557.27834238857 -6302172.3159861229 0 0 0 0 4366751.1168718338 6626919.9545593262 0 6626919.9545593262 -34671972.637191772 0 0 0 0 5900606.2053385973 -15466397.92829895 0 -15466397.92829895 -90695819.787628174 0 0 0 0 9606009.4610939026 -3294029.2767944336 0 -3294029.2767944336 -92995934.791625977 0 0 0 0 6515196.246051359 -42622.315344009548 0 -42622.315344009548 -5856321.6258510146 0 0 0 0 5307982.512739718 8126484.8792877197 0 8126484.8792877197 -72144033.237108231 0 0 0 0 8101612.1513710916 5236580.6483688354 0 5236580.6483688354 -88399581.638702393 0 0 0 0 -4927687.7135081571 4898261.871034719 0 4898261.871034719 -4407666.49914263 0 0 0 0 -31931998.267449975 -8716193.8622932434 0 -8716193.8622932434 -45925713.074203491 0 0 0 0 8112241.7805336714 -8081937.3334875107 0 -8081937.3334875107 -41410319.218452454 0 0 0 0 41070503.30341053 -9938174.0668945312 0 -9938174.0668945312 -230058503.1108551 0 0 0 0 55444937.611261368 -39923790.343132019 0 -39923790.343132019 -219147661.2353363 0 0 0 0 68014107.387522697 -43444396.876972198 0 -43444396.876972198 -206193542.68579865 0 0 0 0 15828753.370852947 -702005.59801101685 0 -702005.59801101685 -40439522.116081238 0 0 0 0 38130803.893196821 21994314.089754105 0 21994314.089754105 -242394525.11804199 0 0 0 0 8853673.8632574081 -63915419.15417099 0 -63915419.15417099 -208710380.78210449 0 0 0 0 -5992932.8475522995 -51930411.602909088 0 -51930411.602909088 -214797514.25317383 0 0 0 0 -63514960.988116741 -211347258.71479034 0 -211347258.71479034 -406293859.33615112 0 0 0 0 6440939.0970723629 91235105.123632431 0 91235105.123632431 -340402258.90281677 0 0 0 0 -143078427.16513991 -92019698.151592255 0 -92019698.151592255 8874591.1601066589 0 0 0 0 -941646.68945395201 694386.58218521252 0 694386.58218521252 1477803.1681888625 0 0 0 0 -85633340.924037099 105441147.84202194 0 105441147.84202194 -38167331.571914673 0 0 0 0 -57215066.398550034 43957091.412822723 0 43957091.412822723 31049406.654937744 0 0 0 0 -6583469.5644855499 13563981.616210938 0 13563981.616210938 -27742090.172592163 0 0 0 0 -27360400.573076248 5786404.8022651672 0 5786404.8022651672 16260406.602264404 0 0 0 0 7293782.0363314161 8167391.3680542111 0 8167391.3680542111 -16807745.187254902 0 0 0 0 5332657.1288528442 7643729.3898887634 0 7643729.3898887634 -9648655.7880954742 0 0 0 0 3987037.0243806839 5283581.0222549438 0 5283581.0222549438 -5479888.2417678833 0 0 0 0 -17555777.822843075 6041775.89270401 0 6041775.89270401 43544787.927429199 0 0 0 0 21322311.160468102 1110270.7244567871 0 1110270.7244567871 15448457.12890625 0 0 0 0 7575930.2391655957 9469016.6202415694 0 9469016.6202415694 -12834668.8418842 0 0 0 0 9365583.6098719835 11595432.757505417 0 11595432.757505417 -8511792.5297927856 0 0 0 0 11667959.208752632 -5159569.2404899597 0 -5159569.2404899597 22027803.097076416 0 0 0 0 10625446.364806175 7695732.651260376 0 7695732.651260376 -21935089.07233429 0 0 0 0 13809326.045471191 4361427.6848449707 0 4361427.6848449707 12158828.819839478 0 0 0 0 35089469.869208336 3863694.430519104 0 3863694.430519104 11541708.333110809 0 0 0 0 21761810.859722137 -10641276.847824097 0 -10641276.847824097 5723503.3887329102 0 0 0 0 -17089526.272380352 -43935682.422298431 0 -43935682.422298431 -209276859.28392029 0 0 0 0 18521861.901198387 20890452.269786835 0 20890452.269786835 17633137.065658569 0 0 0 0 -1297643.5527505875 -72113853.747116089 0 -72113853.747116089 -221442861.60427094 0 0 0 0 -2165402.161267953 2591122.8574684449 0 2591122.8574684449 4645865.686234571 0 0 0 0 2849541.5469143922 1598040.3349284381 0 1598040.3349284381 -16604025.489762159 0 0 0 0 7437152.9681450045 7554404.9427908063 0 7554404.9427908063 -15274261.493919231 0 0 0 0 8827755.1869621277 10836892.100728989 0 10836892.100728989 19668213.636734009 0 0 0 0 8032426.0028734207 7475312.2035369873 0 7475312.2035369873 -39869976.040252686 0 0 0 0 -1849278.0628142357 1049033.6985778809 0 1049033.6985778809 6135243.0878753662 0 0 0 0 -12146.747192737996 1326709.611849138 0 1326709.611849138 315072.57719603181 0 0 0 0 78680.667383143678 369161.71537857503 0 369161.71537857503 -211390.97257724963 0 0 0 0 1588647.5589823723 2559051.4883117676 0 2559051.4883117676 -2524465.2951488495 0 0 0 0 531977.09569406509 -412595.48852348328 0 -412595.48852348328 -1302535.954498291 0 0 0 0 468880.56482644822 581962.68046288192 0 581962.68046288192 -1085766.4685934111 0 0 0 0 28091627.737620354 -1181873.4656143188 0 -1181873.4656143188 -215082844.06162262 0 0 0 0 2390587.3673156835 3295707.2753005773 0 3295707.2753005773 -5229872.9684681464 0 0 0 0 9254748.4356760979 -14310866.131690979 0 -14310866.131690979 -181513678.23750305 0 0 0 0 48334024.704346657 -46724635.085533142 0 -46724635.085533142 25746232.887270927 0 0 0 0 23979004.792962074 7276446.1008148193 0 7276446.1008148193 -79650601.249481201 0 0 0 0 -6275333.0793676376 96161486.078117371 0 96161486.078117371 42605554.689129829 0 0 0 0 238222.26945877075 48877615.175024986 0 48877615.175024986 -33097442.776744962 0 0 0 0 102234896.43675947 -3665846.6541061401 0 -3665846.6541061401 -72238394.13218689 0 0 0 0 51256262.478604317 -388236.00817108154 0 -388236.00817108154 -68645511.146110535 0 0 0 0 4299974.2819750132 11979644.495017884 0 11979644.495017884 -42186005.020468168 0 0 0 0 19502285.80303669 -18667284.683273315 0 -18667284.683273315 -58921873.881500244 0 0 0 0 76066348.740483761 -34725098.923082352 0 -34725098.923082352 -93481103.09564209 0 0 0 0 21535091.145546675 -3350954.5435180664 0 -3350954.5435180664 -149757140.12787628 0 0 0 0 4460304.6419887245 -72883803.24830246 0 -72883803.24830246 -130397710.65557861 0 0 0 0 19742737.953888379 -21233793.366671085 0 -21233793.366671085 -108020542.51495361 0 0 0 0 -37101381.023151398 -90907041.857803345 0 -90907041.857803345 -61152494.251461983 0 0 0 0 -41282217.493447423 -154379476.31445312 0 -154379476.31445312 -222589595.45797729 0 0 0 0 46927858.885662317 -2809316.2835540771 0 -2809316.2835540771 -400849338.57033539 0 0 0 0 -19986040.957614422 151199553.0353241 0 151199553.0353241 -229180451.04773712 0 0 0 0 46022522.228750572 10014683.253678799 0 10014683.253678799 -146173425.52627563 0 0 0 0 11803323.691391706 12299038.049880981 0 12299038.049880981 -47383450.475509644 0 0 0 0 5493303.2216284275 35333845.807174683 0 35333845.807174683 -103363444.8272295 0 0 0 0 23836752.087698936 40750311.787773132 0 40750311.787773132 -186250204.28955078 0 0 0 0 36644111.988325715 104942158.02655029 0 104942158.02655029 -193162622.43317032 0 0 0 0 32196912.155212402 113582849.13017654 0 113582849.13017654 -209792223.67431641 0 0 0 0 -13668481.271114349 129448358.29836273 0 129448358.29836273 -105388012.66333008 0 0 0 0 -1137782.2236980395 2140092.5273283049 0 2140092.5273283049 5577062.3116441369 0 0 0 0 46847159.865213692 7384883.7702178955 0 7384883.7702178955 -85162856.842712402 0 0 0 0 40593418.05841136 42526591.709672928 0 42526591.709672928 -210189361.63661194 0 0 0 0 192052168.69436646 -120354575.34280396 0 -120354575.34280396 253689292.59024048 0 0 0 0 -277190.16798210144 49875913.979141235 0 49875913.979141235 -78006062.249076843 0 0 0 0 10028821.971246839 57318310.887443542 0 57318310.887443542 -75076902.639907837 0 0 0 0 7926432.312263608 102437383.29718781 0 102437383.29718781 -166979953.87754822 0 0 0 0 -4736234.3656597137 20829844.404968262 0 20829844.404968262 29363241.167694092 0 0 0 0 -41644466.935087442 25867064.578392029 0 25867064.578392029 10114617.282226562 0 0 0 0 20262526.191553831 16538685.030403137 0 16538685.030403137 10343699.405883789 0 0 0 0 -4576671.2436714955 6821069.0299028307 0 6821069.0299028307 19143933.256595634 0 0 0 0 3619939.4534184933 63367759.359176636 0 63367759.359176636 31949676.958610058 0 0 0 0 76385316.764629602 46874184.390586853 0 46874184.390586853 66022347.547790527 0 0 0 0 9994221.6083623897 10341122.130586091 0 10341122.130586091 -42917510.564036161 0 0 0 0 3444289.4860229492 4562124.8006858826 0 4562124.8006858826 -8465793.4899215698 0 0 0 0 -902598.27048432641 4437027.9038212355 0 4437027.9038212355 -4318713.6675223624 0 0 0 0 -3470860.6768684387 1461538.630405426 0 1461538.630405426 7135333.2090702057 0 0 0 0 -1732700.5596611584 5318998.9678080995 0 5318998.9678080995 10324356.566915125 0 0 0 0 -8306932.1093406677 16405567.984766006 0 16405567.984766006 -49858432.51899147 0 0 0 0 -5600072.0129947662 8864738.2912362814 0 8864738.2912362814 -96557355.053868175 0 0 0 0 5142090.1746311216 15883159.488560028 0 15883159.488560028 -31341462.625594653 0 0 0 0 17070939.888688564 138941906.27617645 0 138941906.27617645 85139077.57460022 0 0 0 0 7532695.505440712 -3634708.0993990898 0 -3634708.0993990898 -72954757.798355103 0 0 0 0 -5170019.6458587646 -27699670.030583382 0 -27699670.030583382 -28182081.649567366 0 0 0 0 1025827.4869030155 92200.645776104648 0 92200.645776104648 -3126167.4838417349 0 0 0 0 -291927.87020855211 -6717408.3757172599 0 -6717408.3757172599 -30126112.751747925 0 0 0 0 -1880103.6837329865 18152675.189541817 0 18152675.189541817 -58099249.443296671 0 0 0 0 8706929.5747337341 21296760.485508084 0 21296760.485508084 -88526755.935993671 0 0 0 0 2343763.152782578 -1430086.4529953708 0 -1430086.4529953708 -14565622.375054076 0 0 0 0 -6329721.8674545288 599591.04474651814 0 599591.04474651814 -35193713.119787216 0 0 0 0 19971589.345550537 12996804.648459792 0 12996804.648459792 -32203845.866797447 0 0 0 0 42247206.056081772 295738385.26109314 0 295738385.26109314 -270531436.27490234 0 0 0 0 4053205.7567610238 14138690.391437612 0 14138690.391437612 -36367461.166462868 0 0 0 0 27360695.007627487 25905645.056655645 0 25905645.056655645 -43467147.693734884 0 0 0 0 142872110.20746231 -10129543.947801948 0 -10129543.947801948 -100687191.72689354 0 0 0 0 15101278.134706497 -4292764.3472043276 0 -4292764.3472043276 -66795619.362780452 0 0 0 0 20619894.904472351 44028599.059291661 0 44028599.059291661 5466803.1191598177 0 0 0 0 666504.11651970819 -168362.62999439659 0 -168362.62999439659 -3979839.7343717911 0 0 0 0 54449226.266869545 -22660352.245442547 0 -22660352.245442547 -195986509.72256964 0 0 0 0 73662772.246050835 31833727.15623419 0 31833727.15623419 -139425276.38940084 0 0 0 0 -3314545.7879753113 8945617.8456528187 0 8945617.8456528187 -76779921.315741658 0 0 0 0 8389763.5320053101 26162631.790303826 0 26162631.790303826 -129824908.92383313 0 0 0 0 3153336.5065107346 23245388.571831375 0 23245388.571831375 -96914578.432456255 0 0 0 0 11283543.168933868 14741609.986036777 0 14741609.986036777 -75004676.853975534 0 0 0 0 -10268196.7078228 10309573.144596517 0 10309573.144596517 -30261263.888251781 0 0 0 0 5686364.4068260193 2887812.3789594173 0 2887812.3789594173 -62677792.647539377 0 0 0 0 10050268.751269341 22175216.858335346 0 22175216.858335346 -39408974.019138336 0 0 0 0 -11436287.342681885 9233730.1400084496 0 9233730.1400084496 -61681736.458451569 0 0 0 0 -1493788.0355834961 879355.48769950867 0 879355.48769950867 2022562.1006851196 0 0 0 0 2667955.6728687659 5146572.5076449458 0 5146572.5076449458 -10231730.870832117 0 0 0 0 -2258273.5359963886 2221998.4073368688 0 2221998.4073368688 5641694.7005698448 0 0 0 0 -2684136.5057754517 22470983.611321449 0 22470983.611321449 2062785.2584600449 0 0 0 0 6173280.2984886169 -8080812.4159522057 0 -8080812.4159522057 -37983736.306303501 0 0 0 0 22442368.822624207 6739725.2933202982 0 6739725.2933202982 -83242689.492646456 0 0 0 0 4708429.4234466553 8280836.9530158043 0 8280836.9530158043 -82724906.693195373 0 0 0 0 9791304.8680915833 18877181.505370975 0 18877181.505370975 -93289884.398085594 0 0 0 0 -6094240.1206626892 30712042.322125316 0 30712042.322125316 -97566461.959318638 0 0 0 0 5657571.5446045399 4427744.0497253202 0 4427744.0497253202 -89214787.854753971 0 0 0 0 -12346643.302688599 12972678.359927416 0 12972678.359927416 -94859911.512314677 0 0 0 0 -6178625.0127449036 -3177517.9820172787 0 -3177517.9820172787 -64960007.955623627 0 0 0 0 835239.55671691895 8764241.0605797768 0 8764241.0605797768 -98218399.565010548 0 0 0 0 3924259.3101959229 12051896.318599403 0 12051896.318599403 -100726121.02486253 0 0 0 0 11719322.316965103 -7981446.9722872972 0 -7981446.9722872972 -129807951.7157414 0 0 0 0 9396301.2438812256 -3751216.4544405937 0 -3751216.4544405937 -107922291.4075051 0 0 0 0 -4546359.470249176 19469019.804984808 0 19469019.804984808 -97587293.215297282 0 0 0 0 5123809.0667190552 17811532.078191519 0 17811532.078191519 -94926743.241807461 0 0 0 0 8959463.5912361145 4791415.5294584036 0 4791415.5294584036 -93705293.594503641 0 0 0 0 4815998.9695854187 4736688.0407379866 0 4736688.0407379866 -123059755.64262313 0 0 0 0 8996270.0744972229 15774337.029898345 0 15774337.029898345 -121501938.67376578 0 0 0 0 2302454.5071678162 3588253.1528202295 0 3588253.1528202295 -123665978.36403215 0 0 0 0 2067791.5636577606 22912878.044145554 0 22912878.044145554 -155045682.32068402 0 0 0 0 -747059.67478680611 -8414122.1440443266 0 -8414122.1440443266 -178364944.66570592 0 0 0 0 26753480.793376923 -6366893.3552006185 0 -6366893.3552006185 -206264784.93518972 0 0 0 0 23606140.577589989 -14364282.734502763 0 -14364282.734502763 -127369126.67681003 0 0 0 0 9847052.8388957977 11618713.012598842 0 11618713.012598842 -134651580.47627544 0 0 0 0 22793176.09495163 -9527985.565241456 0 -9527985.565241456 -155571640.34543008 0 0 0 0 26676441.145263672 -6974106.6378409863 0 -6974106.6378409863 -159315684.09424686 0 0 0 0 28393651.970050812 -23376893.429692883 0 -23376893.429692883 -182510150.88114506 0 0 0 0 38297413.486572266 -27758310.609994009 0 -27758310.609994009 -181489570.77602744 0 0 0 0 18483426.9234128 -17462557.113116175 0 -17462557.113116175 -316040425.39151776 0 0 0 0 18818398.340087891 -30489561.256968189 0 -30489561.256968189 -186094221.65546173 0 0 0 0 2546276.4631948471 43565445.94065883 0 43565445.94065883 -216033627.26898324 0 0 0 0 -55054403.546871185 -158562305.65459347 0 -158562305.65459347 -238798563.64255285 0 0 0 0 3029497.9718818069 -5201521.0606413363 0 -5201521.0606413363 -2586437.4167093947 0 0 0 0 33264369.879684448 -54624206.058780193 0 -54624206.058780193 -256718093.77955279 0 0 0 0 42862428.579917908 -55769492.5517506 0 -55769492.5517506 -287208339.1762377 0 0 0 0 53716239.51378727 -65931298.973979175 0 -65931298.973979175 -253268482.49236834 0 0 0 0 44930887.45236063 -11683304.631734867 0 -11683304.631734867 -197353890.84895408 0 0 0 0 -39448252.034362793 -72928753.8238585 0 -72928753.8238585 -238568218.99809885 0 0 0 0 -51837210.440238953 21401632.520378739 0 21401632.520378739 -194529204.26846027 0 0 0 0 -10892841.616760254 -27948434.433769792 0 -27948434.433769792 -163393755.33685029 0 0 0 0 15800041.612522602 22158284.803764343 0 22158284.803764343 -32403749.96585083 0 0 0 0 19297069.985701323 15651973.040205002 0 15651973.040205002 -53030186.256790161 0 0 0 0 9971871.4192876816 -10905660.715431213 0 -10905660.715431213 -55098467.775688171 0 0 0 0 -6773929.2134943008 -204309.11548995972 0 -204309.11548995972 -47184095.413192749 0 0 0 0 9562127.6358097196 -3550954.4120535851 0 -3550954.4120535851 -54170367.146057129 0 0 0 0 7469437.6081397533 7611360.217830658 0 7611360.217830658 -32237876.08605957 0 0 0 0 2823914.9660358429 9605794.1583900452 0 9605794.1583900452 -12047048.550506592 0 0 0 0 7285116.8669900894 4225094.8287506104 0 4225094.8287506104 -40320796.635925293 0 0 0 0 3828110.4258174896 -18009544.761688232 0 -18009544.761688232 -42188711.688796997 0 0 0 0 -3311169.6657934189 -13857127.890029907 0 -13857127.890029907 -23471657.941345215 0 0 0 0 9675771.0959583521 16621031.37547493 0 16621031.37547493 5073135.3965530396 0 0 0 0 21137584.164141655 17545869.296272278 0 17545869.296272278 -33070698.775924683 0 0 0 0 7503858.5938974191 13928081.129652638 0 13928081.129652638 -15396429.511919916 0 0 0 0 15360877.181539059 9663981.4714546204 0 9663981.4714546204 -41838574.424514771 0 0 0 0 -66196958.965244293 -20142697.939556003 0 -20142697.939556003 38521203.755276352 0 0 0 0 -28615960.906486511 10563218.540804386 0 10563218.540804386 -91657030.028675437 0 0 0 0 6076904.2221069336 -6559260.69728899 0 -6559260.69728899 -100020657.45052278 0 0 0 0 3361543.3458824158 141334009.5860188 0 141334009.5860188 68703965.669784606 0 0 0 0 -1698797.5509204865 -11795115.241120338 0 -11795115.241120338 -52245886.51685214 0 0 0 0 -1545110.2707980853 1542513.7672787136 0 1542513.7672787136 5279370.712105643 0 0 0 0 5842700.8400748782 6817244.4737456674 0 6817244.4737456674 -25728488.035158914 0 0 0 0 7992674.686299324 10698635.710781097 0 10698635.710781097 -7381638.7875289917 0 0 0 0 6693565.7563396692 15398129.74819994 0 15398129.74819994 3306687.5251159668 0 0 0 0 2615224.1012234837 3960955.8568735206 0 3960955.8568735206 -16040667.710906416 0 0 0 0 1438123.0398221933 6901599.1829802822 0 6901599.1829802822 2522369.3504867069 0 0 0 0 -11813535.97353363 82182625.337815523 0 82182625.337815523 35691874.113170147 0 0 0 0 6570480.2430000305 12502297.482727051 0 12502297.482727051 -4828892.8089981079 0 0 0 0 -5556290.9168243408 1983034.483505249 0 1983034.483505249 13897341.940368652 0 0 0 0 1590374.4784094356 7508308.5659666192 0 7508308.5659666192 1337471.5067391805 0 0 0 0 8855671.7910003662 -41974505.172886133 0 -41974505.172886133 -13814716.491329312 0 0 0 0 -45565455.692718506 20037443.622051835 0 20037443.622051835 -72346116.92598176 0 0 0 0 18846728.000183105 -8347812.9690846205 0 -8347812.9690846205 -96771443.411773443 0 0 0 0 19004368.241882324 21496964.828030109 0 21496964.828030109 -44559906.902954817 0 0 0 0 8940228.0118713379 -8290301.4671399593 0 -8290301.4671399593 -68679501.786722183 0 0 0 0 54507676.286916733 -1671384.4816390872 0 -1671384.4816390872 -76383151.360839128 0 0 0 0 23318158.739494324 -5392840.914147377 0 -5392840.914147377 -93360152.013122797 0 0 0 0 10036279.481845856 -7852898.7659224272 0 -7852898.7659224272 -91913452.636540949 0 0 0 0 8955670.2803573608 -12422205.790336609 0 -12422205.790336609 -94321030.046315551 0 0 0 0 9679275.8907814026 -28639384.937331915 0 -28639384.937331915 -119021709.82784325 0 0 0 0 18288914.541126251 -17231977.044966102 0 -17231977.044966102 -120551244.00567365 0 0 0 0 12110324.503042221 -23915565.035831988 0 -23915565.035831988 -110590307.3006115 0 0 0 0 23218430.697706223 -27944141.135323524 0 -27944141.135323524 -156748611.55128467 0 0 0 0 27999960.023069382 -50335888.514563978 0 -50335888.514563978 -176455984.92807764 0 0 0 0 39869352.278151512 -34634073.445847228 0 -34634073.445847228 -155709879.01501989 0 0 0 0 -135736825.01986694 -88205137.785985857 0 -88205137.785985857 -86000255.241722494 0 0 0 0 -23107808.283180237 -30960426.199414194 0 -30960426.199414194 -64609659.32010746 0 0 0 0 -24786472.892250061 -36528171.029590487 0 -36528171.029590487 -77802778.474065065 0 0 0 0 -11692919.711765289 -23228719.42778337 0 -23228719.42778337 -101520713.7527703 0 0 0 0 -18905521.612194061 -61754347.092576683 0 -61754347.092576683 -130374962.18780351 0 0 0 0 -4530838.247959137 -22727353.437532067 0 -22727353.437532067 -105848711.23273361 0 0 0 0 -3037205.5308301449 -5458448.7189956903 0 -5458448.7189956903 -81978440.841034412 0 0 0 0 -2827311.5625228882 -27123054.574072689 0 -27123054.574072689 -70087489.480698705 0 0 0 0 3560737.5808850345 16918413.647996437 0 16918413.647996437 -7688679.9947883207 0 0 0 0 8156346.3674829006 39233868.771007538 0 39233868.771007538 -2779224.0857772827 0 0 0 0 8021316.3489919044 6466394.8947066916 0 6466394.8947066916 -32003996.329981912 0 0 0 0 -10926577.46750927 -18617892.20219741 0 -18617892.20219741 -77197942.266937494 0 0 0 0 1054511.0782076879 4543829.9086572854 0 4543829.9086572854 -2842924.1978576803 0 0 0 0 -54052924.612163544 46426262.182736397 0 46426262.182736397 -21280699.164696712 0 0 0 0 39304744.680815697 124668844.03622317 0 124668844.03622317 -98130490.497576714 0 0 0 0 22495580.621511459 35415010.649753571 0 35415010.649753571 -21235496.078806311 0 0 0 0 24843932.66676262 26462243.792965651 0 26462243.792965651 -58445881.369377136 0 0 0 0 -971782.18980026245 -4318416.327003479 0 -4318416.327003479 -20041034.505661011 0 0 0 0 44372780.83108902 -46659373.188735962 0 -46659373.188735962 91530926.679473877 0 0 0 0 2901709.8348221816 -26755866.368510623 0 -26755866.368510623 -39727396.836494803 0 0 0 0 19961935.355957031 -20503412.090106964 0 -20503412.090106964 94947507.468200684 0 0 0 0 -5929858.7817479009 -6753176.8124456853 0 -6753176.8124456853 22145824.265565522 0 0 0 0 -14685864.443973023 -13908024.981136288 0 -13908024.981136288 16700944.390578702 0 0 0 0 398891701.73707581 177197539.07062379 0 177197539.07062379 -1108171380.5920973 0 0 0 0 402707685.53287697 -280706877.97697878 0 -280706877.97697878 -122834952.04257011 0 0 0 0 2456174.0305565367 -27755613.220812142 0 -27755613.220812142 -25973536.990597457 0 0 0 0 7509634.7967586517 -16641780.322486877 0 -16641780.322486877 -8875398.1814956665 0 0 0 0 -300886057.07801628 -299093348.44938755 0 -299093348.44938755 -190085887.66186166 0 0 0 0 -241066444.83702087 149362357.87095377 0 149362357.87095377 19910519.11751914 0 0 0 0 215688717.63009262 582134161.056741 0 582134161.056741 -1652768662.9544687 0 0 0 0 9648494.0337562561 -23807045.804428101 0 -23807045.804428101 -32906256.594584465 0 0 0 0 17674946.918476105 -11280019.486724854 0 -11280019.486724854 -61034313.031990051 0 0 0 0 220017.32387867197 -3628957.8342870437 0 -3628957.8342870437 -7552132.3455180125 0 0 0 0 3433194.8681082316 -25718847.098809414 0 -25718847.098809414 -42898832.089049488 0 0 0 0 -913894716.54165649 -1402907075.1928182 0 -1402907075.1928182 2184071951.5016217 0 0 0 0 -1347737.3968467712 -2641594.145362854 0 -2641594.145362854 2484682.2637023926 0 0 0 0 -1410312.4985915069 -26284315.228887349 0 -26284315.228887349 -22654600.013069317 0 0 0 0 2278269.4800476842 -2098275.7629189007 0 -2098275.7629189007 -35986020.839624487 0 0 0 0 -63205051.333930969 -32477545.458023071 0 -32477545.458023071 -52335503.161422729 0 0 0 0 16803123.12612915 -10356986.01411438 0 -10356986.01411438 -94351271.184807301 0 0 0 0 1832400.0319956541 -23187698.273483697 0 -23187698.273483697 -26208656.918967277 0 0 0 0 74132.812747368589 -1198601.9713179655 0 -1198601.9713179655 -2359826.722301228 0 0 0 0 15842532.700195312 -8262072.2615432739 0 -8262072.2615432739 -118259705.61301422 0 0 0 0 8188921.4859428406 -16197590.599479675 0 -16197590.599479675 -62827231.258674622 0 0 0 0 -1611213.0703964233 2272123.0158615112 0 2272123.0158615112 -67962865.900476456 0 0 0 0 34805220.780238152 -131318827.10435417 0 -131318827.10435417 -259548324.76533985 0 0 0 0 -80492595.740832329 213989238.7013227 0 213989238.7013227 148175769.2219097 0 0 0 0 41999255.543624878 -33759302.679187775 0 -33759302.679187775 -111561891.20676804 0 0 0 0 33451266.930267334 -26280358.979296945 0 -26280358.979296945 -135395517.40625912 0 0 0 0 87051439.085641861 -35872664.747661419 0 -35872664.747661419 -173244901.48834053 0 0 0 0 2872292.346417889 -22998302.956702515 0 -22998302.956702515 -12564044.129206816 0 0 0 0 6027498.2369232178 -25794737.928142548 0 -25794737.928142548 -73852267.68674469 0 0 0 0 9262183.9176197052 -16678622.778316498 0 -16678622.778316498 -70335885.378509521 0 0 0 0 7016365.7352993488 -9651716.3896861076 0 -9651716.3896861076 -43475168.941978455 0 0 0 0 1687096.4873008728 -7179527.4092712402 0 -7179527.4092712402 -59770053.260139465 0 0 0 0 4896917.3222897053 -23243226.223855019 0 -23243226.223855019 -43098809.79851532 0 0 0 0 11605802.068609674 -8432139.7733703312 0 -8432139.7733703312 -38305612.642757066 0 0 0 0 9620719.9401931763 -18883490.26399231 0 -18883490.26399231 -30279737.22290802 0 0 0 0 8814439.830280304 -15239335.771442413 0 -15239335.771442413 -34873996.964599609 0 0 0 0 10052671.635710282 -18788567.682517312 0 -18788567.682517312 -55607831.261847511 0 0 0 0 603477625.19273376 -296431186.95874023 0 -296431186.95874023 -39141453.145812988 0 0 0 0 650410364.44725037 -169935616.34594727 0 -169935616.34594727 97841060.303649902 0 0 0 0 316050565.952034 -344903758.36340332 0 -344903758.36340332 322227801.54138947 0 0 0 0 969658.54696292058 -1275520.4374615923 0 -1275520.4374615923 -5636688.1809843555 0 0 0 0 14997535.010873318 -34114838.381694794 0 -34114838.381694794 -31033235.266876221 0 0 0 0 1069287.8534355164 -11998762.941562653 0 -11998762.941562653 -32661013.293899536 0 0 0 0 6347500.2154502869 -22088065.136650085 0 -22088065.136650085 -61688583.48163414 0 0 0 0 -275236832.17900467 -439906799.06074524 0 -439906799.06074524 361892665.76934814 0 0 0 0 -370036933.32554436 -350926113.49131012 0 -350926113.49131012 -46201663.516235352 0 0 0 0 -456790324.40574646 62983085.225067139 0 62983085.225067139 46454769.90625 0 0 0 0 663698297.00701141 52642972.045623779 0 52642972.045623779 -458036430.75964355 0 0 0 0 664821296.83843231 -232782237.72087097 0 -232782237.72087097 -272513666.41369629 0 0 0 0 289707472.00941467 539182494.38549805 0 539182494.38549805 -605634571.38711548 0 0 0 0 43138885.220344543 -56658283.016113281 0 -56658283.016113281 28957187.56829834 0 0 0 0 48228233.201629639 -212751646.04685974 0 -212751646.04685974 153276571.89068604 0 0 0 0 206239914.4834137 -151368415.63696289 0 -151368415.63696289 29466271.49609375 0 0 0 0 201148810.68672943 -217221798.3923645 0 -217221798.3923645 144226174.2286377 0 0 0 0 385171756.95951843 -327593131.60079956 0 -327593131.60079956 206911015.10040283 0 0 0 0 152456838.54677582 -173305562.16181946 0 -173305562.16181946 90951692.965576172 0 0 0 0 190497736.17874146 -74997422.036010742 0 -74997422.036010742 298576854.6414566 0 0 0 0 -52094082.1824646 -180012330.38696289 0 -180012330.38696289 97658768.655883789 0 0 0 0 -4511119.6473007202 -89277785.244873047 0 -89277785.244873047 175334964.47499466 0 0 0 0 -105964678.15363693 -220870928.57395172 0 -220870928.57395172 52589451.683959961 0 0 0 0 -124375412.7461319 -138900812.16271973 0 -138900812.16271973 142112275.25860596 0 0 0 0 39899533.127854347 -104505909.26286697 0 -104505909.26286697 30460804.413452148 0 0 0 0 -135822844.84508514 -205171725.70159912 0 -205171725.70159912 44502642.370239258 0 0 0 0 -148734027.4633255 -271610044.02069092 0 -271610044.02069092 -39336313.791473389 0 0 0 0 -160109783.87745667 -216587392.53184509 0 -216587392.53184509 110817382.01217651 0 0 0 0 -118963778.65797997 -198645888.72676086 0 -198645888.72676086 25585669.228851318 0 0 0 0 -140568907.71902275 -182386479.81742859 0 -182386479.81742859 80712647.284393311 0 0 0 0 -102069389.53733826 -148639311.82449341 0 -148639311.82449341 104663320.00369263 0 0 0 0 -167358747.18211365 -134689341.52993774 0 -134689341.52993774 47244675.871029139 0 0 0 0 -86133881.308628082 -155327723.07196808 0 -155327723.07196808 47413773.539978027 0 0 0 0 -71649336.395217896 -120961328.8853302 0 -120961328.8853302 -29423165.06578064 0 0 0 0 26779684.966188908 -46384667.764444351 0 -46384667.764444351 26495040.683807373 0 0 0 0 -16268096.894659042 -68365346.206176758 0 -68365346.206176758 87794610.093795776 0 0 0 0 41900646.452783585 -138317282.99468994 0 -138317282.99468994 -121987623.76224518 0 0 0 0 -28071079.66718483 -231290066.68667603 0 -231290066.68667603 -227338556.10107422 0 0 0 0 -1004648.2857521269 -2505978.0050282776 0 -2505978.0050282776 5929509.0049262121 0 0 0 0 52361115.708869934 21679446.785963535 0 21679446.785963535 -11862589.992739439 0 0 0 0 53616689.28931427 17458043.518918991 0 17458043.518918991 -9295889.1010184288 0 0 0 0 23858679.904664636 -4984894.1486491002 0 -4984894.1486491002 -18434985.693551835 0 0 0 0 50126564.541908264 3472664.4658894539 0 3472664.4658894539 -30434872.805614471 0 0 0 0 19039854.35454623 -9566033.6534297168 0 -9566033.6534297168 -44506414.825715326 0 0 0 0 3953338.4848829601 -23855335.702129725 0 -23855335.702129725 -10262045.379432507 0 0 0 0 -22447149.321819305 -70510331.841830894 0 -70510331.841830894 -119018842.82342029 0 0 0 0 20278017.786624908 -20361790.186691284 0 -20361790.186691284 -76861589.416950226 0 0 0 0 12716978.671573639 -57111126.414305635 0 -57111126.414305635 -181142810.30751219 0 0 0 0 -7576451.0155525208 -30931046.586740494 0 -30931046.586740494 -61201712.497299194 0 0 0 0 5784620.1018867493 -41853676.419639587 0 -41853676.419639587 -94458915.522834778 0 0 0 0 13309800.435565948 -6898537.8083114624 0 -6898537.8083114624 -48502180.702896118 0 0 0 0 5710621.0010643005 -8113061.8166427612 0 -8113061.8166427612 -48182825.962944031 0 0 0 0 43253490.966033936 211253.95571899414 0 211253.95571899414 -52444874.499462128 0 0 0 0 22128708.264125824 -15346728.568981171 0 -15346728.568981171 -40532586.513339996 0 0 0 0 13616963.554313434 -9249008.6966774687 0 -9249008.6966774687 -40143590.976187192 0 0 0 0 18011476.889554024 -4058653.5954866409 0 -4058653.5954866409 -27996620.831863403 0 0 0 0 12432448.913478851 -17443755.661945343 0 -17443755.661945343 -35330057.581428528 0 0 0 0 2323889.6047363281 -25733546.175331116 0 -25733546.175331116 -56766548.610473633 0 0 0 0 16458153.38885498 -7255158.2714767456 0 -7255158.2714767456 -29279027.646507263 0 0 0 0 22905757.252149582 -11646594.719045639 0 -11646594.719045639 -26974204.832237244 0 0 0 0 13529321.116875667 -14205795.825311843 0 -14205795.825311843 -38121234.45145905 0 0 0 0 194019972.18538666 -5641383.179855451 0 -5641383.179855451 -155932214.60937917 0 0 0 0 38864780.127056122 -1275372.9848251343 0 -1275372.9848251343 -31717081.449481964 0 0 0 0 116865120.78907013 21638666.685852766 0 21638666.685852766 -14245339.227016926 0 0 0 0 85109666.357551575 110525831.52872241 0 110525831.52872241 -261739974.85801506 0 0 0 0 140623998.54253578 63894940.417421579 0 63894940.417421579 -47389435.317211151 0 0 0 0 42616179.493900299 26560370.491091013 0 26560370.491091013 18186797.038832664 0 0 0 0 10889063.435626984 69307062.857146144 0 69307062.857146144 2555118.5087509155 0 0 0 0 2414822.4211386293 420792.95126259513 0 420792.95126259513 -2079308.4310945258 0 0 0 0 79858815.463794708 -334915760.76894879 0 -334915760.76894879 -401555611.22838235 0 0 0 0 151505033.13404846 9349123.5058944225 0 9349123.5058944225 -196104202.92743766 0 0 0 0 54181292.953338623 80190563.883035779 0 80190563.883035779 -189085978.30531833 0 0 0 0 6270921.0516433716 186002321.8886807 0 186002321.8886807 -159582093.76658082 0 0 0 0 202863081.13266373 155617049.81076419 0 155617049.81076419 -213009243.15445995 0 0 0 0 -1500036.7790985107 127533890.41069269 0 127533890.41069269 -122633182.44153249 0 0 0 0 55568952.875061035 86505878.237873077 0 86505878.237873077 -113234947.39212227 0 0 0 0 180580895.39076328 39213069.882051349 0 39213069.882051349 -165516091.1849966 0 0 0 0 5752020.319801908 2495237.9909676164 0 2495237.9909676164 -3925773.3427648107 0 0 0 0 54068659.029014587 31677761.085253954 0 31677761.085253954 5236068.8308916092 0 0 0 0 101834772.7869873 16460980.497039795 0 16460980.497039795 -163149580.46612835 0 0 0 0 101890707.95932388 29043484.080329418 0 29043484.080329418 -42017437.340309143 0 0 0 0 14722684.515594482 55454322.346374512 0 55454322.346374512 26819493.816040039 0 0 0 0 57533349.472442627 70126330.046682358 0 70126330.046682358 21668045.960029602 0 0 0 0 9414421.1663991213 6412310.7156099621 0 6412310.7156099621 -3258567.8297964446 0 0 0 0 38477929.909545898 18094111.168260098 0 18094111.168260098 -7343142.6220169067 0 0 0 0 21759907.513221741 15776195.203331947 0 15776195.203331947 9321532.7369480133 0 0 0 0 25823635.642959595 24752211.322715759 0 24752211.322715759 30303216.843617439 0 0 0 0 -25360022.999992371 -1708006.3839488029 0 -1708006.3839488029 19957837.038684845 0 0 0 0 4647228.7704544067 38795380.649533272 0 38795380.649533272 24867356.781207085 0 0 0 0 21824221.530643463 20337064.120012283 0 20337064.120012283 40566760.295349121 0 0 0 0 -37415540.249633789 15839221.236700058 0 15839221.236700058 13728723.831216812 0 0 0 0 18919174.978523254 64252098.566964626 0 64252098.566964626 -13231243.059690475 0 0 0 0 -17534660.532211304 50737346.644296646 0 50737346.644296646 -16540671.093124866 0 0 0 0 -46960424.252967834 29800079.129650116 0 29800079.129650116 44102.258743286133 0 0 0 0 -9973773.7604446411 3049911.2537746429 0 3049911.2537746429 2918180.6833491325 0 0 0 0 -19157898.658638 -7137396.9389419556 0 -7137396.9389419556 -332705.64271783829 0 0 0 0 -35981842.460189819 -21717657.458818436 0 -21717657.458818436 -10751830.440231323 0 0 0 0 8595026.2276611328 -31386079.680029869 0 -31386079.680029869 -44467516.928178787 0 0 0 0 10080569.216621399 102586.07715368271 0 102586.07715368271 -11107060.827186584 0 0 0 0 -42060384.589279175 -18199284.555038452 0 -18199284.555038452 -11989459.528507233 0 0 0 0 -45071428.623626709 -68604539.131237984 0 -68604539.131237984 -35777275.613016129 0 0 0 0 -111109404.45082092 -47077722.236931801 0 -47077722.236931801 -5347670.9563941956 0 0 0 0 -118580973.10916471 32957610.584914982 0 32957610.584914982 -15339040.855007172 0 0 0 0 -232702434.62496185 -54996835.170147896 0 -54996835.170147896 -35727654.262293756 0 0 0 0 -76401845.828842163 102537432.96613407 0 102537432.96613407 -61915791.206260681 0 0 0 0 -98084324.686256409 15588759.512929916 0 15588759.512929916 -730263.84277534485 0 0 0 0 -306167109.32647705 42980511.422342539 0 42980511.422342539 -9067869.0127975941 0 0 0 0 -511858.67517852783 107722338.75156164 0 107722338.75156164 -78028241.092278957 0 0 0 0 4808072.9666290283 166091538.3534162 0 166091538.3534162 -314039216.54725885 0 0 0 0 -234945770.08811188 244447893.08856869 0 244447893.08856869 -142438603.29836082 0 0 0 0 -282154203.83789062 161900820.29235643 0 161900820.29235643 -217344711.53366828 0 0 0 0 -228894443.62869263 65236994.100745797 0 65236994.100745797 -224948218.09198248 0 0 0 0 -236568537.93199921 205567731.76820302 0 205567731.76820302 -178427231.96186996 0 0 0 0 -266003353.95717621 -232006285.82631874 0 -232006285.82631874 -215584856.18129826 0 0 0 0 1815370.8795743883 -930093.64589549974 0 -930093.64589549974 -2257893.6475565545 0 0 0 0 1836107.45875578 -12788.056500263512 0 -12788.056500263512 -2142075.1248065419 0 0 0 0 -285640086.09095764 -100964449.30197501 0 -100964449.30197501 -338550686.22344649 0 0 0 0 -272788071.4827137 -119031798.89859015 0 -119031798.89859015 -45685463.220740318 0 0 0 0 -263013595.43702698 -209700054.83577275 0 -209700054.83577275 -161432837.62941957 0 0 0 0 -259019277.32965088 -177598032.47943521 0 -177598032.47943521 -121181972.40444005 0 0 0 0 -272484716.22375488 -251545882.01982117 0 -251545882.01982117 -95993396.904420853 0 0 0 0 -149548039.53261948 -98154391.836499214 0 -98154391.836499214 -111432374.96936345 0 0 0 0 -393063370.45130157 -150882452.18134689 0 -150882452.18134689 -48409873.389289737 0 0 0 0 -864174.31192873744 -2916433.5757592805 0 -2916433.5757592805 -1029200.9256673418 0 0 0 0 642567177.62501526 -26200984.298481941 0 -26200984.298481941 -417073551.76188278 0 0 0 0 -1090718820.6788788 -320652672.25456429 0 -320652672.25456429 189980153.27449608 0 0 0 0 -250782.46671485901 819699.80001068115 0 819699.80001068115 5771116.59075737 0 0 0 0 2948200.9602386132 -1220359.5289288098 0 -1220359.5289288098 -4024739.8393237824 0 0 0 0 171567281.85608292 -140395438.64097023 0 -140395438.64097023 -203067646.61301422 0 0 0 0 3607023.6058997884 182416.44700464513 0 182416.44700464513 -4387595.2039188566 0 0 0 0 180769.30570602417 -11518336.231405973 0 -11518336.231405973 -25019939.971408844 0 0 0 0 -319163537.57131195 -248399216.77091122 0 -248399216.77091122 -73665715.012945175 0 0 0 0 128732720.03948402 14162798.225675583 0 14162798.225675583 42505359.2022295 0 0 0 0 49849360.731773376 -134162719.25048065 0 -134162719.25048065 -196613860.85005331 0 0 0 0 53725345.885385513 61651058.453926563 0 61651058.453926563 -146919823.02062798 0 0 0 0 460377145.83191299 -171320924.34562397 0 -171320924.34562397 -2912587.9978219867 0 0 0 0 277081182.13894272 96495715.912599564 0 96495715.912599564 -7464010.2444702685 0 0 0 0 529879990.79264069 144968258.7207737 0 144968258.7207737 -251538329.40553093 0 0 0 0 257401128.85074425 3990679.7154626846 0 3990679.7154626846 -296345496.6824894 0 0 0 0 139737435.89809418 131964580.28056908 0 131964580.28056908 -258921094.48816061 0 0 0 0 126135514.53661346 49385166.324928284 0 49385166.324928284 -254678459.04274845 0 0 0 0 278016844.80410004 -6782496.0592494011 0 -6782496.0592494011 -336353792.28440857 0 0 0 0 300604143.06280518 39977797.737123489 0 39977797.737123489 -265435907.94874954 0 0 0 0 396466373.46356964 -90529860.259968758 0 -90529860.259968758 -292605323.7549057 0 0 0 0 194170632.36435151 -137826059.87721843 0 -137826059.87721843 -301764218.50111008 0 0 0 0 22186158.959629059 -255613876.78099632 0 -255613876.78099632 -15306673.972385406 0 0 0 0 185677050.4339056 -51284406.666828275 0 -51284406.666828275 -130463921.3591156 0 0 0 0 10752773.907905102 61733560.388474226 0 61733560.388474226 -35909778.128501892 0 0 0 0 61726096.843143463 9812612.5564842224 0 9812612.5564842224 -11233326.557529449 0 0 0 0 54673872.991809845 35824943.266279221 0 35824943.266279221 -97336158.531282425 0 0 0 0 93608748.4088974 28075213.319993973 0 28075213.319993973 -95798053.485797882 0 0 0 0 2080352.965010548 -1689785.3064204985 0 -1689785.3064204985 -2814953.2192683648 0 0 0 0 -5305104.9771881104 -7814235.5398197174 0 -7814235.5398197174 -9588640.2721805573 0 0 0 0 -13925647.476360321 -18744161.289959908 0 -18744161.289959908 -18095274.808197021 0 0 0 0 -270065339.40467072 -899589760.37830114 0 -899589760.37830114 -64491215.470169067 0 0 0 0 -42284646.289264679 211241123.98783875 0 211241123.98783875 -238686265.56544495 0 0 0 0 -1067313764.1508865 468887456.8318367 0 468887456.8318367 -248555603.91467524 0 0 0 0 290098987.34411621 -297542320.77742004 0 -297542320.77742004 -590726406.18540764 0 0 0 0 4074424.5515753962 1686520.7309327479 0 1686520.7309327479 -4140823.9810654689 0 0 0 0 -1326138.7524337769 1016066.9574699402 0 1016066.9574699402 -5954618.4660186768 0 0 0 0 567328.23672866821 -8769874.2422542572 0 -8769874.2422542572 2812563.8507442474 0 0 0 0 -23311630.384872437 11225444.803955078 0 11225444.803955078 36498708.341152191 0 0 0 0 -18421151.171260834 -20030267.784960747 0 -20030267.784960747 -529886.55560112 0 0 0 0 -4357539.9146728516 -7168643.1507844925 0 -7168643.1507844925 48040241.006319046 0 0 0 0 2938721.5468215942 9483142.1721820831 0 9483142.1721820831 -8246371.2709627151 0 0 0 0 -14130055.329750061 27115012.74030304 0 27115012.74030304 80288741.740699768 0 0 0 0 8215532.3056775108 7913008.0022110585 0 7913008.0022110585 -4357826.7061699489 0 0 0 0 24216808.257011414 24067588.200973511 0 24067588.200973511 29511992.156224251 0 0 0 0 -19337616.000430584 -22713626.236262083 0 -22713626.236262083 28581350.451301575 0 0 0 0 1319213.6213253494 -933396.32286384981 0 -933396.32286384981 -1531297.9044231772 0 0 0 0 37191992.499519348 -22228656.993358612 0 -22228656.993358612 3428058.1812362671 0 0 0 0 27234987.842193604 64604867.503150582 0 64604867.503150582 -222890159.67071235 0 0 0 0 -67899090.81696701 41002119.410244942 0 41002119.410244942 26644581.900392294 0 0 0 0 -17206942.453464508 -44063945.469259024 0 -44063945.469259024 -102314127.16185975 0 0 0 0 31181091.425710678 22772546.129279137 0 22772546.129279137 16116419.50293541 0 0 0 0 37872038.978977203 30484807.46613884 0 30484807.46613884 -24861776.764057159 0 0 0 0 1575985.9014948905 2899700.7716093124 0 2899700.7716093124 2294648.1721817404 0 0 0 0 32356651.453046799 21082387.468817711 0 21082387.468817711 105365129.00170183 0 0 0 0 -22536763.404489517 -3971374.6943702698 0 -3971374.6943702698 45198080.811170578 0 0 0 0 318234.2712803036 8216938.9354355335 0 8216938.9354355335 28726754.859542847 0 0 0 0 2973006.0957827121 8272253.7146810703 0 8272253.7146810703 -3503141.2284616539 0 0 0 0 10388813.17811203 -30015519.733352423 0 -30015519.733352423 -183302991.8069272 0 0 0 0 -28269790.896457672 55328192.87124002 0 55328192.87124002 -28145095.386281669 0 0 0 0 -933233.78886868618 11189712.548023803 0 11189712.548023803 -3598216.0006431937 0 0 0 0 -895707.38211309165 810901.28083182126 0 810901.28083182126 4645000.4975664765 0 0 0 0 800299709.947752 394167867.55855721 0 394167867.55855721 -1276226047.0829587 0 0 0 0 56381471.616138458 -92116040.303344727 0 -92116040.303344727 -570764102.84016466 0 0 0 0 10594630.525632858 -54783594.280970275 0 -54783594.280970275 -450960196.57976055 0 0 0 0 35734569.778232574 73791904.220907569 0 73791904.220907569 -366312992.92623711 0 0 0 0 62391506.66847229 104589142.97906065 0 104589142.97906065 -579950065.61746693 0 0 0 0 148188076.32381821 141217269.26556444 0 141217269.26556444 -685615976.54675412 0 0 0 0 47450725.684438705 97796336.697811842 0 97796336.697811842 -338880705.51877117 0 0 0 0 13310100.926052094 86513150.606663465 0 86513150.606663465 -369406634.09658027 0 0 0 0 40221863.593076706 60314967.738392651 0 60314967.738392651 -288906682.01338434 0 0 0 0 64653050.089927673 53135717.725562572 0 53135717.725562572 -328152103.83093905 0 0 0 0 44848770.515228271 70433185.068217516 0 70433185.068217516 -271918992.48110807 0 0 0 0 52120384.923965454 119487600.40440094 0 119487600.40440094 -346027693.36061406 0 0 0 0 38368394.667514801 106302763.10998082 0 106302763.10998082 -271768538.0138464 0 0 0 0 60940848.427108765 101687574.62153196 0 101687574.62153196 -346377463.81637073 0 0 0 0 28204042.933792114 91623545.718091965 0 91623545.718091965 -275318146.36389923 0 0 0 0 47676101.760777235 34603361.765860736 0 34603361.765860736 -191854584.69159269 0 0 0 0 -5268186.9501338005 60179666.718723238 0 60179666.718723238 -145628706.15052128 0 0 0 0 12045084.774749756 57892067.31292963 0 57892067.31292963 -151199041.03057885 0 0 0 0 -3649518.7506132126 113471117.05258375 0 113471117.05258375 -237004953.64917183 0 0 0 0 1168349.4911956787 131848134.74558473 0 131848134.74558473 -230920772.53099108 0 0 0 0 36243388.404968262 139671271.46961021 0 139671271.46961021 -377666932.35846645 0 0 0 0 -98302159.599952698 -122215018.70211381 0 -122215018.70211381 -337133787.9163264 0 0 0 0 5297957.9631690979 56714513.34665525 0 56714513.34665525 -309070039.50581133 0 0 0 0 29118067.687494278 19205527.84349522 0 19205527.84349522 -270161925.51604176 0 0 0 0 -162261461.74999619 127830388.54818732 0 127830388.54818732 -323561790.97618592 0 0 0 0 50016688.019780159 67043062.458024308 0 67043062.458024308 -430295319.90675259 0 0 0 0 -100407736.86873627 -88113443.784754187 0 -88113443.784754187 -248756246.22659862 0 0 0 0 -664535851.9546051 19277841.494218975 0 19277841.494218975 -268756736.41092193 0 0 0 0 207861.56682796311 378279.57160426304 0 378279.57160426304 -923814.84539944713 0 0 0 0 113027865.79279518 -371447601.02514917 0 -371447601.02514917 -363169347.17761183 0 0 0 0 -68781512.545730591 -181413526.76720774 0 -181413526.76720774 -556145291.89755487 0 0 0 0 -257811420.15209198 2016848.4898748398 0 2016848.4898748398 -396562173.55461192 0 0 0 0 -211475985.72916627 -319662861.95140839 0 -319662861.95140839 -524164561.90614605 0 0 0 0 -45620566.866160393 -100806644.12943152 0 -100806644.12943152 -351358190.71251965 0 0 0 0 -160921441.25507164 -348116884.98489362 0 -348116884.98489362 -556500668.11394143 0 0 0 0 20125999.583881378 -54218997.246878207 0 -54218997.246878207 -675982164.84987736 0 0 0 0 18367812.259057939 38829615.264942721 0 38829615.264942721 -371543139.78123111 0 0 0 0 -31867555.851388931 176021687.75917608 0 176021687.75917608 -365981064.97916126 0 0 0 0 -98311127.666110992 160980810.49236012 0 160980810.49236012 -84745267.29569149 0 0 0 0 51177387.235774994 27314268.238896996 0 27314268.238896996 -55347352.785796963 0 0 0 0 51861838.097499847 -19521811.490084618 0 -19521811.490084618 -308589492.34939098 0 0 0 0 210919611.81538391 98902593.299438626 0 98902593.299438626 -129236117.74401522 0 0 0 0 197441648.81756604 -69207507.789890721 0 -69207507.789890721 -258367868.2369706 0 0 0 0 41146948.396511078 -93210415.166246533 0 -93210415.166246533 -239316275.11417982 0 0 0 0 51964227.195732117 -190223640.6785239 0 -190223640.6785239 -441149656.84403998 0 0 0 0 -27103432.172203064 -115738054.22058886 0 -115738054.22058886 -239887373.01499608 0 0 0 0 108211926.07381821 -17454358.413158193 0 -17454358.413158193 -210907552.26655251 0 0 0 0 109373248.48488617 -103805976.9555465 0 -103805976.9555465 -279551444.84593606 0 0 0 0 21515613.665304914 778873.80615202233 0 778873.80615202233 -11815877.885754948 0 0 0 0 40791649.827383518 -73015381.263220623 0 -73015381.263220623 -213782988.01500487 0 0 0 0 442752.26013183594 36341928.113685608 0 36341928.113685608 65477159.546455383 0 0 0 0 36779400.64963913 -5461354.5814497471 0 -5461354.5814497471 20574949.078787446 0 0 0 0 13908691.878999665 7374224.4054923737 0 7374224.4054923737 -6223760.6304151276 0 0 0 0 6671397.4027833957 2598521.1346602952 0 2598521.1346602952 395688.97696861404 0 0 0 0 29534288.230154037 -30138863.573615074 0 -30138863.573615074 -89650583.21227479 0 0 0 0 31109115.166233063 -14088240.861370981 0 -14088240.861370981 11273008.871181726 0 0 0 0 68749199.438649654 89856981.254447922 0 89856981.254447922 -35687397.765908957 0 0 0 0 67895398.846115112 79615659.433615327 0 79615659.433615327 -137533180.61501384 0 0 0 0 -153248730.17032433 -186498610.50680655 0 -186498610.50680655 -249020497.79302818 0 0 0 0 1767483.5653824238 866690.37904975656 0 866690.37904975656 319412.69988937338 0 0 0 0 -33090739.645139217 -137086423.35371196 0 -137086423.35371196 -230435313.82419944 0 0 0 0 -146588439.97993124 -207949525.36985779 0 -207949525.36985779 -519593704.36325073 0 0 0 0 104652416.47129792 45631406.989593506 0 45631406.989593506 -177782261.82159424 0 0 0 0 44688.915074522018 -10861.532196864486 0 -10861.532196864486 -500586.38927838206 0 0 0 0 -159118979.47438398 60797296.662582397 0 60797296.662582397 101221512.52862549 0 0 0 0 -193859814.91966203 -219994912.222229 0 -219994912.222229 -73618254.895160675 0 0 0 0 -147225.95928266234 -67531858.156616211 0 -67531858.156616211 -158234871.94259644 0 0 0 0 -31144719.603080779 -264899217.95484924 0 -264899217.95484924 -560694807.89752197 0 0 0 0 -73126285.278599143 49109965.71194458 0 49109965.71194458 1461858.9919815063 0 0 0 0 59596.725928696265 -50082.774750985205 0 -50082.774750985205 -807053.01938532293 0 0 0 0 -85262537.18183358 -21446413.511260986 0 -21446413.511260986 1889440.8045654297 0 0 0 0 -5650241.6555626411 34597679.99647522 0 34597679.99647522 -21278680.814453125 0 0 0 0 -9975524.127640631 -36333427.274414062 0 -36333427.274414062 -18806375.190795898 0 0 0 0 -59532046.775912859 -93849838.501663208 0 -93849838.501663208 -44778073.401611328 0 0 0 0 -56988214.092765734 -73499905.674342155 0 -73499905.674342155 -57051964.976623535 0 0 0 0 -82011216.817810178 -88742836.010635376 0 -88742836.010635376 -38480659.489074707 0 0 0 0 -70205184.839937299 -98976888.713638306 0 -98976888.713638306 -29772873.754211426 0 0 0 0 -66760632.635867059 -85148611.748031616 0 -85148611.748031616 -55036726.073974609 0 0 0 0 -46161471.980454564 -69090453.369567871 0 -69090453.369567871 -67246757.493835449 0 0 0 0 -90404872.96238035 -44749677.212585449 0 -44749677.212585449 -76758176.263458252 0 0 0 0 5443895.4115227461 -30876787.519264221 0 -30876787.519264221 -59722087.588897705 0 0 0 0 2922246.2404769659 -11686596.176040649 0 -11686596.176040649 -102960555.84077454 0 0 0 0 -28525031.063441753 -29461606.307022095 0 -29461606.307022095 -107497067.67090607 0 0 0 0 -18034376.358445764 -63493091.842330933 0 -63493091.842330933 -167979835.86608887 0 0 0 0 17504885.819079995 -13147612.150146484 0 -13147612.150146484 -168784452.74749756 0 0 0 0 -71365004.947025836 -110805411.92657471 0 -110805411.92657471 -204019006.19254142 0 0 0 0 -41248729.19891715 -122577383.52362061 0 -122577383.52362061 -344718179.84893799 0 0 0 0 -78539020.346696675 -24302653.64453125 0 -24302653.64453125 -67456973.142730713 0 0 0 0 -90164581.973182678 48623428.819015503 0 48623428.819015503 -262363413.53808594 0 0 0 0 -38874152.320899814 3707584.2701568604 0 3707584.2701568604 -204601324.88775635 0 0 0 0 -12761932.281910226 310427350.53163147 0 310427350.53163147 -272464869.06497192 0 0 0 0 17284.81855704631 -267266.13798905909 0 -267266.13798905909 -1029475.8848323226 0 0 0 0 -251322379.43675655 -341110445.71818542 0 -341110445.71818542 -133146951.02310181 0 0 0 0 -69002255.04334712 -81988492.408859253 0 -81988492.408859253 -120489822.90234375 0 0 0 0 -59445787.721235126 -56595389.200710297 0 -56595389.200710297 -124053166.16229248 0 0 0 0 8046293.398550272 -41349187.454101562 0 -41349187.454101562 -149975844.48742676 0 0 0 0 -39316206.278695941 -40097481.506057739 0 -40097481.506057739 -111378920.25253296 0 0 0 0 -64529725.751832962 -219747846.82305527 0 -219747846.82305527 -862735577.52093506 0 0 0 0 210755.41952655336 -1372787.7886988074 0 -1372787.7886988074 -2779998.2937044501 0 0 0 0 -202347453.17552829 -519590586.42541504 0 -519590586.42541504 -841129852.71383667 0 0 0 0 -151401688.11561811 -260318804.34490967 0 -260318804.34490967 -1051891195.8904572 0 0 0 0 -96111861.563374624 -502967582.52883911 0 -502967582.52883911 -1083260362.4821396 0 0 0 0 34710795.091842242 -506924667.21564484 0 -506924667.21564484 -856074931.72216797 0 0 0 0 -193519428.57569742 -159263439.95059204 0 -159263439.95059204 -937466710.57781219 0 0 0 0 -209378042.23425162 -75815646.237503052 0 -75815646.237503052 -623545259.17599487 0 0 0 0 37046.881938454113 -88647502.510704041 0 -88647502.510704041 -651027357.20001984 0 0 0 0 -50784420.4995851 -302151702.7097435 0 -302151702.7097435 -1182618569.1554565 0 0 0 0 -304584738.15011299 -569639767.21884155 0 -569639767.21884155 -1240283165.8636246 0 0 0 0 -1559221.3514994567 -276709690.73236084 0 -276709690.73236084 -1990579665.4754639 0 0 0 0 -251519750.39695862 -183690332.66925335 0 -183690332.66925335 -1461819736.0203247 0 0 0 0 -713035049.17820978 -611684725.56684875 0 -611684725.56684875 -1659473946.4230042 0 0 0 0 290256.01877631299 -587197.27024991065 0 -587197.27024991065 -4043842.2730073556 0 0 0 0 -282147824.36151755 -1229242649.76931 0 -1229242649.76931 -2887892652.654068 0 0 0 0 519985785.0414356 -1608701026.2216454 0 -1608701026.2216454 -5969735579.9727936 0 0 0 0 -2877675.1409096858 -270973558.32741171 0 -270973558.32741171 -2653329055.8544006 0 0 0 0 -1198472610.5031934 -2395065762.325325 0 -2395065762.325325 -271684891.64645386 0 0 0 0 -2127465.3649323755 -3343086.3224144429 0 -3343086.3224144429 -2236132.4842456877 0 0 0 0 -1084166039.789546 -2941393060.2195129 0 -2941393060.2195129 -1793755630.7211456 0 0 0 0 572138.17506723839 64040.916324444115 0 64040.916324444115 -2574357.8224874884 0 0 0 0 -410247937.63020945 -1474258209.6416779 0 -1474258209.6416779 -2173841977.5019836 0 0 0 0 1292890817.3475738 586405907.58830261 0 586405907.58830261 -1182617151.0395355 0 0 0 0 -613566323.95578337 -896513805.74677658 0 -896513805.74677658 1139540845.6049805 0 0 0 0 263470565.94248927 -346213594.24224091 0 -346213594.24224091 -1812260574.098114 0 0 0 0 157060214.87633443 -496509143.63801956 0 -496509143.63801956 -1776871238.6203308 0 0 0 0 997749495.30529165 -501061612.84770203 0 -501061612.84770203 -1911682900.4306183 0 0 0 0 -216019810.70418718 -319130848.86502075 0 -319130848.86502075 -1810273346.9781113 0 0 0 0 -10702240.423191227 -268147825.53881836 0 -268147825.53881836 -1731583581.3810005 0 0 0 0 -80868933.374082178 -608284563.06149292 0 -608284563.06149292 -1814506998.7205048 0 0 0 0 26527202.827481866 -404992290.10630798 0 -404992290.10630798 -1544711659.6231689 0 0 0 0 191965196.8988781 -464437028.75004578 0 -464437028.75004578 -1543233202.7399902 0 0 0 0 -472860467.95402241 -902953680.14347839 0 -902953680.14347839 -1368965280.4789581 0 0 0 0 144365409.81769627 -681066182.15839195 0 -681066182.15839195 -1874669860.0301208 0 0 0 0 537556.54852698161 -3306312.7818705663 0 -3306312.7818705663 -4965744.2015661299 0 0 0 0 -448248369.73630786 -1006187176.4757843 0 -1006187176.4757843 -966322445.66809654 0 0 0 0 -2110629111.2635703 -2358004060.0484314 0 -2358004060.0484314 -1099356985.3409195 0 0 0 0 -41424189.982739568 -82771968.969398499 0 -82771968.969398499 -67599457.369369507 0 0 0 0 32918222.448345661 -461608.91731262207 0 -461608.91731262207 -65829574.797391891 0 0 0 0 -659440701.416852 -742649456.77043533 0 -742649456.77043533 -957476309.76828003 0 0 0 0 3530155.7809205237 -7049995.6232070848 0 -7049995.6232070848 -9872459.9190858603 0 0 0 0 17798444.288991451 -38599049.895904541 0 -38599049.895904541 -64772994.601612091 0 0 0 0 -461714934.16385365 -772317924.15332031 0 -772317924.15332031 -4138275031.8207397 0 0 0 0 -582419070.76928711 -2589230103.9213409 0 -2589230103.9213409 -1080532233.30896 0 0 0 0 -1825437862.865932 -1470860144.1254706 0 -1470860144.1254706 -750882802.45275879 0 0 0 0 -566357465.1135726 -3148909146.6714325 0 -3148909146.6714325 -118850397.68023682 0 0 0 0 1646575089.9470103 -565504228.47311401 0 -565504228.47311401 -2517004453.9601898 0 0 0 0 -2118200.3668563622 -3077784.1788299307 0 -3077784.1788299307 -2549968.2545750886 0 0 0 0 535093051.4641304 -1612587290.2749023 0 -1612587290.2749023 -3097424843.5832977 0 0 0 0 -1321338482.23929 -590828069.75967407 0 -590828069.75967407 1134418567.6514816 0 0 0 0 -1231114947.8623648 -2932878893.5707092 0 -2932878893.5707092 562698080.44009399 0 0 0 0 -1744926383.20577 -2455031119.2857819 0 -2455031119.2857819 125529018.22119141 0 0 0 0 -2781137155.5324149 -1172719514.0852432 0 -1172719514.0852432 -512654038.35415649 0 0 0 0 -2030632275.8474851 -2555914207.6025925 0 -2555914207.6025925 -2181326010.3687134 0 0 0 0 -1419013199.6778736 -2933331422.9238739 0 -2933331422.9238739 -5978998131.5559235 0 0 0 0 1111848306.7705083 -130368025.91160583 0 -130368025.91160583 -2919972219.7382507 0 0 0 0 2448229635.6148629 914252879.81360626 0 914252879.81360626 -3998017252.1189575 0 0 0 0 1519984553.4958923 -1121796455.9210968 0 -1121796455.9210968 -5974808228.0916157 0 0 0 0 1229776004.1764207 -322944769.68143463 0 -322944769.68143463 -5963465364.9801331 0 0 0 0 -706594094.07701409 845797169.17429352 0 845797169.17429352 -1094285070.4779968 0 0 0 0 -1606324.9455339906 -6061712.0873056557 0 -6061712.0873056557 -6166093.7122062296 0 0 0 0 -6655495178.6392536 -3488292654.7254639 0 -3488292654.7254639 -1860913488.5871429 0 0 0 0 -680304979.31949139 1729171206.446907 0 1729171206.446907 -2334115593.1718445 0 0 0 0 -296073.0945073656 -7462190.0702979993 0 -7462190.0702979993 -15263231.357410282 0 0 0 0 -2197601793.5881472 -1398009995.7275391 0 -1398009995.7275391 -425679237.87426758 0 0 0 0 32725769.919225812 -55747341.807121277 0 -55747341.807121277 20503817.197608948 0 0 0 0 3529366.2709326483 -3668907.3455434069 0 -3668907.3455434069 -8228682.3041995391 0 0 0 0 -29824711.405271292 -457445572.86030579 0 -457445572.86030579 -396131627.33564758 0 0 0 0 -136069801.03088945 -304381061.99351501 0 -304381061.99351501 -142081146.88516235 0 0 0 0 831784.32612750703 -1126518.8454520479 0 -1126518.8454520479 -2399521.947241351 0 0 0 0 -50598243.165556788 9980812.8182983398 0 9980812.8182983398 24618022.554534912 0 0 0 0 -81055376.763440669 40114727.785903931 0 40114727.785903931 -2768708.3251037598 0 0 0 0 -97638806.50804697 15311271.535934448 0 15311271.535934448 59650877.737640381 0 0 0 0 -117113228.41813684 37163948.386764526 0 37163948.386764526 40292569.048278809 0 0 0 0 -136022122.0674082 -50230391.56439209 0 -50230391.56439209 -14578880.035125732 0 0 0 0 -43873766.592281342 26702038.109512329 0 26702038.109512329 -13741841.715515137 0 0 0 0 -44256586.752043903 32613983.791873455 0 32613983.791873455 -38142997.85559082 0 0 0 0 19457135.036635749 96121510.935836792 0 96121510.935836792 19774224.178009033 0 0 0 0 5123810.6035275459 -30705024.287094116 0 -30705024.287094116 -48150329.313110352 0 0 0 0 -30087830.370320559 18140523.144844055 0 18140523.144844055 -18443930.390563965 0 0 0 0 3394506.9800496115 -2733586.626596381 0 -2733586.626596381 -23160964.678103298 0 0 0 0 -48588364.415368557 14976463.77041626 0 14976463.77041626 14058630.584457397 0 0 0 0 -44991664.459550381 29751068.465286255 0 29751068.465286255 -27260899.124786377 0 0 0 0 2258093.0464053154 -10294326.436157227 0 -10294326.436157227 -36166595.794109344 0 0 0 0 21255164.709246159 6645323.3783874512 0 6645323.3783874512 -20333585.369476318 0 0 0 0 -8842372.3096586764 36453752.14855957 0 36453752.14855957 -38816414.922454834 0 0 0 0 -60337583.301274776 2767504.2741088867 0 2767504.2741088867 -30915834.432937622 0 0 0 0 -31824782.569449902 -2323319.6379089355 0 -2323319.6379089355 -70053535.914489746 0 0 0 0 -43734336.24088192 43955871.282089233 0 43955871.282089233 15292988.077941895 0 0 0 0 -884964.43286099937 271824.26686578058 0 271824.26686578058 -138752.50892983377 0 0 0 0 -6992604.5268838406 52436913.960800171 0 52436913.960800171 -63831730.01763916 0 0 0 0 17559685.938874304 41100996.64805603 0 41100996.64805603 -46755775.74206543 0 0 0 0 -14279452.676986217 40997093.335281372 0 40997093.335281372 5774042.8077392578 0 0 0 0 725794.66623009625 693654.09542970359 0 693654.09542970359 -2380083.6909454986 0 0 0 0 -27468780.746147156 1930665.9800720215 0 1930665.9800720215 -23800428.876220703 0 0 0 0 -1747448.9450567961 22264152.722198486 0 22264152.722198486 6914870.2661476135 0 0 0 0 -5899465.150229888 6117199.1475486755 0 6117199.1475486755 -7589974.7761230469 0 0 0 0 -957585.91425792314 -233599.70892009884 0 -233599.70892009884 -37796174.62195988 0 0 0 0 -13199655.714874148 -6240915.55809021 0 -6240915.55809021 -14287176.514587402 0 0 0 0 48298791.22909832 -50387267.245689392 0 -50387267.245689392 -25344214.127075195 0 0 0 0 2070614.5243183516 -5045838.9391079294 0 -5045838.9391079294 -29841302.836291254 0 0 0 0 16459878.884836882 1973223.4680938721 0 1973223.4680938721 -13924330.525512695 0 0 0 0 13328914.021274559 -1615935.0589599609 0 -1615935.0589599609 -18023455.024627686 0 0 0 0 5517644.4348706603 5735439.4077606201 0 5735439.4077606201 -9983840.9797363281 0 0 0 0 -2405275.7555054468 3701595.3175567724 0 3701595.3175567724 -5584325.459638074 0 0 0 0 18931976.885093033 6647036.4235315323 0 6647036.4235315323 -12844302.957275391 0 0 0 0 18051034.414986677 332074.27803039551 0 332074.27803039551 -13632207.377929688 0 0 0 0 21013085.327479362 -55682843.068374634 0 -55682843.068374634 -16116060.894836426 0 0 0 0 44091158.07935901 7018511.4425811768 0 7018511.4425811768 -7894847.8482666016 0 0 0 0 161074063.54742718 -40610389.574584961 0 -40610389.574584961 -122336388.87171936 0 0 0 0 3528245.4569509607 5260054.9614203982 0 5260054.9614203982 -32179245.721382767 0 0 0 0 39652240.079442024 26212718.307502747 0 26212718.307502747 -16703948.757019043 0 0 0 0 111612.55091188311 198402.0380467698 0 198402.0380467698 -408613.38651054353 0 0 0 0 60403858.115561828 24692572.995880127 0 24692572.995880127 -11407018.694702148 0 0 0 0 -14327246.217176676 -152471234.84855652 0 -152471234.84855652 -109155561.10491943 0 0 0 0 -61965685.148792267 -48413957.447189331 0 -48413957.447189331 2316010.2782592773 0 0 0 0 26669526.980021417 -79798496.673271179 0 -79798496.673271179 7181924.809387207 0 0 0 0 -127559.3904273199 -6286645.3109937254 0 -6286645.3109937254 -706883.49424639344 0 0 0 0 3451160.9492083155 552099.7388937436 0 552099.7388937436 -22330683.2836992 0 0 0 0 8990016.8579241633 -836579.87589645386 0 -836579.87589645386 -23096982.714538574 0 0 0 0 34336801.730581731 13045686.187425613 0 13045686.187425613 -40129790.715423584 0 0 0 0 14678715.564260483 -29093260.212402344 0 -29093260.212402344 -15970495.950775146 0 0 0 0 -440167.37014179025 -6936676.4201149568 0 -6936676.4201149568 -26348141.784366131 0 0 0 0 -5270483.7410440445 2653020.535736084 0 2653020.535736084 -4420804.2838973999 0 0 0 0 102843844.70396686 -51008137.899375916 0 -51008137.899375916 -78905322.627380371 0 0 0 0 -1596061.0132565498 15806874.00428772 0 15806874.00428772 -11282818.000320435 0 0 0 0 20663082.419823587 -58278524.778344154 0 -58278524.778344154 44772925.328948975 0 0 0 0 34463.330284870462 -1048895.094734326 0 -1048895.094734326 -4983692.015050631 0 0 0 0 -75152142.816512108 -17834010.579605103 0 -17834010.579605103 -2409391.9790496826 0 0 0 0 63434316.499569178 46004043.158065796 0 46004043.158065796 -105931440.61186218 0 0 0 0 8759427.7627909184 -4479708.7035217285 0 -4479708.7035217285 -143969962.73052979 0 0 0 0 90498247.725657463 -13925028.327758789 0 -13925028.327758789 -115402511.26904297 0 0 0 0 -26730898.008468628 -94420524.531616211 0 -94420524.531616211 20274687.828765869 0 0 0 0 -147808268.84400082 -5797879.650177002 0 -5797879.650177002 -23379606.884765625 0 0 0 0 -27060002.927074432 81002555.625717163 0 81002555.625717163 -179977787.31309509 0 0 0 0 70035924.183632374 5697565.0344848633 0 5697565.0344848633 -253023438.72079468 0 0 0 0 67296862.564679652 -10159089.698875427 0 -10159089.698875427 -159736625.98736572 0 0 0 0 51528288.985574484 -12450120.551452637 0 -12450120.551452637 -159308193.75569153 0 0 0 0 36523328.960689783 26792604.875259399 0 26792604.875259399 2626681.7775726318 0 0 0 0 46393966.901031494 -13732665.361495972 0 -13732665.361495972 -99381022.862787247 0 0 0 0 23215400.731078506 -35648020.080566406 0 -35648020.080566406 -102578248.91265869 0 0 0 0 49419810.147552729 -64023343.687843323 0 -64023343.687843323 -160766050.26081848 0 0 0 0 29852431.982775211 -52553814.993682861 0 -52553814.993682861 -57345619.123153687 0 0 0 0 460189.3641354813 589044.63851365447 0 589044.63851365447 -409063.45899927616 0 0 0 0 -10361558.012831688 -3945413.2758789062 0 -3945413.2758789062 10773724.763317108 0 0 0 0 -119204405.56750214 67059361.067474365 0 67059361.067474365 -24090214.360443115 0 0 0 0 1246007.2098362225 1013137.9982744297 0 1013137.9982744297 -28994473.193701744 0 0 0 0 3612672.7791121751 -7928532.6627068594 0 -7928532.6627068594 -32040149.398533627 0 0 0 0 27503918.683665276 -5003013.7763671875 0 -5003013.7763671875 -14455589.338409424 0 0 0 0 136434214.25234663 78799082.689697266 0 78799082.689697266 -128743208.02941895 0 0 0 0 154536638.98543191 55260573.098822594 0 55260573.098822594 -62881878.983139038 0 0 0 0 48725781.73928225 -14040727.288528442 0 -14040727.288528442 -19712237.569572449 0 0 0 0 6109524.9162113359 -17166930.77811937 0 -17166930.77811937 -35845759.549236499 0 0 0 0 66331171.567361355 51278778.925460815 0 51278778.925460815 -305944409.63430786 0 0 0 0 73554367.543016434 4627451.8898620605 0 4627451.8898620605 -22151483.241577148 0 0 0 0 3890954.1208415031 -44876581.316650391 0 -44876581.316650391 -215940061.18161011 0 0 0 0 2243091.6381086111 -14231218.725524902 0 -14231218.725524902 -148864692.6806488 0 0 0 0 9585552.0261292458 29797475.515487671 0 29797475.515487671 -151808620.08021498 0 0 0 0 -15741709.416801453 42522574.83921814 0 42522574.83921814 -45185391.969902039 0 0 0 0 3451253.6908500181 9194711.6564654801 0 9194711.6564654801 -6125435.4229367226 0 0 0 0 25291931.147475243 -6762397.2958374023 0 -6762397.2958374023 -68035034.427337646 0 0 0 0 -15113486.719079971 51691135.074874878 0 51691135.074874878 -19511096.480148315 0 0 0 0 738017.24234104156 -16099213.262557983 0 -16099213.262557983 -81727711.527816772 0 0 0 0 30410511.545487404 -4425454.1274032593 0 -4425454.1274032593 -115987521.06056976 0 0 0 0 -119234210.49800539 -68531084.341346741 0 -68531084.341346741 -94451077.659484863 0 0 0 0 -485176078.79742813 -269484060.98086548 0 -269484060.98086548 51294956.731216431 0 0 0 0 759285.27607054682 1671622.8976312317 0 1671622.8976312317 -1702639.3756405562 0 0 0 0 -193205770.86021137 116910156.5824585 0 116910156.5824585 39424095.118232727 0 0 0 0 373443446.57782698 -80060150.952575684 0 -80060150.952575684 -214864531.14271545 0 0 0 0 111263265.0634141 38176104.020622253 0 38176104.020622253 152933038.9706192 0 0 0 0 -17296519.31880784 -188063535.24816895 0 -188063535.24816895 -158836388.46539307 0 0 0 0 132381204.50664186 -114614922.42611694 0 -114614922.42611694 -180976430.18251038 0 0 0 0 107715370.19785525 3349526.2019290924 0 3349526.2019290924 -303400092.93054199 0 0 0 0 121945170.10775703 -189521641.55863953 0 -189521641.55863953 -82590004.155044556 0 0 0 0 294877502.83780658 -13699100.360641479 0 -13699100.360641479 -547335927.10275269 0 0 0 0 1595998.3897144995 488835.9265884012 0 488835.9265884012 -4178766.5234571099 0 0 0 0 -65279013.094961643 -203195320.47377777 0 -203195320.47377777 53385523.270313263 0 0 0 0 -631144666.4566164 98440125.077911377 0 98440125.077911377 435440502.92783356 0 0 0 0 212229812.69227684 199242346.12184906 0 199242346.12184906 -145960885.93338013 0 0 0 0 184038070.5316143 -353737599.6293869 0 -353737599.6293869 -152715889.68018341 0 0 0 0 -61851945.806581974 -330027798.19365692 0 -330027798.19365692 -94278819.397994995 0 0 0 0 -425160113.26752758 -460913163.28903198 0 -460913163.28903198 -135943606.39170837 0 0 0 0 14157613.689116716 -386258857.33927917 0 -386258857.33927917 -618405139.06668091 0 0 0 0 -15555164.427763402 322839038.11173248 0 322839038.11173248 -505574401.45330048 0 0 0 0 -63948384.349673212 44815526.639724731 0 44815526.639724731 -198006724.5546875 0 0 0 0 -94281835.837644815 -517939065.15088367 0 -517939065.15088367 -35738153.009613037 0 0 0 0 -981282.85126401763 559320.05297636241 0 559320.05297636241 -2052049.5750499591 0 0 0 0 187113037.95509052 -5822625.2798614502 0 -5822625.2798614502 53750204.993900299 0 0 0 0 179957490.50617695 183082756.93165398 0 183082756.93165398 38750070.013145447 0 0 0 0 3178055.4785706545 5279029.726697959 0 5279029.726697959 -12875671.022375895 0 0 0 0 225915654.62887812 220370479.20393372 0 220370479.20393372 -450273476.65206718 0 0 0 0 -540844086.4984746 22884433.095905304 0 22884433.095905304 320101515.97554779 0 0 0 0 -2361199.5251640696 5754096.6374206729 0 5754096.6374206729 -7222443.3119240999 0 0 0 0 -10243690.584809959 -28698598.572616577 0 -28698598.572616577 -6387948.5808868408 0 0 0 0 30711129.517861843 7943298.8872146606 0 7943298.8872146606 -36497366.660758972 0 0 0 0 7188613.1993245259 -25269451.703722 0 -25269451.703722 -50719568.417297363 0 0 0 0 8502542.8957396746 15163314.151824951 0 15163314.151824951 -16140143.328964233 0 0 0 0 -2956415.2716965675 5916221.4459457397 0 5916221.4459457397 -23506808.27192688 0 0 0 0 4831773.0949246353 7284198.9900683798 0 7284198.9900683798 -14692511.26742404 0 0 0 0 377626.79094701237 453835.19862100482 0 453835.19862100482 -4638707.096497288 0 0 0 0 230834029.92677927 14673507.668052673 0 14673507.668052673 -53520737.705413818 0 0 0 0 15166703.706481457 351773.57028198242 0 351773.57028198242 -39393263.793388367 0 0 0 0 717348.50398742815 4939142.5994304717 0 4939142.5994304717 -691788.97026111186 0 0 0 0 1487406.6471591094 1593753.2540140264 0 1593753.2540140264 -11104976.385780796 0 0 0 0 4653630.3554421663 5972225.0674591064 0 5972225.0674591064 -12628087.326187134 0 0 0 0 2004556.4447169425 7791420.6832572501 0 7791420.6832572501 -6437694.6549548805 0 0 0 0 4784125.0297470093 5967783.1936645508 0 5967783.1936645508 -3400393.3063964844 0 0 0 0 3849126.0777013628 498909.38714406639 0 498909.38714406639 -28773553.372012414 0 0 0 0 -15558554.639709473 20748084.366249084 0 20748084.366249084 27787371.152450562 0 0 0 0 1766830.4946371741 3631710.4855421036 0 3631710.4855421036 -17426174.714934733 0 0 0 0 2967037.3767517842 8011454.248286102 0 8011454.248286102 -16900673.882007517 0 0 0 0 6249111.689997673 6964460.5135803223 0 6964460.5135803223 -12771228.437744141 0 0 0 0 -1058244.2929129601 1567071.1079711914 0 1567071.1079711914 -10423009.42980957 0 0 0 0 4016031.0162078645 6722563.6200043559 0 6722563.6200043559 -21117946.477457091 0 0 0 0 7294442.1862449646 3969504.9730224609 0 3969504.9730224609 -9040160.6408691406 0 0 0 0 -178436.27501137595 6886898.3566654837 0 6886898.3566654837 -9354733.7763599306 0 0 0 0 6389979.9361383915 6555462.9048919678 0 6555462.9048919678 -14749603.803039551 0 0 0 0 2694221.0853160224 -1378745.9039661214 0 -1378745.9039661214 -23223247.355513189 0 0 0 0 3257544.8975319266 6186180.7218322754 0 6186180.7218322754 -6996284.1658935547 0 0 0 0 -1652690.347714327 -863224.73507423699 0 -863224.73507423699 -23017520.511221722 0 0 0 0 4219641.6825523376 1191617.8450927734 0 1191617.8450927734 -10708614.353515625 0 0 0 0 -146951.3305903406 7246103.8899641056 0 7246103.8899641056 -7113857.3416125476 0 0 0 0 2882933.1373625994 2938097.5814819336 0 2938097.5814819336 -10168605.40435791 0 0 0 0 30921917.030840725 21143028.944671631 0 21143028.944671631 -22681486.449920654 0 0 0 0 461780.4496044371 4845660.0411916096 0 4845660.0411916096 -1133662.0675210804 0 0 0 0 33025987.855596766 53346178.74839592 0 53346178.74839592 -41153086.658905029 0 0 0 0 800784.57906041818 346971.81621208135 0 346971.81621208135 -13502710.91769512 0 0 0 0 4200720.2149419785 -430303.85210418701 0 -430303.85210418701 -5720005.1300010681 0 0 0 0 -189404.25701230974 -386098.8308266215 0 -386098.8308266215 -15648565.915335596 0 0 0 0 5385037.3137726784 -5360709.6898727417 0 -5360709.6898727417 -31448678.163345337 0 0 0 0 8732493.6703197956 -4432449.0228157043 0 -4432449.0228157043 -33609223.589691162 0 0 0 0 7959836.5368121862 -6172779.7932357788 0 -6172779.7932357788 -35064439.57749939 0 0 0 0 6376018.6379151344 -3442893.7595481873 0 -3442893.7595481873 -28815805.32611084 0 0 0 0 -4669260.1974449158 20483480.5987854 0 20483480.5987854 -34130821.228591919 0 0 0 0 11956248.763304234 11584774.084335327 0 11584774.084335327 -71997928.822113037 0 0 0 0 -787970.39396670903 984647.49426264595 0 984647.49426264595 -24472154.699271232 0 0 0 0 33890601.071116924 -14630781.113025665 0 -14630781.113025665 -81300174.035797119 0 0 0 0 249894792.49763322 89852158.158622742 0 89852158.158622742 -16089890.294998169 0 0 0 0 34700664.172690749 189864.15216064453 0 189864.15216064453 15759916.693481445 0 0 0 0 2390312.0464842301 -3983436.5065302625 0 -3983436.5065302625 -3308714.0038390532 0 0 0 0 25540294.138811588 184858727.06386566 0 184858727.06386566 216451383.02023315 0 0 0 0 8358324.0688915253 15839187.045425415 0 15839187.045425415 -24268170.493774414 0 0 0 0 -190332414.07352045 -200258636.29862976 0 -200258636.29862976 251560919.98020172 0 0 0 0 -21037529.200226307 -4570577.7157363892 0 -4570577.7157363892 423557.67280578613 0 0 0 0 -7238059.7370724678 -5294820.2196044922 0 -5294820.2196044922 -64023265.663475037 0 0 0 0 -5822938.7880898714 6461249.6591033936 0 6461249.6591033936 -25078087.714614868 0 0 0 0 -5589896.4355468154 10102959.238945007 0 10102959.238945007 -25387885.259796143 0 0 0 0 -50849663.982218079 -530645789.9379406 0 -530645789.9379406 -5274817028.056427 0 0 0 0 -6060586.0297378302 10662203.626514435 0 10662203.626514435 -22264191.091934204 0 0 0 0 -2375155.7002017014 4585831.4435847253 0 4585831.4435847253 -11518755.329805793 0 0 0 0 83151568.976372525 781904222.2800293 0 781904222.2800293 -5978442070.7214651 0 0 0 0 178690017.33416197 -293938038.83084106 0 -293938038.83084106 -1240546705.2946167 0 0 0 0 -824871.94685010612 2757132.9794340413 0 2757132.9794340413 -22159018.638046414 0 0 0 0 -1767084807.4668379 -2717146282.6200562 0 -2717146282.6200562 -495161776.77923584 0 0 0 0 -4357285.9081644677 19548887.664697565 0 19548887.664697565 -6092594.326745674 0 0 0 0 969676377.70512617 -657956750.14675903 0 -657956750.14675903 -2251890662.4290314 0 0 0 0 -3747288.0928003462 7087597.0640435629 0 7087597.0640435629 -2022134.4248985648 0 0 0 0 -15833461.891628649 16556008.025653839 0 16556008.025653839 -26554393.21887207 0 0 0 0 -1479023174.3068466 3049839095.0750313 0 3049839095.0750313 -3478693197.0481873 0 0 0 0 -2699222759.1142969 599876890.10206604 0 599876890.10206604 -139035097.26124191 0 0 0 0 4176924.9910109611 -15141344.161288965 0 -15141344.161288965 4519403.6509729773 0 0 0 0 -2064912.5395746774 -231173.96514728665 0 -231173.96514728665 -7769849.1476081274 0 0 0 0 -13230677.174523592 9666648.0102005005 0 9666648.0102005005 -9849844.1541996002 0 0 0 0 -57298102.226808667 -615967262.29819679 0 -615967262.29819679 -6028746634.9166565 0 0 0 0 -6177172.0423212051 17708475.902931213 0 17708475.902931213 -55066772.682113647 0 0 0 0 -7077839.5694589615 16879061.022857666 0 16879061.022857666 -26591657.313554764 0 0 0 0 -34374507.31708838 58833632.926023483 0 58833632.926023483 -69220980.17791748 0 0 0 0 -27249473.682052106 36333880.067577362 0 36333880.067577362 -45334706.0050354 0 0 0 0 9542283.8964527249 18973080.404445648 0 18973080.404445648 -59235203.088760376 0 0 0 0 26614697.86292696 6510651.6726608276 0 6510651.6726608276 -51126521.023933411 0 0 0 0 21412767.220228076 24100054.893318176 0 24100054.893318176 -65234521.825069427 0 0 0 0 -4324128.428923592 34339526.646522522 0 34339526.646522522 -59330025.419311523 0 0 0 0 -7070254.8895342648 28812140.363674164 0 28812140.363674164 -61075585.543502808 0 0 0 0 -396118.68916690198 834193.28784328699 0 834193.28784328699 -1110515.3972927108 0 0 0 0 -102695967.2802338 142079489.91284943 0 142079489.91284943 -166031187.57585049 0 0 0 0 61909206.702343702 -117537561.08404541 0 -117537561.08404541 -18019413.96811676 0 0 0 0 -250808618.67099321 -30679381.800270081 0 -30679381.800270081 -38314028.461517334 0 0 0 0 152854087.28644848 -328242982.33922577 0 -328242982.33922577 -209564584.03250122 0 0 0 0 -234298359.39752674 372918491.09134674 0 372918491.09134674 -127001903.85651207 0 0 0 0 -1611070.7879919091 3011703.8668094836 0 3011703.8668094836 -2657754.2008529902 0 0 0 0 -1058171777.9622854 1615344069.4001465 0 1615344069.4001465 -621624651.62281418 0 0 0 0 219553177.50497967 -103385401.20737076 0 -103385401.20737076 -816774806.72779846 0 0 0 0 66350740.88921082 -174724670.47954559 0 -174724670.47954559 -2240185110.8165588 0 0 0 0 1338982610.1355681 -257362312.38217163 0 -257362312.38217163 -5986392883.2091007 0 0 0 0 776906550.18641853 906139816.59633064 0 906139816.59633064 -2618665610.0032501 0 0 0 0 728800597.05087304 1219303712.1265039 0 1219303712.1265039 -3963321065.4295349 0 0 0 0 582761489.91669369 2390233200.5840454 0 2390233200.5840454 -5974676411.7166338 0 0 0 0 -1653475668.2949572 -2654998340.8747878 0 -2654998340.8747878 -2549370585.0295563 0 0 0 0 942456134.38906491 -1995763623.4174194 0 -1995763623.4174194 -5973687551.4740067 0 0 0 0 1193192730.9774961 -719507736.53900528 0 -719507736.53900528 -3079118465.0976715 0 0 0 0 383295818.59761107 -1394100282.8960953 0 -1394100282.8960953 -2606512929.850235 0 0 0 0 -73706571.777294904 99589545.196804047 0 99589545.196804047 -638167693.15133667 0 0 0 0 355606353.94581902 -158632099.84483337 0 -158632099.84483337 -1126305159.4218178 0 0 0 0 9913702.4161965847 14740430.267883301 0 14740430.267883301 -17573732.913574219 0 0 0 0 49572432.703550458 -119923014.27194977 0 -119923014.27194977 -429440115.88510132 0 0 0 0 -60311212.375921726 147955389.72383881 0 147955389.72383881 -122015158.67199707 0 0 0 0 15839628.958576679 140192389.18412781 0 140192389.18412781 -121560658.27788162 0 0 0 0 264547.29285904148 -37679.217407558113 0 -37679.217407558113 -1618920.2595999353 0 0 0 0 -55549626.639430285 78072249.628013611 0 78072249.628013611 95649766.331443787 0 0 0 0 74890747.405688286 -18647630.931236267 0 -18647630.931236267 -198022174.26585388 0 0 0 0 64754753.872625828 -21943478.560411453 0 -21943478.560411453 -288607589.83190918 0 0 0 0 121158649.71580791 33357161.548667908 0 33357161.548667908 -246194998.32447815 0 0 0 0 59553972.359778404 210183729.56489563 0 210183729.56489563 -709373354.59107018 0 0 0 0 94159950.78792572 -458252713.09618378 0 -458252713.09618378 -538467511.27458191 0 0 0 0 -6232832.4101365954 5535820.4546523131 0 5535820.4546523131 -3933893.1434501186 0 0 0 0 -29164504.960025787 -205982763.87274933 0 -205982763.87274933 246097006.86927795 0 0 0 0 -196379710.38124228 22703829.935836792 0 22703829.935836792 161029285.83181763 0 0 0 0 -439368861.26390266 509551047.21413422 0 509551047.21413422 231054975.14549255 0 0 0 0 -5723011.2750354558 5950468.7474209443 0 5950468.7474209443 -4741569.3615366705 0 0 0 0 106260137.85477507 -27872765.451339722 0 -27872765.451339722 -197007667.69372368 0 0 0 0 303175990.87890339 -46894827.22706604 0 -46894827.22706604 -806051263.60848999 0 0 0 0 78266.333234871738 970191.54492724873 0 970191.54492724873 -987041.52763321996 0 0 0 0 -79730588.735267639 -462985881.28623199 0 -462985881.28623199 -523097703.36701202 0 0 0 0 -162496082.47232533 73890908.507640839 0 73890908.507640839 -31870543.136131287 0 0 0 0 8909100.4116074443 9241142.701461792 0 9241142.701461792 -8004203.5692596436 0 0 0 0 4930041.574502008 3719939.6982398927 0 3719939.6982398927 -5440757.2498027142 0 0 0 0 -142641833.97111511 -13894574.35486412 0 -13894574.35486412 8621321.1225738525 0 0 0 0 5889273.0078273322 2118325.9292199127 0 2118325.9292199127 -11404385.579774059 0 0 0 0 -1651817.0074173622 -375360.39957733825 0 -375360.39957733825 -1307954.030829316 0 0 0 0 2065818.4262161255 52660815.774871826 0 52660815.774871826 -62216812.207778931 0 0 0 0 11546139.302123547 13825334.805389404 0 13825334.805389404 2061771.821491003 0 0 0 0 8121694.9859287739 7810912.0153503418 0 7810912.0153503418 2422291.5728149414 0 0 0 0 2241505.6843762398 5071750.7030029297 0 5071750.7030029297 2434320.2463949025 0 0 0 0 3520877.0526571274 3627761.9368515015 0 3627761.9368515015 2440011.7694623172 0 0 0 0 3261010.3604812622 4721128.0463790894 0 4721128.0463790894 1390829.688223362 0 0 0 0 73947.76032948494 4885108.0612831116 0 4885108.0612831116 4894884.0148468018 0 0 0 0 1574697.4016199112 6251372.9035339355 0 6251372.9035339355 1430870.0450952053 0 0 0 0 1538496.8980727196 1589982.2424507141 0 1589982.2424507141 491521.30112457275 0 0 0 0 3482220.2509818417 3772304.9314337336 0 3772304.9314337336 -4235151.98822424 0 0 0 0 38137173.344516277 58774266.195067883 0 58774266.195067883 -238848318.12635803 0 0 0 0 3030349.8725686073 6231615.5521278381 0 6231615.5521278381 -6516401.2931976318 0 0 0 0 -20597449.481880903 -34153989.35528183 0 -34153989.35528183 -74494260.546951294 0 0 0 0 -48075573.67442131 4662747.3515510559 0 4662747.3515510559 -48626722.403137207 0 0 0 0 7135705.8215932846 8033619.8526306152 0 8033619.8526306152 -63275480.325317383 0 0 0 0 106363.63869524002 16780399.635070801 0 16780399.635070801 -19630952.49621582 0 0 0 0 11472054.476594925 26826613.125431061 0 26826613.125431061 -89693606.155303955 0 0 0 0 174707.46814222401 167787.24422492087 0 167787.24422492087 -362513.46685389429 0 0 0 0 49841.373425960541 -33016962.746585846 0 -33016962.746585846 -111580292.22885323 0 0 0 0 102789.02504226682 581876.54067743197 0 581876.54067743197 -376892.44700476527 0 0 0 0 -15942381.764086723 8894703.9443588257 0 8894703.9443588257 -4555874.0452957153 0 0 0 0 40907.758728011046 267806.6988173835 0 267806.6988173835 -143550.98908540793 0 0 0 0 3157157.4709131718 10759856.828517914 0 10759856.828517914 19651751.940696716 0 0 0 0 14088968.145625234 16982023.046134949 0 16982023.046134949 -106676282.10845947 0 0 0 0 11737269.654529572 10136211.749168396 0 10136211.749168396 -89337766.840717316 0 0 0 0 10332922.689494133 16818846.414741516 0 16818846.414741516 -83853359.245040894 0 0 0 0 -5825894.4609084129 16935621.395751953 0 16935621.395751953 -46931991.110717773 0 0 0 0 11014853.827353477 -4875608.2284393311 0 -4875608.2284393311 -51681335.446762085 0 0 0 0 3396549.5075360537 1809814.936756134 0 1809814.936756134 -63958312.236816406 0 0 0 0 6132722.4209365845 -14720333.324447632 0 -14720333.324447632 -52327764.009159088 0 0 0 0 5002580.1777763367 -9752302.7163696289 0 -9752302.7163696289 -50562900.288955688 0 0 0 0 7487611.0381441116 -15538881.790054321 0 -15538881.790054321 -42829337.41809082 0 0 0 0 5794588.9474563599 -7353661.0349693298 0 -7353661.0349693298 -45669279.91217041 0 0 0 0 10031629.838582993 -11278451.323577881 0 -11278451.323577881 -48442370.555618286 0 0 0 0 8813677.5673565865 -10383643.471580505 0 -10383643.471580505 -42077587.711120605 0 0 0 0 7762680.0666399002 -16221523.697311401 0 -16221523.697311401 -110419388.93107605 0 0 0 0 10139611.390584946 -4835397.9928283691 0 -4835397.9928283691 -72531128.310058594 0 0 0 0 9423554.9592247009 -5043342.3000717163 0 -5043342.3000717163 -69666603.986373901 0 0 0 0 5461267.2750186324 -8620618.3256692886 0 -8620618.3256692886 -71507680.958679199 0 0 0 0 -3364637.6928882599 -19952530.044967651 0 -19952530.044967651 -54774733.820526123 0 0 0 0 -5959294.3234620094 -9642783.0763626099 0 -9642783.0763626099 -46726523.490615845 0 0 0 0 -9268189.2428946495 -17877766.86995697 0 -17877766.86995697 -38556387.971641541 0 0 0 0 5547652.2412211895 -16708881.800247192 0 -16708881.800247192 -39920316.988983154 0 0 0 0 -128946.50666713715 -11199202.6302948 0 -11199202.6302948 -41594623.369628906 0 0 0 0 10436795.278766632 -8202894.6446075439 0 -8202894.6446075439 -25343459.327789307 0 0 0 0 -6997236.0265698433 -9162421.411239624 0 -9162421.411239624 -25285313.630111694 0 0 0 0 9871996.1426444054 -14542655.377029419 0 -14542655.377029419 -30979205.908203125 0 0 0 0 11425405.384840488 -15227080.324836731 0 -15227080.324836731 -37468418.632537842 0 0 0 0 6320754.5101299286 -14858046.770355225 0 -14858046.770355225 -36516063.413803101 0 0 0 0 10926438.437399864 -18654685.913711548 0 -18654685.913711548 -32558830.688079834 0 0 0 0 9493567.8956689835 -12926816.640457153 0 -12926816.640457153 -38614907.974567413 0 0 0 0 5041231.5109888315 -10910723.882766724 0 -10910723.882766724 -38231817.276550293 0 0 0 0 14649834.489722729 -12223106.231552124 0 -12223106.231552124 -28786989.14090538 0 0 0 0 811148.14509487152 -16890935.187278748 0 -16890935.187278748 -29769841.465423584 0 0 0 0 8498963.6850290298 -17730451.890045166 0 -17730451.890045166 -28390738.419311523 0 0 0 0 10858769.352027655 -21012642.561510086 0 -21012642.561510086 -26443245.980758667 0 0 0 0 -988456.0291967392 -35883423.680992126 0 -35883423.680992126 -17450372.62449646 0 0 0 0 35426604.185552835 -1811985.1217727661 0 -1811985.1217727661 -44200108.204025269 0 0 0 0 46409521.271577954 -55413528.162090302 0 -55413528.162090302 -11093057.845581055 0 0 0 0 4800753.775981362 -10033878.300144859 0 -10033878.300144859 -22918496.488390148 0 0 0 0 -1272448.6533594131 -11131857.000999451 0 -11131857.000999451 -17117901.620651245 0 0 0 0 13947726.838101387 -15792013.173713684 0 -15792013.173713684 -16453209.024059296 0 0 0 0 5734584.8378322329 -10745121.188317783 0 -10745121.188317783 -23006137.283752322 0 0 0 0 6124886.7591689192 -9469726.9223310761 0 -9469726.9223310761 -27539925.915426001 0 0 0 0 6687213.9130520821 -4768688.5387954712 0 -4768688.5387954712 -17587791.296386719 0 0 0 0 10097663.94853878 -12781551.673828125 0 -12781551.673828125 -25686844.916915894 0 0 0 0 11256699.176655293 1653491.541103363 0 1653491.541103363 -27331020.646026611 0 0 0 0 1215198.7531147003 -7389381.0138397217 0 -7389381.0138397217 -21460677.501586914 0 0 0 0 6711880.052149713 -10783321.249464795 0 -10783321.249464795 -28229715.037153069 0 0 0 0 5032964.9810733795 -7368331.2183380127 0 -7368331.2183380127 -19062226.67440033 0 0 0 0 23338059.498880863 1765127.6686630249 0 1765127.6686630249 -27927409.832473755 0 0 0 0 19370354.084177971 -7696893.5811920166 0 -7696893.5811920166 -46361875.800949097 0 0 0 0 -6144113.9641142488 6546041.1544117928 0 6546041.1544117928 -24179595.19744873 0 0 0 0 4248785.5258169174 28852473.194450378 0 28852473.194450378 -15194514.628734589 0 0 0 0 3367063.2280650581 10234270.029670633 0 10234270.029670633 -34577788.78854318 0 0 0 0 6855709.7918274403 36362469.587535858 0 36362469.587535858 -22213365.065155029 0 0 0 0 9269277.1830596924 13244662.277328491 0 13244662.277328491 -8245439.0267944336 0 0 0 0 3606697.919542728 2002457.6757864784 0 2002457.6757864784 -4388318.7312653214 0 0 0 0 13498280.66317058 -16682878.041494818 0 -16682878.041494818 -38652211.930446036 0 0 0 0 13511926.954893112 -20987974.17496109 0 -20987974.17496109 -13069184.382629395 0 0 0 0 117207513.65432397 21200203.833813667 0 21200203.833813667 -65952656.258056641 0 0 0 0 3236268.5610456467 -12572101.76033783 0 -12572101.76033783 -12617704.247856379 0 0 0 0 18746262.411177158 -13668813.665962219 0 -13668813.665962219 -75668270.638671875 0 0 0 0 3614189.5561361313 -10328037.262779236 0 -10328037.262779236 -13796435.39402771 0 0 0 0 1542151.9952716827 -9594661.8570556641 0 -9594661.8570556641 -13817568.834587097 0 0 0 0 433166.02295960346 -14524699.733318258 0 -14524699.733318258 -8658094.1387504712 0 0 0 0 -23500325.708759308 -12878946.89144516 0 -12878946.89144516 59459221.500076294 0 0 0 0 78950.672253612895 -2134072.7073867545 0 -2134072.7073867545 -4862699.55985111 0 0 0 0 -22693120.483181953 -45588189.770385742 0 -45588189.770385742 2844791.0032439232 0 0 0 0 8746524.5314097404 -14419948.805885315 0 -14419948.805885315 -38891081.712379456 0 0 0 0 3294229.8267336739 -15564091.886437148 0 -15564091.886437148 -16234441.447011318 0 0 0 0 866899.4330719104 -6031579.0837289244 0 -6031579.0837289244 -28141639.546218894 0 0 0 0 -1544732.2429409027 -5148567.9403076172 0 -5148567.9403076172 -19559069.849479675 0 0 0 0 -774422.85679040477 -17571984.110818427 0 -17571984.110818427 13464919.522798955 0 0 0 0 986054.42676782608 -26255847.122098923 0 -26255847.122098923 34900713.132232666 0 0 0 0 -80187150.041769028 -15056737.830703735 0 -15056737.830703735 34211667.810714722 0 0 0 0 8388563.6221809387 -11216894.359817505 0 -11216894.359817505 18154850.918365479 0 0 0 0 2135339.1442611143 -2386919.8896340169 0 -2386919.8896340169 -571288.44034826756 0 0 0 0 -29795118.456739426 -1420760.2837219238 0 -1420760.2837219238 15643055.133525848 0 0 0 0 -25267565.83245182 -14093873.721755981 0 -14093873.721755981 3013397.3573608398 0 0 0 0 -75611526.379130721 24344191.570114136 0 24344191.570114136 45254188.887195587 0 0 0 0 -2341327.065032959 -38523.948341369629 0 -38523.948341369629 37131995.323883057 0 0 0 0 -2189919.797803083 -4475753.6649558172 0 -4475753.6649558172 7452033.3839846402 0 0 0 0 -5723352.527223587 -33348779.171356201 0 -33348779.171356201 64507829.37651062 0 0 0 0 38770753.970776558 -60104353.412002563 0 -60104353.412002563 -57496727.897773743 0 0 0 0 22991723.763976097 -20064850.968185425 0 -20064850.968185425 -104776376.17431641 0 0 0 0 -414004.86941845925 -14420985.337041087 0 -14420985.337041087 -7886969.8749150783 0 0 0 0 -10218706.825076103 -9174637.1851463318 0 -9174637.1851463318 -1670366.1162872314 0 0 0 0 -19093485.974782944 -42965408.358551025 0 -42965408.358551025 -6672581.8482818604 0 0 0 0 -1028794.610669171 -13295322.87597831 0 -13295322.87597831 -5746248.5595938116 0 0 0 0 1800795.7953831446 -415735.59111244977 0 -415735.59111244977 -6829922.4520303905 0 0 0 0 -6678724.9832692146 -112510795.78666687 0 -112510795.78666687 -71461724.455066681 0 0 0 0 -110246344.7473315 -86726329.240066528 0 -86726329.240066528 56026513.042388916 0 0 0 0 -18786924.588012569 -20981368.83940506 0 -20981368.83940506 -22706459.24230957 0 0 0 0 -338462.16255736537 -5387791.5669941083 0 -5387791.5669941083 -15258383.597163349 0 0 0 0 36109445.714465618 128857544.55981445 0 128857544.55981445 -123761388.4213562 0 0 0 0 -17910747.182500243 -79425325.571117401 0 -79425325.571117401 -44792895.703613281 0 0 0 0 27312677.577619553 -43001485.362518311 0 -43001485.362518311 -33188100.631378174 0 0 0 0 2400073.9300944805 68145745.811235428 0 68145745.811235428 -148073851.75434875 0 0 0 0 -3549608.8723748615 -1839770.8158757873 0 -1839770.8158757873 6339751.6159108132 0 0 0 0 -55019493.37451911 -13108953.115997314 0 -13108953.115997314 30524291.793807983 0 0 0 0 -26474739.471265316 -1147702.358039856 0 -1147702.358039856 33329322.546188354 0 0 0 0 -5849337.8272158056 -13701787.279754162 0 -13701787.279754162 -3730794.461417716 0 0 0 0 -4290348.0686388016 1201720.9852752686 0 1201720.9852752686 3450112.5451049805 0 0 0 0 12730406.191688538 -87392043.038024902 0 -87392043.038024902 121352945.15557861 0 0 0 0 -76447759.078113556 -34015901.986602783 0 -34015901.986602783 89783345.41204834 0 0 0 0 -7932321.9442395847 -3029558.8506974354 0 -3029558.8506974354 -3542520.4857193977 0 0 0 0 -65909544.480155945 -215331207.27362061 0 -215331207.27362061 18199433.10206604 0 0 0 0 46482042.07818985 -126254371.04026794 0 -126254371.04026794 74627412.227523804 0 0 0 0 -9721077.2028275728 -11408292.138301805 0 -11408292.138301805 -7327423.8637215495 0 0 0 0 15676553.923793793 -36786252.34992981 0 -36786252.34992981 -27851793.610542297 0 0 0 0 -13757162.982782364 8461596.3377952576 0 8461596.3377952576 13213787.916183472 0 0 0 0 -30165506.241867542 -4235525.4635925293 0 -4235525.4635925293 -44805392.014373779 0 0 0 0 -10737562.210918631 -10391197.168565329 0 -10391197.168565329 -9555235.5333663672 0 0 0 0 9121384.8860757351 -1822901.7708435059 0 -1822901.7708435059 -5187175.811920166 0 0 0 0 -1254806.058692554 -2331123.9238746297 0 -2331123.9238746297 -19518811.150987029 0 0 0 0 65214671.505062222 15676061.377468109 0 15676061.377468109 -43746776.003295898 0 0 0 0 306349.85343456268 -2044045.549911499 0 -2044045.549911499 -4484017.6846008301 0 0 0 0 -3742754.6579431891 -11153668.844514754 0 -11153668.844514754 -12941236.756109387 0 0 0 0 -46153007.888034821 -25069667.470161438 0 -25069667.470161438 139668588.73999023 0 0 0 0 -48602706.251922607 3887654.0072021484 0 3887654.0072021484 288143913.39349365 0 0 0 0 -10932012.690143857 -2566033.1573883519 0 -2566033.1573883519 -11140411.818450581 0 0 0 0 -1531855.717157403 -651259.03575814515 0 -651259.03575814515 11927.268797293305 0 0 0 0 38033443.825751305 16490148.482147217 0 16490148.482147217 -13376214.349304199 0 0 0 0 48693845.062690735 38755140.997589111 0 38755140.997589111 -75869296.745910645 0 0 0 0 -4897291.6276979949 -1250700.0878462978 0 -1250700.0878462978 -14657870.083958283 0 0 0 0 241925236.75880241 -47993258.488616943 0 -47993258.488616943 -38711096.772399902 0 0 0 0 3161180.3976271478 2180267.4656891748 0 2180267.4656891748 -4383018.637532264 0 0 0 0 -2624327.8773419326 -5600304.2921505645 0 -5600304.2921505645 -22403147.903574511 0 0 0 0 22728198.533278465 -29404797.030334473 0 -29404797.030334473 -33688680.345153809 0 0 0 0 -6407337.8978157043 -13923126.24659729 0 -13923126.24659729 -23317630.559745789 0 0 0 0 -11198883.941389084 -15818116.235332489 0 -15818116.235332489 -21864351.009994507 0 0 0 0 -18113766.515037537 -16015779.14188385 0 -16015779.14188385 -22455297.448631287 0 0 0 0 -4879395.1281193569 -9472033.5902866814 0 -9472033.5902866814 -32282756.632127315 0 0 0 0 308143.3406791687 -17986945.754806519 0 -17986945.754806519 -27754807.478500366 0 0 0 0 242990071.29362106 947288.75067138672 0 947288.75067138672 -59341493.585876465 0 0 0 0 -8457832.0271911621 -21373506.178382874 0 -21373506.178382874 -26108940.531295776 0 0 0 0 20973523.175325394 -27062564.340988159 0 -27062564.340988159 -34265541.387527466 0 0 0 0 -2126928.7402232969 -12115925.725753393 0 -12115925.725753393 -37246212.150075927 0 0 0 0 -7264817.010532856 -36732036.668434143 0 -36732036.668434143 -31268579.777099609 0 0 0 0 15720514.317470551 -10528218.090511322 0 -10528218.090511322 -33853416.631011963 0 0 0 0 -29276214.396312952 -19485802.867805481 0 -19485802.867805481 -18880296.588134766 0 0 0 0 -31891746.79384613 -25285393.963882446 0 -25285393.963882446 -26492387.565368652 0 0 0 0 -34980795.728818893 -53824521.904586792 0 -53824521.904586792 -71001231.641723633 0 0 0 0 -61145386.026851654 -21476053.43170166 0 -21476053.43170166 -21380035.91796875 0 0 0 0 -24032435.511619568 -34763591.465270996 0 -34763591.465270996 -38025752.055980682 0 0 0 0 -6681720.758436203 -36092582.447952271 0 -36092582.447952271 -38638511.717773438 0 0 0 0 -17540398.872587681 -20471846.478042603 0 -20471846.478042603 -19460019.816085815 0 0 0 0 -9218886.8131885529 -18344264.745414734 0 -18344264.745414734 -24507204.038589478 0 0 0 0 -12924877.163478613 -9258084.6698684692 0 -9258084.6698684692 -18963328.770324707 0 0 0 0 -20006475.148555756 -16650858.324356079 0 -16650858.324356079 -22959563.494877338 0 0 0 0 4592894.5839984072 -9240481.5230816826 0 -9240481.5230816826 -15768060.803337455 0 0 0 0 2268095.4106779099 -3416886.899017334 0 -3416886.899017334 49891707.047525883 0 0 0 0 306097.08784091473 -24666262.416687012 0 -24666262.416687012 -17634853.566040039 0 0 0 0 7460832.1555225849 -10070180.797073364 0 -10070180.797073364 -25520957.031303406 0 0 0 0 20355521.971599579 -15966903.733032227 0 -15966903.733032227 -28179231.364173889 0 0 0 0 1406324.292944154 -762685.00767447054 0 -762685.00767447054 -2103551.246332854 0 0 0 0 11528286.977010369 -15656979.040409088 0 -15656979.040409088 -36106220.203323364 0 0 0 0 -2617121.1967463926 -12008679.459005114 0 -12008679.459005114 -5668189.0307346582 0 0 0 0 -14221591.436822891 -14609293.845352173 0 -14609293.845352173 -18041571.229207993 0 0 0 0 -19059299.343148232 10922662.205047607 0 10922662.205047607 -8849973.5251464844 0 0 0 0 16632946.975337267 611077.01205444336 0 611077.01205444336 -26345954.487792492 0 0 0 0 -125362201.30184788 3641806.3239803314 0 3641806.3239803314 -26149514.804626465 0 0 0 0 -64375014.98970364 -83447390.181902885 0 -83447390.181902885 -116952281.01229858 0 0 0 0 4213922.1010233089 6600320.1119693667 0 6600320.1119693667 -20504632.381997198 0 0 0 0 1717054.6652899073 -878662.96651490778 0 -878662.96651490778 -2586383.2799835652 0 0 0 0 667177.710190807 14433.407608415931 0 14433.407608415931 -1611365.2746797055 0 0 0 0 -110420400.39964771 -47583341.958747864 0 -47583341.958747864 -85053888.888061523 0 0 0 0 -64806639.549055576 -75292952.445541382 0 -75292952.445541382 -148676558.08790588 0 0 0 0 14259806.056537151 -6117261.9729499817 0 -6117261.9729499817 -36088819.73236084 0 0 0 0 9788041.5628256798 -13646028.564598083 0 -13646028.564598083 -33068590.799362183 0 0 0 0 10220804.351997852 -2724930.8681335449 0 -2724930.8681335449 -37698356.858612061 0 0 0 0 15663544.428884879 31515097.234090805 0 31515097.234090805 -23367800.271347046 0 0 0 0 3814143.2393757105 821304.50257492065 0 821304.50257492065 -20928773.390731812 0 0 0 0 -117321594.86639452 -103160513.92856598 0 -103160513.92856598 -138794810.94407654 0 0 0 0 5166635.2517296337 4149728.1746359207 0 4149728.1746359207 -16104394.341593608 0 0 0 0 -64663117.176642418 -46814591.1067276 0 -46814591.1067276 -85310459.053192139 0 0 0 0 -39302799.782167435 -34469380.302841187 0 -34469380.302841187 -91225612.457855225 0 0 0 0 -21606464.366776943 -75358035.994384766 0 -75358035.994384766 -134076652.51586914 0 0 0 0 -7475714.0560150146 -49465283.38180542 0 -49465283.38180542 -129308634.27630615 0 0 0 0 3992889.4267573357 -11214355.681657791 0 -11214355.681657791 -96991144.986572266 0 0 0 0 -33236349.308526039 -4011990.450592041 0 -4011990.450592041 -48012249.340164185 0 0 0 0 3899972.2741122916 -1198429.5002370737 0 -1198429.5002370737 -12435481.606120385 0 0 0 0 -54204636.193780899 -19432790.244140625 0 -19432790.244140625 -64247468.045059204 0 0 0 0 -2064187.8329353333 -24291224.22756958 0 -24291224.22756958 -67014918.915405273 0 0 0 0 597399.47789764404 -17553004.972412109 0 -17553004.972412109 -77213550.815618515 0 0 0 0 32081757.223350525 2794898.2967224121 0 2794898.2967224121 -75234443.201965332 0 0 0 0 6497409.6733571906 -5942191.7977154031 0 -5942191.7977154031 -24120798.164362188 0 0 0 0 -903016965.96943951 71469678.214614868 0 71469678.214614868 179887452.28371429 0 0 0 0 19077336.483531952 9528300.0315170288 0 9528300.0315170288 -38978439.575042725 0 0 0 0 402716831.66599989 45316938.35647583 0 45316938.35647583 -294598089.49264526 0 0 0 0 130007076.85140586 -686611473.4101181 0 -686611473.4101181 -280190373.41033936 0 0 0 0 12159158.832931519 2848519.0724487305 0 2848519.0724487305 -59428344.44393158 0 0 0 0 27774456.450001717 17382152.67036438 0 17382152.67036438 -64904840.30947876 0 0 0 0 26347293.643504411 -12740934.610178232 0 -12740934.610178232 -81893710.71206665 0 0 0 0 42787419.839416504 -12205793.013397217 0 -12205793.013397217 -64823294.24079895 0 0 0 0 26343470.775306046 -12766768.018731594 0 -12766768.018731594 -47334947.72756958 0 0 0 0 3114475.0257148743 -34105727.726196289 0 -34105727.726196289 -75251436.106781006 0 0 0 0 6069.4163131713867 -18156328.696380615 0 -18156328.696380615 -63431150.497871399 0 0 0 0 -2379484.882188797 -31583702.932983398 0 -31583702.932983398 -109730864.15722656 0 0 0 0 -37742553.746433258 -36983709.677337646 0 -36983709.677337646 -68327515.33959198 0 0 0 0 -128967649.26137161 -73980232.071291447 0 -73980232.071291447 -59420347.131286621 0 0 0 0 -45476435.464063644 -62017467.642654419 0 -62017467.642654419 -144301075.1932373 0 0 0 0 -38125043.508880615 -27872241.599060059 0 -27872241.599060059 -84139253.261322021 0 0 0 0 -49399617.146139145 -5337070.2312316895 0 -5337070.2312316895 -126434063.36683655 0 0 0 0 -2682836.1555042267 -11040656.354660034 0 -11040656.354660034 -90133533.351196289 0 0 0 0 -82691.368422705564 -7351214.9997268058 0 -7351214.9997268058 -8567763.9756786972 0 0 0 0 20041667.055420399 -33805675.916641235 0 -33805675.916641235 -32851391.131710052 0 0 0 0 980328.11811156059 -13687829.38564107 0 -13687829.38564107 -42184188.049970493 0 0 0 0 14789276.173971176 504261.33860015869 0 504261.33860015869 -16608622.523262024 0 0 0 0 11409720.742082119 -2326434.1135063171 0 -2326434.1135063171 -18452427.677215576 0 0 0 0 557544.92446201015 -11480311.46837911 0 -11480311.46837911 -31306822.388925623 0 0 0 0 -956212.76072766073 -10350828.914712254 0 -10350828.914712254 -29210418.961927392 0 0 0 0 25756550.46071744 33865811.476760864 0 33865811.476760864 4406096.6132946014 0 0 0 0 1666659.0618311786 -1713360.0538876802 0 -1713360.0538876802 -22977327.945234761 0 0 0 0 68340419.563464165 40050983.569641113 0 40050983.569641113 -15380603.934547424 0 0 0 0 -4283356.8698270321 12633420.546859741 0 12633420.546859741 2697926.6686096191 0 0 0 0 1199149.8929439839 3133493.1168061327 0 3133493.1168061327 -540220.37318915129 0 0 0 0 57871149.300035119 71767177.859893799 0 71767177.859893799 63811978.375869751 0 0 0 0 418281.23876527813 -586444.56018724293 0 -586444.56018724293 -2250735.6887848377 0 0 0 0 9554928.0069343448 -17981055.999526978 0 -17981055.999526978 -26055715.789283752 0 0 0 0 416111.93193915335 -5041008.1133506671 0 -5041008.1133506671 -18871453.563792646 0 0 0 0 -39212735.763521887 -40762389.502170563 0 -40762389.502170563 -4271398.2674255371 0 0 0 0 111524.44905855332 -3402745.0276491512 0 -3402745.0276491512 -2147245.2803032249 0 0 0 0 58861935.715107523 17282612.840774536 0 17282612.840774536 -63855207.821502686 0 0 0 0 8069966.4905224293 -20808575.274986267 0 -20808575.274986267 14530764.178237915 0 0 0 0 44055245.747359216 -35896784.09375 0 -35896784.09375 -12236130.413742065 0 0 0 0 -25606775.096113041 80778849.278511047 0 80778849.278511047 -107127406.36941528 0 0 0 0 -112466.61674751305 -686228.10527867824 0 -686228.10527867824 -502982.9880862534 0 0 0 0 24088281.55993104 54207569.448455811 0 54207569.448455811 -216911621.64822388 0 0 0 0 -83329329.41897583 -55889409.808944702 0 -55889409.808944702 -33275860.980529785 0 0 0 0 -143991774.74706373 -110372890.34297943 0 -110372890.34297943 108793602.99121094 0 0 0 0 -938536.81690233422 -2340066.6291055493 0 -2340066.6291055493 -3846734.415146336 0 0 0 0 -79280943.757202148 -34698499.327011108 0 -34698499.327011108 -51509454.372299194 0 0 0 0 -71771662.162945747 -71537817.883255005 0 -71537817.883255005 -64985699.674850464 0 0 0 0 -5527862.1919708252 -42045591.858886719 0 -42045591.858886719 -53965779.815170288 0 0 0 0 -22317612.090448976 -42511574.604202271 0 -42511574.604202271 -15525450.474853516 0 0 0 0 -72963227.812086105 -35289445.225296021 0 -35289445.225296021 -2317431.0147399902 0 0 0 0 -22353638.230807543 -43208539.379318237 0 -43208539.379318237 -20068997.573944092 0 0 0 0 120076326.07116175 -48791026.617774963 0 -48791026.617774963 -46943229.047531128 0 0 0 0 -4195715.4549314976 -90136384.971282959 0 -90136384.971282959 -18633754.411907196 0 0 0 0 244321261.50551641 -7176993.6571826935 0 -7176993.6571826935 -158255567.4185791 0 0 0 0 20956572.709155083 1173604.7328491211 0 1173604.7328491211 -1538334.1643218994 0 0 0 0 -23411185.532603264 -57243594.647369385 0 -57243594.647369385 -76083547.521606445 0 0 0 0 -108015031.58056498 29146167.950866699 0 29146167.950866699 -70042553.646484375 0 0 0 0 84048289.89287138 -109609301.2437439 0 -109609301.2437439 -173615448.03317261 0 0 0 0 -30267857.025660038 -17724427.724578857 0 -17724427.724578857 -162407252.334198 0 0 0 0 38747244.40239954 -8975230.1139984131 0 -8975230.1139984131 -161901014.00034332 0 0 0 0 -9989795.477139473 49931686.20098114 0 49931686.20098114 -233069389.61276245 0 0 0 0 15819054.373631388 -102636949.64326477 0 -102636949.64326477 -362596736.14190674 0 0 0 0 32972308.768135309 24735642.417602539 0 24735642.417602539 -171606624.87805176 0 0 0 0 -2245376.1945399046 80181414.87197876 0 80181414.87197876 -255233994.10473633 0 0 0 0 40487874.800980091 69142504.364151001 0 69142504.364151001 -97134799.229003906 0 0 0 0 199428836.95556355 81622826.234588623 0 81622826.234588623 -241615259.25708008 0 0 0 0 144992958.60753751 -51459376.353820801 0 -51459376.353820801 41885008.624023438 0 0 0 0 -23401252.786546946 121162011.97671509 0 121162011.97671509 8768374.968536377 0 0 0 0 244011340.51589012 26889449.561279297 0 26889449.561279297 -176958973.40084839 0 0 0 0 -251063624.36859751 38096264.419914246 0 38096264.419914246 40791079.357666016 0 0 0 0 -2143707.89824893 1833238.468065206 0 1833238.468065206 865908.1950737834 0 0 0 0 -91105866.600213051 197046529.54571533 0 197046529.54571533 -80306955.308700562 0 0 0 0 141370207.70323467 96595996.997314453 0 96595996.997314453 -67700966.298522949 0 0 0 0 -92359748.093390465 2839333.9560241699 0 2839333.9560241699 3550823.243598938 0 0 0 0 -111552261.22401702 129092872.66952515 0 129092872.66952515 -40971929.342834473 0 0 0 0 51781110.182899475 53947928.108947754 0 53947928.108947754 -25357324.7109375 0 0 0 0 -16682607.999232097 -777267.29167046398 0 -777267.29167046398 -15436475.551233802 0 0 0 0 -7839023.9091749191 22787171.893249512 0 22787171.893249512 -428330.24069213867 0 0 0 0 -19616049.975515366 22284611.264190674 0 22284611.264190674 -444097.34222412109 0 0 0 0 -30702071.746915817 -3522555.0529022217 0 -3522555.0529022217 200155871.97026062 0 0 0 0 -23748381.631261826 54627595.582336426 0 54627595.582336426 -24460888.975189209 0 0 0 0 -32815645.905185699 22180838.354324341 0 22180838.354324341 3906472.6507568359 0 0 0 0 -35079657.69427681 10850997.809204102 0 10850997.809204102 3927217.2939090729 0 0 0 0 -26525542.336696625 27472401.244842529 0 27472401.244842529 5525185.2888183594 0 0 0 0 -70005872.714626312 31237664.358566284 0 31237664.358566284 5344188.6588134766 0 0 0 0 -22604312.681731701 18038814.629226685 0 18038814.629226685 -1866212.0793457031 0 0 0 0 -4037853.5831828117 211070283.67248535 0 211070283.67248535 -82822390.613952637 0 0 0 0 -41166999.639212132 143724714.58807373 0 143724714.58807373 156899676.67880249 0 0 0 0 -7994691.6310265642 7595289.3209918719 0 7595289.3209918719 4203328.8685644716 0 0 0 0 -454530.35929322243 146926200.43508911 0 146926200.43508911 44751524.640197754 0 0 0 0 18564638.960023761 135090712.05818176 0 135090712.05818176 -30427086.678405762 0 0 0 0 42375378.827114701 184868222.79241943 0 184868222.79241943 10600503.050048828 0 0 0 0 26424808.552821875 198927112.65330505 0 198927112.65330505 31500814.34406662 0 0 0 0 20068477.636361569 -30761313.146961212 0 -30761313.146961212 40603107.699584961 0 0 0 0 -5538475.3779082038 251590.84346204996 0 251590.84346204996 5563939.7654630244 0 0 0 0 158483576.45496941 242166227.66860199 0 242166227.66860199 70500945.38458252 0 0 0 0 -106546592.13285446 46213248.454376221 0 46213248.454376221 28575753.351470947 0 0 0 0 -11658273.35002774 3967776.089879497 0 3967776.089879497 9992382.0549970269 0 0 0 0 -19135026.134935655 11781845.114513904 0 11781845.114513904 -12073299.787534395 0 0 0 0 -945692.51397705078 -59695.728118896484 0 -59695.728118896484 7449502.1399230957 0 0 0 0 -80253415.754184723 18989516.446258545 0 18989516.446258545 127807787.75898743 0 0 0 0 -132107738.26798344 65235542.70993042 0 65235542.70993042 196250537.50483704 0 0 0 0 -5572258.4527088394 4887448.2158591375 0 4887448.2158591375 -4042976.9099897072 0 0 0 0 -63285049.9164702 -19762058.957038879 0 -19762058.957038879 148223321.27166748 0 0 0 0 -2815366.012172699 4543563.6841125488 0 4543563.6841125488 -1161071.6731643677 0 0 0 0 -3725686.5209855116 6490695.9698268995 0 6490695.9698268995 -9292609.0400674343 0 0 0 0 -5178644.4414258227 7420766.9895462468 0 7420766.9895462468 -6830448.8960135505 0 0 0 0 -2554372.6401844025 3669106.9571685791 0 3669106.9571685791 -568138.52686691284 0 0 0 0 -9965914.0345697328 9123424.7133253776 0 9123424.7133253776 -10593658.512548789 0 0 0 0 -22963808.12881279 67164562.267654419 0 67164562.267654419 26972570.636535645 0 0 0 0 -91602077.532340527 73608418.295333862 0 73608418.295333862 203802478.24505615 0 0 0 0 35236488.424903721 35018832.800559521 0 35018832.800559521 64395957.717407227 0 0 0 0 -173690589.07765734 122820691.70083618 0 122820691.70083618 27851654.115875244 0 0 0 0 -154035285.43913156 -9654458.379989624 0 -9654458.379989624 67201872.133079529 0 0 0 0 21466497.147723049 -10075178.135780334 0 -10075178.135780334 63267956.084259033 0 0 0 0 -8852912.6874610186 -69633001.479553223 0 -69633001.479553223 -97336676.684082031 0 0 0 0 -52123810.593800545 -8086429.9709243774 0 -8086429.9709243774 -90805084.962493896 0 0 0 0 -131472194.59147297 -150194896.68408203 0 -150194896.68408203 -345074963.66329956 0 0 0 0 -13504188.729584455 104007896.1068306 0 104007896.1068306 -201544840.53491211 0 0 0 0 -79989856.483125687 -7488492.35597229 0 -7488492.35597229 -58556271.374145508 0 0 0 0 -385447066.71818876 55780912.346939087 0 55780912.346939087 -71115719.198440552 0 0 0 0 -97366649.349256396 161268789.34073639 0 161268789.34073639 -541997354.24734497 0 0 0 0 -56322292.110098124 28529053.700042725 0 28529053.700042725 -156328021.05421448 0 0 0 0 -192521132.01526076 -242543646.61571503 0 -242543646.61571503 -347622788.81762695 0 0 0 0 -59155147.299475357 193781487.32444 0 193781487.32444 -232458244.75531006 0 0 0 0 -366216.53530798026 -572140.55029280111 0 -572140.55029280111 -1255184.7250607759 0 0 0 0 -143487271.89114702 -101269757.64955139 0 -101269757.64955139 -114892559.92141724 0 0 0 0 -23043882.745328248 78029261.913139343 0 78029261.913139343 -225667948.98468018 0 0 0 0 -68950456.654901356 157100553.71272278 0 157100553.71272278 -361615817.86985302 0 0 0 0 50422887.109353006 158215712.03321075 0 158215712.03321075 -147272697.21472168 0 0 0 0 -48223.112296512758 86487.989079266787 0 86487.989079266787 -83918.195648421533 0 0 0 0 10959954.495336175 64342796.900238037 0 64342796.900238037 89789917.327119827 0 0 0 0 54185195.093494654 62395963.972885132 0 62395963.972885132 -423903664.58392811 0 0 0 0 17634376.673649371 5609779.9145126343 0 5609779.9145126343 -14027610.690383911 0 0 0 0 51168957.886681542 -12481787.17647171 0 -12481787.17647171 -6631153.2618103027 0 0 0 0 50665719.427393615 -3624375.5083770752 0 -3624375.5083770752 -60752175.322677612 0 0 0 0 4996556.8322812319 -57661815.83934021 0 -57661815.83934021 -117525611.49117279 0 0 0 0 -23162600.276139542 -63190845.617610931 0 -63190845.617610931 31146334.088424683 0 0 0 0 28788572.684670031 -49392921.672225952 0 -49392921.672225952 32993650.23468399 0 0 0 0 -2259541.2034287234 3164638.8462950289 0 3164638.8462950289 -4783556.9577672184 0 0 0 0 -1466139.9208671753 1815093.9776065424 0 1815093.9776065424 -2827012.0494485945 0 0 0 0 -2415348.0632683965 9600422.560508728 0 9600422.560508728 -12490454.468841553 0 0 0 0 -2100869.3739050776 9873569.2996368408 0 9873569.2996368408 -17211174.968444824 0 0 0 0 758759.53008164279 2093504.0079309419 0 2093504.0079309419 -2537133.3657410704 0 0 0 0 8814805.8999998942 4686755.3592681885 0 4686755.3592681885 -44692533.291564941 0 0 0 0 9099544.0769166034 -2778645.2675628662 0 -2778645.2675628662 -23605278.997558594 0 0 0 0 -66589.213241144913 -1045281.8397903442 0 -1045281.8397903442 -18705904.600036621 0 0 0 0 8884271.2656688225 4724955.6746673584 0 4724955.6746673584 -34210374.394882202 0 0 0 0 422255.49387796642 3933300.3500976562 0 3933300.3500976562 -14851949.82170105 0 0 0 0 1253854.8759176936 3162185.7981414795 0 3162185.7981414795 -15192087.259536743 0 0 0 0 22296.463446416659 -57380.624732971191 0 -57380.624732971191 -7376773.3288421631 0 0 0 0 -10139.252795042703 3120620.9082794189 0 3120620.9082794189 -7285304.8964233398 0 0 0 0 -312355.92366421205 -299150.76277160645 0 -299150.76277160645 -7157466.0771098137 0 0 0 0 -949290.46974549349 1281214.0416584834 0 1281214.0416584834 -2132393.5631543547 0 0 0 0 -211166.89720188954 226315.17545598 0 226315.17545598 -189189.66238454171 0 0 0 0 -14559820.746170431 57537428.583511353 0 57537428.583511353 -198704392.19709969 0 0 0 0 11810763.748728186 6586277.9745140076 0 6586277.9745140076 2583925.1173706055 0 0 0 0 65832.935664860343 599188.56010997295 0 599188.56010997295 -1434792.1042875368 0 0 0 0 -297465.35286746046 1718080.99609375 0 1718080.99609375 -1970453.6431884766 0 0 0 0 -18670503.38270849 60251007.215423584 0 60251007.215423584 -137794158.212677 0 0 0 0 -1611.4938660342746 608013.75405883789 0 608013.75405883789 -1190412.665895462 0 0 0 0 -605265.96377696178 687434.99119774997 0 687434.99119774997 -727884.37444221973 0 0 0 0 -16386588.99504295 77307468.63331604 0 77307468.63331604 -157678565.45370483 0 0 0 0 58084.833314618736 92166998.082244873 0 92166998.082244873 -145474903.26689911 0 0 0 0 -48341889.467549622 49218738.934783936 0 49218738.934783936 -171476267.34738159 0 0 0 0 -606051.13002928894 63913024.022033691 0 63913024.022033691 -202404059.67990112 0 0 0 0 -31572328.471090913 83044040.167953491 0 83044040.167953491 -109154473.28845215 0 0 0 0 -34640898.322522998 34055289.492660522 0 34055289.492660522 -146318917.90153503 0 0 0 0 -17506363.412307918 83678592.765655518 0 83678592.765655518 -169832834.62869263 0 0 0 0 -19262154.940742701 84174476.85697937 0 84174476.85697937 -163067509.21524048 0 0 0 0 -6897941.3782690763 140436695.99942017 0 140436695.99942017 -172925516.13226318 0 0 0 0 133473967.54964852 72002115.949707031 0 72002115.949707031 -178904677.75515175 0 0 0 0 140600.12149107456 144608223.9977417 0 144608223.9977417 -44418587.255523682 0 0 0 0 1625744.8570523858 91777197.930847168 0 91777197.930847168 -161685395.5006218 0 0 0 0 -30423073.66946727 -45889069.155441284 0 -45889069.155441284 -36396550.823898315 0 0 0 0 81142076.177322388 -65835591.367904663 0 -65835591.367904663 -41203991.84866333 0 0 0 0 -34850626.124055386 23588993.251419067 0 23588993.251419067 40529613.777297974 0 0 0 0 136624085.55213967 29749299.481018066 0 29749299.481018066 -66681759.944824219 0 0 0 0 50713582.454813242 14347406.899169922 0 14347406.899169922 -37054949.337005615 0 0 0 0 -28380866.115629673 -57748577.507049561 0 -57748577.507049561 -63465875.051681519 0 0 0 0 12149455.190090507 -72792553.951942444 0 -72792553.951942444 -65474294.55758667 0 0 0 0 -140544608.24233842 -85805429.320327759 0 -85805429.320327759 -64013663.199829102 0 0 0 0 -66066967.068004683 -96321098.666770935 0 -96321098.666770935 -82282855.072570801 0 0 0 0 -89321990.121081516 -88635061.318786621 0 -88635061.318786621 -55517193.931465149 0 0 0 0 -24117119.685431957 -45609598.81867218 0 -45609598.81867218 -83290398.072631836 0 0 0 0 -81406256.822054684 -65469381.696044922 0 -65469381.696044922 -58673345.599060059 0 0 0 0 -190790226.23674554 -184462940.44641113 0 -184462940.44641113 -196215154.68115234 0 0 0 0 -5620.4937331482579 -7097099.4846725464 0 -7097099.4846725464 11217039.209960938 0 0 0 0 64424.849059985136 -204459.32671384513 0 -204459.32671384513 -470049.39311097562 0 0 0 0 -55604119.94454439 -51579483.841949463 0 -51579483.841949463 -306572701.48381042 0 0 0 0 -45221348.672582 10189353.027023315 0 10189353.027023315 -111452812.59788513 0 0 0 0 -58395819.6796996 -97003751.743682861 0 -97003751.743682861 -160287703.65765381 0 0 0 0 4408039.4529599845 14072267.897277832 0 14072267.897277832 -41490248.593261719 0 0 0 0 2658795.6413866952 13750894.777679443 0 13750894.777679443 -39931035.595062256 0 0 0 0 5464673.2860361487 15747570.059921265 0 15747570.059921265 -42324367.542114258 0 0 0 0 2152095.98264236 17181271.48487854 0 17181271.48487854 -41367143.138130188 0 0 0 0 2436231.9942444488 16065629.910247803 0 16065629.910247803 -37496873.151885986 0 0 0 0 2224859.2441629269 12884279.223381042 0 12884279.223381042 -41487043.880340576 0 0 0 0 501.0511613621893 12385134.329307556 0 12385134.329307556 -37670571.394821167 0 0 0 0 3158946.3350471221 13815077.020629883 0 13815077.020629883 -41955848.711601257 0 0 0 0 4404933.8556630425 10897613.081954956 0 10897613.081954956 -44482069.86340332 0 0 0 0 2943444.9501470439 13559843.498039246 0 13559843.498039246 -41663646.164245605 0 0 0 0 6643601.9951173067 11422618.66506958 0 11422618.66506958 -45741258.701141357 0 0 0 0 2796384.841699481 13455602.021865845 0 13455602.021865845 -46253102.152225494 0 0 0 0 7879883.9880033061 11852509.74331665 0 11852509.74331665 -45630219.171173096 0 0 0 0 12381798.807583384 3304085.9867248535 0 3304085.9867248535 -39997739.838134766 0 0 0 0 12295312.657521367 14449019.269165039 0 14449019.269165039 -44879941.494140625 0 0 0 0 7257454.1088275127 11454127.870452881 0 11454127.870452881 -32995616.137527466 0 0 0 0 10642035.473396301 2003416.8678283691 0 2003416.8678283691 -50917401.045257568 0 0 0 0 11718088.815282872 -220425.42724267393 0 -220425.42724267393 -17646467.814174443 0 0 0 0 10506672.433202887 -6568822.6637992859 0 -6568822.6637992859 -25319325.130249023 0 0 0 0 3212748.4465751648 6375289.1105499268 0 6375289.1105499268 -15471888.908584595 0 0 0 0 8786982.7911605835 9869873.9823074341 0 9869873.9823074341 -26405195.24055481 0 0 0 0 13946092.302808521 10616029.592120968 0 10616029.592120968 -23533701.680163212 0 0 0 0 3760889.7354004304 675189.81918223202 0 675189.81918223202 -4055520.7940379679 0 0 0 0 19377100.425282717 4764936.5671234131 0 4764936.5671234131 -42360859.942016602 0 0 0 0 3405679.7007903904 20781057.223297119 0 20781057.223297119 -33201961.855239868 0 0 0 0 -7301727.8600234985 4961420.1884460449 0 4961420.1884460449 32769109.242431641 0 0 0 0 6601978.8215705352 12500613.309877351 0 12500613.309877351 -10271306.506098293 0 0 0 0 22855858.963031769 23050802.454040527 0 23050802.454040527 -2816868.3932189941 0 0 0 0 -338824118.77743149 -564213358.02861786 0 -564213358.02861786 -176590373.67266846 0 0 0 0 422194.4494514633 4501140.2491282076 0 4501140.2491282076 271117.64055254497 0 0 0 0 -9134832.7194747925 24930855.690246582 0 24930855.690246582 9621777.9945831299 0 0 0 0 9144036.7752456665 8437898.0653076172 0 8437898.0653076172 19647478.452941895 0 0 0 0 29843417.287992477 50020738.853939056 0 50020738.853939056 33042737.28213501 0 0 0 0 113331194.21753311 46554193.189002991 0 46554193.189002991 -116765059.89987183 0 0 0 0 -72327162.021713257 16656731.813903809 0 16656731.813903809 30472245.590103149 0 0 0 0 17773947.673724007 3492215.058307983 0 3492215.058307983 -22809396.383617885 0 0 0 0 -748753544.00325775 -47782103.734604001 0 -47782103.734604001 -21721358.566955566 0 0 0 0 -432677.037164215 -3229346.8981552869 0 -3229346.8981552869 -8575899.1564368159 0 0 0 0 -174645377.81595612 655895645.49694824 0 655895645.49694824 -2372119144.6565704 0 0 0 0 -767825271.53320694 -1301776501.5352325 0 -1301776501.5352325 -1365909233.8294983 0 0 0 0 447578435.94261169 -557604378.02137756 0 -557604378.02137756 -1920429448.9842811 0 0 0 0 240088653.42583084 -1557609650.157959 0 -1557609650.157959 -2637196741.7322998 0 0 0 0 487278884.86270905 -1046139558.2426147 0 -1046139558.2426147 -1929938586.9926195 0 0 0 0 143574889.24092102 -906428482.00881195 0 -906428482.00881195 -1343485613.7222595 0 0 0 0 -79182273.292819977 -1298300431.8410339 0 -1298300431.8410339 -2032530720.4438553 0 0 0 0 453544409.19693756 -550263582.95680237 0 -550263582.95680237 -2526801083.716301 0 0 0 0 1940773.9275928997 7758086.5681137666 0 7758086.5681137666 763844.57802408491 0 0 0 0 10692454.078531981 -11145055.221572876 0 -11145055.221572876 -11563736.347625732 0 0 0 0 85826831.309669018 9975644.6611328125 0 9975644.6611328125 -1224587776.0354614 0 0 0 0 172516.516189944 13344567.592666626 0 13344567.592666626 -35086110.680480957 0 0 0 0 -1321949.3516433954 7748657.5134474859 0 7748657.5134474859 -7325632.8196546733 0 0 0 0 -24479754.911073685 19355462.533981323 0 19355462.533981323 30916107.616760254 0 0 0 0 327185.89734472742 13763544.243877411 0 13763544.243877411 -35317644.481536865 0 0 0 0 -3591245.3376941988 5544776.7474578544 0 5544776.7474578544 -2468649.5642044917 0 0 0 0 -42140.610155023613 9429291.9018859863 0 9429291.9018859863 -4492416.7163305283 0 0 0 0 -171822.05399050834 5632206.1316189766 0 5632206.1316189766 -3376412.7070259838 0 0 0 0 -3980909168.952487 -1171415531.9307251 0 -1171415531.9307251 -831873025.40924072 0 0 0 0 2405919.0997004192 508462114.29764557 0 508462114.29764557 -3188967951.2844925 0 0 0 0 221117971.06662178 -2026329836.6313934 0 -2026329836.6313934 -4027570461.6210899 0 0 0 0 -174416.61744636108 3332739.8439051658 0 3332739.8439051658 -6768770.8623226732 0 0 0 0 1211626738.367316 661045481.38749695 0 661045481.38749695 -4608266212.1422119 0 0 0 0 -254213081.6013732 228549816.73965263 0 228549816.73965263 58303401.302368164 0 0 0 0 86911901.043420792 3288784.6238250732 0 3288784.6238250732 -119269471.90974426 0 0 0 0 -4088858.4701086157 9788264.7064555734 0 9788264.7064555734 -14589277.174991012 0 0 0 0 100145003.89064986 76986404.237009048 0 76986404.237009048 3589116.4707336426 0 0 0 0 -957508.94469697261 -27643673.028427124 0 -27643673.028427124 -31940672.086685181 0 0 0 0 10871040.315237479 -12921800.380783081 0 -12921800.380783081 -23577768.338989258 0 0 0 0 36978084.248707004 -10519457.473953247 0 -10519457.473953247 -25391449.547195435 0 0 0 0 27533440.526484091 10721634.413974762 0 10721634.413974762 -16287949.53894043 0 0 0 0 4940178.2924322411 -715030.48554992676 0 -715030.48554992676 -28469855.251724243 0 0 0 0 21050827.006270166 6038514.977596283 0 6038514.977596283 -25650996.485473633 0 0 0 0 274783.73632481386 -6124413.7524719238 0 -6124413.7524719238 -24645788.923919678 0 0 0 0 6114619.8031525426 19347346.767648697 0 19347346.767648697 -16255601.026397705 0 0 0 0 3492374.1098758653 12304562.048431396 0 12304562.048431396 -17953566.083267212 0 0 0 0 790098.11513539776 11828137.784263611 0 11828137.784263611 -16943706.152648926 0 0 0 0 15095794.371462768 19217527.735275269 0 19217527.735275269 -28286469.68862915 0 0 0 0 22645714.724828161 2176048.1911773682 0 2176048.1911773682 -22127005.370223999 0 0 0 0 16492050.212484723 25766666.357568741 0 25766666.357568741 -5018930.9678955078 0 0 0 0 40710002.30584459 36334189.293273926 0 36334189.293273926 -8261935.8481903076 0 0 0 0 171142781.28988457 -397109616.49491787 0 -397109616.49491787 -355068644.48779297 0 0 0 0 88085391.322713733 1393585717.1131516 0 1393585717.1131516 1042032015.7741699 0 0 0 0 -9619395.0236217845 13713415.661425903 0 13713415.661425903 -15704961.680424675 0 0 0 0 38941868.366436377 10560431.196044922 0 10560431.196044922 -20284728.207611084 0 0 0 0 1002989502.0751839 1278023315.9982758 0 1278023315.9982758 -906119060.48440552 0 0 0 0 1289293055.2829237 643283410.67227364 0 643283410.67227364 -3552135594.4211121 0 0 0 0 -173335486.93202591 -1289339779.5363884 0 -1289339779.5363884 -3737106663.9219666 0 0 0 0 -1747193622.815834 -220119978.90197754 0 -220119978.90197754 924069225.7814045 0 0 0 0 268057074.13031578 -654261907.78255844 0 -654261907.78255844 -2262028193.0134888 0 0 0 0 8988215.5455169678 -488699793.7932663 0 -488699793.7932663 -1232679859.4752884 0 0 0 0 255598694.66693497 -715714733.84013367 0 -715714733.84013367 -2536091785.5334015 0 0 0 0 131002500.18359375 -1302518998.8773041 0 -1302518998.8773041 -3585992329.5132408 0 0 0 0 -1722721.1043276861 2129344.3500962108 0 2129344.3500962108 -2766332.3423370644 0 0 0 0 72484327.653717041 -897441721.17555237 0 -897441721.17555237 -2219479106.6869965 0 0 0 0 114321636.36758852 148485254.6966362 0 148485254.6966362 -1291135317.8298035 0 0 0 0 177160024.48268986 -99010613.336573601 0 -99010613.336573601 -3240000827.3994446 0 0 0 0 -496331963.32382965 256600562.44944 0 256600562.44944 307243740.97122192 0 0 0 0 -230076891.44119835 582262419.4207077 0 582262419.4207077 -1566547896.4414215 0 0 0 0 204259336.7062149 57201384.110961914 0 57201384.110961914 -1008201465.7840881 0 0 0 0 -43400923.78011322 50059692.885513306 0 50059692.885513306 -1230714152.4360657 0 0 0 0 -131995266.72508621 123016551.10779572 0 123016551.10779572 -189685440.51019287 0 0 0 0 -13746956.105183002 14914185.864339516 0 14914185.864339516 -13324981.162780792 0 0 0 0 90957915.998184204 408875744.04234314 0 408875744.04234314 571490015.31117249 0 0 0 0 -192289175.4788208 -360829580.04846191 0 -360829580.04846191 308237154.60427856 0 0 0 0 -223274741.48028564 293043959.43191528 0 293043959.43191528 689897888.59684753 0 0 0 0 -421334676.04353905 -118714857.10710144 0 -118714857.10710144 500028463.10443115 0 0 0 0 -5645430.91381073 64973555.235839844 0 64973555.235839844 538206535.27199554 0 0 0 0 -198739575.15505219 -245545786.00285339 0 -245545786.00285339 410896522.36951447 0 0 0 0 -46972105.61995697 -204862995.96479797 0 -204862995.96479797 364800676.7928772 0 0 0 0 10983609.680498123 13915440.905071259 0 13915440.905071259 69398981.692626953 0 0 0 0 51546947.728027344 168450417.51306152 0 168450417.51306152 101462718.84614563 0 0 0 0 -7530704.2907295227 -159053263.64657211 0 -159053263.64657211 100012825.83132935 0 0 0 0 -96806974.968013763 -116234482.31125641 0 -116234482.31125641 218026873.08560181 0 0 0 0 -19613790.761161804 70853241.910118103 0 70853241.910118103 -15768031.169921875 0 0 0 0 85026994.668534636 9589180.8947210312 0 9589180.8947210312 396757059.58129883 0 0 0 0 -760793.2813481167 917944.74835196137 0 917944.74835196137 -1018158.6498045623 0 0 0 0 -270531837.91383743 93828951.829971313 0 93828951.829971313 105597963.83677673 0 0 0 0 -172176578.37063122 18507932.777488708 0 18507932.777488708 -88272958.38885498 0 0 0 0 -250349740.48005676 189229567.49312592 0 189229567.49312592 123279352.19412231 0 0 0 0 -3079203.5693876222 701276.2012204621 0 701276.2012204621 2814711.8181446195 0 0 0 0 -76075544.478515625 286789273.70955658 0 286789273.70955658 -363425414.56204224 0 0 0 0 430431415.14401627 28603320.731521606 0 28603320.731521606 -262927755.20965576 0 0 0 0 -694518548.93886185 -187852846.02227783 0 -187852846.02227783 -63472961.466339111 0 0 0 0 414596728.36940289 -1331904719.3194656 0 -1331904719.3194656 -529994513.39807129 0 0 0 0 -178969144.7599678 -686774257.02058411 0 -686774257.02058411 -296883512.95358849 0 0 0 0 -911410305.06274796 -1157825617.8488159 0 -1157825617.8488159 -581012617.27789307 0 0 0 0 230156053.29598999 -357682467.81638336 0 -357682467.81638336 -2323003472.4011841 0 0 0 0 221911254.41585493 -78818121.315280914 0 -78818121.315280914 200303363.66545105 0 0 0 0 90898903.752854824 498908444.56297302 0 498908444.56297302 -468990896.58108521 0 0 0 0 95027023.936501265 466093393.49652386 0 466093393.49652386 -395293899.32019043 0 0 0 0 155121542.99066544 149349138.1448822 0 149349138.1448822 -266093242.09094048 0 0 0 0 -272226751.96994019 393047177.73413086 0 393047177.73413086 -243650500.18139935 0 0 0 0 -862064856.65572166 587683100.8923111 0 587683100.8923111 -52976489.88458252 0 0 0 0 -455587949.11883545 1126971010.2730713 0 1126971010.2730713 -1115294953.9301376 0 0 0 0 -61356091.585094452 151085308.56856537 0 151085308.56856537 -176062458.34350586 0 0 0 0 -611082867.95775604 144381357.18429565 0 144381357.18429565 201160045.50653076 0 0 0 0 217003231.36603925 -33244533.392425716 0 -33244533.392425716 -108479652.59759521 0 0 0 0 81025637.851783752 -832424107.82063293 0 -832424107.82063293 -2047146448.4117126 0 0 0 0 -198247074.07702255 533628292.45481873 0 533628292.45481873 -1237482144.4616241 0 0 0 0 -1318759.6212758645 6606532.3095177598 0 6606532.3095177598 -10404230.875848711 0 0 0 0 218881974.99334311 171121787.47669351 0 171121787.47669351 -77995517.015838623 0 0 0 0 13010265.862781525 7470271.4851226807 0 7470271.4851226807 -16672110.570724487 0 0 0 0 12176957.754631042 -390237.91651916504 0 -390237.91651916504 -17061418.515197754 0 0 0 0 8060979.9107737951 6867779.7339506 0 6867779.7339506 -20860839.858604506 0 0 0 0 27073896.022239685 -41072428.398460388 0 -41072428.398460388 940791.57711029053 0 0 0 0 2791544.0781481816 -1814533.9748804551 0 -1814533.9748804551 251117.27080281079 0 0 0 0 229174825.67865372 2647157.2098846436 0 2647157.2098846436 -187199989.89112091 0 0 0 0 -166285558.20459747 572073.23411560059 0 572073.23411560059 -34477198.275222778 0 0 0 0 6104287.3598327637 -382968.54853820801 0 -382968.54853820801 -15934202.229148865 0 0 0 0 8752107.5333366729 2236060.0355413333 0 2236060.0355413333 -22786914.649138652 0 0 0 0 7572482.4649620056 4645752.4163818359 0 4645752.4163818359 -19959683.997200012 0 0 0 0 17475887.219091248 -7691086.4160308838 0 -7691086.4160308838 -35742619.781036377 0 0 0 0 -5176744.6797127724 34749215.205148697 0 34749215.205148697 72716687.961700439 0 0 0 0 1088514.2354048509 2901224.7440315932 0 2901224.7440315932 -5014406.6079999432 0 0 0 0 12211785.186526004 -1561354.358095333 0 -1561354.358095333 -17127226.966875151 0 0 0 0 284170680.87295532 -170595526.33827972 0 -170595526.33827972 -40942837.690979004 0 0 0 0 202098833.31998444 -36565078.873474121 0 -36565078.873474121 -77817730.658611298 0 0 0 0 84215956.454673767 -58205996.3645401 0 -58205996.3645401 -74783053.428512573 0 0 0 0 261587178.40399933 -50134648.630645752 0 -50134648.630645752 -346178519.46255493 0 0 0 0 179723242.1642561 171155569.17061234 0 171155569.17061234 -705292569.58331299 0 0 0 0 113481162.73381233 178397572.72377014 0 178397572.72377014 -225475693.82324219 0 0 0 0 22135176.959098816 74823268.91544342 0 74823268.91544342 11055077.121902466 0 0 0 0 -299648923.02772713 -321037964.06401062 0 -321037964.06401062 -441691328.19413757 0 0 0 0 118835554.77965546 -25746610.730728149 0 -25746610.730728149 -1276189979.9254608 0 0 0 0 116584971.54730606 93470539.411712646 0 93470539.411712646 -371674515.2209053 0 0 0 0 85689635.922237396 -109703034.73996735 0 -109703034.73996735 -441667688.34711456 0 0 0 0 -85436598.39874649 -108815035.22782898 0 -108815035.22782898 -378856786.19960022 0 0 0 0 -170038656.71171188 96956202.72869873 0 96956202.72869873 -169086692.96918488 0 0 0 0 -92154964.683496952 -174431638.25640869 0 -174431638.25640869 -404464006.42429352 0 0 0 0 -163263112.07541931 -56195718.266296387 0 -56195718.266296387 -83534402.813323975 0 0 0 0 -288615376.76661301 124665777.09775543 0 124665777.09775543 -723702140.11915588 0 0 0 0 435763854.61136246 -810863064.12337875 0 -810863064.12337875 -383978822.10070801 0 0 0 0 117525875.14937878 -340415545.97328186 0 -340415545.97328186 -883888683.07208252 0 0 0 0 73442803.173745155 -388544204.60366058 0 -388544204.60366058 -875910295.98472595 0 0 0 0 -105393985.53643149 -206139274.73621559 0 -206139274.73621559 -887326782.88389587 0 0 0 0 -56282115.260141373 3793784.6275939941 0 3793784.6275939941 -42115968.219974518 0 0 0 0 -195821021.95875263 720623681.38456726 0 720623681.38456726 -1033592466.4182281 0 0 0 0 2272616.404357071 655027.95300382376 0 655027.95300382376 -3896530.3690147102 0 0 0 0 35354107.667638779 348508670.94770813 0 348508670.94770813 -440757594.15074158 0 0 0 0 189698643.81961823 511851693.70437622 0 511851693.70437622 -535599767.66352844 0 0 0 0 541858024.92405128 506424902.60677338 0 506424902.60677338 -815313774.90888977 0 0 0 0 712941862.52066231 -35177512.449249268 0 -35177512.449249268 -355477612.50151443 0 0 0 0 3897167.3763920777 803795.57104609907 0 803795.57104609907 -7322516.4268153161 0 0 0 0 466152512.1226058 209335698.61802101 0 209335698.61802101 -643326815.32771301 0 0 0 0 593697229.55405426 -175181206.99009705 0 -175181206.99009705 -327643590.63909912 0 0 0 0 158024823.11117363 226081393.29717255 0 226081393.29717255 -402806430.59050179 0 0 0 0 223306236.88676834 320584626.80521393 0 320584626.80521393 -601453243.1411438 0 0 0 0 2173599.8899615631 465987.60388469696 0 465987.60388469696 -3994832.4366840571 0 0 0 0 77027946.302461624 494532210.39290237 0 494532210.39290237 -1182140524.5744324 0 0 0 0 -165451770.97603226 -514218002.46055603 0 -514218002.46055603 -1002482916.5197678 0 0 0 0 33906071.695431709 -6129807.7832450867 0 -6129807.7832450867 -118026048.8553772 0 0 0 0 22672709.423578262 -82263364.136592865 0 -82263364.136592865 -499944242.3840332 0 0 0 0 -306369285.65597916 -183421089.33174133 0 -183421089.33174133 -2590178.6216278076 0 0 0 0 -9591419.5614638925 32134101.989612579 0 32134101.989612579 -28029622.16897583 0 0 0 0 123905260.48804617 -93532134.52248764 0 -93532134.52248764 -285347807.29165649 0 0 0 0 -412888.15082058404 -888168.92889233679 0 -888168.92889233679 -7693119.0333386809 0 0 0 0 -3203167.781129837 19019919.016601562 0 19019919.016601562 -1836878.8601589203 0 0 0 0 22938026.300592422 372738278.76218414 0 372738278.76218414 -593535452.17977905 0 0 0 0 71844157.831840515 281545348.42710876 0 281545348.42710876 -588783766.18418121 0 0 0 0 30028901.318232834 12710187.91614151 0 12710187.91614151 -25833020.705154419 0 0 0 0 1813004.0202960409 42000.81218573451 0 42000.81218573451 -6942009.1231316328 0 0 0 0 -7045764.6680870056 250198867.36113739 0 250198867.36113739 -556892591.10255241 0 0 0 0 22611235.251538277 326238623.74087524 0 326238623.74087524 -410185274.53881836 0 0 0 0 -364080119.43041086 742939870.43095779 0 742939870.43095779 -1195603380.3869629 0 0 0 0 -214238952.6691041 28569878.753684998 0 28569878.753684998 -1008174332.1175652 0 0 0 0 -57196954.860903978 -328660883.43198395 0 -328660883.43198395 -842163614.95484924 0 0 0 0 -305722385.87341928 -302043580.44278717 0 -302043580.44278717 -104494266.8139801 0 0 0 0 1327804.2679265565 290918.44208823517 0 290918.44208823517 -3182880.4263355136 0 0 0 0 -47486461.394724131 98619835.592002869 0 98619835.592002869 -120880585.03227949 0 0 0 0 -185670274.25182176 -162798578.32444572 0 -162798578.32444572 -211684638.62086487 0 0 0 0 17984425.538438082 -104788883.44214249 0 -104788883.44214249 73562039.224456787 0 0 0 0 -4336486.8210706711 68901920.673355103 0 68901920.673355103 -23940970.422168732 0 0 0 0 -192520253.21742678 33563019.837054729 0 33563019.837054729 10435580.340240479 0 0 0 0 -375005045.16765213 10893736.023376465 0 10893736.023376465 7779062.9789543152 0 0 0 0 1523995.9349159058 -806514.67383704707 0 -806514.67383704707 -1330875.885180071 0 0 0 0 66497661.393310666 -265966469.22909069 0 -265966469.22909069 -264981160.88024902 0 0 0 0 -181609495.79360962 -241425915.05166626 0 -241425915.05166626 -266644122.94804764 0 0 0 0 37753676.992154121 -62505481.830604553 0 -62505481.830604553 -844966696.40148926 0 0 0 0 -1360400.206464061 -1512392.1949491426 0 -1512392.1949491426 855597.340926148 0 0 0 0 -133144227.86090863 -226319019.18835044 0 -226319019.18835044 -263023361.88630676 0 0 0 0 -153547427.24623251 40939252.998504639 0 40939252.998504639 -358009994.94544983 0 0 0 0 -77992173.058859587 -139605517.66641998 0 -139605517.66641998 -896321501.54105377 0 0 0 0 86943425.164824963 10423075.160417557 0 10423075.160417557 -876938625.35435486 0 0 0 0 105598616.61125076 -11499004.557424545 0 -11499004.557424545 -984403327.00109863 0 0 0 0 -404083360.79783165 537958221.93680573 0 537958221.93680573 -840025472.97430182 0 0 0 0 -249722499.93138623 -146673279.4087677 0 -146673279.4087677 -893931173.2554245 0 0 0 0 -630858309.29727221 64475278.95149231 0 64475278.95149231 -842018301.99454498 0 0 0 0 -626294854.12415409 84952138.825374603 0 84952138.825374603 -750785663.57118225 0 0 0 0 1848122.2389164404 704093.47732830793 0 704093.47732830793 -3149104.6380995214 0 0 0 0 -117815254.17436749 -467414722.32071686 0 -467414722.32071686 -377407295.83156586 0 0 0 0 -25625325.513003349 64521908.395072937 0 64521908.395072937 -86515030.004302979 0 0 0 0 34332610.392282486 24171927.717880249 0 24171927.717880249 -162997422.97719574 0 0 0 0 118040266.8651197 65725029.86895752 0 65725029.86895752 -120121418.54541779 0 0 0 0 141076278.25986478 18706927.470207214 0 18706927.470207214 -24908595.972412109 0 0 0 0 134813800.56085682 -18568977.169616699 0 -18568977.169616699 -7972835.8207397461 0 0 0 0 3062512.5857141106 241051.44851927832 0 241051.44851927832 -5839431.0183762908 0 0 0 0 -166216239.57235479 318108395.86287689 0 318108395.86287689 -560969702.20092773 0 0 0 0 -153126679.14445925 252866838.04029846 0 252866838.04029846 -316948091.39375424 0 0 0 0 -254664319.77782011 359348692.99181366 0 359348692.99181366 -186522820.90614319 0 0 0 0 -14850056.505695343 222951486.7718277 0 222951486.7718277 -551874718.73371887 0 0 0 0 -236431212.34263039 182930053.3023262 0 182930053.3023262 -108140523.54428101 0 0 0 0 -243260074.8909359 222836157.20671082 0 222836157.20671082 -315960133.55607605 0 0 0 0 39757484.41377449 26965429.375076294 0 26965429.375076294 9186207.1543426514 0 0 0 0 20680580.349767685 48034433.914319992 0 48034433.914319992 -11542763.273101807 0 0 0 0 -10009695.142086983 36091138.305400848 0 36091138.305400848 6794181.2615509033 0 0 0 0 34556186.857481003 39174652.390693665 0 39174652.390693665 -27889255.896377563 0 0 0 0 14240358.511177063 37407185.865768433 0 37407185.865768433 40295990.526428223 0 0 0 0 -342916.11253254674 -812042.47098425031 0 -812042.47098425031 -1529011.3797280267 0 0 0 0 13648776.8282547 37323149.210494995 0 37323149.210494995 55389574.584686279 0 0 0 0 37333258.731157303 35985990.78730011 0 35985990.78730011 -24228102.593475342 0 0 0 0 10765195.245312711 11012987.731078168 0 11012987.731078168 -3539461.6536972597 0 0 0 0 313184135.93491936 -17109947.676231384 0 -17109947.676231384 -117168068.9080162 0 0 0 0 -169363360.17875171 191929713.5661087 0 191929713.5661087 20252888.136169434 0 0 0 0 -128277376.78078556 561689209.19776535 0 561689209.19776535 -350938801.7651062 0 0 0 0 142731238.896451 404876275.68642426 0 404876275.68642426 -267890977.83374023 0 0 0 0 -318945973.07304096 287396646.3565979 0 287396646.3565979 -24939575.597412109 0 0 0 0 16320.542655430734 -220313.46404573694 0 -220313.46404573694 -1355335.9593089893 0 0 0 0 38387263.297909737 -7291355.7742614746 0 -7291355.7742614746 10946838.812927246 0 0 0 0 19457362.888786316 -13118789.515716553 0 -13118789.515716553 -61999391.891052246 0 0 0 0 1286423.3414125489 -7588398.0767515413 0 -7588398.0767515413 -23792179.064321488 0 0 0 0 53093045.318588972 91518610.05884552 0 91518610.05884552 72374426.513221741 0 0 0 0 93277365.062821507 37130430.44165802 0 37130430.44165802 -22777777.047729492 0 0 0 0 79142666.304301262 82533932.364730835 0 82533932.364730835 -7799005.6394119263 0 0 0 0 2533939.7865614891 63131235.388160706 0 63131235.388160706 3078521.3126525879 0 0 0 0 12918959.161982059 -3070082.8770980835 0 -3070082.8770980835 133836110.64437866 0 0 0 0 40002619.664197922 61806901.677574158 0 61806901.677574158 -13420049.976699829 0 0 0 0 19383259.196210146 -18637638.161239624 0 -18637638.161239624 -99600834.409500122 0 0 0 0 -2143725.0779732005 -15579657.968915381 0 -15579657.968915381 -1818050.0828723684 0 0 0 0 8378397.6125385398 7081346.7097134814 0 7081346.7097134814 -34662809.806259945 0 0 0 0 28717822.643505096 35321439.690185547 0 35321439.690185547 -1519896.193649292 0 0 0 0 59341639.218364716 31980854.254478455 0 31980854.254478455 -50962697.759643555 0 0 0 0 57830027.656017303 24459111.944076538 0 24459111.944076538 -47194120.034790039 0 0 0 0 23683647.130474091 41989398.927185059 0 41989398.927185059 -54285300.256458282 0 0 0 0 6660586.118357677 9002016.6240936518 0 9002016.6240936518 -40453850.995470554 0 0 0 0 -47824198.431057453 -42038689.664375305 0 -42038689.664375305 -46335129.660980225 0 0 0 0 41713601.587686539 50553286.984313965 0 50553286.984313965 -66064256.431884766 0 0 0 0 32502390.087997437 32350444.889526367 0 32350444.889526367 -16823447.651855469 0 0 0 0 55860266.759741783 37192767.280544281 0 37192767.280544281 -45297187.736587524 0 0 0 0 52071199.472435951 27282916.833965302 0 27282916.833965302 -56274325.999969482 0 0 0 0 51839444.015642166 21840775.960098267 0 21840775.960098267 -34835799.368530273 0 0 0 0 180421.91720620528 1083776.7735086493 0 1083776.7735086493 -135747.8216727525 0 0 0 0 43121265.847312927 35901659.525520325 0 35901659.525520325 -63355526.05140686 0 0 0 0 47683162.048503876 26738663.652740479 0 26738663.652740479 -47700576.942398071 0 0 0 0 51737596.19052887 36403516.10218811 0 36403516.10218811 -52693333.792633057 0 0 0 0 49543787.757171631 24478994.410598755 0 24478994.410598755 -59512661.482635498 0 0 0 0 50738456.580931664 23799795.322483063 0 23799795.322483063 -59597703.322174072 0 0 0 0 47397245.874980927 16041040.372238159 0 16041040.372238159 -74407231.27053833 0 0 0 0 31755306.922485352 19479519.797683716 0 19479519.797683716 -61257928.723163605 0 0 0 0 6889304.2929935455 37579655.350479126 0 37579655.350479126 -74201975.205207825 0 0 0 0 28239646.827095032 51015270.27809906 0 51015270.27809906 -52218604.838060379 0 0 0 0 -4313679.8279829025 27298561.219768524 0 27298561.219768524 -27460123.723251343 0 0 0 0 5105521.1412209217 5112313.9429888558 0 5112313.9429888558 -943960.82664781064 0 0 0 0 -46664672.717421532 71203303.501091003 0 71203303.501091003 -65760401.664306641 0 0 0 0 6610595.6538219452 34997702.523410797 0 34997702.523410797 -96944625.930343628 0 0 0 0 -2107886.6529979706 36748240.833400726 0 36748240.833400726 -96827073.204421997 0 0 0 0 29977449.49054718 18954951.006851196 0 18954951.006851196 -162688366.64220428 0 0 0 0 33851272.713510513 2577274.0143127441 0 2577274.0143127441 -94153080.053153992 0 0 0 0 39877298.52375412 6711525.199131012 0 6711525.199131012 -97669552.381286621 0 0 0 0 39097376.884371758 15783447.1959095 0 15783447.1959095 -105052088.31790161 0 0 0 0 32058988.412548065 -48328326.198402405 0 -48328326.198402405 -155578957.20805359 0 0 0 0 32201476.314664662 -28022123.675864041 0 -28022123.675864041 -100778161.92738342 0 0 0 0 62080650.881031036 -23405189.975372314 0 -23405189.975372314 -135902661.55554581 0 0 0 0 71691086.298007488 -36745860.227155685 0 -36745860.227155685 -271227552.03883362 0 0 0 0 71666223.238453865 -101251796.06858063 0 -101251796.06858063 61865844.252822876 0 0 0 0 3973500.9691329431 109125.71585574374 0 109125.71585574374 -8570238.2921520583 0 0 0 0 -39104366.161842346 -106299231.63182831 0 -106299231.63182831 -131093203.00834274 0 0 0 0 5096888.1548047941 -7644678.5692729354 0 -7644678.5692729354 -6757084.5662083924 0 0 0 0 27432987.427253723 -46910488.896896362 0 -46910488.896896362 -118878780.91215515 0 0 0 0 1378834.6516094208 -57967654.516094208 0 -57967654.516094208 -73431300.532516479 0 0 0 0 196948046.96858215 -4219051.4635925293 0 -4219051.4635925293 -140645714.46154785 0 0 0 0 24348743.513043653 -26818552.989464898 0 -26818552.989464898 -13843574.785491049 0 0 0 0 343573365.43311501 668161504.27876663 0 668161504.27876663 -1419139368.6134949 0 0 0 0 349586930.14311981 -128180123.4233551 0 -128180123.4233551 -43568869.388824463 0 0 0 0 11783981.949613838 9602322.8203823194 0 9602322.8203823194 -55354652.108339071 0 0 0 0 -960863091.97963333 -256403299.4442215 0 -256403299.4442215 1022956597.3042908 0 0 0 0 -2694419975.1489563 -54028116.313018799 0 -54028116.313018799 -957798784.93612671 0 0 0 0 3322449.7602310181 -1389240327.3904114 0 -1389240327.3904114 -501541070.73010254 0 0 0 0 -23984415.215202332 -60191702.056793213 0 -60191702.056793213 -22857655.778198242 0 0 0 0 20691296.675492212 -32013353.826404352 0 -32013353.826404352 -15000507.253721463 0 0 0 0 -38921793.349333763 -87851405.087370396 0 -87851405.087370396 86781202.22354126 0 0 0 0 -39334156.093284607 -76325417.905151367 0 -76325417.905151367 89112012.866333008 0 0 0 0 42392490.9545784 -25610310.35874176 0 -25610310.35874176 -88795995.443670273 0 0 0 0 24065931.149055958 -39124101.987785339 0 -39124101.987785339 -86626320.41947937 0 0 0 0 51433305.915927887 -31741656.459518433 0 -31741656.459518433 -89364052.36870575 0 0 0 0 12646309.793899715 -13235038.914036447 0 -13235038.914036447 -53486767.270855904 0 0 0 0 40361476.585134506 -17133241.911506653 0 -17133241.911506653 -59129522.326591492 0 0 0 0 60312937.119213104 11351207.144790649 0 11351207.144790649 -76846982.540473938 0 0 0 0 44226994.371074677 -17441646.065658569 0 -17441646.065658569 -101923320.31519318 0 0 0 0 35420028.020267487 -26552044.72480011 0 -26552044.72480011 -106929210.28134155 0 0 0 0 45476057.709709167 533170.77631378174 0 533170.77631378174 -90866050.348205566 0 0 0 0 45842157.38802433 8593371.8415436745 0 8593371.8415436745 -70823767.69203186 0 0 0 0 56315910.857475281 12497940.788475037 0 12497940.788475037 -77591598.324295044 0 0 0 0 39494219.954888821 19295722.235022545 0 19295722.235022545 -74563837.415344238 0 0 0 0 8788452.236371085 -1952710.8642893713 0 -1952710.8642893713 -51093564.0062849 0 0 0 0 63284638.413491726 6828743.6460151672 0 6828743.6460151672 -70250872.838592529 0 0 0 0 56167973.307853699 8011762.5076293945 0 8011762.5076293945 -54941564.437753677 0 0 0 0 56876625.899578094 10341164.44720459 0 10341164.44720459 -48518917.644546509 0 0 0 0 45739805.540146112 -24019507.042355537 0 -24019507.042355537 -82733609.721679688 0 0 0 0 8777380.0144227799 -8516889.1393250674 0 -8516889.1393250674 -16831827.702504411 0 0 0 0 53871435.348274231 -162734023.35324097 0 -162734023.35324097 -16243730.538024902 0 0 0 0 78273212.338877678 -54103375.444732666 0 -54103375.444732666 -21934546.034820557 0 0 0 0 222463121.20434952 -9802661.6156311035 0 -9802661.6156311035 -8787589.599105835 0 0 0 0 635512798.60033989 113079732.94094849 0 113079732.94094849 -105839459.13296509 0 0 0 0 282954652.17863607 -251691310.07546234 0 -251691310.07546234 -60563023.264465332 0 0 0 0 408609165.24790668 -304854096.99642181 0 -304854096.99642181 -211822832.63595581 0 0 0 0 -11461889.047737122 -190580770.99339294 0 -190580770.99339294 -49318309.033721924 0 0 0 0 2264184.2701303894 -2556764.5110988691 0 -2556764.5110988691 -4585891.364489302 0 0 0 0 380469530.85379028 -319679049.04469299 0 -319679049.04469299 -50895682.016607285 0 0 0 0 338953524.58316779 57205291.395285606 0 57205291.395285606 -40439667.583007812 0 0 0 0 -6454405.8575668335 -35026046.134841919 0 -35026046.134841919 -48268610.606506348 0 0 0 0 228514491.70631599 -59603903.823028564 0 -59603903.823028564 -50648583.020133018 0 0 0 0 76387678.961672425 16961254.467175484 0 16961254.467175484 -23186278.547576904 0 0 0 0 605443982.04763603 19320637.521102905 0 19320637.521102905 -218297216.47469711 0 0 0 0 214572363.29981875 -141376511.16355324 0 -141376511.16355324 -242369475.95675659 0 0 0 0 73913412.815645218 354650016.21263123 0 354650016.21263123 227467494.22887802 0 0 0 0 411409238.61321449 -726087112.75562286 0 -726087112.75562286 -135528120.50402832 0 0 0 0 321975589.58394432 -231277903.35093689 0 -231277903.35093689 59512026.617805481 0 0 0 0 620035.06997436844 -6310696.2113519087 0 -6310696.2113519087 -5798462.4171608929 0 0 0 0 273688591.02645206 165126093.25061798 0 165126093.25061798 74225170.680633545 0 0 0 0 -259682602.22912216 -170743500.91616821 0 -170743500.91616821 -96878175.09588623 0 0 0 0 -146219885.32801819 69545951.412376404 0 69545951.412376404 58190902.701782227 0 0 0 0 81167.431534142233 -726291.49172051251 0 -726291.49172051251 -1420251.7378160954 0 0 0 0 -1393495998.2679815 -457268917.70659637 0 -457268917.70659637 426126490.77252197 0 0 0 0 142369.62367103284 -442625.89440811519 0 -442625.89440811519 -1496054.0971402973 0 0 0 0 230162182.91695976 -102580877.68045807 0 -102580877.68045807 -287312930.25125122 0 0 0 0 -281193510.92163467 -302448324.81944275 0 -302448324.81944275 -108978434.16075134 0 0 0 0 -350470645.9419136 31320704.983299255 0 31320704.983299255 -315723953.40698242 0 0 0 0 -7993173.1548099518 20139388.115585327 0 20139388.115585327 72926357.902557373 0 0 0 0 14787789.264928818 -16917518.885864258 0 -16917518.885864258 -3744938.149810791 0 0 0 0 3522617.251455307 -28821762.044406891 0 -28821762.044406891 17131617.439544678 0 0 0 0 -3310387.9556774115 -5286655.7011838928 0 -5286655.7011838928 1790886.0199088454 0 0 0 0 -63679376.541805267 31961156.154663086 0 31961156.154663086 170968726.23828125 0 0 0 0 876884.94186030154 -2490328.3034618152 0 -2490328.3034618152 -5032437.2528274357 0 0 0 0 -596099954.88949013 -113145584.07814026 0 -113145584.07814026 178434210.61929321 0 0 0 0 -445406.59307693131 -215499.72559045255 0 -215499.72559045255 23491.796397939324 0 0 0 0 -336817148.94934654 -63438612.294006348 0 -63438612.294006348 226846161.26254272 0 0 0 0 -390363916.07247543 -235954649.48321533 0 -235954649.48321533 -284102257.1449585 0 0 0 0 -137786393.76596451 -77751142.601348877 0 -77751142.601348877 35912572.510772705 0 0 0 0 400553715.04637086 198801876.02205372 0 198801876.02205372 -198984490.26885986 0 0 0 0 -1916352.2242528615 -3854231.2274067728 0 -3854231.2274067728 2292716.1073224992 0 0 0 0 -394606999.36407471 90346650.782470703 0 90346650.782470703 55897124.278137207 0 0 0 0 -169127978.79032135 -355720533.41012573 0 -355720533.41012573 -69187668.457672119 0 0 0 0 -343611416.34210205 718380981.63476562 0 718380981.63476562 -269300362.50415039 0 0 0 0 -47657718.374862671 -170406560.7807312 0 -170406560.7807312 -16625315.177856445 0 0 0 0 -82368317.467082977 -64652822.655670166 0 -64652822.655670166 4365195.6561279297 0 0 0 0 -30603817.843822479 -91686634.530776978 0 -91686634.530776978 -90994684.180786133 0 0 0 0 -34127849.52377224 -86904152.934043884 0 -86904152.934043884 -33494771.860168457 0 0 0 0 -52755580.967453003 -54252733.021850586 0 -54252733.021850586 117147382.16401672 0 0 0 0 -117855605.17556 -9103337.337097168 0 -9103337.337097168 86283009.240783691 0 0 0 0 -91439499.131557465 -161389152.85708618 0 -161389152.85708618 -154542190.29724121 0 0 0 0 -305572556.42547226 -154269455.0279541 0 -154269455.0279541 -6568202.0128479004 0 0 0 0 8609644.4969291687 -22319449.462097168 0 -22319449.462097168 -166141890.30174923 0 0 0 0 -205537156.02169561 74107013.978678703 0 74107013.978678703 23303218.107406616 0 0 0 0 -117913559.06399632 -163297405.92741394 0 -163297405.92741394 -94120551.449447632 0 0 0 0 3207225.428185774 -3361874.9886552021 0 -3361874.9886552021 -1653458.0545758307 0 0 0 0 50461089.118392944 -67144429.358123779 0 -67144429.358123779 22882968.703449249 0 0 0 0 24303606.710123036 -20443162.189968687 0 -20443162.189968687 -7781230.5772517361 0 0 0 0 17629879.43939209 -91220176.233947754 0 -91220176.233947754 12919594.49659729 0 0 0 0 242113693.54492044 236787366.79471588 0 236787366.79471588 -201558832.83566284 0 0 0 0 -58531892.272789001 22080570.329284668 0 22080570.329284668 237916462.165802 0 0 0 0 54422601.846902847 -39812477.984710693 0 -39812477.984710693 81409267.874847412 0 0 0 0 290524071.51751137 -61678948.553710938 0 -61678948.553710938 6768577.099609375 0 0 0 0 74230169.060865402 -150214582.15097046 0 -150214582.15097046 37505465.435150146 0 0 0 0 182103334.67384362 -123395948.00837088 0 -123395948.00837088 -15937258.636779785 0 0 0 0 -560227.12107102445 -1404739.1746429987 0 -1404739.1746429987 484187.58396938443 0 0 0 0 -177180735.4705162 -174209863.43313599 0 -174209863.43313599 398160661.02789307 0 0 0 0 -335044557.58510208 -464677739.49414062 0 -464677739.49414062 230897240.68927002 0 0 0 0 22335713.975402832 -63605773.279998779 0 -63605773.279998779 4324690.390100956 0 0 0 0 68275845.658779144 -50054596.803543091 0 -50054596.803543091 -83765466.307006836 0 0 0 0 -4062011.5624847412 -45036680.197372437 0 -45036680.197372437 -11558981.631631851 0 0 0 0 155941726.77061749 -90331659.239257812 0 -90331659.239257812 -11043270.525848389 0 0 0 0 57752856.614444077 39041337.755596161 0 39041337.755596161 -9624100.891204834 0 0 0 0 100991449.17955971 29565562.277267456 0 29565562.277267456 -9408613.4438476562 0 0 0 0 57996272.5940907 4637486.5796318054 0 4637486.5796318054 -83831466.844299316 0 0 0 0 -6324643.7500514984 12986051.434158325 0 12986051.434158325 -2537599.9281272888 0 0 0 0 32229450.940939903 18185067.212654114 0 18185067.212654114 -160071123.95901489 0 0 0 0 38050904.030512333 -56679029.455780029 0 -56679029.455780029 -200299556.95405579 0 0 0 0 -8408308.5179691315 -7531265.9633636475 0 -7531265.9633636475 -77100405.869018555 0 0 0 0 14718942.021093555 -19696049.641880725 0 -19696049.641880725 933087.13660143316 0 0 0 0 -117177252.65994263 -65155739.728363037 0 -65155739.728363037 -84990526.621246338 0 0 0 0 139469682.86474991 -114442494.28286743 0 -114442494.28286743 -344078929.16772461 0 0 0 0 -127317524.49353218 -65588394.712036133 0 -65588394.712036133 215198000.4304657 0 0 0 0 115050259.68378544 12663710.2838974 0 12663710.2838974 95188333.779541016 0 0 0 0 6415837.238980161 -16925148.033178627 0 -16925148.033178627 1807931.6141025424 0 0 0 0 -78802942.482303619 119617779.44882202 0 119617779.44882202 268010026.59185791 0 0 0 0 -47756486.746328354 104681638.775383 0 104681638.775383 1241129.6677246094 0 0 0 0 -54470780.217025638 -38416202.168920279 0 -38416202.168920279 -44805438.014434814 0 0 0 0 -282734550.63380718 -93904160.016929626 0 -93904160.016929626 -36256602.041503906 0 0 0 0 -171445612.89997101 30325928.957809448 0 30325928.957809448 97162070.25113678 0 0 0 0 -29444336.643642426 -70784448.459651947 0 -70784448.459651947 -37143476.912963867 0 0 0 0 -14605959.973873138 -157322721.15929413 0 -157322721.15929413 -62225727.890245438 0 0 0 0 -129274332.31510544 -102092435.62106323 0 -102092435.62106323 -46210194.540893555 0 0 0 0 1268174.4302005768 -114274384.33927917 0 -114274384.33927917 32633021.266464233 0 0 0 0 70299947.392009735 -124255403.19671631 0 -124255403.19671631 29051083.564865112 0 0 0 0 2832521.8933067322 -139452298.42429352 0 -139452298.42429352 42032362.561004639 0 0 0 0 -2582096.8246917725 -69425893.346298218 0 -69425893.346298218 90234137.279350281 0 0 0 0 -65569822.139854431 -94654901.567596436 0 -94654901.567596436 95680577.410064697 0 0 0 0 -145847259.3670845 -99131795.307563782 0 -99131795.307563782 96929083.433914185 0 0 0 0 84079940.666969299 43863004.621246338 0 43863004.621246338 -75940839.183883667 0 0 0 0 211506561.26200104 -26840666.393730164 0 -26840666.393730164 -94621847.241447449 0 0 0 0 11777880.139129639 -14181068.849834442 0 -14181068.849834442 -48983149.218643188 0 0 0 0 25115131.482624054 31850444.732078552 0 31850444.732078552 -72083326.56224823 0 0 0 0 21624524.462356567 -32307519.082794189 0 -32307519.082794189 -40745733.636901855 0 0 0 0 209092809.73237991 -159184759.86676788 0 -159184759.86676788 -26432638.664131165 0 0 0 0 59692056.091362 -92782159.477920532 0 -92782159.477920532 -55610831.458847046 0 0 0 0 32906001.371009827 -197917309.11443138 0 -197917309.11443138 88102331.379745483 0 0 0 0 272189887.95775604 -10480494.517440796 0 -10480494.517440796 -77868176.972183228 0 0 0 0 304839902.30131149 -231961620.36695862 0 -231961620.36695862 -29351159.159633636 0 0 0 0 435893.57960984856 2661287.7235006317 0 2661287.7235006317 -8657833.5393659174 0 0 0 0 215352671.70148468 -248255503.21916199 0 -248255503.21916199 22634777.684305191 0 0 0 0 18352126.770927429 42529028.739273071 0 42529028.739273071 -75408255.83241272 0 0 0 0 -24271070.301094055 20997435.522148132 0 20997435.522148132 -45121842.375900269 0 0 0 0 15791229.115695819 14764799.3489151 0 14764799.3489151 -65128813.246765137 0 0 0 0 18786370.891234078 898045.95130506903 0 898045.95130506903 -39668047.827950209 0 0 0 0 1078904.7460089084 7064095.5659332275 0 7064095.5659332275 -39317812.18196106 0 0 0 0 20300380.237765647 -10678575.854370117 0 -10678575.854370117 -44745408.101531982 0 0 0 0 17542851.525253233 -3041575.9065933228 0 -3041575.9065933228 -65472392.084411621 0 0 0 0 828643.08984681114 1839690.0914231911 0 1839690.0914231911 -6297983.7763471752 0 0 0 0 17578527.640950792 -9001494.7184143066 0 -9001494.7184143066 -26031238.602966309 0 0 0 0 3065717.952822715 5715075.1881103516 0 5715075.1881103516 -28914755.128929138 0 0 0 0 90045.482643167736 -3516302.713685561 0 -3516302.713685561 622016.26900106668 0 0 0 0 17529498.626732603 9292612.4711456299 0 9292612.4711456299 -28851731.940383911 0 0 0 0 -9766496.4999955315 -36997026.785419464 0 -36997026.785419464 8510107.3829650879 0 0 0 0 39265.647875218703 -19967.033551096916 0 -19967.033551096916 -42211.313221171498 0 0 0 0 -1142345.0881893635 -44292229.046478271 0 -44292229.046478271 8123494.0703353882 0 0 0 0 11837298.219771123 -28493712.229986191 0 -28493712.229986191 -37729992.213348389 0 0 0 0 18445608.729749203 9994370.4581451416 0 9994370.4581451416 -42887988.792491913 0 0 0 0 4565011.4232824445 -12662263.129974365 0 -12662263.129974365 -40037807.374603271 0 0 0 0 15894739.398202628 -14250470.934112549 0 -14250470.934112549 -43027865.957763672 0 0 0 0 26404344.07799089 -15901044.892089844 0 -15901044.892089844 -50176496.526885986 0 0 0 0 -17203050.435487568 25299805.381835938 0 25299805.381835938 -55312319.369812012 0 0 0 0 -3234980.8603704572 44426271.628318787 0 44426271.628318787 -77118314.848937988 0 0 0 0 47068642.982822299 -1397640.453125 0 -1397640.453125 -55537134.922912598 0 0 0 0 19990576.879888892 589388.99151611328 0 589388.99151611328 -47256809.644348145 0 0 0 0 1590307.1809820831 23883367.042312622 0 23883367.042312622 -52209169.604675293 0 0 0 0 4311788.5209920183 -5731700.9955034256 0 -5731700.9955034256 -41975681.934814453 0 0 0 0 26204699.602855742 21897476.837158203 0 21897476.837158203 -39253502.364990234 0 0 0 0 21299255.8612203 10504100.040557861 0 10504100.040557861 -61893380.969848633 0 0 0 0 4108545.7707190346 1960885.0580215454 0 1960885.0580215454 -21340743.733886719 0 0 0 0 887235.33129634603 282574.90037138015 0 282574.90037138015 -1132158.5967678428 0 0 0 0 123727380.0544337 -41365732.315063477 0 -41365732.315063477 -36116700.867362976 0 0 0 0 56044506.7190907 20863530.990539551 0 20863530.990539551 -8328161.967956543 0 0 0 0 306.36811135502649 -185235.14906115085 0 -185235.14906115085 -682968.18399456888 0 0 0 0 37858389.461067617 -7586612.7889099121 0 -7586612.7889099121 -41337473.731201172 0 0 0 0 53707507.704173818 -41223695.796775818 0 -41223695.796775818 -28644390.354187012 0 0 0 0 54251178.531283081 -70900941.052612305 0 -70900941.052612305 39417250.465148926 0 0 0 0 22821729.694091797 -32006677.341949463 0 -32006677.341949463 -7702795.130859375 0 0 0 0 2270389.9044542462 6263134.1085586548 0 6263134.1085586548 -74330209.036376953 0 0 0 0 -1963394.2677790523 18527738.125579834 0 18527738.125579834 -74576580.4972229 0 0 0 0 11224827.011760712 -10204980.046173096 0 -10204980.046173096 -9614883.0727844238 0 0 0 0 6084659.9890568098 2219100.2611069307 0 2219100.2611069307 -7778775.3361960836 0 0 0 0 10237037.97711432 35890413.854827881 0 35890413.854827881 -106241026.03292847 0 0 0 0 7802445.6351785064 -17377063.007751465 0 -17377063.007751465 -100371734.81729126 0 0 0 0 7295421.3829782009 18154447.237915039 0 18154447.237915039 -82243921.675392151 0 0 0 0 13172960.180433273 1094720.2418060303 0 1094720.2418060303 -18638470.419006348 0 0 0 0 4446231.5391188031 -15294770.455070496 0 -15294770.455070496 -39376638.101989746 0 0 0 0 8956319.0456452668 4712042.914141126 0 4712042.914141126 -12893681.047758549 0 0 0 0 14449623.809928894 -3818009.9807128906 0 -3818009.9807128906 -23338623.35319519 0 0 0 0 11879942.580545064 4796846.0011749268 0 4796846.0011749268 -42198298.963745117 0 0 0 0 36761825.661869489 -27776285.172027588 0 -27776285.172027588 -21187614.892059326 0 0 0 0 18545954.954711214 -12099373.152547665 0 -12099373.152547665 -29741538.951218918 0 0 0 0 3554511.1413750984 -10211320.393913269 0 -10211320.393913269 -27380783.146484375 0 0 0 0 26472626.292163849 -23719094.063201904 0 -23719094.063201904 -51111906.784381866 0 0 0 0 108326381.72273636 -66841707.086448669 0 -66841707.086448669 -41931054.447311401 0 0 0 0 19843164.232681081 -17829406.819496579 0 -17829406.819496579 -26215135.410339221 0 0 0 0 17161366.084470749 1212427.6402435303 0 1212427.6402435303 -27290225.580932617 0 0 0 0 17687420.203140259 5016832.5136108398 0 5016832.5136108398 -102293724.29342651 0 0 0 0 18068561.899173737 -2263868.7742614746 0 -2263868.7742614746 -35859974.172821045 0 0 0 0 8546699.7079906464 -33838458.843597412 0 -33838458.843597412 -46657955.134811401 0 0 0 0 10202658.122467041 -22163557.694335938 0 -22163557.694335938 3836011.9524230957 0 0 0 0 9616971.0722198486 -6546280.3710021973 0 -6546280.3710021973 -17750949.899658203 0 0 0 0 14821920.675870895 -14034472.969955444 0 -14034472.969955444 -20199861.791992188 0 0 0 0 -3707678.1854165345 -8208436.732551761 0 -8208436.732551761 -5961068.9236522466 0 0 0 0 -3524156.2403403074 -28580754.793771982 0 -28580754.793771982 2433955.5425109863 0 0 0 0 -8199459.1244335175 -42897180.648132324 0 -42897180.648132324 11890699.605804443 0 0 0 0 -3772848.014383316 -17308250.948196411 0 -17308250.948196411 34518840.999481201 0 0 0 0 -5210817.8829215448 -6112502.8498853147 0 -6112502.8498853147 1289051.5934170187 0 0 0 0 210934.90988349915 614816.50225067139 0 614816.50225067139 4800334.0026168823 0 0 0 0 -1925541.5552861448 -1927629.5211126581 0 -1927629.5211126581 -710103.25162485242 0 0 0 0 -2297478.157917155 -2504591.8760664165 0 -2504591.8760664165 -1558035.0098545477 0 0 0 0 27506892.31901902 -4648390.0419845581 0 -4648390.0419845581 -7336011.2243270874 0 0 0 0 99270962.893143728 -53081103.100646973 0 -53081103.100646973 -145950244.615448 0 0 0 0 -291829852.32610595 437483210.60023499 0 437483210.60023499 353116827.67486572 0 0 0 0 26909848.440601587 -641022266.42005348 0 -641022266.42005348 179227332.47174072 0 0 0 0 285791170.71162319 378466007.36553955 0 378466007.36553955 -49579011.444076538 0 0 0 0 -811534.56521038024 -544053.05048079789 0 -544053.05048079789 -572371.89234320819 0 0 0 0 -71396879.47408092 7583784.9738616943 0 7583784.9738616943 38692709.179168701 0 0 0 0 109167779.37555529 423978580.51841736 0 423978580.51841736 -495851852.1245575 0 0 0 0 27544530.916113317 -1011931.2666702271 0 -1011931.2666702271 -57568121.186752319 0 0 0 0 -132470153.16118421 105733909.96688843 0 105733909.96688843 -64371534.964385986 0 0 0 0 86689.047462977469 1519980.783782959 0 1519980.783782959 -65813157.507324219 0 0 0 0 -4548710.3800794333 -4820347.9010009766 0 -4820347.9010009766 -37008753.708282471 0 0 0 0 -8658058.8853858411 -3794988.9609489441 0 -3794988.9609489441 -8996192.7877044678 0 0 0 0 24799463.302526832 -47922344.289154053 0 -47922344.289154053 6110584.8025360107 0 0 0 0 14725991.930233002 -15922842.00479126 0 -15922842.00479126 -13465341.140563965 0 0 0 0 34096256.161592901 -47765573.153625488 0 -47765573.153625488 4229628.6256713867 0 0 0 0 -2230056.9913089341 -7895982.7483686581 0 -7895982.7483686581 -6586224.3942073882 0 0 0 0 -7305390.6378068328 -6900741.8501281738 0 -6900741.8501281738 6507463.8916015625 0 0 0 0 17426547.849709354 7283160.9940185547 0 7283160.9940185547 -31821055.429931641 0 0 0 0 4004293.6066654325 -26003701.813491821 0 -26003701.813491821 2086652.4411010742 0 0 0 0 69706294.999184489 -39491676.025299072 0 -39491676.025299072 -8955001.4504699707 0 0 0 0 33318644.161623068 -52163504.102752686 0 -52163504.102752686 67119122.668701172 0 0 0 0 38194982.647679567 7746870.5856781006 0 7746870.5856781006 49231305.470336914 0 0 0 0 28980008.552791849 -14821583.422637939 0 -14821583.422637939 -5617550.880859375 0 0 0 0 -2716825.3565416932 -14143277.90435791 0 -14143277.90435791 22250896.735290527 0 0 0 0 -723704.06572258472 -10204402.174316406 0 -10204402.174316406 -18640558.751434326 0 0 0 0 -18166961.112486318 -964209.76109313965 0 -964209.76109313965 -4196409.0612182617 0 0 0 0 40160.208158791065 4172016.6962280273 0 4172016.6962280273 -32729218.876678467 0 0 0 0 -19893003.360780228 5056441.3379058838 0 5056441.3379058838 -28698128.378204346 0 0 0 0 -13317417.805797052 13171783.310838699 0 13171783.310838699 -50423051.569061279 0 0 0 0 -20282016.062430706 50748205.868579865 0 50748205.868579865 -92405703.796661377 0 0 0 0 -33922366.231642723 31966956.058822632 0 31966956.058822632 -50442038.284720242 0 0 0 0 -38674443.069269761 71423891.190246582 0 71423891.190246582 -93658138.654678345 0 0 0 0 -36877507.15780589 22389755.381195068 0 22389755.381195068 -23816729.889038086 0 0 0 0 -19682522.185280308 31360529.306243896 0 31360529.306243896 -76811741.474609375 0 0 0 0 -56974812.550060466 25708565.289672852 0 25708565.289672852 -42697728.553398132 0 0 0 0 -25167585.895876881 52935204.278198242 0 52935204.278198242 -117937260.8596344 0 0 0 0 -59166713.92801474 170218437.95223236 0 170218437.95223236 -250773830.21365356 0 0 0 0 -12328959.618440393 86258521.051549911 0 86258521.051549911 -190370973.99862671 0 0 0 0 29495519.273885153 64275868.691230774 0 64275868.691230774 -288435418.44741821 0 0 0 0 5474410.0533211119 44579560.654769897 0 44579560.654769897 -212315778.84301758 0 0 0 0 32777830.581690989 62914955.76852417 0 62914955.76852417 -403293293.13206482 0 0 0 0 18482383.588604532 29907925.125747681 0 29907925.125747681 -275482494.86134338 0 0 0 0 18347910.551133841 33404462.395111084 0 33404462.395111084 -198580380.37741852 0 0 0 0 72907.266592768647 -3454804.4045333862 0 -3454804.4045333862 -266294635.54949951 0 0 0 0 3102700.0176728815 48794466.927139282 0 48794466.927139282 -200386872.82775021 0 0 0 0 -49677.580410829774 11720550.37991333 0 11720550.37991333 -111750713.17652893 0 0 0 0 1638100.0436935388 29901695.486228943 0 29901695.486228943 -119946871.52394104 0 0 0 0 -16909616.626526967 14280886.1342659 0 14280886.1342659 -48834696.712677002 0 0 0 0 -11834183.392325349 20584562.772323608 0 20584562.772323608 -77015017.869972229 0 0 0 0 -6839721.1189470291 33463405.999572754 0 33463405.999572754 -100404766.1554184 0 0 0 0 8115.857131476374 7532230.3846396459 0 7532230.3846396459 -56751158.392974854 0 0 0 0 -9846464.314480504 13135238.427902222 0 13135238.427902222 -41658718.58323288 0 0 0 0 1202363.9982034853 1505240.0289764404 0 1505240.0289764404 -24891731.518959045 0 0 0 0 570.5726647858869 -1970.5641948953271 0 -1970.5641948953271 -25283.071998294443 0 0 0 0 1887889.3914774861 -5001672.6847686768 0 -5001672.6847686768 -35594989.196929932 0 0 0 0 -2569780.4802284595 10165118.672531128 0 10165118.672531128 -51006877.390716553 0 0 0 0 -2222320.6595158726 -9154595.6554260254 0 -9154595.6554260254 -27637068.103271484 0 0 0 0 -2293944.4182858467 -4888387.434387207 0 -4888387.434387207 -31727595.968055725 0 0 0 0 1742318.8594456166 -7358245.2687988281 0 -7358245.2687988281 -27439112.880340576 0 0 0 0 -13159096.304285362 -269822.70124816895 0 -269822.70124816895 -26213616.934265137 0 0 0 0 3975528.1592263728 -1985438.7876586914 0 -1985438.7876586914 -26303042.583309174 0 0 0 0 5272527.0151018202 -23357993.182128906 0 -23357993.182128906 -17870643.227142334 0 0 0 0 20079695.719728 -38942091.126647949 0 -38942091.126647949 -2894325.5053100586 0 0 0 0 2001157.6072514653 -25168745.709259033 0 -25168745.709259033 -7419434.2124938965 0 0 0 0 -8016872.1079128981 -10148889.175437927 0 -10148889.175437927 -25060542.679321289 0 0 0 0 8871063.0393314362 -19587495.17401123 0 -19587495.17401123 -20661308.125015259 0 0 0 0 13350090.391867742 -19081666.295082092 0 -19081666.295082092 -33198808.876403809 0 0 0 0 24233650.603814643 -30780593.58923912 0 -30780593.58923912 -28058032.553588867 0 0 0 0 13861133.103948534 -19450839.157409668 0 -19450839.157409668 -37902424.059387207 0 0 0 0 11200097.541666549 3062912.9619750977 0 3062912.9619750977 -48193999.531005859 0 0 0 0 81476.390147100712 -54612.127136126161 0 -54612.127136126161 -92594.486389137805 0 0 0 0 14805234.31735608 -4627452.250213623 0 -4627452.250213623 -41919019.122566223 0 0 0 0 12470523.105111942 -15219895.445281982 0 -15219895.445281982 -30662472.687255859 0 0 0 0 13162278.62771073 -15272224.907104492 0 -15272224.907104492 -35492710.208862305 0 0 0 0 13131958.798231304 -11911454.239624023 0 -11911454.239624023 -34047816.472412109 0 0 0 0 12616125.372690499 -11941168.742126465 0 -11941168.742126465 -19233671.951660156 0 0 0 0 9074097.8127555251 1998792.2933654785 0 1998792.2933654785 -24326369.060546875 0 0 0 0 16546219.4445059 -13176287.642272949 0 -13176287.642272949 -19509608.301696777 0 0 0 0 8265126.7355825603 4502786.4328308105 0 4502786.4328308105 -2414237.3290100098 0 0 0 0 -9767544.3385323249 -5248649.2539672852 0 -5248649.2539672852 -13327713.87689209 0 0 0 0 -2480.8483653740732 -8451.4212031811476 0 -8451.4212031811476 -7908.4587057381868 0 0 0 0 17712568.442498825 -23804298.239471436 0 -23804298.239471436 -14644963.721923828 0 0 0 0 -898672.50134800375 1824020.3649597168 0 1824020.3649597168 -10832048.467430115 0 0 0 0 17177985.680740453 -5869595.9702682495 0 -5869595.9702682495 -23699580.314575195 0 0 0 0 1923980.9469853491 -9742295.3787841797 0 -9742295.3787841797 -24349185.558349609 0 0 0 0 -10700279.237700462 14605905.539245605 0 14605905.539245605 13936779.372406006 0 0 0 0 23683720.671866834 -7305293.1049804688 0 -7305293.1049804688 -23604173.213287354 0 0 0 0 3052914.603386052 -28085115.25012207 0 -28085115.25012207 18401550.406225204 0 0 0 0 37250.856273591795 -28988.188294321299 0 -28988.188294321299 -48595.799033589661 0 0 0 0 7691348.5906006154 28291991.931846619 0 28291991.931846619 -101201803.12252808 0 0 0 0 14724417.519120157 1667152.0614624023 0 1667152.0614624023 -71702686.416213989 0 0 0 0 2749449.2486994728 -3415175.1469421387 0 -3415175.1469421387 -45814848.066116333 0 0 0 0 -10740859.441840546 21246749.13117981 0 21246749.13117981 -69437174.345306396 0 0 0 0 -1445730.7538256831 2675449.3898391724 0 2675449.3898391724 -53337897.698303223 0 0 0 0 17777289.782547936 4772040.6009063721 0 4772040.6009063721 -73245975.658889771 0 0 0 0 9523526.1323390063 9778815.015953064 0 9778815.015953064 -54786791.151123047 0 0 0 0 10291951.848444995 2207236.8702545166 0 2207236.8702545166 -87564755.11038208 0 0 0 0 574250.71009702608 13867742.004730225 0 13867742.004730225 -58927617.656280518 0 0 0 0 8165711.1396662742 3761069.1965637207 0 3761069.1965637207 -68560724.256752968 0 0 0 0 7803884.7944836058 6938795.7601623535 0 6938795.7601623535 -56413872.568969727 0 0 0 0 6058613.0846114922 12352165.201896667 0 12352165.201896667 -54604028.175872803 0 0 0 0 5541661.7557602078 -836233.82691955566 0 -836233.82691955566 -52027991.118854523 0 0 0 0 9259.9981919565907 8072508.8076125579 0 8072508.8076125579 -43292857.677093506 0 0 0 0 4868375.598568134 2699263.9115142822 0 2699263.9115142822 -39642075.827697754 0 0 0 0 1519.3869037524607 5016545.5188880516 0 5016545.5188880516 -32456709.690612793 0 0 0 0 14676042.983335193 -31970871.857421875 0 -31970871.857421875 -2450684.4197235107 0 0 0 0 7916655.9238252342 1361665.7644958496 0 1361665.7644958496 -35935103.216308594 0 0 0 0 4255923.0816603461 4694023.7698669434 0 4694023.7698669434 -38047690.529510498 0 0 0 0 51602607.485948563 859623343.09786224 0 859623343.09786224 337774828.64707947 0 0 0 0 179530098.15949249 68211508.644329071 0 68211508.644329071 -161310313.0043869 0 0 0 0 3532933.3287606612 -1809105.8267634958 0 -1809105.8267634958 -9869319.4340781644 0 0 0 0 -259637422.22265244 -129280289.72984028 0 -129280289.72984028 -303778660.35805511 0 0 0 0 -850185274.91297913 272376312.76047134 0 272376312.76047134 554660569.90466309 0 0 0 0 -978960062.81552887 -194647101.78537893 0 -194647101.78537893 421536378.649086 0 0 0 0 -1028102222.8504152 -47160474.770170689 0 -47160474.770170689 281179168.60105515 0 0 0 0 -1311452229.0457077 17568733.333249092 0 17568733.333249092 335944132.04344416 0 0 0 0 -952674733.30755615 22299891.044300079 0 22299891.044300079 273959042.51251936 0 0 0 0 175128672.63366699 59176422.240306854 0 59176422.240306854 -214385946.07796478 0 0 0 0 73884838.161621094 92842137.867687225 0 92842137.867687225 -153177614.10171509 0 0 0 0 -21907703.060272217 297645763.67028332 0 297645763.67028332 -345913497.85867596 0 0 0 0 254196035.15110779 -11461505.68712616 0 -11461505.68712616 -99787381.759525299 0 0 0 0 -33904714.753552914 1757978.1528542936 0 1757978.1528542936 -90399854.1640625 0 0 0 0 340598730.99853516 -38182488.744907379 0 -38182488.744907379 6137723.127579689 0 0 0 0 39519167.50113678 -20450471.054954529 0 -20450471.054954529 14611061.236660004 0 0 0 0 113303835.81442261 121516954.9887619 0 121516954.9887619 -163541449.84566498 0 0 0 0 159875607.69043732 20110677.126068115 0 20110677.126068115 -19354371.973098755 0 0 0 0 73577991.959449768 96960494.19730854 0 96960494.19730854 55988454.218551636 0 0 0 0 69558914.065898895 77664378.203147888 0 77664378.203147888 -25056361.744304657 0 0 0 0 4632559.9997709766 -2681909.5043176748 0 -2681909.5043176748 -11892635.774971806 0 0 0 0 360081831.11101389 -238635292.00058198 0 -238635292.00058198 152503682.52750015 0 0 0 0 404977104.5464015 138167950.40821075 0 138167950.40821075 -359621242.56938934 0 0 0 0 794360683.05481529 -101723030.76602364 0 -101723030.76602364 -1110119561.8887482 0 0 0 0 870359048.93561459 356286882.69684649 0 356286882.69684649 -262140058.76174164 0 0 0 0 -998465359.73341751 75083235.254310608 0 75083235.254310608 229297267.32799149 0 0 0 0 -1039479817.907505 904054303.89168358 0 904054303.89168358 -4250828314.2343445 0 0 0 0 -799172923.72292519 -504988917.90054131 0 -504988917.90054131 923973613.58444977 0 0 0 0 1320099003.6149483 1219300486.7012215 0 1219300486.7012215 -1242635029.637886 0 0 0 0 -818059173.03051758 -237295000.26628304 0 -237295000.26628304 -607388460.34793854 0 0 0 0 -886604075.94684601 -347973410.20601273 0 -347973410.20601273 -730205555.11400604 0 0 0 0 -1283254276.0311279 -449778178.75602341 0 -449778178.75602341 405455338.99707603 0 0 0 0 -1358086947.4390488 -32440354.101169586 0 -32440354.101169586 -653733005.74462128 0 0 0 0 -1728193588.2508316 -982730180.32240534 0 -982730180.32240534 -778527608.37770081 0 0 0 0 -3720794218.9201508 -1434737385.5166969 0 -1434737385.5166969 -1314017263.7733307 0 0 0 0 -667795142.5474205 -2048943839.3936024 0 -2048943839.3936024 -5715133631.4455795 0 0 0 0 -104940471.7743454 -647778688.83707047 0 -647778688.83707047 -2362778519.827919 0 0 0 0 354759703.71240449 34583831.348470211 0 34583831.348470211 -1983128814.245285 0 0 0 0 362976306.58946228 -173595806.45350647 0 -173595806.45350647 -3590037869.2346878 0 0 0 0 -233252670.31653214 -940024328.89077377 0 -940024328.89077377 -2557693384.2531223 0 0 0 0 304415927.51216125 -416235423.28279877 0 -416235423.28279877 -2378501699.6643143 0 0 0 0 470840047.51786804 -58087598.328338623 0 -58087598.328338623 -2326374127.0581636 0 0 0 0 80589134.778654099 15704459.722667694 0 15704459.722667694 -2111522946.7841911 0 0 0 0 433113921.99828339 -77954655.431732178 0 -77954655.431732178 -2259687478.9755402 0 0 0 0 369651496.04156685 -213144692.78577709 0 -213144692.78577709 -1940543975.9908752 0 0 0 0 302093627.04245377 -294653807.16595459 0 -294653807.16595459 -1678013308.0992432 0 0 0 0 93080211.284891129 -357951943.25352859 0 -357951943.25352859 -929844782.14928818 0 0 0 0 348740352.65514374 -241974370.88577461 0 -241974370.88577461 -1665443584.977437 0 0 0 0 -717744942.00636864 23585009.065654755 0 23585009.065654755 65324133.018230438 0 0 0 0 269395989.71851349 43365474.62295723 0 43365474.62295723 -1254990799.456871 0 0 0 0 -137804730.80886364 -527942070.8540659 0 -527942070.8540659 -1565237212.6850586 0 0 0 0 224038003.98174286 -668702420.24200821 0 -668702420.24200821 -3470090499.5904083 0 0 0 0 -3798425.4672546387 -435162229.34517288 0 -435162229.34517288 -3255453348.4056625 0 0 0 0 -118375799.57242584 -614776919.06771088 0 -614776919.06771088 -2880617902.3182335 0 0 0 0 -253641478.88157988 -467987946.54132497 0 -467987946.54132497 -3016681668.8704147 0 0 0 0 206937182.1269722 -607297239.0852623 0 -607297239.0852623 -3193490540.9910965 0 0 0 0 -370487812.23275757 -460338525.79641724 0 -460338525.79641724 -2038359176.3146544 0 0 0 0 -27436044.094017029 -584756195.78996658 0 -584756195.78996658 -2405309984.4737415 0 0 0 0 -107202875.85585594 -883849447.3475399 0 -883849447.3475399 -3039459243.2793083 0 0 0 0 127955272.25593567 119483055.77962875 0 119483055.77962875 -1822032937.7809114 0 0 0 0 179337377.90655518 120561942.85535431 0 120561942.85535431 -1369067991.5456572 0 0 0 0 400491638.57727051 -92321270.411804199 0 -92321270.411804199 -719880154.54653931 0 0 0 0 458966111.53424072 323920109.82636261 0 323920109.82636261 -1407364471.9890862 0 0 0 0 467185609.59246063 -98111330.82648468 0 -98111330.82648468 -1558777746.975769 0 0 0 0 183785687.75727844 -179235309.73259735 0 -179235309.73259735 -2336219584.0959806 0 0 0 0 13769482.29450798 -325680921.7710228 0 -325680921.7710228 -1830265031.3757019 0 0 0 0 -206763800.82095718 28748022.379990578 0 28748022.379990578 -2000013381.1857681 0 0 0 0 -5325391.0195618067 -1402234.5407603062 0 -1402234.5407603062 -958648.20114545338 0 0 0 0 -126938350.69654846 -147497191.3036232 0 -147497191.3036232 -1642667587.9699345 0 0 0 0 -325729671.72714996 -234630547.69439697 0 -234630547.69439697 -1619025151.5955276 0 0 0 0 -91500630.276151657 -389811517.00419426 0 -389811517.00419426 -2059195520.2654266 0 0 0 0 12730883.662296295 -157572776.1684227 0 -157572776.1684227 -2030186306.4396057 0 0 0 0 9741051.5303134918 -323323190.80399895 0 -323323190.80399895 -1673105922.3773651 0 0 0 0 202337876.2807312 193786558.61558533 0 193786558.61558533 -1288985072.9609222 0 0 0 0 422761236.66178131 -24453594.056240082 0 -24453594.056240082 -1667316293.9771423 0 0 0 0 74664395.076431274 -222806261.12627792 0 -222806261.12627792 -2841633296.9990478 0 0 0 0 201001388.21715355 -371836298.47605133 0 -371836298.47605133 275517239.05721092 0 0 0 0 191670687.32029724 -253427466.09684849 0 -253427466.09684849 68780735.253868103 0 0 0 0 119562114.68138695 79746821.226735115 0 79746821.226735115 51108742.153295517 0 0 0 0 67263861.693706512 82665722.693576813 0 82665722.693576813 112056573.2865715 0 0 0 0 -195257740.02602386 35916307.46273613 0 35916307.46273613 -332200532.71279526 0 0 0 0 -1585920.6952648577 -6461276.0843438376 0 -6461276.0843438376 -5988820.9655433372 0 0 0 0 -200225096.84375 346994194.58401489 0 346994194.58401489 345423495.64978027 0 0 0 0 -162157.10758992727 -240883.48972096108 0 -240883.48972096108 164499.86286970973 0 0 0 0 133428020.88888168 118352468.28958893 0 118352468.28958893 143898440.09138489 0 0 0 0 105979139.44941902 113544830.67054462 0 113544830.67054462 -25381434.228542328 0 0 0 0 696373802.46857452 498206099.80499077 0 498206099.80499077 -180579241.22639465 0 0 0 0 623838232.58888245 555394171.61167908 0 555394171.61167908 987160.12687683105 0 0 0 0 -290095806.15266037 -282136843.97403955 0 -282136843.97403955 -19371641.207397461 0 0 0 0 1456940.5666754143 -2593924.6769498326 0 -2593924.6769498326 -1420117.750925513 0 0 0 0 653792322.76757622 -347695157.4521699 0 -347695157.4521699 173280188.1304388 0 0 0 0 1078174895.3038177 -36984991.206565857 0 -36984991.206565857 -153973875.59294128 0 0 0 0 458023641.78678894 -234602818.32497978 0 -234602818.32497978 36303397.284799576 0 0 0 0 -493493293.25059128 -226242502.14492035 0 -226242502.14492035 224264660.7001133 0 0 0 0 -982182639.16454697 24517441.334882736 0 24517441.334882736 92573728.032417297 0 0 0 0 -1808132.4099570289 1701450.8865690408 0 1701450.8865690408 -123502.70632402319 0 0 0 0 -1828695.7480323613 1426379.3618103378 0 1426379.3618103378 -2641347.5464593279 0 0 0 0 56002420.062541962 115367359.13616562 0 115367359.13616562 82928673.812232971 0 0 0 0 -98512134.499324799 -7131660.5430164337 0 -7131660.5430164337 -74531492.507929742 0 0 0 0 69669205.655456543 130653120.5915904 0 130653120.5915904 -72373188.442363739 0 0 0 0 187294884.88222504 -24716189.648874283 0 -24716189.648874283 20659718.778502941 0 0 0 0 -378367429.42660522 102810034.93931961 0 102810034.93931961 -799979290.59942627 0 0 0 0 -494054867.54931831 20117135.601913452 0 20117135.601913452 -60213871.17099762 0 0 0 0 -276252692.64561462 -149796590.08536053 0 -149796590.08536053 -281138508.69195175 0 0 0 0 -408805343.21857357 244600166.48303318 0 244600166.48303318 -214489132.37934113 0 0 0 0 129815503.07152939 140820713.76324177 0 140820713.76324177 -208322484.1015892 0 0 0 0 43588559.977218628 -98620781.863840103 0 -98620781.863840103 -186511787.91993952 0 0 0 0 -20510750.377727509 -132898300.58056927 0 -132898300.58056927 114519706.43874788 0 0 0 0 251316652.14613533 127814193.95403385 0 127814193.95403385 -35776032.235843658 0 0 0 0 -43603451.878448486 -225195020.97198868 0 -225195020.97198868 -219906572.33368564 0 0 0 0 -439479477.75634098 -86354211.822698355 0 -86354211.822698355 -2526227.0667572021 0 0 0 0 -82193483.968038559 44860168.756909847 0 44860168.756909847 -129696008.40524483 0 0 0 0 59472445.459838867 -10202103.205149651 0 -10202103.205149651 45252258.549248219 0 0 0 0 759770888.32714295 120390403.27849829 0 120390403.27849829 -36979021.854530334 0 0 0 0 1770377.8362300601 -31811.340853590518 0 -31811.340853590518 -1356736.6623599981 0 0 0 0 -1683988.8787071537 -7199171.0010724664 0 -7199171.0010724664 -5354370.4582850002 0 0 0 0 871001746.49522018 -662867138.16083527 0 -662867138.16083527 142130097.43911207 0 0 0 0 515712695.72801208 -272718520.43523538 0 -272718520.43523538 5206663.4489672184 0 0 0 0 463824673.38695335 -26436733.810154915 0 -26436733.810154915 -214910567.8627243 0 0 0 0 440268843.5838623 -209851862.90473378 0 -209851862.90473378 130103991.39761257 0 0 0 0 287086674.43153763 11628513.9561508 0 11628513.9561508 -35008662.115257367 0 0 0 0 234165134.80369949 -33584319.403599977 0 -33584319.403599977 -22908176.10021019 0 0 0 0 -577999.34220726788 504017.85260874731 0 504017.85260874731 -23081.361646076431 0 0 0 0 238641530.92961502 -16612469.917049408 0 -16612469.917049408 31670743.159237623 0 0 0 0 -1687324.9200077155 -7265523.6437776759 0 -7265523.6437776759 -5104589.8748472212 0 0 0 0 734576604.8115921 -274227267.44984365 0 -274227267.44984365 -132529480.86302185 0 0 0 0 384135645.04125023 74280235.366492271 0 74280235.366492271 55456146.473282814 0 0 0 0 858033785.18286133 -102176617.87576079 0 -102176617.87576079 -158009420.31275702 0 0 0 0 141815009.59606361 -172970285.89313889 0 -172970285.89313889 -14869712.237659454 0 0 0 0 33907760.020965576 -38354571.138973236 0 -38354571.138973236 -113405750.0496397 0 0 0 0 -464955402.33508396 -138179709.14143181 0 -138179709.14143181 77253847.783885956 0 0 0 0 -192407217.84527206 -171315389.86135864 0 -171315389.86135864 9353820.9179996252 0 0 0 0 -121852595.03310013 11487090.199465871 0 11487090.199465871 95599799.825028419 0 0 0 0 329905542.01114464 -186542671.49236345 0 -186542671.49236345 -103954898.8868556 0 0 0 0 -1560227.2088738522 -6129394.9806172382 0 -6129394.9806172382 -3442539.2690989301 0 0 0 0 -73705204.31438446 -199891944.58316094 0 -199891944.58316094 -3993196.8925180435 0 0 0 0 -276452854.32569504 -169622975.85416687 0 -169622975.85416687 39602711.973415375 0 0 0 0 -432543493.41691208 -58088271.400555372 0 -58088271.400555372 57005142.410663128 0 0 0 0 -360616845.37214661 -30256466.135671914 0 -30256466.135671914 -191156730.0885179 0 0 0 0 -432382110.13748074 -56282836.164337486 0 -56282836.164337486 75405497.750720024 0 0 0 0 -444888670.47135925 -31395688.38173151 0 -31395688.38173151 67356576.359816074 0 0 0 0 -502239435.62104607 -81604417.930628791 0 -81604417.930628791 -77145684.597673416 0 0 0 0 -554648028.68839264 144764816.7794826 0 144764816.7794826 -181014221.10642934 0 0 0 0 -269189105.16091919 -29313798.058077335 0 -29313798.058077335 72665311.283653259 0 0 0 0 27692393.253527641 200388963.82387009 0 200388963.82387009 -162122385.63472295 0 0 0 0 -383781355.69699097 86058459.526902437 0 86058459.526902437 154478476.47404706 0 0 0 0 -621833829.65666199 -101188435.02935505 0 -101188435.02935505 104097110.72108936 0 0 0 0 -568133732.91013718 88549963.01247406 0 88549963.01247406 179475065.80370235 0 0 0 0 -903634696.37530518 -377412512.20660782 0 -377412512.20660782 -180042334.3708992 0 0 0 0 -798515884.72882462 416038916.64445686 0 416038916.64445686 -315019893.09379768 0 0 0 0 -139451111.84983444 12198916.037369728 0 12198916.037369728 -111512521.50486469 0 0 0 0 -132684177.20712757 -65846716.842519343 0 -65846716.842519343 -29274138.185157776 0 0 0 0 413494502.35906601 -124179672.49943399 0 -124179672.49943399 -743512153.50005341 0 0 0 0 239336316.78174591 -383636619.02359223 0 -383636619.02359223 -145084436.83983421 0 0 0 0 1668512.895536866 -1130594.4049621411 0 -1130594.4049621411 -4067331.1866141092 0 0 0 0 25462914.465672493 -112200456.14331651 0 -112200456.14331651 251718149.56442261 0 0 0 0 -1277592812.3284912 268797208.4909277 0 268797208.4909277 111110973.38452148 0 0 0 0 -851239113.02905273 458215880.83484745 0 458215880.83484745 -456677043.25750351 0 0 0 0 88917143.258348465 290541458.84549737 0 290541458.84549737 -360929795.58183002 0 0 0 0 164944987.99987793 30296116.552185059 0 30296116.552185059 -297748335.41101837 0 0 0 0 -2675461.8376281746 2340810.5257793586 0 2340810.5257793586 3378489.857127768 0 0 0 0 363215585.30693054 -74495979.507694244 0 -74495979.507694244 -330711365.56079865 0 0 0 0 -3977139.2866077349 4057076.5890276534 0 4057076.5890276534 5556589.4270728845 0 0 0 0 85004475.753997803 168530752.90403271 0 168530752.90403271 -325269582.31680512 0 0 0 0 715346660.94198608 138673176.71817088 0 138673176.71817088 -345677349.71389389 0 0 0 0 -199508445.54353523 145760828.81466866 0 145760828.81466866 491054865.80120754 0 0 0 0 118518131.45232391 -338529023.33880639 0 -338529023.33880639 224746025.5619688 0 0 0 0 437022990.39593124 370965986.77718949 0 370965986.77718949 9100138.2152838707 0 0 0 0 617876939.79660797 -96611657.145704791 0 -96611657.145704791 -183067177.26542819 0 0 0 0 148949185.16918564 -197676104.43226153 0 -197676104.43226153 410794904.50695086 0 0 0 0 1512844.1910894141 2617022.0462245871 0 2617022.0462245871 -4084512.7178454907 0 0 0 0 -19637020.505180359 196979632.31350851 0 196979632.31350851 -61432508.549026966 0 0 0 0 -231581377.21614075 9216219.5121545792 0 9216219.5121545792 349472077.84407687 0 0 0 0 -103287827.82226562 376635205.51169014 0 376635205.51169014 -200860409.57192516 0 0 0 0 -2636299.546634458 2495068.3187364647 0 2495068.3187364647 3529573.5788554042 0 0 0 0 -281579.60528564453 -173626283.01820874 0 -173626283.01820874 138265254.2226612 0 0 0 0 170881301.4407959 171171043.62638903 0 171171043.62638903 -77466217.176214695 0 0 0 0 -87071280.42440033 -379466870.60910749 0 -379466870.60910749 -231152482.47275528 0 0 0 0 10905325.333317198 -3697092.2383679198 0 -3697092.2383679198 -21833316.200710155 0 0 0 0 3225679.1939849854 -20690402.311191559 0 -20690402.311191559 -33605290.33026123 0 0 0 0 21513783.005493164 -3609951.9523773193 0 -3609951.9523773193 -61626414.086566925 0 0 0 0 15412507.033602986 -11114567.496404778 0 -11114567.496404778 -38947909.580472261 0 0 0 0 23658450.097570419 -7292330.0031661987 0 -7292330.0031661987 -27338041.644607544 0 0 0 0 -144915634.73134232 -163781495.11241627 0 -163781495.11241627 239256178.42819405 0 0 0 0 476173700.4101181 133768828.27839661 0 133768828.27839661 -226910443.99074554 0 0 0 0 9177472.8035592549 -13194255.943175267 0 -13194255.943175267 -45363848.136785455 0 0 0 0 107238037.57927132 9880002.2395241261 0 9880002.2395241261 -102360203.28444099 0 0 0 0 294867321.93623352 -80006804.004355431 0 -80006804.004355431 -61116161.651306152 0 0 0 0 5157566.6381660393 -25986263.539893653 0 -25986263.539893653 -39864948.007084824 0 0 0 0 39751995.374839783 -31404823.721618652 0 -31404823.721618652 -17028945.039558411 0 0 0 0 16428689.136117641 -8812573.7229856253 0 -8812573.7229856253 -59467926.476199605 0 0 0 0 340469322.39059067 -104883612.840065 0 -104883612.840065 -207857195.11302185 0 0 0 0 -1703125.3406638205 -17862824.525836557 0 -17862824.525836557 -55477706.760017812 0 0 0 0 115681512.56642914 100688415.17089081 0 100688415.17089081 -9815679.6511154175 0 0 0 0 562648709.05637741 67827783.755157471 0 67827783.755157471 -160621116.21229553 0 0 0 0 10474359.459549047 -4254794.5612620628 0 -4254794.5612620628 -31003586.636022858 0 0 0 0 293649928.67669678 -65001714.822739601 0 -65001714.822739601 -147982251.21614075 0 0 0 0 192542865.48694611 -107518337.23144531 0 -107518337.23144531 -134616765.0389142 0 0 0 0 3853189.5412902832 70855294.43429184 0 70855294.43429184 -170322682.45563078 0 0 0 0 376129927.73403931 -158768971.11540318 0 -158768971.11540318 -78584826.035575867 0 0 0 0 132012486.27526093 -105552276.72239208 0 -105552276.72239208 -90026120.784099579 0 0 0 0 -34225421.327104568 -23504017.659217834 0 -23504017.659217834 -274309004.01187134 0 0 0 0 -25404241.89896965 13737598.433670044 0 13737598.433670044 -452543745.15530396 0 0 0 0 -315459250.77297115 -242319147.52366638 0 -242319147.52366638 -183769172.75033569 0 0 0 0 -140483847.40447235 -94467223.946060181 0 -94467223.946060181 -63882588.943603516 0 0 0 0 -216405048.54784966 -163556205.62781429 0 -163556205.62781429 36258358.759765625 0 0 0 0 -88776084.325649261 -127285461.45812988 0 -127285461.45812988 9170656.9669189453 0 0 0 0 -150607874.84800148 -105051124.20417023 0 -105051124.20417023 29231419.222717285 0 0 0 0 -76118936.185611725 -166882718.38703156 0 -166882718.38703156 -35911912.028869629 0 0 0 0 37041413.929580688 -108965393.11230469 0 -108965393.11230469 -6270180.6737365723 0 0 0 0 -88661411.950735092 -119119184.56923294 0 -119119184.56923294 121366629.21850586 0 0 0 0 49479519.402111053 -69812819.069763184 0 -69812819.069763184 115263656.81430054 0 0 0 0 210802866.81006622 -234788611.99699402 0 -234788611.99699402 14673325.630218506 0 0 0 0 -35485153.841761589 -176211211.69076896 0 -176211211.69076896 -53890736.915588379 0 0 0 0 -29916646.909011841 11552352.457633972 0 11552352.457633972 -215642865.2090683 0 0 0 0 27505192.764072418 71279498.621810913 0 71279498.621810913 -27686390.602645874 0 0 0 0 214089505.45441437 -233054701.60097504 0 -233054701.60097504 -279612524.598526 0 0 0 0 -1299932.0757876597 -1644125.8523072302 0 -1644125.8523072302 1008390.5007994249 0 0 0 0 342328477.87037659 -34360224.123687744 0 -34360224.123687744 -149709923.25074005 0 0 0 0 -88079.98750410229 -22692406.948638625 0 -22692406.948638625 -33836372.360138878 0 0 0 0 190715175.20111465 -111318060.48550415 0 -111318060.48550415 -56653805.793701172 0 0 0 0 325460944.49742508 -335460449.90705872 0 -335460449.90705872 86015421.927764893 0 0 0 0 451805450.0121994 -151432550.09968567 0 -151432550.09968567 15109907.684875488 0 0 0 0 198398755.27798462 -213442702.75128174 0 -213442702.75128174 214224696.80435181 0 0 0 0 232551376.13666916 -295049496.71466446 0 -295049496.71466446 -40047738.143127441 0 0 0 0 31711280.446746826 -23139812.065254211 0 -23139812.065254211 -44333714.486373901 0 0 0 0 1174040.1042709351 -16525016.345594406 0 -16525016.345594406 -16928423.300918579 0 0 0 0 5844846.161699187 -16227913.317000542 0 -16227913.317000542 -45392173.155647226 0 0 0 0 391357406.93096924 -356634548.08934021 0 -356634548.08934021 -62513191.651794434 0 0 0 0 47926227.602716446 -43573444.636089325 0 -43573444.636089325 -24561890.535934448 0 0 0 0 295544415.45548248 25860130.157028198 0 25860130.157028198 44135519.215438843 0 0 0 0 269421401.16650391 -254722428.95233154 0 -254722428.95233154 101798269.89784241 0 0 0 0 279789784.77743721 -254232706.87748718 0 -254232706.87748718 -39011476.150299072 0 0 0 0 327764136.15120697 -135841859.26634216 0 -135841859.26634216 -8613756.481338501 0 0 0 0 337401817.30013657 -147551914.12247086 0 -147551914.12247086 -179064771.1703186 0 0 0 0 -214258193.36071396 -247164691.02624512 0 -247164691.02624512 -179843798.28729248 0 0 0 0 654372730.54937267 -307619704.16334724 0 -307619704.16334724 -539298081.5743103 0 0 0 0 -640845192.48734283 -759997007.70075989 0 -759997007.70075989 -253366814.39117432 0 0 0 0 -61381649.001281738 129902751.37258911 0 129902751.37258911 -424266742.22352409 0 0 0 0 -1145976460.0221634 575405593.90049744 0 575405593.90049744 -427185974.46465695 0 0 0 0 284111916.00744915 637670175.68595982 0 637670175.68595982 -1504049941.3666382 0 0 0 0 -87136577.228952408 -24649212.204475403 0 -24649212.204475403 -96151037.780090332 0 0 0 0 46592053.141644001 148844794.50328445 0 148844794.50328445 -638585780.52059937 0 0 0 0 345746122.93357086 144952563.45013428 0 144952563.45013428 -1120918498.1970673 0 0 0 0 79946093.254333496 -34315758.580436707 0 -34315758.580436707 -751720184.64046478 0 0 0 0 86072153.41841507 63974894.836357117 0 63974894.836357117 -846553781.27134705 0 0 0 0 56581919.558477402 -122212484.42581177 0 -122212484.42581177 -667367248.94715118 0 0 0 0 -2249519.4687568285 -2543708.4277201965 0 -2543708.4277201965 1499457.9007761553 0 0 0 0 -54970910.808242798 115027074.5125351 0 115027074.5125351 -313515974.16455078 0 0 0 0 436383414.38513374 -396971737.41629028 0 -396971737.41629028 -478204772.44071198 0 0 0 0 5634474.2375936508 325745951.49147415 0 325745951.49147415 -238624182.82977295 0 0 0 0 506652.49176189024 2220558.3010712471 0 2220558.3010712471 -1288142.6136559844 0 0 0 0 128212381.45293808 413101067.60722351 0 413101067.60722351 -965987631.07678604 0 0 0 0 353186882.71178246 4431199.3052520752 0 4431199.3052520752 -58009399.60918045 0 0 0 0 294068542.75398064 -12427628.448379517 0 -12427628.448379517 -39327987.777038574 0 0 0 0 355105102.32727623 31078554.497436523 0 31078554.497436523 166953935.45595551 0 0 0 0 1006129194.9949064 -234366079.06423187 0 -234366079.06423187 -410787822.16221619 0 0 0 0 649331709.89646149 371209899.2828598 0 371209899.2828598 -1381836631.2562256 0 0 0 0 -707579412.31256104 1781284499.2465057 0 1781284499.2465057 -826762197.97184753 0 0 0 0 373057779.52110672 1786666058.317955 0 1786666058.317955 -1903546074.1970444 0 0 0 0 275367788.62416673 135856048.12359786 0 135856048.12359786 -393149282.512146 0 0 0 0 -1508008419.9429016 795212180.62502289 0 795212180.62502289 -477806439.92709351 0 0 0 0 1842533.1843260229 2826402.1518795602 0 2826402.1518795602 -6478065.9985110164 0 0 0 0 -680570167.30953979 1735474491.684227 0 1735474491.684227 -857695885.57736206 0 0 0 0 -1566965991.0471497 1945394697.5426407 0 1945394697.5426407 -463318538.82339478 0 0 0 0 544201265.91752052 -1087128061.4465294 0 -1087128061.4465294 -893164403.98124695 0 0 0 0 532204677.42926407 70605498.823629379 0 70605498.823629379 -7292084.490737915 0 0 0 0 2831090.7036916194 3305734.330739832 0 3305734.330739832 -12474070.6589268 0 0 0 0 385211211.11879158 -10087060.998168945 0 -10087060.998168945 -43435825.425216675 0 0 0 0 334980024.39291763 65404825.82308197 0 65404825.82308197 51002392.313735962 0 0 0 0 935789.25828100799 4008017.9474495011 0 4008017.9474495011 -2386960.1201323718 0 0 0 0 374367649.92523956 75121938.994918823 0 75121938.994918823 25809669.627151489 0 0 0 0 -44039858.730318069 250238636.67001343 0 250238636.67001343 47623117.306289673 0 0 0 0 678560329.91688919 80991673.195724487 0 80991673.195724487 -308227706.11067963 0 0 0 0 -12397592.256118774 285273060.37805033 0 285273060.37805033 -10909397.944122314 0 0 0 0 435399891.85361481 -233879569.70776558 0 -233879569.70776558 16338018.924024343 0 0 0 0 -3389795.3401398137 -5916673.610162803 0 -5916673.610162803 -8193644.0852277763 0 0 0 0 168219910.01246643 -71913275.659921646 0 -71913275.659921646 161018344.06579208 0 0 0 0 235647428.92016983 -15662223.253572464 0 -15662223.253572464 63176922.603458405 0 0 0 0 172241318.41212082 -75885940.466199875 0 -75885940.466199875 3528253.0412845612 0 0 0 0 60233556.498054504 30823886.821565628 0 30823886.821565628 -87262416.232498169 0 0 0 0 12461970.830614341 3073217.3387858123 0 3073217.3387858123 -13945409.772018798 0 0 0 0 -2637850313.7800674 1210805216.9210358 0 1210805216.9210358 -112293989.12953186 0 0 0 0 -1120957.5570889544 -4988862.6555962786 0 -4988862.6555962786 -6109765.6892335713 0 0 0 0 -15445590.248487473 -41859236.474414825 0 -41859236.474414825 -949896270.34432983 0 0 0 0 95792932.431793213 -124167688.78572464 0 -124167688.78572464 -51875347.738499641 0 0 0 0 -8478366.2789691351 -18547673.747412186 0 -18547673.747412186 -34212951.257744774 0 0 0 0 -412242987.53213501 756362263.43847656 0 756362263.43847656 -418029177.55335999 0 0 0 0 -293579783.65848541 889212168.72355652 0 889212168.72355652 -939501013.16601765 0 0 0 0 -599360884.60701752 983949051.52533722 0 983949051.52533722 -236197510.09927368 0 0 0 0 -547314568.02825546 644458461.71836853 0 644458461.71836853 192636806.4552002 0 0 0 0 -421532301.92527771 862989314.45249939 0 862989314.45249939 -352280622.34561539 0 0 0 0 -559516182.19512177 868788921.19131088 0 868788921.19131088 -160400762.74824524 0 0 0 0 -710283614.00575256 635407777.28842163 0 635407777.28842163 -291076813.07111406 0 0 0 0 -11126418.487871796 -17274225.830574133 0 -17274225.830574133 -26055154.480234288 0 0 0 0 12733744.366844177 -614761973.59053802 0 -614761973.59053802 -230957537.15893555 0 0 0 0 -435887010.76842499 639219912.91315651 0 639219912.91315651 -291075574.74398804 0 0 0 0 -2720031.7559202872 -2495920.7776715411 0 -2495920.7776715411 -789135.17630187795 0 0 0 0 718103423.75613403 -474723571.60516548 0 -474723571.60516548 -216093905.24925995 0 0 0 0 -10463350.755583264 -14059678.622711692 0 -14059678.622711692 -18939841.348296598 0 0 0 0 1205261835.4715881 -1638705271.3537445 0 -1638705271.3537445 -1378557679.6632462 0 0 0 0 20296994.191047668 648601379.85984802 0 648601379.85984802 884477186.07614899 0 0 0 0 -605458294.17418671 42366306.012069702 0 42366306.012069702 -1092187855.9500732 0 0 0 0 -977951801.72278595 -283790573.45280075 0 -283790573.45280075 -520952091.99986267 0 0 0 0 -831502649.59475803 227195713.40851402 0 227195713.40851402 -1137340719.5805969 0 0 0 0 -943136630.71623039 -351881133.1733284 0 -351881133.1733284 -3554779301.0144653 0 0 0 0 198923062.85791779 -975077056.49840546 0 -975077056.49840546 -4423367783.1590271 0 0 0 0 -1618640714.436779 -1159391376.9551697 0 -1159391376.9551697 -2721118027.3571243 0 0 0 0 -485754094.2856741 -165678018.71928978 0 -165678018.71928978 -2383061936.0845795 0 0 0 0 -1510146827.9079819 139256765.20224762 0 139256765.20224762 -1054468915.775795 0 0 0 0 -745233100.04578114 702856610.23322487 0 702856610.23322487 -388272727.27185059 0 0 0 0 -494734623.65365219 350877808.09127045 0 350877808.09127045 -1324329959.5430603 0 0 0 0 27865329.086071014 634255653.87197495 0 634255653.87197495 -607336513.58415222 0 0 0 0 -535519424.51515961 264926789.30139923 0 264926789.30139923 -239815344.9754591 0 0 0 0 965597119.49919128 -261420685.04099274 0 -261420685.04099274 -99967767.290985107 0 0 0 0 -487292257.87934875 -350562537.05871582 0 -350562537.05871582 86446923.83511734 0 0 0 0 -216069951.77365494 -1146155585.7614746 0 -1146155585.7614746 -1319023726.2394867 0 0 0 0 -23842624.402153015 -1445666301.5723305 0 -1445666301.5723305 -884439881.79553986 0 0 0 0 870921.88624256104 866858.42170185363 0 866858.42170185363 -4848248.8462542892 0 0 0 0 -188977165.16777802 -420289869.52751923 0 -420289869.52751923 -1631936692.7613258 0 0 0 0 -320429996.27386093 -433853454.0538826 0 -433853454.0538826 -278915484.75847626 0 0 0 0 -207857161.85329437 -602880189.7831955 0 -602880189.7831955 -726281303.1000061 0 0 0 0 -866236906.90760803 -1137971209.0216522 0 -1137971209.0216522 -720224988.57077432 0 0 0 0 -337335411.95328522 -616727291.75778961 0 -616727291.75778961 -330278711.76824951 0 0 0 0 -494740803.9252243 -346412724.08535767 0 -346412724.08535767 193260655.98117065 0 0 0 0 -163107171.04763031 104072882.61195374 0 104072882.61195374 122073357.09129143 0 0 0 0 -4666538.6483594067 -1623627.9057392366 0 -1623627.9057392366 -465326.85952959955 0 0 0 0 -403307322.20232391 -53452170.128715515 0 -53452170.128715515 20974000.764373779 0 0 0 0 111386068.70588684 -99913261.0546875 0 -99913261.0546875 -163108291.08452606 0 0 0 0 -355943122.20045471 22362990.291473389 0 22362990.291473389 30534570.768074036 0 0 0 0 3381625.3913412094 264085619.71513367 0 264085619.71513367 -443297559.23828125 0 0 0 0 -4695853.5739848875 369361.0394696407 0 369361.0394696407 -4695546.9615134588 0 0 0 0 -1264739548.4871216 108644274.3134079 0 108644274.3134079 156170051.54886627 0 0 0 0 -721686698.60655975 -1758984400.114151 0 -1758984400.114151 -1733773577.3269234 0 0 0 0 -245423141.36028671 -1189235663.2964439 0 -1189235663.2964439 -1245538738.4920349 0 0 0 0 -444352767.38143158 -540485603.50106812 0 -540485603.50106812 -375882310.09645081 0 0 0 0 -1886613064.1618919 -1274577167.2344208 0 -1274577167.2344208 -545652373.67892456 0 0 0 0 265882898.8690815 171902942.65235138 0 171902942.65235138 -433498371.35759068 0 0 0 0 133446459.14591694 236402464.64710617 0 236402464.64710617 -105054234.00502014 0 0 0 0 -88850419.580900192 514536380.95869827 0 514536380.95869827 -306700356.73458862 0 0 0 0 49405943.186493874 531890791.42557907 0 531890791.42557907 -391747670.57817078 0 0 0 0 542667.28119078639 2519534.2801406998 0 2519534.2801406998 -1212386.8227166384 0 0 0 0 607246828.07737994 7839768.1128664017 0 7839768.1128664017 -172340711.82678223 0 0 0 0 50122201.467750549 447229097.95167542 0 447229097.95167542 -310234822.58600235 0 0 0 0 392200674.82560349 260527020.41704559 0 260527020.41704559 -466070509.20109177 0 0 0 0 249123030.14222527 47095318.278450012 0 47095318.278450012 -59108827.262863159 0 0 0 0 2181787.7531019021 2080913.8270843783 0 2080913.8270843783 -11207793.886237934 0 0 0 0 210605869.64942122 139307534.22080612 0 139307534.22080612 -244702622.76374817 0 0 0 0 -260348657.00142002 659695318.69547653 0 659695318.69547653 -862040395.24036407 0 0 0 0 -243508231.38930511 -671051971.33288574 0 -671051971.33288574 -1525429671.8505859 0 0 0 0 79324573.230888367 142162225.25221634 0 142162225.25221634 -240461521.85229874 0 0 0 0 183566715.75231361 -12025665.89450264 0 -12025665.89450264 -561958662.43464661 0 0 0 0 60817749.255072534 334514759.13246918 0 334514759.13246918 -211684295.62464142 0 0 0 0 344288082.67223549 297812153.14281464 0 297812153.14281464 -327670222.16302872 0 0 0 0 255495124.88586617 -204822327.84324646 0 -204822327.84324646 -69729720.227256775 0 0 0 0 764710170.83666134 -178990078.07424545 0 -178990078.07424545 -143833669.39561462 0 0 0 0 464798603.30648232 243822713.77200699 0 243822713.77200699 -439618297.17141724 0 0 0 0 388764149.14966774 202352262.1052475 0 202352262.1052475 -197063741.14021301 0 0 0 0 -133929841.65786648 223401469.21196556 0 223401469.21196556 -187549312.58425903 0 0 0 0 2003760.4262635149 1749431.1408700589 0 1749431.1408700589 -694691.98390878737 0 0 0 0 1254358867.4446154 -269551723.31893539 0 -269551723.31893539 -328419856.07273865 0 0 0 0 4294401.3444633484 -673160446.24144745 0 -673160446.24144745 -410244103.77607727 0 0 0 0 -65569240.387985229 -190695708.42537689 0 -190695708.42537689 62288886.560943604 0 0 0 0 -169828853.88159895 -614544283.67237091 0 -614544283.67237091 -471807754.05699158 0 0 0 0 -548747311.03374481 -598837545.97829437 0 -598837545.97829437 -366775073.3296814 0 0 0 0 -450966498.88389969 -751560056.60762787 0 -751560056.60762787 -515029518.45480013 0 0 0 0 -676008435.02287483 -671649303.76493073 0 -671649303.76493073 -308483266.95956421 0 0 0 0 -371657308.69493103 -546603931.20722198 0 -546603931.20722198 -545347387.72380066 0 0 0 0 -576125416.3888092 -637630069.39800262 0 -637630069.39800262 -297358814.01486206 0 0 0 0 -19927321.054648876 7007073.1857717186 0 7007073.1857717186 1587596.4885941818 0 0 0 0 -466870128.75407791 -748706085.34869385 0 -748706085.34869385 -672639789.77955627 0 0 0 0 -145857071.84365463 50198641.030220032 0 50198641.030220032 373838688.30532837 0 0 0 0 -120780207.62811375 -237940321.06217766 0 -237940321.06217766 58777216.643829346 0 0 0 0 -200235911.46149039 -44960317.930120468 0 -44960317.930120468 131965847.58078003 0 0 0 0 -229093507.53809357 -331640669.22091675 0 -331640669.22091675 -203220204.36581421 0 0 0 0 -71391769.539452553 -192494277.0561676 0 -192494277.0561676 272302371.80044556 0 0 0 0 -76891777.890635014 282805914.49925232 0 282805914.49925232 634386356.29585266 0 0 0 0 174395222.77580929 234224629.82823944 0 234224629.82823944 125325597.01861191 0 0 0 0 -383359944.90435791 99365016.772537231 0 99365016.772537231 194791237.10592651 0 0 0 0 -314017662.08350277 -324455559.46561241 0 -324455559.46561241 -760104533.9548645 0 0 0 0 -620134018.49430847 -693625909.84793854 0 -693625909.84793854 -414924481.72977829 0 0 0 0 -679275139.37464714 -1478953728.9374199 0 -1478953728.9374199 -1664602358.6001282 0 0 0 0 -9104984.3448464014 3880715.2949753478 0 3880715.2949753478 -746683.84616420418 0 0 0 0 177989183.53889465 -274251969.65045166 0 -274251969.65045166 469202942.11252594 0 0 0 0 -1391290248.4191208 841112853.57583618 0 841112853.57583618 288477296.4447937 0 0 0 0 -976805.34831402451 2175180.8685819022 0 2175180.8685819022 -1731306.4174085371 0 0 0 0 2017181207.6696854 378928832.62284851 0 378928832.62284851 -2836110251.5546017 0 0 0 0 478591653.19690704 -2169941108.8502655 0 -2169941108.8502655 -3268593384.7526932 0 0 0 0 -1342525355.7419977 -150506826.73449326 0 -150506826.73449326 510422145.27285767 0 0 0 0 637742747.37144852 -168942958.45607758 0 -168942958.45607758 -249454806.24154663 0 0 0 0 698424790.61774826 137085483.72640228 0 137085483.72640228 -610943725.30060577 0 0 0 0 6482375.5930304527 -111894818.40258574 0 -111894818.40258574 -129240755.35241699 0 0 0 0 734943.80022382736 45183380.539152622 0 45183380.539152622 -159318784.31393433 0 0 0 0 -140390849.86120605 -62172225.921340942 0 -62172225.921340942 -54701576.396728516 0 0 0 0 -1114839.6589393616 -15916396.533084869 0 -15916396.533084869 -38165703.343948364 0 0 0 0 -13264084.601086982 -13892546.773091355 0 -13892546.773091355 -11059598.187120408 0 0 0 0 -16890467.400896545 -17423738.69345846 0 -17423738.69345846 -38089045.49714572 0 0 0 0 -43406897.600238159 -894587.43760925531 0 -894587.43760925531 9241172.140258953 0 0 0 0 175359032.8383255 225842462.28964233 0 225842462.28964233 46291509.186714172 0 0 0 0 -159672161.61837769 -68174420.007507324 0 -68174420.007507324 -16607836.740478516 0 0 0 0 -116138329.87980652 -111417196.11030579 0 -111417196.11030579 -98459107.653656006 0 0 0 0 1650880.2527390383 2207322.4869680405 0 2207322.4869680405 371401.40965713933 0 0 0 0 -478094.9472694397 -13188236.246067047 0 -13188236.246067047 -46773592.14673233 0 0 0 0 -7073544.8019323349 -15197080.665977478 0 -15197080.665977478 -57105407.369262695 0 0 0 0 -13291144.842655182 -3768102.2725028992 0 -3768102.2725028992 -35940742.084518433 0 0 0 0 -13123728.953624725 -3215657.4796829224 0 -3215657.4796829224 -35121300.603919983 0 0 0 0 -9107406.4896888733 -7428777.4578933716 0 -7428777.4578933716 -30816586.853378296 0 0 0 0 -156379269.30929184 -6245923.1276855469 0 -6245923.1276855469 88623349.461517334 0 0 0 0 -23068520.42229807 25254.812242630869 0 25254.812242630869 -22381586.71380651 0 0 0 0 -12770498.778059006 -2511494.1197662354 0 -2511494.1197662354 -32734185.748804092 0 0 0 0 -13221516.306248188 -1245084.1258449554 0 -1245084.1258449554 -35658523.283828735 0 0 0 0 -13554223.026218414 62859118.376396179 0 62859118.376396179 83321005.57635498 0 0 0 0 -19562411.359298356 -3712474.0169215575 0 -3712474.0169215575 1807056.8941699713 0 0 0 0 -6829402.82063164 -1417093.4036236489 0 -1417093.4036236489 2983895.7409452051 0 0 0 0 308052487.33378601 11324585.956626892 0 11324585.956626892 -68739039.48614502 0 0 0 0 120513522.52902031 -422640194.92276001 0 -422640194.92276001 -465986165.59333801 0 0 0 0 -414837968.52474213 -290158230.52253723 0 -290158230.52253723 -285893103.66625977 0 0 0 0 -115678585.15766144 251068959.02574158 0 251068959.02574158 -30138389.429344177 0 0 0 0 -513558827.08789062 -178302811.34042358 0 -178302811.34042358 9244460.6858825684 0 0 0 0 -1189253819.3685722 -831350863.45361328 0 -831350863.45361328 -441667197.66700745 0 0 0 0 -1153210663.5896301 -22779930.578514099 0 -22779930.578514099 -371478030.37716675 0 0 0 0 -590030833.53120422 -523407350.58168602 0 -523407350.58168602 -286794140.43418884 0 0 0 0 -787272666.84048462 -448547556.29077148 0 -448547556.29077148 -237614775.23822021 0 0 0 0 -536678980.091465 -46210024.82800293 0 -46210024.82800293 -57554982.146392822 0 0 0 0 -116620423.48793793 -164480604.14014435 0 -164480604.14014435 -220934279.15759897 0 0 0 0 -442041729.37880325 10410262.61013031 0 10410262.61013031 83344761.769832611 0 0 0 0 -27566596.797854982 13262116.047560669 0 13262116.047560669 4269620.1905108243 0 0 0 0 -313331146.39025879 -172403291.6245575 0 -172403291.6245575 7447120.2562103271 0 0 0 0 137509103.45918274 3077555.2421112061 0 3077555.2421112061 -65087328.722476959 0 0 0 0 -116933458.03010178 -57698044.318649292 0 -57698044.318649292 -96170021.213928223 0 0 0 0 -3962916.2240786329 -4292501.169182213 0 -4292501.169182213 -3530486.8544700444 0 0 0 0 -15415470.525273109 -14723633.172826771 0 -14723633.172826771 12226137.912095577 0 0 0 0 -109845092.46592712 -91163270.284240723 0 -91163270.284240723 -69747797.390258789 0 0 0 0 198717103.69937515 88498531.213287354 0 88498531.213287354 -153887104.06424713 0 0 0 0 -147770986.51476669 -33716245.047416687 0 -33716245.047416687 151530351.27461243 0 0 0 0 -95303526.08959198 -164374980.48062897 0 -164374980.48062897 -234235939.93783569 0 0 0 0 -96792266.366455078 -153636605.93170166 0 -153636605.93170166 -180793630.98649597 0 0 0 0 -7873975.7481951825 -8687948.5274308138 0 -8687948.5274308138 8840685.4343369603 0 0 0 0 -198936047.42580032 -186455337.97094345 0 -186455337.97094345 -133121146.76873779 0 0 0 0 -54468641.356613159 -10056704.901374817 0 -10056704.901374817 -99283926.612162113 0 0 0 0 8191083.3367166519 29064865.273925781 0 29064865.273925781 27485547.093528748 0 0 0 0 5924930.4250259399 -60234509.095321655 0 -60234509.095321655 -286176507.24649811 0 0 0 0 17833847.312423818 1415524.3901211079 0 1415524.3901211079 -37870144.717524514 0 0 0 0 -149758157.9652195 -148937852.62281799 0 -148937852.62281799 -16568941.0496521 0 0 0 0 -205085678.4750061 -237673242.12294006 0 -237673242.12294006 -145101311.68742371 0 0 0 0 -161557532.65167999 -109876921.12293053 0 -109876921.12293053 -18265977.458892822 0 0 0 0 39837511.092071533 -80343994.478546143 0 -80343994.478546143 -95871345.603912354 0 0 0 0 14719215.562703885 -1738355.100329116 0 -1738355.100329116 -15994012.218816325 0 0 0 0 -199224505.43350315 -99676195.828781128 0 -99676195.828781128 -14022134.843322754 0 0 0 0 -189825734.77346039 -149100988.5696907 0 -149100988.5696907 -286590.67010498047 0 0 0 0 -14986174.960773468 -29184336.473415375 0 -29184336.473415375 -58593397.092315674 0 0 0 0 -3813705.9668331146 -8595585.8876590729 0 -8595585.8876590729 -49588200.725326538 0 0 0 0 19989331.837607384 3544082.3449707031 0 3544082.3449707031 -17666878.534362793 0 0 0 0 10027742.933100142 -10415311.564726546 0 -10415311.564726546 -39990668.872670531 0 0 0 0 9382201.7097362429 -1487354.0063773505 0 -1487354.0063773505 -32238790.641099364 0 0 0 0 3804027.4519476919 -4170426.8944777139 0 -4170426.8944777139 -20250119.425397441 0 0 0 0 -27455412.040847778 -25688966.200256348 0 -25688966.200256348 -8800802.2135925293 0 0 0 0 22406604.810164452 2006925.9470062256 0 2006925.9470062256 -20070996.88646698 0 0 0 0 22920945.864897728 1190194.7669334412 0 1190194.7669334412 -21352584.05430603 0 0 0 0 10576651.220478689 9655206.0535748582 0 9655206.0535748582 -34465036.921043739 0 0 0 0 10580922.973936856 11476020.082200447 0 11476020.082200447 -7841047.4200990349 0 0 0 0 91983595.111906052 48606979.475181103 0 48606979.475181103 -39693410.382481217 0 0 0 0 22139629.660236359 3366147.6931838989 0 3366147.6931838989 -22284707.682800293 0 0 0 0 -82824872.095519066 -35141453.964230061 0 -35141453.964230061 22408961.133950233 0 0 0 0 -20266935.899869919 -133797721.70390701 0 -133797721.70390701 -70023932.902392626 0 0 0 0 80163846.684538841 -15339670.888415337 0 -15339670.888415337 -381655717.06651592 0 0 0 0 -121481049.80298376 96300514.570936561 0 96300514.570936561 76800257.122680664 0 0 0 0 24868948.786268234 25366418.73008728 0 25366418.73008728 -17518401.473724365 0 0 0 0 -1140646.5916824341 -5614691.4188461304 0 -5614691.4188461304 -19358045.369581223 0 0 0 0 -26618977.928232193 30857599.239067078 0 30857599.239067078 5380486.3891448975 0 0 0 0 3913459.747384422 -813878.45288802683 0 -813878.45288802683 -42520035.9272893 0 0 0 0 -1392664.7917945664 -1813037.7437142506 0 -1813037.7437142506 -2605664.5817039944 0 0 0 0 297870917.1723175 110128200.83216858 0 110128200.83216858 -345307392.33591938 0 0 0 0 -44638229.825082779 140319009.3764286 0 140319009.3764286 -208403522.71914005 0 0 0 0 -19195533.611639023 58808981.697189331 0 58808981.697189331 -301048853.61305571 0 0 0 0 -2460300.7343370654 -1883343.0685276827 0 -1883343.0685276827 3807804.7300960356 0 0 0 0 -154525.02326746332 -3662358.5128678186 0 -3662358.5128678186 175143.90069673304 0 0 0 0 -194665.8784160614 129743847.52233505 0 129743847.52233505 -28823028.632987976 0 0 0 0 -69448410.991112709 -46926145.332924366 0 -46926145.332924366 -354664986.19583511 0 0 0 0 277933222.70870161 -414485176.35736692 0 -414485176.35736692 501352440.21770859 0 0 0 0 488946235.21992159 50210369.222616196 0 50210369.222616196 48838985.299545288 0 0 0 0 -48721598.011876106 -184699339.37324142 0 -184699339.37324142 51032176.932915211 0 0 0 0 115507297.97531509 43253417.603654027 0 43253417.603654027 -13845691.116291761 0 0 0 0 935676472.01072121 -741655328.07124364 0 -741655328.07124364 327663987.32497883 0 0 0 0 818335833.42635155 -267677944.74077415 0 -267677944.74077415 -2609647.2933473587 0 0 0 0 -106251390.88607788 -63591245.592560053 0 -63591245.592560053 152908833.29511237 0 0 0 0 120601761.71044183 -48312013.209929489 0 -48312013.209929489 -73424245.947122097 0 0 0 0 14408071.467607498 -41485740.743275613 0 -41485740.743275613 -64963767.072968483 0 0 0 0 83780717.814201355 -24179616.6212219 0 -24179616.6212219 -88090042.407688618 0 0 0 0 -17479141.716338158 -249515.53941726685 0 -249515.53941726685 -34516718.422470093 0 0 0 0 -14244330.890041351 703875.15970611572 0 703875.15970611572 -42971411.677928925 0 0 0 0 -5678643.4850788116 -11894094.62147522 0 -11894094.62147522 -69019529.245773315 0 0 0 0 -13760604.870466232 2539566.606048584 0 2539566.606048584 -59324428.18945694 0 0 0 0 -68124517.710624695 40690460.57257843 0 40690460.57257843 78311084.705951959 0 0 0 0 2730450.8813085323 3561698.2952683643 0 3561698.2952683643 -39860268.851455182 0 0 0 0 41384696.906250477 -10097816.495159149 0 -10097816.495159149 -84137429.224617004 0 0 0 0 2527804.711720597 6143240.9544271957 0 6143240.9544271957 -38767062.634812877 0 0 0 0 -2539400.8298254013 -925875.1456489563 0 -925875.1456489563 -32573631.891799927 0 0 0 0 -16848287.324533463 -2762279.1583099365 0 -2762279.1583099365 -30468252.009176791 0 0 0 0 -11510526.8161726 -6132771.054813385 0 -6132771.054813385 -32865952.224052429 0 0 0 0 -12473026.287301064 -4593396.8879814148 0 -4593396.8879814148 -30449139.097154081 0 0 0 0 -16257934.951212883 4223199.5308515429 0 4223199.5308515429 -22458809.774278972 0 0 0 0 -100066891.9571209 200173637.05799484 0 200173637.05799484 25911805.843429565 0 0 0 0 -312094290.5490818 239985008.84866333 0 239985008.84866333 -22071358.736816406 0 0 0 0 152449515.4271698 -15736232.500549316 0 -15736232.500549316 -144548231.27796936 0 0 0 0 -143430658.16957474 69722101.65763855 0 69722101.65763855 74885647.857116699 0 0 0 0 70377270.291526794 196876662.0730896 0 196876662.0730896 -309426805.79988098 0 0 0 0 -11149523.212708473 4515415.9604377747 0 4515415.9604377747 -26754463.372125626 0 0 0 0 128082268.61621475 -24060351.486042023 0 -24060351.486042023 -48889957.35105896 0 0 0 0 -12504448.433600361 4074203.7894226834 0 4074203.7894226834 -27241042.899830844 0 0 0 0 -12127812.479710519 -1215109.5252504349 0 -1215109.5252504349 -29846304.684280396 0 0 0 0 69917426.889969826 13752299.167449474 0 13752299.167449474 -116956103.76973009 0 0 0 0 6176127.4487848282 57380555.123564124 0 57380555.123564124 -68783870.168117404 0 0 0 0 7980639.9354450703 62404212.5638033 0 62404212.5638033 -58403523.490465879 0 0 0 0 -12329977.479312897 31741368.565538406 0 31741368.565538406 -8204107.3939208984 0 0 0 0 26382399.369324684 45858905.322216749 0 45858905.322216749 -63040703.431683302 0 0 0 0 -11186873.135395288 4926993.5763931274 0 4926993.5763931274 -19456044.534362793 0 0 0 0 -627386.13750247797 11823932.426058508 0 11823932.426058508 -34566875.126546606 0 0 0 0 -668001.40158462524 21620763.036193848 0 21620763.036193848 -26101832.379928589 0 0 0 0 2714303.5325298309 6094334.5894927979 0 6094334.5894927979 -6141566.5707879066 0 0 0 0 -4178966.7183464793 10282315.088628221 0 10282315.088628221 -36919625.532103911 0 0 0 0 1983173556.7628632 -49764808.535305023 0 -49764808.535305023 -1085003314.7859726 0 0 0 0 -6511062.6379900575 7895992.7660818007 0 7895992.7660818007 -20993159.294006728 0 0 0 0 -2013861.4753880277 12279460.806719914 0 12279460.806719914 -29156116.389254749 0 0 0 0 -10481082.971599579 5807363.3996276855 0 5807363.3996276855 -3830326.829157114 0 0 0 0 150383439.69547272 -104072042.71941376 0 -104072042.71941376 -337230190.80255127 0 0 0 0 22259508.057542801 3509207.3338775635 0 3509207.3338775635 -43731053.861190796 0 0 0 0 -9401869.2099164277 6998723.070693776 0 6998723.070693776 -11707128.617245067 0 0 0 0 -524170.16048712796 -15133.872001023963 0 -15133.872001023963 58670.215185932815 0 0 0 0 52310616.111572266 710321712.77397156 0 710321712.77397156 91067030.461669922 0 0 0 0 -244565273.93972778 -26789744.777862549 0 -26789744.777862549 -113633728.58823395 0 0 0 0 -208164191.24835205 242599001.69611359 0 242599001.69611359 -335976637.40016174 0 0 0 0 -512335.35950492509 -433580.11353097111 0 -433580.11353097111 216785.67446282133 0 0 0 0 -3944708.6950358748 -2974337.5729967817 0 -2974337.5729967817 -4256891.3144361228 0 0 0 0 -3297328623.5200195 -2758292208.8777695 0 -2758292208.8777695 -1321318432.4324036 0 0 0 0 -1967398978.6134338 1379688389.5401993 0 1379688389.5401993 -993641444.66256714 0 0 0 0 -126983251.76025391 1422239541.6881714 0 1422239541.6881714 -4510902489.1244717 0 0 0 0 -245692557.66810608 947129014.74575806 0 947129014.74575806 -956355620.53961182 0 0 0 0 367858491.47274017 -2016049204.0301285 0 -2016049204.0301285 -2585499354.6686745 0 0 0 0 -2101734587.7658844 -1680326560.938446 0 -1680326560.938446 -518095121.05953789 0 0 0 0 155049332.07929993 -1616668089.2258053 0 -1616668089.2258053 -2487058198.3577881 0 0 0 0 -1021608832.9109192 -3056915781.1105194 0 -3056915781.1105194 -4248569473.8711581 0 0 0 0 -812132290.69916534 -154638756.89728165 0 -154638756.89728165 737379924.44631195 0 0 0 0 35503981.171470642 -2326885066.1955109 0 -2326885066.1955109 -1568431900.2844315 0 0 0 0 3154582.1846669111 -2502430.4718065299 0 -2502430.4718065299 -6572428.8842023313 0 0 0 0 -1226238779.4605713 -3020371766.4705353 0 -3020371766.4705353 -1559025793.4819381 0 0 0 0 -130987150.27207947 1265671002.6121674 0 1265671002.6121674 3194392106.3113861 0 0 0 0 2570063675.9529572 1212311067.0056305 0 1212311067.0056305 -494171042.87765884 0 0 0 0 -1025421080.4284973 961952926.686409 0 961952926.686409 -1061941461.7417107 0 0 0 0 1625519731.215414 2346143166.0838947 0 2346143166.0838947 -5777483182.8251801 0 0 0 0 -2111634034.8610382 -3123924593.1210632 0 -3123924593.1210632 -439183885.04268646 0 0 0 0 104112858.75675964 2946118242.9015579 0 2946118242.9015579 -4985446786.1187439 0 0 0 0 -5732068.1545303948 -5773137.7227715515 0 -5773137.7227715515 -6776371.4328277558 0 0 0 0 -1140226298.4531326 1645973557.6925125 0 1645973557.6925125 -3893360282.1225891 0 0 0 0 1161231000.5530319 -189176113.30944824 0 -189176113.30944824 -3781939646.2770653 0 0 0 0 2182068708.0446014 981249646.77934265 0 981249646.77934265 -4791465498.5284271 0 0 0 0 2533492215.0290756 -2874903223.753952 0 -2874903223.753952 -3644026578.4549866 0 0 0 0 -9575583.5330015421 6961228.1628336534 0 6961228.1628336534 -15372436.794449309 0 0 0 0 -8376734538.6243286 -3036155615.8576965 0 -3036155615.8576965 -2976403272.2185307 0 0 0 0 -158134855.50015259 -6000899087.0983047 0 -6000899087.0983047 -6283823161.4920654 0 0 0 0 -1728042307.8227844 -2991832601.374321 0 -2991832601.374321 -1336724118.2624512 0 0 0 0 1062578662.6983719 942558375.00229502 0 942558375.00229502 170666735.57379723 0 0 0 0 741783581.10024166 1138587006.5923367 0 1138587006.5923367 754095813.3206501 0 0 0 0 24749684.245624542 235648950.96489716 0 235648950.96489716 -263495875.68617868 0 0 0 0 -11650422.111876423 13865720.518674895 0 13865720.518674895 -12483071.782603255 0 0 0 0 583649369.04807377 460266611.54022074 0 460266611.54022074 615698788.36471796 0 0 0 0 884859042.9153595 305071441.56480789 0 305071441.56480789 -510952753.33312798 0 0 0 0 -890744180.62584257 -94926240.340391159 0 -94926240.340391159 31335521.83149004 0 0 0 0 848305438.11288929 -11034404.939153671 0 -11034404.939153671 -946751905.44167948 0 0 0 0 -2416548.7225642074 1763735.6578287613 0 1763735.6578287613 -2397120.7220941004 0 0 0 0 56183664.8458004 -45527259.376251221 0 -45527259.376251221 23035371.964439392 0 0 0 0 -10809402.082015894 8772545.588718472 0 8772545.588718472 -7314387.2584961876 0 0 0 0 -646649688.50506711 1563039667.3840063 0 1563039667.3840063 1590984643.4115953 0 0 0 0 -657111636.42886353 -604869541.97963142 0 -604869541.97963142 -359497226.48819733 0 0 0 0 294032209.93149567 -592344025.87995148 0 -592344025.87995148 -1997582985.8802376 0 0 0 0 343069560.53327179 19496952.869476318 0 19496952.869476318 -1746244259.791935 0 0 0 0 174557422.49263763 -167865003.58244324 0 -167865003.58244324 -1091211162.453433 0 0 0 0 115929580.199543 -286626232.2661972 0 -286626232.2661972 -1112844242.4730759 0 0 0 0 -97005064.673156738 1111691287.0819454 0 1111691287.0819454 -1615051877.7599945 0 0 0 0 301770868.32646179 -77818628.804538727 0 -77818628.804538727 -1816050379.0518036 0 0 0 0 11543446.507675171 -63591285.711898804 0 -63591285.711898804 -917105945.44907761 0 0 0 0 17395413.306060791 407023805.83345032 0 407023805.83345032 -1286692299.4600754 0 0 0 0 -195840379.31612396 237985035.92919922 0 237985035.92919922 -729832810.62104797 0 0 0 0 64022432.118469238 79795007.223335266 0 79795007.223335266 -757741498.81348991 0 0 0 0 -117192271.0673027 426235575.71329498 0 426235575.71329498 -1351393854.7067871 0 0 0 0 -215729105.08892059 -7614390.2177963257 0 -7614390.2177963257 247335439.82190323 0 0 0 0 -18718271.874247242 13846564.255680377 0 13846564.255680377 -10460378.09731498 0 0 0 0 -178004865.48542023 -38693687.630069733 0 -38693687.630069733 -330518350.22999573 0 0 0 0 8566224.0378723145 188506632.22009563 0 188506632.22009563 -214358362.07577515 0 0 0 0 -137595369.15437317 -309768357.2808075 0 -309768357.2808075 -288483560.06710052 0 0 0 0 46876117.87739563 -121812942.10282516 0 -121812942.10282516 -329895003.79637337 0 0 0 0 -39860947.513879776 -12679758.409493446 0 -12679758.409493446 -356592607.26156616 0 0 0 0 465414838.76505375 461372457.62598181 0 461372457.62598181 312372265.5235281 0 0 0 0 21668082.24819684 247286281.10972548 0 247286281.10972548 349229375.73754883 0 0 0 0 -12660215.808628865 15905884.012818042 0 15905884.012818042 -14111390.21485845 0 0 0 0 619127230.12529349 256440032.84780288 0 256440032.84780288 -41948687.424672127 0 0 0 0 451238179.34135485 230552514.77413487 0 230552514.77413487 -20565491.510388374 0 0 0 0 270615790.97051907 245626622.94400835 0 245626622.94400835 -14421165.887095451 0 0 0 0 265439366.86202526 201375665.62153435 0 201375665.62153435 -21820325.381023407 0 0 0 0 -4580877.9602262955 -1308894.267722473 0 -1308894.267722473 5384007.0161389383 0 0 0 0 431898355.80770397 179559195.99408913 0 179559195.99408913 -131277861.69260216 0 0 0 0 95429319.812313557 24342776.190360308 0 24342776.190360308 -32694165.286456585 0 0 0 0 -59518986.185905457 38877718.103404999 0 38877718.103404999 7571532.487875551 0 0 0 0 -2461894.5856401334 15539506.160488192 0 15539506.160488192 -5084833.1038770135 0 0 0 0 -39998653.259673357 69247444.036396012 0 69247444.036396012 -44580133.302046537 0 0 0 0 63851409.119617462 97700001.1910007 0 97700001.1910007 26465816.024371147 0 0 0 0 336785758.97351694 23315867.401177645 0 23315867.401177645 -12754270.090943813 0 0 0 0 585458504.35416532 -48437186.562604904 0 -48437186.562604904 -112556032.39446163 0 0 0 0 474071026.48297024 147974403.02733564 0 147974403.02733564 -124019641.13197505 0 0 0 0 496584609.19391966 125732440.88450837 0 125732440.88450837 -193741343.41761494 0 0 0 0 336814065.77168226 -15607457.826053619 0 -15607457.826053619 -180060280.10837221 0 0 0 0 363652611.51620245 32763009.880404949 0 32763009.880404949 -110055607.43395996 0 0 0 0 452046523.08412886 54213202.018784761 0 54213202.018784761 -301218665.63997841 0 0 0 0 549091328.71408105 208123466.65807247 0 208123466.65807247 -218410067.87830067 0 0 0 0 228297706.43741894 -7406030.2881376743 0 -7406030.2881376743 -197124534.67770934 0 0 0 0 220970687.80289268 65076480.935551882 0 65076480.935551882 -339418549.90705585 0 0 0 0 255029906.06666088 141449537.95817733 0 141449537.95817733 -243741963.71914291 0 0 0 0 -207900223.78862429 61296108.520606041 0 61296108.520606041 -114639258.89046431 0 0 0 0 -8246925.0968325138 67766190.040952802 0 67766190.040952802 -103363641.62734985 0 0 0 0 605193070.44338751 -211058167.31916642 0 -211058167.31916642 40569676.699703217 0 0 0 0 284786907.41352797 92528437.628474355 0 92528437.628474355 32141209.269264221 0 0 0 0 812521505.76966691 78224535.219852448 0 78224535.219852448 -209271388.78189182 0 0 0 0 247357592.41281319 -20996257.273564816 0 -20996257.273564816 -251254738.29340696 0 0 0 0 11698408.683122873 -106850.60812437534 0 -106850.60812437534 -145449041.66877079 0 0 0 0 -206882855.76847148 190123491.17753398 0 190123491.17753398 -129436535.20633101 0 0 0 0 56110175.983582452 133164583.87239426 0 133164583.87239426 -280372786.28022099 0 0 0 0 -3175057.2439086055 4919611.7828573454 0 4919611.7828573454 378665.37945043086 0 0 0 0 482406903.73581862 76295924.172747374 0 76295924.172747374 -102340737.97901964 0 0 0 0 -1259993.5311362883 995082.78899385396 0 995082.78899385396 458102.80741536617 0 0 0 0 1074254260.2869549 -271325703.73978853 0 -271325703.73978853 -171601931.77112865 0 0 0 0 -452621158.11303025 390809820.14903712 0 390809820.14903712 -448583625.91259575 0 0 0 0 -268254.23148891889 20105.417256016517 0 20105.417256016517 659174.93433257611 0 0 0 0 -676701978.015553 627185053.32991028 0 627185053.32991028 -401876537.37212038 0 0 0 0 645831019.28216171 -623210311.03023291 0 -623210311.03023291 -16669024.471328735 0 0 0 0 661112151.38935566 -188873625.22188854 0 -188873625.22188854 -6142988.8858280182 0 0 0 0 534824.61295038671 470157.00543767505 0 470157.00543767505 924135.53662389424 0 0 0 0 139558824.97287095 -73414607.213158846 0 -73414607.213158846 -249068602.39613152 0 0 0 0 -318332251.14743602 755451349.15165567 0 755451349.15165567 -393761427.78283441 0 0 0 0 1075905.002666058 513507.39881834807 0 513507.39881834807 944407.93627232499 0 0 0 0 430595469.11357021 -552929434.29177475 0 -552929434.29177475 83147513.205949783 0 0 0 0 430355980.85147572 -504395753.590312 0 -504395753.590312 -25145565.641155243 0 0 0 0 110252501.33820081 -350542226.53691769 0 -350542226.53691769 8871330.1980800629 0 0 0 0 357873587.82214165 -463692719.07896233 0 -463692719.07896233 81991008.695655823 0 0 0 0 402583789.88135433 -315552529.21076775 0 -315552529.21076775 -230857662.32614899 0 0 0 0 152166424.54133463 -169252459.1989913 0 -169252459.1989913 -236482924.08952689 0 0 0 0 126586898.33926296 50339624.499014854 0 50339624.499014854 -119336522.53514194 0 0 0 0 246548280.4358151 -21004991.49648571 0 -21004991.49648571 -243949997.09957695 0 0 0 0 143011161.69495773 59400070.156454086 0 59400070.156454086 -421384870.70961189 0 0 0 0 148755418.09482622 -71752636.643068314 0 -71752636.643068314 -269434416.58711767 0 0 0 0 -30397895.634058475 201853251.07831955 0 201853251.07831955 -371609111.7596128 0 0 0 0 91325342.254053593 -93425452.150190353 0 -93425452.150190353 -196589692.40094852 0 0 0 0 -28462546.344944477 -90112240.429142952 0 -90112240.429142952 -126777365.47455788 0 0 0 0 95912924.453246593 -27580744.356914997 0 -27580744.356914997 -304308446.84272099 0 0 0 0 -6219.7537472248077 -18587904.977006912 0 -18587904.977006912 -73429175.402124405 0 0 0 0 137004.4462764468 1803524.3421276063 0 1803524.3421276063 -60405919.570251465 0 0 0 0 -4420683.0112891197 57711682.396285057 0 57711682.396285057 -141779551.68285084 0 0 0 0 -2215119.6018712521 -433598592.65081644 0 -433598592.65081644 -17072345.44329834 0 0 0 0 127428962.15467548 -84973540.601770401 0 -84973540.601770401 10318774.736463308 0 0 0 0 -117918954.36366396 -341493.5555229187 0 -341493.5555229187 21781602.125936508 0 0 0 0 135564.41954702768 -842511.32712746551 0 -842511.32712746551 668310.57743077725 0 0 0 0 4320439.7960675405 -2926183.2011783808 0 -2926183.2011783808 -1478505.2194294808 0 0 0 0 2857955.8552292055 -953293.11198440567 0 -953293.11198440567 -3677388.9444506117 0 0 0 0 -111065197.48324633 100720704.99425828 0 100720704.99425828 -12375960.636476517 0 0 0 0 106787933.72376728 -175691571.85085297 0 -175691571.85085297 338319331.23097801 0 0 0 0 611556130.30415726 329816362.85235596 0 329816362.85235596 157917995.82332611 0 0 0 0 822458282.597332 641641272.35051918 0 641641272.35051918 397307778.37171936 0 0 0 0 365252104.09739494 -531918792.10022068 0 -531918792.10022068 181039615.56679535 0 0 0 0 1160959622.6774707 128859179.03637457 0 128859179.03637457 -223921744.79452133 0 0 0 0 953532314.49217987 -654276236.14055824 0 -654276236.14055824 -249312608.24252129 0 0 0 0 646291420.19817352 -160105348.46608734 0 -160105348.46608734 -155787445.82598114 0 0 0 0 531962752.86702156 -166678134.57995415 0 -166678134.57995415 -153484713.74294329 0 0 0 0 562662580.82446289 -60546328.50737381 0 -60546328.50737381 -198507950.71171951 0 0 0 0 706114412.16132164 92373519.111546516 0 92373519.111546516 -65919221.660785675 0 0 0 0 49955097.991756439 122780436.88643646 0 122780436.88643646 115748854.25930786 0 0 0 0 -118274849.28723335 79184540.715717316 0 79184540.715717316 193166277.05913544 0 0 0 0 2710276.0318423314 -6708010.9386746027 0 -6708010.9386746027 -6671897.0389288031 0 0 0 0 206248164.77728271 -119526519.85278797 0 -119526519.85278797 -67928663.6092453 0 0 0 0 378282956.63421249 -4084022.9952888489 0 -4084022.9952888489 -94204931.043111801 0 0 0 0 376685488.99786377 -45130301.138048172 0 -45130301.138048172 -47003722.611747742 0 0 0 0 885320.91578959068 -8725969.6944738198 0 -8725969.6944738198 -1648209.1926345117 0 0 0 0 6754361.3365626335 -8695427.2602138519 0 -8695427.2602138519 -4439764.2683944702 0 0 0 0 18069580.258213043 3517924.8008041382 0 3517924.8008041382 -6260809.4322509766 0 0 0 0 -855224.70152127137 -2435287.721514225 0 -2435287.721514225 -4489536.6651177555 0 0 0 0 512942550.47758675 -224720561.01482773 0 -224720561.01482773 139378797.58246231 0 0 0 0 372767504.53022385 -70637662.897066116 0 -70637662.897066116 -20457789.711366653 0 0 0 0 573345079.42645454 -96074164.933368683 0 -96074164.933368683 -88572029.74621582 0 0 0 0 52433726.109357834 71997339.340011597 0 71997339.340011597 -62194022.425796509 0 0 0 0 -2959915.8658474935 -2377872.3392163673 0 -2377872.3392163673 -912332.78569389321 0 0 0 0 851734593.18130112 -535079226.57504463 0 -535079226.57504463 -29183321.951506615 0 0 0 0 65405638.20409584 51766627.700145721 0 51766627.700145721 19040556.590015411 0 0 0 0 1697042.1686866158 -4788251.7751876004 0 -4788251.7751876004 -14007864.181188092 0 0 0 0 2222702.9584783651 2495242.9897949109 0 2495242.9897949109 -1390693.9687900357 0 0 0 0 -20640448.70512104 -26644867.698728561 0 -26644867.698728561 -2120426.3191223145 0 0 0 0 108267961.87960315 -58848546.059334755 0 -58848546.059334755 -42742866.562850952 0 0 0 0 -28784832.344339848 -294623286.27153587 0 -294623286.27153587 -354798042.53311253 0 0 0 0 -622910266.64755297 -329845141.28510284 0 -329845141.28510284 -332372985.61082458 0 0 0 0 -938018.38484705333 -524675.92021969147 0 -524675.92021969147 1150686.1346092299 0 0 0 0 -30799002.240850419 -133854846.11799884 0 -133854846.11799884 -352006658.47779465 0 0 0 0 -4283943.8153876662 153607185.90477931 0 153607185.90477931 -152364071.38760757 0 0 0 0 4131805.5830138829 -922929.38496406376 0 -922929.38496406376 -4179934.069569109 0 0 0 0 247876730.18822432 23383771.872800827 0 23383771.872800827 -53254976.612300873 0 0 0 0 1850308.9208357069 -405371.53176449146 0 -405371.53176449146 -1875282.5902773347 0 0 0 0 732465538.95009995 6862496.9469280243 0 6862496.9469280243 -53562002.685543418 0 0 0 0 -24313586.760738611 -273275478.41156483 0 -273275478.41156483 -255771764.28670883 0 0 0 0 671853531.03537655 5874900.0119991302 0 5874900.0119991302 181151233.45700836 0 0 0 0 -148381957.04319239 -268579155.11638641 0 -268579155.11638641 364585824.11589813 0 0 0 0 259445534.47206116 -466041309.05766678 0 -466041309.05766678 -285018100.12119341 0 0 0 0 -960072890.44588232 -1062012115.0451577 0 -1062012115.0451577 -447199053.38226318 0 0 0 0 -265405976.54370499 -648688886.94640732 0 -648688886.94640732 -546003105.82754517 0 0 0 0 -209893985.85942411 -212508576.85775948 0 -212508576.85775948 -257794960.07358932 0 0 0 0 -366496198.85928011 -348610228.34503937 0 -348610228.34503937 -1108472644.9011116 0 0 0 0 -283300771.29454017 -505053020.02072144 0 -505053020.02072144 -817284013.84525299 0 0 0 0 -186489602.89903545 -535148767.60821724 0 -535148767.60821724 -363518185.03443527 0 0 0 0 -867898866.69750571 -624868521.57719755 0 -624868521.57719755 194741550.59641266 0 0 0 0 2383623.822966808 -291520.79514328204 0 -291520.79514328204 -8272993.2588495351 0 0 0 0 -32711550.010874033 -33139713.289904594 0 -33139713.289904594 10900638.723739624 0 0 0 0 -26137191.07951045 -46702615.265838623 0 -46702615.265838623 -760527683.70867157 0 0 0 0 -150945019.86782575 -704209279.66508865 0 -704209279.66508865 -822150563.1519165 0 0 0 0 720894472.43195343 -343699340.07226181 0 -343699340.07226181 -1940411095.8598175 0 0 0 0 513392296.04220676 -147922930.90145874 0 -147922930.90145874 -856955847.40177917 0 0 0 0 275908200.26005363 403438204.62121582 0 403438204.62121582 -736846846.90879822 0 0 0 0 -15549982.236950874 -959067759.56983185 0 -959067759.56983185 -88346356.679157257 0 0 0 0 -1961898.7428354169 -1143202.7747620735 0 -1143202.7747620735 388392.8607959263 0 0 0 0 -16674724.046703815 -878970563.95733261 0 -878970563.95733261 569760031.8543396 0 0 0 0 -568899.85531464592 945993.17549643479 0 945993.17549643479 833503.51516504772 0 0 0 0 -95089578.728382111 -136234332.20368576 0 -136234332.20368576 -464510926.44348907 0 0 0 0 -368474982.03680801 96597294.24936676 0 96597294.24936676 -38753788.518951416 0 0 0 0 -25368497.18436718 110839278.04703999 0 110839278.04703999 -18552580.264381409 0 0 0 0 -587620454.03901672 -778161455.13816071 0 -778161455.13816071 -899419911.57673645 0 0 0 0 398052.90447949013 -1636718.1300226962 0 -1636718.1300226962 -5174101.3640968315 0 0 0 0 42697198.91681242 337391946.97084761 0 337391946.97084761 -1270720828.5803909 0 0 0 0 -286277562.52073288 -300677762.91958618 0 -300677762.91958618 -210765958.19792557 0 0 0 0 -194431398.14686584 -556464513.45915604 0 -556464513.45915604 -760839481.39141846 0 0 0 0 51221752.248577118 -289539652.96186066 0 -289539652.96186066 -472546940.03524303 0 0 0 0 251188502.67191696 -336916150.10718918 0 -336916150.10718918 -1185625814.7577808 0 0 0 0 265437571.627882 -434574201.01690292 0 -434574201.01690292 -1188216832.7417908 0 0 0 0 125393545.48218155 479817004.35897064 0 479817004.35897064 -1036774002.9424844 0 0 0 0 270309413.4918251 -247757772.10288239 0 -247757772.10288239 -982226373.62017822 0 0 0 0 292836053.69440651 -219866200.60348988 0 -219866200.60348988 -2428291629.5990143 0 0 0 0 -330332619.35004807 1285100771.9973602 0 1285100771.9973602 -1811550600.009697 0 0 0 0 -199975256.29097939 721526726.34046555 0 721526726.34046555 83430326.397247314 0 0 0 0 -88109476.581287384 382009744.56602097 0 382009744.56602097 -160607277.02705383 0 0 0 0 -47901294.3116045 195819786.85144806 0 195819786.85144806 -12204271.151046753 0 0 0 0 -99469512.574297428 321385749.42389488 0 321385749.42389488 34188467.055450439 0 0 0 0 797101977.10407257 -427199308.22438622 0 -427199308.22438622 -1630105912.0198135 0 0 0 0 746962563.98785305 -803243740.59212875 0 -803243740.59212875 -2402901728.6530304 0 0 0 0 -1216663865.9468193 -1062956913.1706467 0 -1062956913.1706467 -743808120.35392761 0 0 0 0 -1786243341.506134 789289212.42499542 0 789289212.42499542 213321969.4200592 0 0 0 0 -356409340.21339035 183607309.78863525 0 183607309.78863525 277848941.22695923 0 0 0 0 -551524742.68094063 13491053.586948395 0 13491053.586948395 1537250265.5014038 0 0 0 0 -804003487.04388046 532760330.57636261 0 532760330.57636261 2214360434.7133331 0 0 0 0 547324343.14189148 141412746.66589355 0 141412746.66589355 48110988.132949829 0 0 0 0 238917313.13778687 -341753934.40113068 0 -341753934.40113068 936887341.46151733 0 0 0 0 -2208384.218382223 315689.72739209654 0 315689.72739209654 -3453901.8722633272 0 0 0 0 -43814798.043210983 -76697247.380176544 0 -76697247.380176544 980393690.09310007 0 0 0 0 -83890555.535675526 54009982.390659332 0 54009982.390659332 -9198894.2404022217 0 0 0 0 7451533.4200782776 7310685.9880905151 0 7310685.9880905151 -6284644.5111618042 0 0 0 0 -610311.63771060109 1560174.3537578154 0 1560174.3537578154 542436.82582012378 0 0 0 0 -493097237.6635704 -792909698.2118454 0 -792909698.2118454 2353351800.1851463 0 0 0 0 430018.00898094312 2239130.5695556384 0 2239130.5695556384 -6520820.2170026563 0 0 0 0 -243956.7590970993 2995039.9266967773 0 2995039.9266967773 -4745786.8354568481 0 0 0 0 -8835492.3568935394 346991.937084198 0 346991.937084198 296002443.07909012 0 0 0 0 79844850.412014961 73112214.54070282 0 73112214.54070282 311992303.79880524 0 0 0 0 -4542688.5710858805 5554402.6741608437 0 5554402.6741608437 -1793290.1709345952 0 0 0 0 269431498.45848846 -67151953.007278442 0 -67151953.007278442 656234858.17391968 0 0 0 0 46784571.677780151 -597262845.04425049 0 -597262845.04425049 553187933.3259964 0 0 0 0 -187259327.17950153 263236235.3782711 0 263236235.3782711 690369047.53445435 0 0 0 0 244886950.45972443 -532809139.81040192 0 -532809139.81040192 1224648442.0883179 0 0 0 0 433832156.82055664 290330493.38122559 0 290330493.38122559 1412215811.8637085 0 0 0 0 -604624.07642314397 193187.53159683943 0 193187.53159683943 643612.01172157377 0 0 0 0 1721298.8801364899 6352366.9627017975 0 6352366.9627017975 -4795247.5710678101 0 0 0 0 -31517953.471380949 -3691367.204457283 0 -3691367.204457283 6791344.5444869995 0 0 0 0 149855.28908161493 3296552.6817592829 0 3296552.6817592829 -8414694.5487741455 0 0 0 0 100613688.47571659 223080428.81799316 0 223080428.81799316 75536079.424106598 0 0 0 0 -1277643.056653738 21032446.631505966 0 21032446.631505966 -4567107.9142913818 0 0 0 0 24707166.927924395 -339369188.13109016 0 -339369188.13109016 -211336097.54914093 0 0 0 0 18174261.192865372 305048896.41294098 0 305048896.41294098 11202230.40971756 0 0 0 0 99603616.118033409 -209334771.79206657 0 -209334771.79206657 -152142397.48512268 0 0 0 0 -403217504.27692342 432409224.30842972 0 432409224.30842972 511661805.35077286 0 0 0 0 552946802.75283933 -179772984.70904541 0 -179772984.70904541 -1431408958.6078568 0 0 0 0 104021502.18469727 328525982.73721504 0 328525982.73721504 483005004.97721863 0 0 0 0 -882222.28371752426 1473303.0386363976 0 1473303.0386363976 -1077253.3369133621 0 0 0 0 -130285448.22021961 -520581854.72353363 0 -520581854.72353363 -573371886.90364075 0 0 0 0 3680878.6563692093 -349802745.33190536 0 -349802745.33190536 -310660043.42578506 0 0 0 0 95604136.012880325 -185815660.79613876 0 -185815660.79613876 -137576131.62805176 0 0 0 0 -123524004.79354763 57510299.410528183 0 57510299.410528183 48065391.103012085 0 0 0 0 -81839652.792948723 57501202.862573624 0 57501202.862573624 -49733829.793899536 0 0 0 0 -551915.86547959596 108109.0016259863 0 108109.0016259863 -1556311.4797496088 0 0 0 0 -52604184.504190445 -352258937.74884033 0 -352258937.74884033 -482851333.21615219 0 0 0 0 -881894642.80899429 -202135535.92222214 0 -202135535.92222214 -118883788.99964905 0 0 0 0 -361063532.6739521 60544483.663539886 0 60544483.663539886 6285541.964302063 0 0 0 0 -448353073.74661803 -441430959.09761667 0 -441430959.09761667 -256411895.01359558 0 0 0 0 131752183.99490058 -372238351.26368666 0 -372238351.26368666 -354732062.09810638 0 0 0 0 -53482427.370944977 -389192261.43785477 0 -389192261.43785477 -246840276.71430969 0 0 0 0 482506694.96458435 -309573740.23878479 0 -309573740.23878479 -568674723.48656082 0 0 0 0 -117076706.76947975 105648191.20357227 0 105648191.20357227 67430581.973930359 0 0 0 0 -207020543.11600113 407555692.49596786 0 407555692.49596786 -931787548.1548214 0 0 0 0 -518083139.51870155 -778288264.69364548 0 -778288264.69364548 -867781535.29586029 0 0 0 0 -570349473.68329906 242202855.53740311 0 242202855.53740311 10694623.483482361 0 0 0 0 3242863.9736366272 -90515630.613792419 0 -90515630.613792419 -4773806.4904441833 0 0 0 0 671439156.95217896 487221700.0863533 0 487221700.0863533 -347770700.91367722 0 0 0 0 57905624.442095757 -102950168.68600082 0 -102950168.68600082 34511642.181335449 0 0 0 0 -1455830.2212842805 3026986.2866594438 0 3026986.2866594438 -3292164.2225516327 0 0 0 0 149435461.12873888 -381915843.97841644 0 -381915843.97841644 -134388323.40923309 0 0 0 0 671660114.0066433 -59903139.058559418 0 -59903139.058559418 -235142320.80149841 0 0 0 0 280652181.19228554 -313740497.69522858 0 -313740497.69522858 -393129535.86141968 0 0 0 0 815015951.09116864 602926586.90430832 0 602926586.90430832 -238381222.25262451 0 0 0 0 -1454147.6401272342 3048994.0973828714 0 3048994.0973828714 -3218338.9039391428 0 0 0 0 685173520.64292717 50810421.158535004 0 50810421.158535004 -375871334.08507156 0 0 0 0 396904879.85069466 -2114802.8347625732 0 -2114802.8347625732 -318608384.98053741 0 0 0 0 224253898.40698004 446450455.16100883 0 446450455.16100883 -1464423796.7096558 0 0 0 0 -624793713.39375901 -1002602683.9759369 0 -1002602683.9759369 -931075260.59817505 0 0 0 0 -531890.97444820404 -297985845.62656403 0 -297985845.62656403 -139400038.51867676 0 0 0 0 -776217.83902835846 -290648609.43050385 0 -290648609.43050385 -101114371.80570984 0 0 0 0 -20689967.694863319 -227887016.75855255 0 -227887016.75855255 -273517557.05413818 0 0 0 0 116203035.50642395 -371523031.48712158 0 -371523031.48712158 -128857513.53500366 0 0 0 0 -28924957.31459713 -292287132.07876587 0 -292287132.07876587 -139429605.93156433 0 0 0 0 85347791.850276947 -188167794.93008423 0 -188167794.93008423 -302433805.08224487 0 0 0 0 -155069163.60374737 -96383903.159191132 0 -96383903.159191132 -154734891.15246582 0 0 0 0 -156561328.01341081 -87222795.551712036 0 -87222795.551712036 -47789475.985839844 0 0 0 0 25407.277323048562 228203.89029121771 0 228203.89029121771 -293633.41367915273 0 0 0 0 172674448.17201233 -122498967.21051025 0 -122498967.21051025 -395290250.77806091 0 0 0 0 89923112.883861542 -553641385.2846756 0 -553641385.2846756 -454607074.95757699 0 0 0 0 216879257.56931114 -238972296.13559723 0 -238972296.13559723 -465425922.9413147 0 0 0 0 113406787.90823364 -68657941.751068115 0 -68657941.751068115 -288935229.60195923 0 0 0 0 -826597.75938551314 99917.805326163769 0 99917.805326163769 -15417.215389560908 0 0 0 0 -372678445.96431732 -494873105.7649765 0 -494873105.7649765 22303970.307549953 0 0 0 0 249608106.8976922 36517156.051376343 0 36517156.051376343 -223310648.86264038 0 0 0 0 206479897.94819069 -79648865.45116806 0 -79648865.45116806 -169295466.1268158 0 0 0 0 17408013.378265381 42306655.415435791 0 42306655.415435791 -390335331.21310425 0 0 0 0 -114612140.76220894 -86299144.953704834 0 -86299144.953704834 -256289563.07028198 0 0 0 0 -228893184.6240536 -272183284.07311726 0 -272183284.07311726 -490336445.13043213 0 0 0 0 -222241590.08112347 -55940901.396985054 0 -55940901.396985054 -374627908.68780518 0 0 0 0 140107068.58251572 57670575.474639893 0 57670575.474639893 -435097338.54544067 0 0 0 0 96808598.527740479 -65430002.935836792 0 -65430002.935836792 -399233068.79795837 0 0 0 0 -49783936.237594604 261992870.70689392 0 261992870.70689392 -220869137.51439476 0 0 0 0 -93469801.512882233 -13511361.007705688 0 -13511361.007705688 276735984.68231201 0 0 0 0 39240201.936070442 107555548.92233658 0 107555548.92233658 113600103.33883667 0 0 0 0 -4884698.947350502 -1910648.8932228088 0 -1910648.8932228088 -40923903.920780182 0 0 0 0 -211723.64665343147 -1288145.1667503864 0 -1288145.1667503864 -5629899.1415533423 0 0 0 0 -68941368.040193558 -121716643.33996582 0 -121716643.33996582 -34512555.05267334 0 0 0 0 -116722022.70869756 -38231415.78574419 0 -38231415.78574419 35874741.108947754 0 0 0 0 -2158.7194155905745 -487582.31040342618 0 -487582.31040342618 -699555.92386983335 0 0 0 0 6168993.4161319733 -528790.40947723389 0 -528790.40947723389 3465702.5659008026 0 0 0 0 -265937158.44263506 -483716342.58518791 0 -483716342.58518791 -921221210.96764374 0 0 0 0 243743964.27834129 222126040.71893311 0 222126040.71893311 306149236.52502441 0 0 0 0 -824189.18704941776 1402689.0030490905 0 1402689.0030490905 -1205219.3501925692 0 0 0 0 -460146126.95384151 398124004.22218561 0 398124004.22218561 429722006.64268494 0 0 0 0 193178451.83396912 -120110179.66317749 0 -120110179.66317749 -1764946072.1376953 0 0 0 0 62802072.741663218 -337387013.55022335 0 -337387013.55022335 -1155000085.7536469 0 0 0 0 -113775397.51552773 -523034063.57818985 0 -523034063.57818985 -950659332.69430542 0 0 0 0 -382803884.97060013 -267900438.79554749 0 -267900438.79554749 -362506449.76599121 0 0 0 0 52687976.969696045 -8655682.9548034668 0 -8655682.9548034668 -481781383.11679268 0 0 0 0 -109736851.3887043 116925548.18619919 0 116925548.18619919 -413666320.58236694 0 0 0 0 -143729550.48111343 846753098.82618713 0 846753098.82618713 -164751831.67996979 0 0 0 0 548721709.79099846 290408892.02041626 0 290408892.02041626 -1362859355.8072968 0 0 0 0 -180251242.99367332 1186540321.2586823 0 1186540321.2586823 -227501140.8445816 0 0 0 0 -61175546.963653564 243573440.34030151 0 243573440.34030151 1189832410.0751648 0 0 0 0 4866756.4562759399 -9356505.7460536957 0 -9356505.7460536957 -1065146.5976486206 0 0 0 0 -3543101.379149437 -37834427.141361237 0 -37834427.141361237 13651131.550396919 0 0 0 0 -650583.80329692806 -6816720.0162657024 0 -6816720.0162657024 -1333367.8598859161 0 0 0 0 673667.41160633788 -3455491.9571407419 0 -3455491.9571407419 -13428763.588482182 0 0 0 0 2819108.7478961945 -2861205.5456223488 0 -2861205.5456223488 -1389637.2957458496 0 0 0 0 2215961.4291229295 -6649279.7894516848 0 -6649279.7894516848 -11099328.3850403 0 0 0 0 1166807.2700603409 -2445858.0892381314 0 -2445858.0892381314 -4714350.2988010459 0 0 0 0 3870617.825422287 -5794548.5723953247 0 -5794548.5723953247 -2446828.9978179932 0 0 0 0 5284093.6533660889 -5376087.4726257324 0 -5376087.4726257324 -2526910.6278686523 0 0 0 0 3519729.53272295 -7678734.7819628716 0 -7678734.7819628716 -4664592.9262237549 0 0 0 0 1515269.9211198213 -7231123.7683856804 0 -7231123.7683856804 -19125505.474370271 0 0 0 0 -3868099.9700224865 -9537978.6449596994 0 -9537978.6449596994 -21703878.576331411 0 0 0 0 9800386.8775463104 -17274115.836301804 0 -17274115.836301804 2729748.8368225098 0 0 0 0 4053814.4321058895 -11088681.085976636 0 -11088681.085976636 -23083500.280690238 0 0 0 0 1058363.9611222744 -5681433.2602396011 0 -5681433.2602396011 -973608.85581970215 0 0 0 0 306138.3988275805 -11959322.995613065 0 -11959322.995613065 -824711.05553526431 0 0 0 0 144136320.16177368 -443505519.9410553 0 -443505519.9410553 1416251419.1047173 0 0 0 0 -5358394.5153605985 -5229526.8125343192 0 -5229526.8125343192 -7079333.353941083 0 0 0 0 91666088.793395996 90467760.319061279 0 90467760.319061279 530886525.67156982 0 0 0 0 7901759.097158432 -37122721.496618152 0 -37122721.496618152 25578012.94962883 0 0 0 0 -3370217.6645040512 -30163938.85636282 0 -30163938.85636282 30214622.629343033 0 0 0 0 -2866234.6596788419 -12312905.878572391 0 -12312905.878572391 9574682.817254439 0 0 0 0 -13218879.690881014 -21100166.423159838 0 -21100166.423159838 26912736.168586731 0 0 0 0 -741752.83424428408 -4090033.8560855207 0 -4090033.8560855207 612549.82698329352 0 0 0 0 -37295529.19274807 -39637262.090151787 0 -39637262.090151787 -26295349.249324799 0 0 0 0 -976375.76323509216 -9214264.2688827515 0 -9214264.2688827515 1746573.0581626892 0 0 0 0 -5921921.5524635315 -55498873.460666656 0 -55498873.460666656 -65699790.872945786 0 0 0 0 -164660.94106864929 -28840485.912912369 0 -28840485.912912369 -52089644.168964386 0 0 0 0 -3898345.9444323592 -7262345.5394854089 0 -7262345.5394854089 -39515.900015316904 0 0 0 0 -7366586.6891155243 6845819.6108760834 0 6845819.6108760834 32039000.092597008 0 0 0 0 -8128989.986492157 -11498929.791442871 0 -11498929.791442871 -33861474.04466629 0 0 0 0 -10328436.569775343 -23992692.863393784 0 -23992692.863393784 -60168570.346710205 0 0 0 0 2357878.7069559097 -9047564.9527683258 0 -9047564.9527683258 -46903963.869110107 0 0 0 0 -183487213.94335747 338990688.97462463 0 338990688.97462463 378914318.61253166 0 0 0 0 5941446.0946979523 -11874243.142921448 0 -11874243.142921448 -33127090.659311295 0 0 0 0 438516.11079896055 -2965286.933745116 0 -2965286.933745116 -12227781.514964249 0 0 0 0 3980792.6282100677 -11511007.877326965 0 -11511007.877326965 -32945472.097839355 0 0 0 0 996736.01652097702 -8763515.5915756226 0 -8763515.5915756226 -32708672.148254395 0 0 0 0 6568278.0623035431 -8767830.8761062622 0 -8767830.8761062622 -32855431.068658829 0 0 0 0 30481441.457805634 -13741667.90707016 0 -13741667.90707016 22611920.120731354 0 0 0 0 -4629726.3306789398 -12500579.052368164 0 -12500579.052368164 -8746262.1723937988 0 0 0 0 -2207790.1184291332 -9272485.5968425088 0 -9272485.5968425088 -29839712.153614357 0 0 0 0 -2749887.7818927765 -19379234.72492981 0 -19379234.72492981 -8201370.4029541016 0 0 0 0 -4452111.5269832611 -18545186.170753479 0 -18545186.170753479 -37107537.770442963 0 0 0 0 -188233.30823068228 82389.909674561583 0 82389.909674561583 -40725.106483846903 0 0 0 0 -21691693.368577957 -17320334.046291351 0 -17320334.046291351 -7452719.314239502 0 0 0 0 4384613.8553013802 -4413502.6028862 0 -4413502.6028862 -3780379.5078735352 0 0 0 0 -2586932.8870487134 -6544906.9376891814 0 -6544906.9376891814 -8369655.8741593137 0 0 0 0 15902212.852447987 15186821.02306366 0 15186821.02306366 2267878.7031097412 0 0 0 0 -28282262.571397781 -29746363.512117386 0 -29746363.512117386 -37395789.006156921 0 0 0 0 -405957.98708163342 112213.1788758263 0 112213.1788758263 84369.22498203069 0 0 0 0 -8724183.9512491226 10988436.314813614 0 10988436.314813614 5335809.2619171143 0 0 0 0 -38695884.861759186 -22608249.96144104 0 -22608249.96144104 -32581850.235095024 0 0 0 0 9327338.6059532166 21047037.449134827 0 21047037.449134827 -26717249.82291317 0 0 0 0 12936142.264526367 9356265.1668100357 0 9356265.1668100357 -2277687.8796844482 0 0 0 0 -103201348.79246902 -107588643.11211395 0 -107588643.11211395 -124929336.0855999 0 0 0 0 21183345.303257052 6533645.5388783477 0 6533645.5388783477 -37329419.70353774 0 0 0 0 -109315754.06395006 -161276774.48706388 0 -161276774.48706388 -205546300.09765625 0 0 0 0 21337975.275084779 9090671.744294513 0 9090671.744294513 -37413290.188465506 0 0 0 0 26255602.9409374 65150732.082522869 0 65150732.082522869 24426859.529350281 0 0 0 0 28373494.823894501 8791430.2073554993 0 8791430.2073554993 -10770378.60956192 0 0 0 0 -22172004.089561462 45597527.490955353 0 45597527.490955353 -36922703.106365204 0 0 0 0 64503990.61833334 80234960.882167816 0 80234960.882167816 6818309.2913589478 0 0 0 0 22217782.865310669 17297796.322099686 0 17297796.322099686 -211786.06866455078 0 0 0 0 -13213151.780635834 -32087847.596549988 0 -32087847.596549988 -69217323.690594673 0 0 0 0 34540417.299347878 25319181.418323517 0 25319181.418323517 -53038933.446105957 0 0 0 0 12300679.366812229 -17498238.574006081 0 -17498238.574006081 -101030736.38197327 0 0 0 0 -34487010.525115967 -19928724.32365799 0 -19928724.32365799 -145405377.76398468 0 0 0 0 -34871327.398396492 -29380537.601139069 0 -29380537.601139069 -79732197.281162262 0 0 0 0 -31859969.421060562 17533537.515457153 0 17533537.515457153 -103618599.83670044 0 0 0 0 127798722.38953781 -68751008.646080017 0 -68751008.646080017 -191179094.57102966 0 0 0 0 14328864.850875854 -4726332.4855499268 0 -4726332.4855499268 -215388675.23237419 0 0 0 0 -102482.88989109825 765650.5502028279 0 765650.5502028279 -721282.7601293046 0 0 0 0 -127449179.72229052 39604038.314704895 0 39604038.314704895 -143804295.03707886 0 0 0 0 28964662.976860046 62308998.773101807 0 62308998.773101807 -204656814.81067085 0 0 0 0 -36490.299874947406 -230021.67600845546 0 -230021.67600845546 -1750247.5819903463 0 0 0 0 -35543037.73897171 -30095083.416404724 0 -30095083.416404724 -42403126.112976074 0 0 0 0 25340232.620311737 80260209.473922729 0 80260209.473922729 -94673463.345675468 0 0 0 0 84094843.336278915 -32630665.355010986 0 -32630665.355010986 -119897298.45612335 0 0 0 0 2324667.8133392334 -276984.24473571777 0 -276984.24473571777 -62697172.567463398 0 0 0 0 -24076068.848348618 -26029992.614765167 0 -26029992.614765167 -40965211.249008179 0 0 0 0 -45001733.58044529 -25915291.880177498 0 -25915291.880177498 -33947411.872253418 0 0 0 0 -54066376.038050652 -153325694.65662003 0 -153325694.65662003 -66031848.341278076 0 0 0 0 -108186068.19192123 99795668.318237305 0 99795668.318237305 -145893630.41921234 0 0 0 0 3681251.951423645 30788143.005630493 0 30788143.005630493 -114358800.25868225 0 0 0 0 3955232.3448134642 2808660.5585846752 0 2808660.5585846752 -9472187.8623563051 0 0 0 0 137051502.53595066 139460848.77623749 0 139460848.77623749 -140312847.42295837 0 0 0 0 -76683642.424459457 221449206.85299683 0 221449206.85299683 -1729476.0383300781 0 0 0 0 -260682331.68922043 215838078.87963104 0 215838078.87963104 41748038.453918457 0 0 0 0 372561283.70743752 446563482.71877289 0 446563482.71877289 99701702.496765137 0 0 0 0 -51787342.112230301 6641064.8562469482 0 6641064.8562469482 -49898941.355438232 0 0 0 0 174858450.62624145 -328176980.35446739 0 -328176980.35446739 -193474645.64047241 0 0 0 0 641977164.51139116 -184987525.41803932 0 -184987525.41803932 -1762253.0258483887 0 0 0 0 -166824942.51256716 -261207097.81095576 0 -261207097.81095576 -314851875.81237793 0 0 0 0 -120514318.21584225 -34631406.654037476 0 -34631406.654037476 -260066815.20092773 0 0 0 0 -8945274.6206412651 -2078403.7857071795 0 -2078403.7857071795 6537522.0433046818 0 0 0 0 -108221625.69135177 -185503733.98919725 0 -185503733.98919725 -238326052.16392517 0 0 0 0 -173499373.22323608 -165321269.25634003 0 -165321269.25634003 -222572607.44428253 0 0 0 0 3058142.8594786306 1430310.3725082874 0 1430310.3725082874 -4681273.9191721454 0 0 0 0 74987754.168920517 118915599.89342499 0 118915599.89342499 -193119705.62516785 0 0 0 0 -7338545.237495983 -4897231.3618996218 0 -4897231.3618996218 7696205.1355971918 0 0 0 0 -200691823.77025604 -135321405.22320557 0 -135321405.22320557 -403427516.0378418 0 0 0 0 -136803198.62678528 -281876943.44119263 0 -281876943.44119263 -121294243.80506897 0 0 0 0 -144704446.04705811 -200595713.56237793 0 -200595713.56237793 -227967194.82467651 0 0 0 0 -147022952.42311859 -157465255.04852295 0 -157465255.04852295 -181055704.2426281 0 0 0 0 -113038730.96527863 -129806540.18431091 0 -129806540.18431091 -200781626.59073448 0 0 0 0 56482211.494912148 14085682.998817444 0 14085682.998817444 -47977940.308044434 0 0 0 0 52503716.659053802 66966904.357234955 0 66966904.357234955 12670194.564804077 0 0 0 0 20288306.473486856 10229280.948766291 0 10229280.948766291 -38553529.465283692 0 0 0 0 -113433847.7245636 -109331998.25133514 0 -109331998.25133514 -225699547.46034241 0 0 0 0 -100112357.20006657 -171417970.74966908 0 -171417970.74966908 -303214722.46965027 0 0 0 0 -227740547.59719086 -215290163.77484131 0 -215290163.77484131 -224421754.06444645 0 0 0 0 4115178.247543335 -75246141.829483032 0 -75246141.829483032 -233435001.86423683 0 0 0 0 -150774349.13261318 -377861944.18284988 0 -377861944.18284988 -401843259.09738159 0 0 0 0 -135964694.45646667 -233503899.81291199 0 -233503899.81291199 -337800786.85494995 0 0 0 0 -57087370.737909317 -2315963.6879425049 0 -2315963.6879425049 -109367141.07771683 0 0 0 0 -11284500.693477675 193440.53492144495 0 193440.53492144495 5034275.3762533143 0 0 0 0 76505342.87762928 78887774.975871086 0 78887774.975871086 -178366201.50418854 0 0 0 0 14387171.778298454 7111871.4048718102 0 7111871.4048718102 -44770545.491628081 0 0 0 0 -12294845.665624499 -297132160.21116114 0 -297132160.21116114 -310158124.68804932 0 0 0 0 -89842841.873447418 -134279425.72497559 0 -134279425.72497559 -36104312.62979126 0 0 0 0 18187249.69931078 9930022.4669928364 0 9930022.4669928364 -40801882.736929372 0 0 0 0 46719237.231248856 71030660.487457275 0 71030660.487457275 7180579.7832260132 0 0 0 0 7722108.3061637878 36733271.21030426 0 36733271.21030426 -8010041.6384181976 0 0 0 0 70355859.49190712 -58821799.165496826 0 -58821799.165496826 -474131481.48747253 0 0 0 0 183458.93092891946 766497.12464341894 0 766497.12464341894 -655801.89637860656 0 0 0 0 34348391.418233871 18737662.90177536 0 18737662.90177536 -32189981.41173172 0 0 0 0 2746129.8493232727 28426996.416969299 0 28426996.416969299 -18093606.343154907 0 0 0 0 57150954.06292212 18924691.248004436 0 18924691.248004436 -28268385.625984192 0 0 0 0 25313368.417930603 -21705091.592996597 0 -21705091.592996597 -82830789.705535889 0 0 0 0 -26717.290444897488 1337309.0833301395 0 1337309.0833301395 -1089370.1979808435 0 0 0 0 19032278.452605247 -189028151.75912476 0 -189028151.75912476 -518876263.39239502 0 0 0 0 63360150.406301498 -125130253.87891769 0 -125130253.87891769 -429521608.47488403 0 0 0 0 -33108861.864349365 -179150301.77080536 0 -179150301.77080536 -421896734.75474548 0 0 0 0 -45269597.321858406 -214967209.33739281 0 -214967209.33739281 -313754357.69920349 0 0 0 0 -3823823.731865406 -124244151.30450821 0 -124244151.30450821 -352763444.49966431 0 0 0 0 2131621.1557622394 -3167481.6538202129 0 -3167481.6538202129 -4029774.0328605026 0 0 0 0 263867739.92306709 18158224.821456909 0 18158224.821456909 -86954578.298141479 0 0 0 0 -149823044.7974987 -150217983.82215881 0 -150217983.82215881 -119288580.56808281 0 0 0 0 -309932774.92123604 -276123189.2457428 0 -276123189.2457428 -160529045.0004425 0 0 0 0 -81699919.998699188 -199981062.74200439 0 -199981062.74200439 -303149189.78765869 0 0 0 0 -111406960.0112896 -163057943.1109581 0 -163057943.1109581 -241554906.72789001 0 0 0 0 -71413151.932249069 -99400640.992393494 0 -99400640.992393494 -177678704.79225922 0 0 0 0 -73170733.565132141 -96583461.088508606 0 -96583461.088508606 -86192445.153884888 0 0 0 0 -18666543.125631332 -60034682.863018036 0 -60034682.863018036 -210413239.95413208 0 0 0 0 58095379.435141802 -83222287.480970383 0 -83222287.480970383 -389767292.72410583 0 0 0 0 -1959553.3574943542 -115606853.35456848 0 -115606853.35456848 -293574996.89777374 0 0 0 0 -9505200.8056926727 -83310920.142948151 0 -83310920.142948151 -388751465.67956543 0 0 0 0 3374452.7038993835 23516222.48248291 0 23516222.48248291 -370655542.32940674 0 0 0 0 14770488.587364197 -73445857.906814575 0 -73445857.906814575 -215707367.97828102 0 0 0 0 -8152526.937056303 -122544120.25699139 0 -122544120.25699139 -103830382.66947174 0 0 0 0 151622664.10064125 -56100455.669948578 0 -56100455.669948578 -217261977.89887714 0 0 0 0 -5939702.1971693039 -13191753.326812267 0 -13191753.326812267 -143317083.84738922 0 0 0 0 157569133.33681345 463481156.57885551 0 463481156.57885551 -145408057.61738586 0 0 0 0 97641007.417416573 -169739062.59267426 0 -169739062.59267426 -439561792.49980164 0 0 0 0 10272531.454332352 -525374460.54470062 0 -525374460.54470062 -1087572932.2004147 0 0 0 0 445373714.83317661 383848118.75534439 0 383848118.75534439 -1306057097.8684034 0 0 0 0 -780945378.36197424 74797936.594211578 0 74797936.594211578 585874404.2850647 0 0 0 0 -2017521.8442989413 917447.07686706632 0 917447.07686706632 -505677.18594314158 0 0 0 0 -145826021.09807491 -28896499.80083847 0 -28896499.80083847 -41780622.168083191 0 0 0 0 -1500790929.3815677 -384981340.15503311 0 -384981340.15503311 524705775.71260834 0 0 0 0 -1285946.9156667176 1587451.9415183887 0 1587451.9415183887 -1359874.3696842417 0 0 0 0 117834700.01729012 -97078401.050582886 0 -97078401.050582886 -160460819.73118973 0 0 0 0 -1387376.3880672455 -36035757.807815552 0 -36035757.807815552 -97564140.658622742 0 0 0 0 -129238533.8369503 12409076.020797729 0 12409076.020797729 17741109.532352448 0 0 0 0 -263512.62870726455 1195758.1133396141 0 1195758.1133396141 -974570.29098114558 0 0 0 0 11591812.873148918 16149089.362819672 0 16149089.362819672 -37232369.425357819 0 0 0 0 73212586.446717739 -120387882.89494133 0 -120387882.89494133 -145668515.84829712 0 0 0 0 -136220120.08974457 148502541.78261566 0 148502541.78261566 -180207231.39458466 0 0 0 0 113499675.42957687 -124676081.3772316 0 -124676081.3772316 -773536220.00260925 0 0 0 0 -34948.785273835994 817331.95275495574 0 817331.95275495574 -919790.94254497066 0 0 0 0 112256025.54422951 -172217383.30941963 0 -172217383.30941963 -506137808.03367615 0 0 0 0 46183380.401290894 -151626246.86779785 0 -151626246.86779785 -512239239.30993652 0 0 0 0 -224985406.06189346 -166898025.94862366 0 -166898025.94862366 -358653164.97161865 0 0 0 0 -101816734.1203537 76075440.581069946 0 76075440.581069946 -488582447.29653168 0 0 0 0 17554915.459230423 -49935554.753265381 0 -49935554.753265381 -424505718.47381592 0 0 0 0 67959425.743255615 -161594330.56201172 0 -161594330.56201172 -251214824.41770887 0 0 0 0 -32721128.307697296 -177006613.02528381 0 -177006613.02528381 -251814521.04393005 0 0 0 0 -81501588.026120663 -63590425.684812546 0 -63590425.684812546 -213831324.47021484 0 0 0 0 46821702.501354218 -37886282.750610352 0 -37886282.750610352 -209105316.59814835 0 0 0 0 -7178052.8787117004 -93047496.97278595 0 -93047496.97278595 -106963962.59945679 0 0 0 0 115707408.09282494 -81546187.49596405 0 -81546187.49596405 -115898129.17708588 0 0 0 0 76823338.301969528 -143737829.87358856 0 -143737829.87358856 -44533180.118310928 0 0 0 0 -18166381.012600899 -69488152.738819122 0 -69488152.738819122 -235335589.71087646 0 0 0 0 -68695.403042793274 -44213393.077133179 0 -44213393.077133179 -339125959.68447876 0 0 0 0 -43070100.5274086 -91536576.740982056 0 -91536576.740982056 -151019997.83840942 0 0 0 0 15036210.109978914 -8433618.8378686905 0 -8433618.8378686905 -195240581.59423828 0 0 0 0 -13062221.201898575 -93429015.018493652 0 -93429015.018493652 -107388776.98280334 0 0 0 0 -32280863.361101151 -38617226.350784302 0 -38617226.350784302 -118775035.82420349 0 0 0 0 -139005645.8753891 -117860819.8055191 0 -117860819.8055191 -85880646.461296082 0 0 0 0 -41323142.899035692 -97468965.816514969 0 -97468965.816514969 -262048115.63188171 0 0 0 0 31051436.351970673 -176794592.94288635 0 -176794592.94288635 -280575800.84284401 0 0 0 0 -70267622.104773998 -337445160.30809021 0 -337445160.30809021 -529476013.38587952 0 0 0 0 163693133.85803556 -191117606.67916679 0 -191117606.67916679 -530544297.17424011 0 0 0 0 504812.29744198534 -480241.71086122084 0 -480241.71086122084 -4769165.397295326 0 0 0 0 -475124329.37413442 635726707.0500927 0 635726707.0500927 -50262050.664123535 0 0 0 0 -592947725.46840835 -484433274.8250351 0 -484433274.8250351 -355137890.73862457 0 0 0 0 -267366199.82773638 -165271156.63269997 0 -165271156.63269997 -42283526.453765869 0 0 0 0 -86407736.957460448 12577788.019889832 0 12577788.019889832 -22983772.206092834 0 0 0 0 9286533.7819752693 7882547.4185180664 0 7882547.4185180664 -67193380.456222534 0 0 0 0 36334248.390422791 -30021013.006168365 0 -30021013.006168365 -30404680.14805603 0 0 0 0 1861925.186780256 -3541228.7419446786 0 -3541228.7419446786 -12707425.419660449 0 0 0 0 -26864159.586518727 1386071.9654865265 0 1386071.9654865265 11715714.519683838 0 0 0 0 24349866.00538756 -8846066.0685691833 0 -8846066.0685691833 8003925.1706123352 0 0 0 0 10423007.91034317 -30118905.295928955 0 -30118905.295928955 14915474.296693802 0 0 0 0 -38539850.290802002 -27109598.226165771 0 -27109598.226165771 14798834.239536285 0 0 0 0 -70659573.003269672 -40234265.444972992 0 -40234265.444972992 3415645.2823257446 0 0 0 0 -13691527.108417749 -26187016.180583954 0 -26187016.180583954 -2366408.6506347656 0 0 0 0 -52385134.283383369 -28901264.811157227 0 -28901264.811157227 -53695753.999197006 0 0 0 0 -64262273.18228066 -85149071.810653687 0 -85149071.810653687 -40882087.002532959 0 0 0 0 -28037979.128252029 -46313110.787712097 0 -46313110.787712097 -7070040.8456192017 0 0 0 0 7320871.198381424 -115672601.54038429 0 -115672601.54038429 11312681.683624268 0 0 0 0 47905972.5922966 -102382478.91246796 0 -102382478.91246796 26626814.765197754 0 0 0 0 10195894.025243759 -28640160.478515625 0 -28640160.478515625 -25837832.167900085 0 0 0 0 142692047.28227043 -78067071.300079346 0 -78067071.300079346 -20949831.660476685 0 0 0 0 1930701.0574487862 -8593904.5602462627 0 -8593904.5602462627 -2913452.5431675687 0 0 0 0 6321738.7740302086 -20104358.435386658 0 -20104358.435386658 3807858.8309631348 0 0 0 0 2032426.8808178427 -22644734.039563186 0 -22644734.039563186 -13167833.19929637 0 0 0 0 25375030.449158669 -68821215.146133423 0 -68821215.146133423 -21471259.562725067 0 0 0 0 -822389.98337173462 -16792061.634502411 0 -16792061.634502411 -8629198.4872741699 0 0 0 0 -1281799.748739443 -24158616.974658936 0 -24158616.974658936 -3521384.7073912919 0 0 0 0 23051942.838017464 -52187634.373325348 0 -52187634.373325348 5734201.0055389404 0 0 0 0 -21655492.25349617 -68933354.006454468 0 -68933354.006454468 3760341.2707977295 0 0 0 0 -9177224.3745718002 -45644947.074459076 0 -45644947.074459076 11493418.123939514 0 0 0 0 -27541087.814306259 -28823360.859260559 0 -28823360.859260559 63850999.096481323 0 0 0 0 7098954.5707082534 -24308547.219094805 0 -24308547.219094805 -30615186.678171128 0 0 0 0 -2160221.2012569923 -12466894.038379315 0 -12466894.038379315 10627525.161612362 0 0 0 0 5748361.485534668 -24680751.73109436 0 -24680751.73109436 21754259.642543793 0 0 0 0 1689522.6274632667 -15804145.921354774 0 -15804145.921354774 -7803205.5002296567 0 0 0 0 -15130735.936373711 -45263353.339149475 0 -45263353.339149475 12848117.439422607 0 0 0 0 3516273.1178205279 -15964449.805749655 0 -15964449.805749655 -15877959.37267122 0 0 0 0 -17184535.779430389 -17918286.800033569 0 -17918286.800033569 -4533544.4555969238 0 0 0 0 29943477.369626045 -72572810.978338242 0 -72572810.978338242 6138643.9058685303 0 0 0 0 -21952709.062349319 -62221638.641479492 0 -62221638.641479492 29785556.062133789 0 0 0 0 7138013.7701282501 -67707548.218780518 0 -67707548.218780518 53260771.370397568 0 0 0 0 195663866.16376114 -154202912.42347717 0 -154202912.42347717 -20069577.562866211 0 0 0 0 10983071.536593571 -22160655.441134423 0 -22160655.441134423 -34974459.095204651 0 0 0 0 -1323270.8105751015 -16934011.206853867 0 -16934011.206853867 21442013.633918762 0 0 0 0 10455653.333932877 -72882556.380661011 0 -72882556.380661011 25903683.196975708 0 0 0 0 -2706312.3727726042 -28910545.661789827 0 -28910545.661789827 -47933831.714437619 0 0 0 0 -984499.24686021358 -22554845.58912484 0 -22554845.58912484 -53996633.751618043 0 0 0 0 162058436.63654041 -94025992.998283386 0 -94025992.998283386 -114611137.69493866 0 0 0 0 -41090426.292003632 -84231135.24899292 0 -84231135.24899292 -20150447.190238953 0 0 0 0 -39073941.347820282 -78681572.524551392 0 -78681572.524551392 -42293626.663345337 0 0 0 0 23049300.145074844 -114769884.9908371 0 -114769884.9908371 -19202467.180020332 0 0 0 0 -20282912.147141457 -70226956.682132721 0 -70226956.682132721 -9776945.8970069885 0 0 0 0 -2208299.7832876868 -21580645.581364755 0 -21580645.581364755 8825384.6228339821 0 0 0 0 -95069009.787287235 -95810326.895107746 0 -95810326.895107746 -26422882.220977783 0 0 0 0 -68858095.547988892 -77683563.614837646 0 -77683563.614837646 -6432035.515296936 0 0 0 0 -398025.94367309567 1126456.3823044747 0 1126456.3823044747 2720018.269768782 0 0 0 0 -95562295.390752792 -100053975.87282562 0 -100053975.87282562 -14468249.953918457 0 0 0 0 -78672852.670646667 -108385132.02961731 0 -108385132.02961731 -23063020.234802246 0 0 0 0 -82674913.420860291 -108196473.66693115 0 -108196473.66693115 -22197754.636016846 0 0 0 0 -84355136.74707222 -120477950.022995 0 -120477950.022995 -80077795.379501343 0 0 0 0 -145405204.41515923 -132201726.26173401 0 -132201726.26173401 -74881951.887733459 0 0 0 0 -84400755.349837631 -84523804.790757388 0 -84523804.790757388 -43490614.570480347 0 0 0 0 4608682.5566453934 -35595210.772651672 0 -35595210.772651672 -16267280.544433594 0 0 0 0 9694715.3109502792 -18640329.132568359 0 -18640329.132568359 -1595399.8990478516 0 0 0 0 434018.15942406747 -18516596.594698764 0 -18516596.594698764 -14190575.100195594 0 0 0 0 -4884532.2242893223 -15648806.16714651 0 -15648806.16714651 16502715.829891615 0 0 0 0 10792761.390163422 -12186958.432693481 0 -12186958.432693481 -15100200.291778564 0 0 0 0 12159602.528785706 -23477779.630584717 0 -23477779.630584717 -5212539.0667724609 0 0 0 0 13449854.452352524 -13221810.41242981 0 -13221810.41242981 -14769152.128173828 0 0 0 0 -1302010.7555934442 -19698939.626897126 0 -19698939.626897126 -257987.70783615112 0 0 0 0 -23221356.800993443 -30915261.935638428 0 -30915261.935638428 1118864.0819396973 0 0 0 0 260090.53448295686 -784269.11131526902 0 -784269.11131526902 -2604400.7873815224 0 0 0 0 39356640.316784471 -44204591.978433609 0 -44204591.978433609 -38189395.903533936 0 0 0 0 -4443274.7383269668 -41552126.824188232 0 -41552126.824188232 -22195487.858974457 0 0 0 0 15251442.873003006 -28629493.229904175 0 -28629493.229904175 -21128579.660629272 0 0 0 0 20582437.142511845 -64575216.410614014 0 -64575216.410614014 -76708754.48526001 0 0 0 0 -62243901.407894135 -53273137.478942871 0 -53273137.478942871 -26599195.724853516 0 0 0 0 1245047.592931265 -17724431.709166851 0 -17724431.709166851 -15251665.634135991 0 0 0 0 -16012904.268712282 -60035692.10892868 0 -60035692.10892868 -27758279.090484619 0 0 0 0 -10588875.852926396 -23240750.795971684 0 -23240750.795971684 24869796.053812332 0 0 0 0 -7337148.8431816101 -108285126.51843262 0 -108285126.51843262 -63718505.024749756 0 0 0 0 -45813452.047452927 -65790624.426715851 0 -65790624.426715851 1094229.4225711823 0 0 0 0 -168325328.90390778 -82031194.411499023 0 -82031194.411499023 -60472074.036956787 0 0 0 0 -107360472.67184687 -123594431.78889465 0 -123594431.78889465 -69014714.364044189 0 0 0 0 43018563.383621216 113152663.81022644 0 113152663.81022644 -174649654.35186768 0 0 0 0 -3861914.8754295101 -5821199.6934220158 0 -5821199.6934220158 -2595644.7786782235 0 0 0 0 -2151949.0683410373 -6157816.6210087612 0 -6157816.6210087612 -4777090.5730018765 0 0 0 0 6133647.4984855652 -200285704.74155426 0 -200285704.74155426 161556773.29995728 0 0 0 0 -105879322.4590683 36901855.092285156 0 36901855.092285156 -340684604.68212891 0 0 0 0 -120543206.35833549 -160850437.27424622 0 -160850437.27424622 155775653.04125977 0 0 0 0 393501721.70819092 23839271.917640686 0 23839271.917640686 -57784178.524093628 0 0 0 0 -2227764.9363711127 -2716564.9907187633 0 -2716564.9907187633 1816823.0580968708 0 0 0 0 499986190.80944824 -105932169.0514679 0 -105932169.0514679 -245248703.11221313 0 0 0 0 -87111062.687767029 108592291.94151306 0 108592291.94151306 -170338441.19356251 0 0 0 0 337035663.38427353 -566732988.09060669 0 -566732988.09060669 -198886424.05556107 0 0 0 0 56235629.860300064 -239871661.49113464 0 -239871661.49113464 43226555.286407471 0 0 0 0 -2137723.0835198071 -1131450.24154374 0 -1131450.24154374 318972.87796792388 0 0 0 0 258748609.56621552 -492600468.9543457 0 -492600468.9543457 267826982.85931396 0 0 0 0 769873508.24914932 -270362033.09299469 0 -270362033.09299469 -72066314.926849365 0 0 0 0 -239939568.34754944 -285463184.27906036 0 -285463184.27906036 -61316054.627960205 0 0 0 0 -32071247.195926189 -69534220.072235107 0 -69534220.072235107 -129463856.06562805 0 0 0 0 -129209975.21940529 -38842241.961135864 0 -38842241.961135864 -72619198.083404541 0 0 0 0 25969295.493561745 -64960540.131378174 0 -64960540.131378174 -108027262.16929626 0 0 0 0 355362003.74961567 -236397487.6164856 0 -236397487.6164856 -108941714.07717896 0 0 0 0 51250204.259541035 -33077087.515264511 0 -33077087.515264511 -73418309.785186768 0 0 0 0 89797181.677019119 -291714097.97637939 0 -291714097.97637939 -92375378.970840454 0 0 0 0 173224240.88891983 -93574037.94694519 0 -93574037.94694519 -49298582.16267395 0 0 0 0 71139705.339579821 -32150475.237945557 0 -32150475.237945557 -94123920.360534668 0 0 0 0 82275687.629578114 -1844748.6988754272 0 -1844748.6988754272 -16834995.265380859 0 0 0 0 41942416.876407385 23337793.22052002 0 23337793.22052002 -69317152.170097351 0 0 0 0 19511599.36231342 12105055.967158318 0 12105055.967158318 -41019807.86831665 0 0 0 0 -34522846.14982748 -45585496.564682007 0 -45585496.564682007 -41431483.954666138 0 0 0 0 31731752.146021187 -31579482.923477173 0 -31579482.923477173 -88218807.565353394 0 0 0 0 32274715.838378459 -19731805.250011921 0 -19731805.250011921 9603511.6033630371 0 0 0 0 -1229469.0717916312 -1730210.302233994 0 -1730210.302233994 -2127597.8925813437 0 0 0 0 122933949.70131826 -20369149.027885437 0 -20369149.027885437 -53950783.505989075 0 0 0 0 138403409.91220665 72642747.852760315 0 72642747.852760315 -109535976.78356934 0 0 0 0 -821346.03715052991 779618.80859663896 0 779618.80859663896 -292058.05726218224 0 0 0 0 45472503.25059104 47971436.448339462 0 47971436.448339462 4655492.0583190918 0 0 0 0 -133933101.92128447 -199824375.58642769 0 -199824375.58642769 -150746267.7701416 0 0 0 0 -82198023.117828727 51412703.095279694 0 51412703.095279694 -76778506.938140869 0 0 0 0 -118946.29874027739 -2346930.7818065733 0 -2346930.7818065733 -74623.542358106934 0 0 0 0 26962113.973656416 -127136403.08171082 0 -127136403.08171082 346726741.55177784 0 0 0 0 2091836.1692974567 -184624472.15989685 0 -184624472.15989685 -213216195.672122 0 0 0 0 322494493.63102591 -70772942.717262268 0 -70772942.717262268 253664933.18283081 0 0 0 0 112106525.50265312 -255456944.14813995 0 -255456944.14813995 54173719.932067871 0 0 0 0 114827103.98525548 -13721986.691116333 0 -13721986.691116333 -250689969.47975159 0 0 0 0 -36131962.564047813 -248858601.96632385 0 -248858601.96632385 -161859529.61767578 0 0 0 0 114488596.0957787 -211241541.8952179 0 -211241541.8952179 -226496570.60375977 0 0 0 0 182913705.32228279 -164837901.59561157 0 -164837901.59561157 -102619773.95350647 0 0 0 0 256722047.23145103 -215379180.45672607 0 -215379180.45672607 171048864.09454346 0 0 0 0 236523185.5402832 -8748043.6906356812 0 -8748043.6906356812 12974589.532653809 0 0 0 0 225991425.85072613 -158227117.4250946 0 -158227117.4250946 212311359.84945679 0 0 0 0 141432471.42517471 -38656711.021759033 0 -38656711.021759033 67798316.771362305 0 0 0 0 436721207.05521965 -5783058.6189422607 0 -5783058.6189422607 -3373944.5427246094 0 0 0 0 147968096.17419624 -255603972.39614868 0 -255603972.39614868 97604454.201981544 0 0 0 0 185988489.37121868 -139007562.90968323 0 -139007562.90968323 103718542.02471924 0 0 0 0 127594742.73379707 -218784561.11474609 0 -218784561.11474609 126495419.42443848 0 0 0 0 211822208.95627165 -409936510.53779602 0 -409936510.53779602 -158224105.66461182 0 0 0 0 -127461778.90944302 54654621.134693146 0 54654621.134693146 -267875306.74264526 0 0 0 0 199570259.034091 -375119324.40206909 0 -375119324.40206909 43378503.350006104 0 0 0 0 4118120.5405658982 33061.903970059007 0 33061.903970059007 -5023330.287044391 0 0 0 0 -137017619.09078789 195993052.50674438 0 195993052.50674438 -320810803.50531006 0 0 0 0 -20423007.330368042 307389941.5319519 0 307389941.5319519 -308596283.53820801 0 0 0 0 -157618567.06368256 220324521.51782227 0 220324521.51782227 218905253.87231445 0 0 0 0 -157987276.14212036 233396509.97033691 0 233396509.97033691 -196571603.88931274 0 0 0 0 -274961496.07077217 349349772.26167297 0 349349772.26167297 -244557640.80967712 0 0 0 0 -116830326.27960968 386657642.53448486 0 386657642.53448486 -245945932.06483459 0 0 0 0 -118009828.82977295 375185467.71502686 0 375185467.71502686 -27495873.668579102 0 0 0 0 -390681592.42187691 387539708.01699829 0 387539708.01699829 -300038118.49137878 0 0 0 0 -149472383.72949791 347955627.66894531 0 347955627.66894531 -345222168.02459717 0 0 0 0 -400419560.89319229 384109374.59034729 0 384109374.59034729 -333524646.18171692 0 0 0 0 -287392749.19184923 408030794.59429741 0 408030794.59429741 -348108571.42254639 0 0 0 0 -356510769.89009476 302947317.525177 0 302947317.525177 -262423671.60708618 0 0 0 0 40266523.067626953 1499361.806854248 0 1499361.806854248 -3602760.2937011719 0 0 0 0 -121590276.40089417 -56648211.29460144 0 -56648211.29460144 114854569.62494659 0 0 0 0 5024199.9783698414 520648.90451464802 0 520648.90451464802 -4743334.3402383029 0 0 0 0 1179439.8410547255 -431209.2649487257 0 -431209.2649487257 -1045476.3424076289 0 0 0 0 211790219.55416965 67579042.179279327 0 67579042.179279327 6016673.6479492188 0 0 0 0 -236701797.40427208 182712395.50979614 0 182712395.50979614 -285923847.90377808 0 0 0 0 -293444792.88232803 324882361.36152649 0 324882361.36152649 -254822079.32597351 0 0 0 0 1510861.0413069595 -647935.04228376597 0 -647935.04228376597 -1748427.3006604016 0 0 0 0 220860972.56442642 54372780.241821289 0 54372780.241821289 -20086413.909484863 0 0 0 0 71201850.761564255 -185237432.98349762 0 -185237432.98349762 -363739932.20374298 0 0 0 0 41438325.942835808 244905722.39138031 0 244905722.39138031 69126630.213165283 0 0 0 0 498890731.47751617 -67198305.99156189 0 -67198305.99156189 -473422574.05562592 0 0 0 0 -140262986.57849979 -223677724.98246193 0 -223677724.98246193 85904972.646911621 0 0 0 0 1806120.5464866981 -2297671.5878503472 0 -2297671.5878503472 97923.309314399958 0 0 0 0 -215090735.0381031 24119060.811485291 0 24119060.811485291 39035045.599797249 0 0 0 0 57092918.824058533 426601.37069702148 0 426601.37069702148 -283043557.68386841 0 0 0 0 47094815.020301819 24529575.141456604 0 24529575.141456604 -65265178.686500549 0 0 0 0 13188909.262933731 -98362840.158646584 0 -98362840.158646584 -237834308.4899292 0 0 0 0 17419070.501155853 -67510487.363594055 0 -67510487.363594055 -83359811.142097473 0 0 0 0 -80035471.499206066 -75749900.547132492 0 -75749900.547132492 -57738737.111633301 0 0 0 0 -226182564.21124816 -223874428.13667297 0 -223874428.13667297 -183350363.7615509 0 0 0 0 72245738.594373703 -163306403.23615265 0 -163306403.23615265 -175480582.15729523 0 0 0 0 99654781.509149551 -37591025.776649475 0 -37591025.776649475 -46492022.381408691 0 0 0 0 1675871.7361164093 -106091941.8441391 0 -106091941.8441391 -36771338.539321899 0 0 0 0 54823500.281190872 -99483388.907516479 0 -99483388.907516479 -294388109.47022247 0 0 0 0 -202184.48158719297 -3886759.6298260614 0 -3886759.6298260614 -123644.01867831615 0 0 0 0 -74252552.390480995 -135071923.37123871 0 -135071923.37123871 18947353.648044109 0 0 0 0 -84894609.08440876 -49623891.626464844 0 -49623891.626464844 105554810.38612366 0 0 0 0 -52256.814076002687 -2233418.7941778973 0 -2233418.7941778973 -76275.117499798536 0 0 0 0 214340086.26211166 7002691.7613677979 0 7002691.7613677979 -202599141.37165976 0 0 0 0 197611528.92860413 -44230261.34602356 0 -44230261.34602356 60080320.599029541 0 0 0 0 -55396439.288003922 -102514595.39979553 0 -102514595.39979553 267247050.65867615 0 0 0 0 -193515576.71927071 -111852340.44807434 0 -111852340.44807434 68352897.332748413 0 0 0 0 400213918.16046143 234826225.19917107 0 234826225.19917107 -29622254.246643066 0 0 0 0 242310823.34603119 -23611331.331970215 0 -23611331.331970215 69568352.749799013 0 0 0 0 273051599.75940514 -72921927.963233948 0 -72921927.963233948 16051171.205078125 0 0 0 0 267730037.0640564 -77372523.518417358 0 -77372523.518417358 13988586.284332275 0 0 0 0 33172307.945636749 -5863615.039894104 0 -5863615.039894104 -17688728.242889404 0 0 0 0 128557519.61727905 60975653.291061401 0 60975653.291061401 -229483479.412117 0 0 0 0 4842610.0443274267 8054205.0629129354 0 8054205.0629129354 -26916970.322395377 0 0 0 0 23969563.270393372 -13109857.060180664 0 -13109857.060180664 -19707865.853179932 0 0 0 0 26588207.219589233 -11028562.545623779 0 -11028562.545623779 -18473689.89855957 0 0 0 0 16462685.612242699 -3192683.5078735352 0 -3192683.5078735352 -9930633.2674560547 0 0 0 0 498190.54845203739 1318309.4921297822 0 1318309.4921297822 -12096146.819880754 0 0 0 0 15933838.18579483 -2117976.1129608154 0 -2117976.1129608154 -8910838.0096893311 0 0 0 0 1746939.7164163161 1746608.3617876135 0 1746608.3617876135 -11636404.117667057 0 0 0 0 19484446.6889534 -7113625.5896911621 0 -7113625.5896911621 -11327259.527770996 0 0 0 0 7735931.9535077196 -8731255.711498674 0 -8731255.711498674 -13075566.243125066 0 0 0 0 24308157.600330353 -6588613.6679801941 0 -6588613.6679801941 -13859647.728240967 0 0 0 0 19710585.481918335 8457039.4437484741 0 8457039.4437484741 -35851728.512863159 0 0 0 0 18902475.763408661 -9408999.1711196899 0 -9408999.1711196899 -14742588.125366211 0 0 0 0 828475.52261495125 878922.56927635893 0 878922.56927635893 -1264719.9106064066 0 0 0 0 5461876.5045995377 -5209542.4465419166 0 -5209542.4465419166 -16108179.266922086 0 0 0 0 21445051.718566895 -3425402.6659240723 0 -3425402.6659240723 -17896561.358886719 0 0 0 0 4420473.0556474309 3156662.1165052745 0 3156662.1165052745 -28545795.311396748 0 0 0 0 45595118.230569839 291986.05844402313 0 291986.05844402313 -25416867.023376465 0 0 0 0 -10605910.923137665 -98202987.631034851 0 -98202987.631034851 -25051048.392707825 0 0 0 0 4820490.0036119092 -7939391.1551826634 0 -7939391.1551826634 -9963871.0312208682 0 0 0 0 32073888.08177948 15219255.282318115 0 15219255.282318115 -33427177.884620667 0 0 0 0 57198356.226998329 -12326645.495540619 0 -12326645.495540619 -18874935.634246826 0 0 0 0 10308030.465448031 -18734640.09219379 0 -18734640.09219379 -23043312.182673804 0 0 0 0 6703958.5646422384 964084.69130170066 0 964084.69130170066 -28774470.751874462 0 0 0 0 32087815.45583725 -754859.83055114746 0 -754859.83055114746 -23170071.115768433 0 0 0 0 32263776.606264114 -3586678.409286499 0 -3586678.409286499 -19113017.777179718 0 0 0 0 16071551.620586395 -1325766.8981018066 0 -1325766.8981018066 -15487347.109428406 0 0 0 0 2974660.788148839 1892463.0911306003 0 1892463.0911306003 -15647642.516101837 0 0 0 0 14204916.42009449 -13580950.501800537 0 -13580950.501800537 -13754814.843292236 0 0 0 0 10530701.687662125 -9332400.6663970947 0 -9332400.6663970947 -16410869.54781723 0 0 0 0 5646992.2545995517 -11162365.865530536 0 -11162365.865530536 -17255012.260182984 0 0 0 0 51968181.86614418 -7359664.8966674805 0 -7359664.8966674805 -11201271.01234436 0 0 0 0 3007740.064226598 -4625893.9198122621 0 -4625893.9198122621 -11773263.939740203 0 0 0 0 1250909.655175209 -8096848.0318717957 0 -8096848.0318717957 -13759143.065029144 0 0 0 0 1856795.0847455859 -10675019.701471806 0 -10675019.701471806 -28174363.711273193 0 0 0 0 9266144.9651870728 -2163079.8782653809 0 -2163079.8782653809 -22250906.245883942 0 0 0 0 5630648.9239497166 -5847573.7749411575 0 -5847573.7749411575 -14824496.192781676 0 0 0 0 10979393.378214836 -10970825.108161926 0 -10970825.108161926 -20261623.872901917 0 0 0 0 9350142.34562397 -3947814.7444286346 0 -3947814.7444286346 -21639182.217750549 0 0 0 0 5538085.8531635748 -7134388.5685478784 0 -7134388.5685478784 -16551224.530983716 0 0 0 0 3618193.5807291586 -1728744.1488333177 0 -1728744.1488333177 -15545780.130330969 0 0 0 0 7802421.1521930695 -7457099.055973053 0 -7457099.055973053 -20896687.65786171 0 0 0 0 5391640.0522705223 -3135045.0650588162 0 -3135045.0650588162 -19890617.456902154 0 0 0 0 -1686468.9345502853 -8197610.6965179443 0 -8197610.6965179443 -27328731.094848633 0 0 0 0 -1335520.7740874588 -3286480.3884499073 0 -3286480.3884499073 -19242466.531394958 0 0 0 0 3308338.9466994656 110442.46246356145 0 110442.46246356145 -20008783.79298662 0 0 0 0 52148307.681642532 72260791.588207245 0 72260791.588207245 -22395349.425071716 0 0 0 0 -1773328.791317279 -739873.0418813061 0 -739873.0418813061 -5428286.5078055151 0 0 0 0 14935857.921133041 -105100502.7902112 0 -105100502.7902112 -195685460.96450806 0 0 0 0 -81356307.15978241 184442319.93917465 0 184442319.93917465 -29551822.029947281 0 0 0 0 8740503.840003252 238309.18132781982 0 238309.18132781982 -22966457.22687149 0 0 0 0 -67434387.438420296 -7773931.7913155556 0 -7773931.7913155556 -30491785.183917999 0 0 0 0 -59174166.289608002 4104731.4057912827 0 4104731.4057912827 -25277400.72625351 0 0 0 0 -20664224.189909935 26145021.276412964 0 26145021.276412964 -12180871.490740538 0 0 0 0 -65352805.088193893 8580920.8708400726 0 8580920.8708400726 -13736190.701396942 0 0 0 0 -17507537.154227257 -7662339.4433937073 0 -7662339.4433937073 -11296894.751691818 0 0 0 0 -159693268.89698267 140407016.11407185 0 140407016.11407185 111544332.4678421 0 0 0 0 -1142557.9038351495 -145729.72643225081 0 -145729.72643225081 -940456.10138049349 0 0 0 0 -218308288.33865166 -6306664.883731842 0 -6306664.883731842 8696610.8087844849 0 0 0 0 -103561866.87611151 50062247.441248417 0 50062247.441248417 -34812626.376750946 0 0 0 0 -86751689.655784607 -10491815.273830414 0 -10491815.273830414 49916.579477310181 0 0 0 0 -740303979.27332687 192294287.46508789 0 192294287.46508789 -36539315.971957028 0 0 0 0 30872983.449972153 23375639.545057297 0 23375639.545057297 -16478759.163223267 0 0 0 0 1274547.2151898593 -518151.18923879974 0 -518151.18923879974 -3368618.9554212326 0 0 0 0 -164539072.695117 139033616.33327532 0 139033616.33327532 -48974296.024429321 0 0 0 0 191115606.45117378 -684264882.65606117 0 -684264882.65606117 -32469695.631866455 0 0 0 0 121023193.83805609 -6727620.6033701897 0 -6727620.6033701897 -51709770.035533905 0 0 0 0 -106329106.52391243 36451347.858453751 0 36451347.858453751 220250580.10755348 0 0 0 0 80143701.62001276 -126005034.41945076 0 -126005034.41945076 360140.93662643433 0 0 0 0 -40049712.948056221 -87866258.072864532 0 -87866258.072864532 -11236715.286989212 0 0 0 0 1754448.2913866043 8946081.4352436066 0 8946081.4352436066 -51915809.50459677 0 0 0 0 -11475290.945884705 -1040569.1028137207 0 -1040569.1028137207 -28643870.29460144 0 0 0 0 36633559.466119766 8250219.5954208374 0 8250219.5954208374 -85926567.611221313 0 0 0 0 -1457089.5868358612 -9931810.9865150452 0 -9931810.9865150452 -22870741.04279542 0 0 0 0 3326395.9814482019 -935490.8469771333 0 -935490.8469771333 -16111658.554138541 0 0 0 0 -56325412.756469727 101861871.30727386 0 101861871.30727386 59392342.40965271 0 0 0 0 4241030.5141216516 -2985431.2307357788 0 -2985431.2307357788 -18252574.518806458 0 0 0 0 -800568.23193904757 -6365201.6584763527 0 -6365201.6584763527 -14591008.655258179 0 0 0 0 -910628.37307596207 -7322276.6743774414 0 -7322276.6743774414 -18607042.457847357 0 0 0 0 4276185.2305101305 -3276626.4762885962 0 -3276626.4762885962 -17652192.381699223 0 0 0 0 4257827.6460396638 -3009293.6191249732 0 -3009293.6191249732 -13114346.724175297 0 0 0 0 -3824104.071796298 -10401514.121959448 0 -10401514.121959448 -26921083.925834656 0 0 0 0 -2897977.788547039 -4235195.2792205811 0 -4235195.2792205811 -15063796.397087097 0 0 0 0 -1954775.605049416 -469111.34753151983 0 -469111.34753151983 -16897258.396308828 0 0 0 0 -7728995.2468290329 -32117489.375534058 0 -32117489.375534058 -4897698.9543952942 0 0 0 0 -2655754.0066604395 -6183757.6248029405 0 -6183757.6248029405 -21090253.004308026 0 0 0 0 -11214120.015443794 57090230.06147331 0 57090230.06147331 -41160409.385925293 0 0 0 0 11264884.220398903 -2618607.7598075867 0 -2618607.7598075867 -58656003.060016632 0 0 0 0 12940029.780953169 -8974799.2472362518 0 -8974799.2472362518 -36842923.759239197 0 0 0 0 16191987.646789551 -8704442.3793411255 0 -8704442.3793411255 -38101510.57950592 0 0 0 0 11404594.308226585 3633885.2980585098 0 3633885.2980585098 -65735333.005496025 0 0 0 0 3920112.0062490618 -2121267.5625977423 0 -2121267.5625977423 -15758900.804887302 0 0 0 0 10358200.052053809 3790518.4146637917 0 3790518.4146637917 -63742205.389947891 0 0 0 0 -873328.02289199829 24250251.537008286 0 24250251.537008286 -76519492.510425568 0 0 0 0 3180382.0100577571 3075887.9840061944 0 3075887.9840061944 -23191299.876991566 0 0 0 0 -15183886.595571697 31975291.638927937 0 31975291.638927937 -92187415.186616898 0 0 0 0 2421163.0672222688 -3655893.155884482 0 -3655893.155884482 -3474056.1536797388 0 0 0 0 -13188792.36009407 -29177614.833818436 0 -29177614.833818436 -6663279.0895690918 0 0 0 0 -11453507.040197849 -36115819.373699188 0 -36115819.373699188 -21845644.674853325 0 0 0 0 18570203.939856559 -40595457.565461636 0 -40595457.565461636 -74359006.703306198 0 0 0 0 6634403.2418028116 -11522177.486808777 0 -11522177.486808777 -1283915.8279266357 0 0 0 0 6432391.8276362717 -8303327.5295180082 0 -8303327.5295180082 -44953496.763217926 0 0 0 0 2363756.0408642292 14113481.824316025 0 14113481.824316025 -23423309.025709152 0 0 0 0 11102940.430104733 2043889.7351694107 0 2043889.7351694107 -66496290.367553711 0 0 0 0 1408297.8788136046 4563418.4888029592 0 4563418.4888029592 -20481614.610438295 0 0 0 0 6996270.0285274982 20136880.33033371 0 20136880.33033371 -31998260.837226868 0 0 0 0 6186390.4196915627 17023975.54380703 0 17023975.54380703 -34577399.167013168 0 0 0 0 6080143.874730289 19633152.463823795 0 19633152.463823795 -20617095.173457623 0 0 0 0 17491557.977639198 399987.00937461853 0 399987.00937461853 -22558786.89541626 0 0 0 0 14569152.042219937 -19558661.519178867 0 -19558661.519178867 -18406381.674499512 0 0 0 0 -14896953.183691025 -7900059.2936134338 0 -7900059.2936134338 -17924903.093654633 0 0 0 0 -1326691.5997190475 -7215788.8889217377 0 -7215788.8889217377 -22557548.305526733 0 0 0 0 1630035.0235934258 -2820331.6857452393 0 -2820331.6857452393 -22105470.657766819 0 0 0 0 7540940.2785167694 34098435.438659668 0 34098435.438659668 -2773867.0283355713 0 0 0 0 -1811086.1192298115 5370123.9673216343 0 5370123.9673216343 -13107461.896394026 0 0 0 0 20451742.600275666 20240913.435146332 0 20240913.435146332 -17295091.340679169 0 0 0 0 253548.86230964353 -433710.82593068667 0 -433710.82593068667 -475658.79638991132 0 0 0 0 547037.27140235901 21221026.755821228 0 21221026.755821228 32413867.936149597 0 0 0 0 657273.09911735146 -238028.92638419569 0 -238028.92638419569 -3540381.0108704315 0 0 0 0 -10804723.122760773 6120371.6996841431 0 6120371.6996841431 -40079806.481307983 0 0 0 0 6173800.6532780938 2454793.8523407402 0 2454793.8523407402 -25703950.2034471 0 0 0 0 -7801148.3686623573 8372573.8720245361 0 8372573.8720245361 -5727371.1314620972 0 0 0 0 1704233.4657621384 9577337.1096401215 0 9577337.1096401215 -6772961.2284622192 0 0 0 0 -31586899.739892483 -16737240.595832825 0 -16737240.595832825 -1293731.1750869751 0 0 0 0 -18873191.343745232 28354880.681106567 0 28354880.681106567 -41522339.627786636 0 0 0 0 -613536.9173373722 -55623.811399363913 0 -55623.811399363913 -8982.7716381549835 0 0 0 0 -14921220.781315327 -6718109.7578163147 0 -6718109.7578163147 3933373.4957580566 0 0 0 0 10809391.085383177 -3394366.4947223663 0 -3394366.4947223663 -11102713.839447021 0 0 0 0 8018910.9089193344 3526385.8132095337 0 3526385.8132095337 -23700660.231788635 0 0 0 0 -11480437.226887703 5953900.4016971588 0 5953900.4016971588 -5517056.6921234131 0 0 0 0 -45853235.569383621 -70753359.990898132 0 -70753359.990898132 18864555.465114594 0 0 0 0 -883937.93230558001 985488.48765679216 0 985488.48765679216 -1105692.4003266282 0 0 0 0 -1436823.2734522268 71945.087609481066 0 71945.087609481066 -6257414.3693424277 0 0 0 0 -87927933.533046722 19285056.766052246 0 19285056.766052246 -40405995.05147934 0 0 0 0 -38360556.423036575 -100317779.60710907 0 -100317779.60710907 55101446.706640244 0 0 0 0 -82739435.470528722 -29773166.254065514 0 -29773166.254065514 124502171.26860046 0 0 0 0 49833511.550620556 18578044.689651489 0 18578044.689651489 -27894122.408569336 0 0 0 0 29213391.995243073 3534977.7340202332 0 3534977.7340202332 -29348524.159328461 0 0 0 0 51040032.371852875 19618248.42445755 0 19618248.42445755 -90459076.994651794 0 0 0 0 -97661.341543778777 -1599742.2787168697 0 -1599742.2787168697 -794479.95482454076 0 0 0 0 54828421.868258953 30866820.950057983 0 30866820.950057983 -58172747.488388062 0 0 0 0 66308565.904202461 107776287.01679611 0 107776287.01679611 -854630889.81594658 0 0 0 0 23957774.615467548 -9970534.9315662384 0 -9970534.9315662384 -63965634.688949585 0 0 0 0 -283091678.52650237 378001289.57354355 0 378001289.57354355 241759295.01712799 0 0 0 0 137668155.24203205 -171834239.30336761 0 -171834239.30336761 97786000.991569519 0 0 0 0 2996526.7592870626 -17011566.539118841 0 -17011566.539118841 -16480710.494476832 0 0 0 0 -38308211.535675049 -154768791.20313644 0 -154768791.20313644 283469555.14764643 0 0 0 0 -125199769.07490349 76759167.043678284 0 76759167.043678284 32903897.434501648 0 0 0 0 -166551568.57232666 -29671326.310562134 0 -29671326.310562134 174383068.42887115 0 0 0 0 -4571434.9223515987 -27805306.133066177 0 -27805306.133066177 -3275574.8984222412 0 0 0 0 4595502.7519794898 -9038634.26459397 0 -9038634.26459397 -32547530.534757342 0 0 0 0 5010680.5611505508 -414122.9270401001 0 -414122.9270401001 74519187.331424713 0 0 0 0 75521615.164670944 -104016906.77350807 0 -104016906.77350807 55493023.618387222 0 0 0 0 4505461.6773546319 -3418263.5728370855 0 -3418263.5728370855 -8977570.8703262955 0 0 0 0 11463976.516019821 -3237285.971572876 0 -3237285.971572876 -19974066.663051605 0 0 0 0 7394294.0929967882 -17811175.567758184 0 -17811175.567758184 -34061834.468741983 0 0 0 0 70918758.816711903 -27090944.181770325 0 -27090944.181770325 -6645861.4821166992 0 0 0 0 4136618.3204879761 -7328969.61378479 0 -7328969.61378479 -11805348.841644287 0 0 0 0 11600212.676680565 -7571671.0878944397 0 -7571671.0878944397 -23044146.746398926 0 0 0 0 5802290.5859444095 -8684289.9125683606 0 -8684289.9125683606 -19029843.486640036 0 0 0 0 10331255.215733051 -5713792.6529884338 0 -5713792.6529884338 -19353365.522033691 0 0 0 0 1333725.8566847304 -4953261.5666108727 0 -4953261.5666108727 -23097420.318633277 0 0 0 0 6317240.5105457306 -3909399.9461669922 0 -3909399.9461669922 -13990874.697341919 0 0 0 0 -5243101.4321680069 -13424880.497596741 0 -13424880.497596741 -8265645.7143554688 0 0 0 0 -1708070.3063942315 -4585619.8438213319 0 -4585619.8438213319 -10541825.069566751 0 0 0 0 957293.30608455837 -751304.55715702847 0 -751304.55715702847 -1369599.6145034954 0 0 0 0 711014.61414927337 130055.66081232205 0 130055.66081232205 -15990141.681881921 0 0 0 0 3691794.7231559753 -7445378.9660587311 0 -7445378.9660587311 -15926641.372192383 0 0 0 0 9117172.082157135 -7745956.476020813 0 -7745956.476020813 -26045210.633098602 0 0 0 0 -8439230.1629047394 -15628378.853103638 0 -15628378.853103638 2499736.9616069794 0 0 0 0 16169616.014162064 -8717039.8654689789 0 -8717039.8654689789 -36185040.003723145 0 0 0 0 -232103.58149051666 6509864.18176651 0 6509864.18176651 -42599326.165130615 0 0 0 0 6253104.9771404266 3019154.7691879272 0 3019154.7691879272 -29030098.322937012 0 0 0 0 1039095.1415333059 -1688288.0409178985 0 -1688288.0409178985 -1525910.8871816322 0 0 0 0 1385093.4748210306 -3785326.7207720652 0 -3785326.7207720652 -9125823.9424953647 0 0 0 0 3265983.620796999 -8732046.8848524038 0 -8732046.8848524038 -6599741.6764738038 0 0 0 0 6541014.1662240028 -8016425.9223613739 0 -8016425.9223613739 -28345604.718284607 0 0 0 0 -2328803.2940006256 -44830747.476797104 0 -44830747.476797104 -35838358.151883602 0 0 0 0 -6521111.0109267831 -34786915.235549927 0 -34786915.235549927 -88997440.363481522 0 0 0 0 -10677.035007987866 -15276351.165878296 0 -15276351.165878296 -55537783.578384399 0 0 0 0 1081530.5967873123 1569849.4256153777 0 1569849.4256153777 -7465608.4645316675 0 0 0 0 -11317052.971935268 -8721284.3530855179 0 -8721284.3530855179 -36506193.221282959 0 0 0 0 -1173823.7098433576 -3416303.5550399944 0 -3416303.5550399944 -4915696.2431000844 0 0 0 0 -3355337.4226908684 -8044091.2446594238 0 -8044091.2446594238 -27780076.917999268 0 0 0 0 256339.17253824897 1551051.8656806648 0 1551051.8656806648 -8597517.9766738042 0 0 0 0 -193660.08227735758 -3068247.1496963501 0 -3068247.1496963501 -21965937.822891235 0 0 0 0 -10727261.92105829 905555.23306274414 0 905555.23306274414 -33857197.215393066 0 0 0 0 -560829.58761896193 -16002491.607910156 0 -16002491.607910156 -65295151.679077148 0 0 0 0 -6685381.8362305909 -31880823.698974609 0 -31880823.698974609 -116833251.98475647 0 0 0 0 -30463779.570990264 -51717785.69708252 0 -51717785.69708252 -70961751.789178848 0 0 0 0 -25437009.409982517 -16826095.128292084 0 -16826095.128292084 -19133320.796737671 0 0 0 0 374777.39688301721 -191216.32675385475 0 -191216.32675385475 -2803515.6442125216 0 0 0 0 -48313517.852415763 -55985466.633369446 0 -55985466.633369446 -98679738.124542236 0 0 0 0 -22255303.172402665 -70723445.919921875 0 -70723445.919921875 -152371907.33275604 0 0 0 0 -3106101.0398812871 -55863344.985883713 0 -55863344.985883713 -159880028.66215515 0 0 0 0 -45816.953836865185 -19142525.776199341 0 -19142525.776199341 -93531780.644981384 0 0 0 0 45913.504403697953 -23770783.354804993 0 -23770783.354804993 -231029364.08436584 0 0 0 0 -6527695.1728295833 -55957656.941421509 0 -55957656.941421509 -159862382.62228966 0 0 0 0 5860.8004778389804 -3552199.4031677246 0 -3552199.4031677246 -266302922.34703064 0 0 0 0 26332403.534675196 -32508682.786201477 0 -32508682.786201477 -235827450.89466476 0 0 0 0 27208349.75293462 -30237602.250829697 0 -30237602.250829697 -305299186.26620483 0 0 0 0 30955758.305150609 66434414.639587402 0 66434414.639587402 -406860641.61032104 0 0 0 0 42340729.112595029 -61519336.585525513 0 -61519336.585525513 -468527955.16687012 0 0 0 0 44236018.525397122 41161134.97479248 0 41161134.97479248 -342007222.4131012 0 0 0 0 39831661.130998217 -35380011.63898468 0 -35380011.63898468 -323998952.69011879 0 0 0 0 11259026.931047261 -104542343.79064941 0 -104542343.79064941 -318021773.44139862 0 0 0 0 39216528.30585885 -29964367.584335327 0 -29964367.584335327 -364711378.62020874 0 0 0 0 5731197.4944480136 -70522147.818763733 0 -70522147.818763733 -270873257.56787109 0 0 0 0 5688228.7056525499 -71920187.747924805 0 -71920187.747924805 -232679525.69480896 0 0 0 0 -1877235.4838769548 -50704807.008916855 0 -50704807.008916855 -214606149.63787842 0 0 0 0 -30007903.547607452 -102584474.53884888 0 -102584474.53884888 -194135578.46057129 0 0 0 0 -18803868.361679912 -64202798.040805817 0 -64202798.040805817 -175671346.44577026 0 0 0 0 -51041606.17497547 -108110686.11357117 0 -108110686.11357117 -166448253.24603271 0 0 0 0 -57911847.168919161 -48658319.435317993 0 -48658319.435317993 -74817620.785095215 0 0 0 0 -52477505.055855095 -82915625.579360962 0 -82915625.579360962 -160420877.69790649 0 0 0 0 -49403277.915155865 -42343728.968063354 0 -42343728.968063354 -95513246.168624878 0 0 0 0 -17807442.571115613 -12914005.277313232 0 -12914005.277313232 -72672770.264091492 0 0 0 0 -106534107.03261915 -65681191.734939575 0 -65681191.734939575 -54138387.846069336 0 0 0 0 -171376457.65953037 -172692238.54008484 0 -172692238.54008484 -141841908.87408447 0 0 0 0 -30113465.561399028 -150235329.30325317 0 -150235329.30325317 -349050630.09619141 0 0 0 0 -27012103.419559568 -84266532.907310486 0 -84266532.907310486 -219171730.16891479 0 0 0 0 -31538005.871434033 -148775019.84159851 0 -148775019.84159851 -258819415.15445709 0 0 0 0 9524207.6195621304 -86803449.281805992 0 -86803449.281805992 -372704873.48284912 0 0 0 0 16865946.197043277 -75903076.10559082 0 -75903076.10559082 -365644948.71374512 0 0 0 0 28392586.847958736 -72792452.580116272 0 -72792452.580116272 -554907203.01190186 0 0 0 0 30882215.240277268 -170118837.48088074 0 -170118837.48088074 -357000769.56986237 0 0 0 0 -10200790.409253111 -282237831.51647949 0 -282237831.51647949 -662822939.42938232 0 0 0 0 157124511.99171746 -153927327.58283234 0 -153927327.58283234 -620390384.93792725 0 0 0 0 113025401.169016 -90886316.184013367 0 -90886316.184013367 -606260399.05123901 0 0 0 0 56245535.222882278 120599783.44320679 0 120599783.44320679 -748637522.11550903 0 0 0 0 -539221000.23125291 -827452686.29623413 0 -827452686.29623413 -1358263720.8773193 0 0 0 0 106313817.13777161 323484065.18453979 0 323484065.18453979 -1731967948.2778015 0 0 0 0 238648414.85577989 -240276483.15222931 0 -240276483.15222931 -1111006255.2212524 0 0 0 0 -570874378.91064453 872269061.82673645 0 872269061.82673645 -1054128878.7350769 0 0 0 0 30215626.854044095 -524724921.4342804 0 -524724921.4342804 -1582626678.7599945 0 0 0 0 -425618709.97690344 -540071299.32252502 0 -540071299.32252502 -418441983.05529785 0 0 0 0 -332158093.25144833 -341766207.7306366 0 -341766207.7306366 -211196262.80700684 0 0 0 0 -204215712.07016605 -180227178.79922485 0 -180227178.79922485 -117947030.01309204 0 0 0 0 -369971543.31488097 -196888676.29343224 0 -196888676.29343224 -90047544.075439453 0 0 0 0 -601653404.37212658 77527374.170707703 0 77527374.170707703 -367387672.78436279 0 0 0 0 -898753920.99475098 685405412.99435425 0 685405412.99435425 -968603422.99316406 0 0 0 0 2833034.1815026943 -260317.03685240448 0 -260317.03685240448 -5013585.9167963117 0 0 0 0 464951173.01613235 204458623.57324219 0 204458623.57324219 78129274.989990234 0 0 0 0 -265154849.32212019 -13548616.62902832 0 -13548616.62902832 211486694.5614624 0 0 0 0 186205578.30849814 -14871753.174285889 0 -14871753.174285889 -53238151.332977295 0 0 0 0 126516.31196477637 -5684750.5780219063 0 -5684750.5780219063 -9548533.1496392936 0 0 0 0 366318.64704791934 -597260.80376248062 0 -597260.80376248062 -451019.35218945518 0 0 0 0 95936342.184825897 248875138.51274109 0 248875138.51274109 212913275.94451904 0 0 0 0 426225703.13963819 -205329310.21801758 0 -205329310.21801758 17071191.371292114 0 0 0 0 -94829165.264298528 -101484464.04220581 0 -101484464.04220581 -117940146.50840759 0 0 0 0 -58779139.608654737 8054801.9357299805 0 8054801.9357299805 -2437712.7858276367 0 0 0 0 -327253837.73845744 -170768928.11383057 0 -170768928.11383057 155578478.80847168 0 0 0 0 -130480536.73824251 16184029.327667236 0 16184029.327667236 35975101.130249023 0 0 0 0 79621908.041217566 51577499.828186035 0 51577499.828186035 -41052633.634277344 0 0 0 0 -68983447.534025431 -11052281.845275879 0 -11052281.845275879 -35236421.199455261 0 0 0 0 -143365528.49823335 -106986934.26164627 0 -106986934.26164627 -70941732.010681152 0 0 0 0 -26891999.179843217 -1844191.1220092773 0 -1844191.1220092773 -35303600.068572998 0 0 0 0 -59025582.528975904 -18023045.818115234 0 -18023045.818115234 -36410446.549041748 0 0 0 0 35120378.643918157 23420277.297317505 0 23420277.297317505 -44733130.531425476 0 0 0 0 30218799.853683412 397928.70038986206 0 397928.70038986206 -4810563.4195251465 0 0 0 0 107160164.33901373 -41874642.94408226 0 -41874642.94408226 -27700554.141662598 0 0 0 0 49278148.748547196 10520634.993133545 0 10520634.993133545 -30178306.379119873 0 0 0 0 22450610.207530737 12201604.021240234 0 12201604.021240234 -23782485.069458008 0 0 0 0 22659164.294768006 13412605.264095306 0 13412605.264095306 -17804965.803131104 0 0 0 0 4970490.3109550476 -25609688.073104858 0 -25609688.073104858 -34602159.558418274 0 0 0 0 -25423575.984546661 -71268137.045143127 0 -71268137.045143127 -96259019.217773438 0 0 0 0 8920632.2529183421 4717449.3674045354 0 4717449.3674045354 -11374845.29728961 0 0 0 0 11035104.224369526 27328665.889221191 0 27328665.889221191 -2129960.1337738037 0 0 0 0 20417904.629385754 13611902.716079712 0 13611902.716079712 -15084413.483764648 0 0 0 0 11819950.983970135 27045014.235343933 0 27045014.235343933 -34793578.574768066 0 0 0 0 -24358022.784641325 7431494.7349395752 0 7431494.7349395752 -15314213.613861084 0 0 0 0 -3855509.8477226458 -5612353.9123306274 0 -5612353.9123306274 -74184535.522460938 0 0 0 0 -16435898.47833569 19424441.389984131 0 19424441.389984131 -17216694.940673828 0 0 0 0 -2453091.1495654434 -49351653.722305298 0 -49351653.722305298 -114106172.3714447 0 0 0 0 3173825.7577861566 -3035946.7924395651 0 -3035946.7924395651 -11672598.731780201 0 0 0 0 -16979429.846730005 -9747990.0737380981 0 -9747990.0737380981 11091404.867706299 0 0 0 0 -6814829.4122014642 -8712246.2808837891 0 -8712246.2808837891 -33776582.240386963 0 0 0 0 -677690.01393475477 760960.29538255185 0 760960.29538255185 -12447074.944995314 0 0 0 0 -3117222.404088974 -1715676.7541847229 0 -1715676.7541847229 -8314739.961807251 0 0 0 0 -3987331.1132373512 -2517616.2468109131 0 -2517616.2468109131 -13304622.129714966 0 0 0 0 -6853078.8978478294 -2450547.7140411548 0 -2450547.7140411548 -7875861.6546475291 0 0 0 0 7083987.5225860104 -9441345.7135009766 0 -9441345.7135009766 -42293628.669067383 0 0 0 0 2849578.692412518 -2018057.3638000488 0 -2018057.3638000488 -41322530.059646606 0 0 0 0 -513997.57583106909 -2644376.1944807842 0 -2644376.1944807842 -7509908.5765989721 0 0 0 0 -3702770.6094318628 -4319939.7277832031 0 -4319939.7277832031 -16269588.813461304 0 0 0 0 -7638597.5338961128 3002347.5953983068 0 3002347.5953983068 -8436850.7245775387 0 0 0 0 -23715693.265094757 35089466.203964233 0 35089466.203964233 461722213.04246521 0 0 0 0 37422867.565330505 284162581.30908203 0 284162581.30908203 395253894.93663406 0 0 0 0 -11553056.307358991 706650.87648584694 0 706650.87648584694 -5704299.9335931987 0 0 0 0 -147215458.87761688 256674550.60986328 0 256674550.60986328 767301127.75048447 0 0 0 0 118829102.91642761 102075423.97058105 0 102075423.97058105 49878009.48840332 0 0 0 0 -4221910.8317489624 -3274470.9131774902 0 -3274470.9131774902 -4113239.3512649536 0 0 0 0 4054039.0700361747 -4943240.545159176 0 -4943240.545159176 -9052674.6690382771 0 0 0 0 -16848590.208892822 -16642298.699874878 0 -16642298.699874878 -30228316.659988403 0 0 0 0 -8676382.9926921986 -9984452.242366381 0 -9984452.242366381 -10514490.417914869 0 0 0 0 -7846411.5381169319 -2671076.0729904175 0 -2671076.0729904175 -2892482.0659790039 0 0 0 0 3301373.8864689823 2681730.937561065 0 2681730.937561065 -9251081.8622270674 0 0 0 0 -17543614.410438724 -6812784.0612513572 0 -6812784.0612513572 -573430.82111801766 0 0 0 0 -10794397.394748688 137438277.24053192 0 137438277.24053192 -16972334.610748291 0 0 0 0 -3594466.5570755005 -642744.83889770508 0 -642744.83889770508 15694861.111373901 0 0 0 0 -113709219.54411697 105248378.1350174 0 105248378.1350174 321559390.71737671 0 0 0 0 -16653208.128357541 846529.34445858747 0 846529.34445858747 -4100106.2723394223 0 0 0 0 -2134295.9504736997 -1798760.571823813 0 -1798760.571823813 1328140.8320953846 0 0 0 0 130622659.65167236 -229083955.54522705 0 -229083955.54522705 231655894.04922485 0 0 0 0 -145985803.8923111 -243092326.81324768 0 -243092326.81324768 -46855212.199401855 0 0 0 0 -15598368.0742724 -4296116.0808109939 0 -4296116.0808109939 -4658190.6561084948 0 0 0 0 -8978934.5720276833 -2895024.6748428345 0 -2895024.6748428345 5060230.9627838135 0 0 0 0 -145856120.3651123 -198085069.75509644 0 -198085069.75509644 45561865.208892822 0 0 0 0 -14984842.525465997 -4630404.8333008066 0 -4630404.8333008066 -4246610.2664995417 0 0 0 0 -212654498.10198975 -216566360.85095215 0 -216566360.85095215 40481971.903137207 0 0 0 0 -5820074.2259597778 -102216244.79925537 0 -102216244.79925537 -71824770.250030518 0 0 0 0 -258643757.81251526 156949859.09100342 0 156949859.09100342 429202198.00411987 0 0 0 0 -215329223.36367416 75608484.903152466 0 75608484.903152466 781999210.26034546 0 0 0 0 63783192.08206749 -62642783.535652161 0 -62642783.535652161 533666231.88262939 0 0 0 0 -157465879.69581223 -152189886.49812317 0 -152189886.49812317 352684102.51010132 0 0 0 0 -5902827.4755516052 -60375056.144378662 0 -60375056.144378662 706100553.40362549 0 0 0 0 -31341637.81861496 69332592.600128174 0 69332592.600128174 552581999.86149597 0 0 0 0 32089396.991703033 35983552.417160034 0 35983552.417160034 1001730173.7226562 0 0 0 0 5580644.2408289909 -219968571.14189911 0 -219968571.14189911 518272674.13232422 0 0 0 0 16402989.635932922 -102698076.02697754 0 -102698076.02697754 297855773.08569336 0 0 0 0 -170695504.01781845 -159182321.65235901 0 -159182321.65235901 682894730.31628418 0 0 0 0 -18785498.449650947 87511.360311828554 0 87511.360311828554 740759.83453410119 0 0 0 0 -150692159.79560852 -174625085.30667114 0 -174625085.30667114 542274166.69019318 0 0 0 0 -54871739.619255066 -275232067.18103027 0 -275232067.18103027 145522008.61917114 0 0 0 0 53295559.887031555 -5109122.7652587891 0 -5109122.7652587891 442025976.54978943 0 0 0 0 -28559319.961169243 -165874260.38728714 0 -165874260.38728714 542878410.74542236 0 0 0 0 -16670195.888825005 -4818740.3845967054 0 -4818740.3845967054 -285292.56885478646 0 0 0 0 -96718502.628156662 -6990804.6354980469 0 -6990804.6354980469 27118245.764648438 0 0 0 0 -171523099.47057343 -245149314.32157898 0 -245149314.32157898 272220575.17245483 0 0 0 0 -196748842.73588562 -400266252.05895996 0 -400266252.05895996 47934581.375549316 0 0 0 0 40536503.712490082 -334962573.41326904 0 -334962573.41326904 15683610.156677246 0 0 0 0 -20725030.022756811 -2660344.1960367486 0 -2660344.1960367486 -967288.39964261651 0 0 0 0 -8626252.7087249756 8827579.6140289307 0 8827579.6140289307 8507229.1254653931 0 0 0 0 -30323522.939664841 26470779.625564575 0 26470779.625564575 -5777003.4064502716 0 0 0 0 -73052006.75668335 5448990.1851654053 0 5448990.1851654053 7774471.9644775391 0 0 0 0 -41373524.552811623 -28044008.743232727 0 -28044008.743232727 -17300085.25012207 0 0 0 0 -43469202.143672943 53637864.823577881 0 53637864.823577881 -6125166.576461792 0 0 0 0 26477581.043241501 6838573.9114990234 0 6838573.9114990234 -6760474.5127258301 0 0 0 0 -9216354.1819057465 10450230.057128906 0 10450230.057128906 -11481428.041046143 0 0 0 0 -23816543.517620087 -59359350.562515259 0 -59359350.562515259 -10480871.387786865 0 0 0 0 -7967736.4521179199 -6729093.9099731445 0 -6729093.9099731445 19376888.425674438 0 0 0 0 -8568688.4183100555 -8094799.196902208 0 -8094799.196902208 -968208.01889687777 0 0 0 0 14957372.783439636 -16323466.783538818 0 -16323466.783538818 -1840092.1809997559 0 0 0 0 137217.36480864976 415744.22128755599 0 415744.22128755599 -612381.93140138313 0 0 0 0 -3972027.1082808971 70550005.992547512 0 70550005.992547512 166131862.96713257 0 0 0 0 -75706670.997283936 -205221636.41098022 0 -205221636.41098022 84193556.24313736 0 0 0 0 60828703.882493973 -110697222.80835724 0 -110697222.80835724 -396446971.23376465 0 0 0 0 -34344810.845188141 -301730939.72100067 0 -301730939.72100067 -210422874.80921936 0 0 0 0 3510562.8897139803 -385704.28235599399 0 -385704.28235599399 -3191222.8392217159 0 0 0 0 9842484.4581375122 -70619215.260513306 0 -70619215.260513306 -197525767.47003174 0 0 0 0 69049615.257781982 -150173033.3742981 0 -150173033.3742981 -256502062.38938141 0 0 0 0 -114887391.30156517 -117000584.88557434 0 -117000584.88557434 -99914683.004699707 0 0 0 0 2870996.5589591563 -1601817.5549706742 0 -1601817.5549706742 -5456873.2143751979 0 0 0 0 6457520.0761985779 -2162492.1180114746 0 -2162492.1180114746 -7938711.0834350586 0 0 0 0 -31613371.039672852 -173118797.58782196 0 -173118797.58782196 -184671124.70095825 0 0 0 0 -270019106.31480408 -137927812.69795227 0 -137927812.69795227 -92657699.172912598 0 0 0 0 -41718840.183710098 -181170607.49222946 0 -181170607.49222946 -378193043.05584717 0 0 0 0 441435.76960372925 -44332683.23979187 0 -44332683.23979187 -89940669.78704834 0 0 0 0 -13876237.36800766 26334166.329345703 0 26334166.329345703 -22181448.347969055 0 0 0 0 10917531.199065167 1672377.8306218758 0 1672377.8306218758 -10620368.582087472 0 0 0 0 -40499379.049453735 -196113992.16725159 0 -196113992.16725159 -261136816.13223267 0 0 0 0 29330867.516395569 22584012.884216309 0 22584012.884216309 -232338389.66147041 0 0 0 0 4477630.4811321832 3671630.637441339 0 3671630.637441339 -4545586.7593073845 0 0 0 0 9211989.635591507 -5602010.1586761475 0 -5602010.1586761475 -8573477.5632629395 0 0 0 0 34710155.752000272 -3052809.5399246216 0 -3052809.5399246216 -24322644.85055542 0 0 0 0 56825650.58295548 -5296751.3712310791 0 -5296751.3712310791 -31273449.376327515 0 0 0 0 5604904.2217749609 -3530439.0533915237 0 -3530439.0533915237 -16610887.436582252 0 0 0 0 5410949.7968349457 -2801898.4598388672 0 -2801898.4598388672 -7049972.9215545654 0 0 0 0 827077.87269210815 -3511013.2064971924 0 -3511013.2064971924 -7091870.9099273682 0 0 0 0 5365579.6157169342 -2112750.8730621338 0 -2112750.8730621338 -10645004.452606201 0 0 0 0 -509730251.28583527 39579689.351173401 0 39579689.351173401 -1344650168.1885834 0 0 0 0 2754733.5390968323 -3823444.4350662231 0 -3823444.4350662231 -11204029.488433838 0 0 0 0 786766268.71778107 1084195470.1658325 0 1084195470.1658325 -583769300.74920654 0 0 0 0 11746459.632070541 -3896819.182849884 0 -3896819.182849884 -10615647.678787231 0 0 0 0 8431347.9239622205 -4354842.0194539279 0 -4354842.0194539279 -6546944.6290788762 0 0 0 0 -85499858.355876923 -150686219.06838989 0 -150686219.06838989 -332572598.28526688 0 0 0 0 82749426.370412827 -64981983.050231934 0 -64981983.050231934 -1191712798.3365784 0 0 0 0 46731874.273914337 84600569.963348389 0 84600569.963348389 -434790827.96899414 0 0 0 0 657533092.09355915 1182340911.9722776 0 1182340911.9722776 44663412.96383667 0 0 0 0 797087683.80562973 150911011.69241333 0 150911011.69241333 -752401773.44003296 0 0 0 0 1932196.2100869305 -2719559.4651601762 0 -2719559.4651601762 -41915.396057818085 0 0 0 0 -279365764.85291481 1031599494.1725388 0 1031599494.1725388 1222839440.1142883 0 0 0 0 -394917932.12800217 204574948.46261597 0 204574948.46261597 -12809823.234745026 0 0 0 0 -469917271.70311809 -379341197.76160622 0 -379341197.76160622 -1568392775.8023682 0 0 0 0 -241580931.10945606 -551777143.23513031 0 -551777143.23513031 -1240946854.014679 0 0 0 0 -387335869.10248947 446103417.37844849 0 446103417.37844849 -502352158.44174194 0 0 0 0 165342373.23258591 604937781.45642853 0 604937781.45642853 -656542856.93078613 0 0 0 0 -474635505.86298943 -842892167.71362305 0 -842892167.71362305 -1049868702.3694153 0 0 0 0 257680685.59661722 -556024414.742203 0 -556024414.742203 -1354868972.2513733 0 0 0 0 150905874.53073502 -363830752.79067993 0 -363830752.79067993 -1284984855.5533295 0 0 0 0 -212826734.49137563 -365073571.03925562 0 -365073571.03925562 -904424474.69403076 0 0 0 0 -229134192.35466957 464727556.09695435 0 464727556.09695435 -680222084.10409546 0 0 0 0 -63467267.519013405 7154253.4388656616 0 7154253.4388656616 40504989.368560791 0 0 0 0 818049037.70109749 -62888003.983253479 0 -62888003.983253479 -375996804.81765747 0 0 0 0 430270304.37583923 217349740.64076233 0 217349740.64076233 -341396991.03576088 0 0 0 0 175588325.94135761 177623422.39229584 0 177623422.39229584 541654582.2154541 0 0 0 0 7609269.1621028623 -7232030.190841727 0 -7232030.190841727 -1433531.5054999702 0 0 0 0 -82159469.602882385 16962035.828063965 0 16962035.828063965 -668652472.72168732 0 0 0 0 372451886.57779026 129615974.29246521 0 129615974.29246521 30303486.691467285 0 0 0 0 -25921196.271877289 24348677.368309021 0 24348677.368309021 -983154955.9303894 0 0 0 0 -21343141.366695404 -110833664.96852112 0 -110833664.96852112 -803415192.34465027 0 0 0 0 123462442.41442108 93348906.802085876 0 93348906.802085876 -1651633791.9446869 0 0 0 0 4891656.6384933218 -6139293.6895995438 0 -6139293.6895995438 -5453541.7380386628 0 0 0 0 383508.84771442413 -6412706.7995405197 0 -6412706.7995405197 -12040031.852996826 0 0 0 0 1206278.843082428 -4224145.3921508789 0 -4224145.3921508789 -10555295.67414856 0 0 0 0 128569.92119877785 -7870756.0706122741 0 -7870756.0706122741 -4968453.1120865569 0 0 0 0 -806170.24892807007 -6888741.3324356079 0 -6888741.3324356079 -12052535.678436279 0 0 0 0 3964908.9775645211 653663.31730343401 0 653663.31730343401 -1789330.97481291 0 0 0 0 385620223.64541626 247014107.75471497 0 247014107.75471497 -128960091.38117981 0 0 0 0 243177722.4440155 565078095.35503387 0 565078095.35503387 -705959239.07897949 0 0 0 0 -156262055.42358398 68962973.157714844 0 68962973.157714844 -58789014.930786133 0 0 0 0 4356534.5460624695 788321812.81434631 0 788321812.81434631 2600675048.8627319 0 0 0 0 2173783.9294480197 -1430175.2722182348 0 -1430175.2722182348 -1587736.9111529812 0 0 0 0 -824946.99222849309 -505733.13666683435 0 -505733.13666683435 -269164.70588631928 0 0 0 0 -148423092.290802 579945002.85392761 0 579945002.85392761 972306713.89840698 0 0 0 0 -2521664665.529707 -1893077968.0322151 0 -1893077968.0322151 1056762198.8730164 0 0 0 0 616584.16804894619 2284746.8637441024 0 2284746.8637441024 -10559414.587205231 0 0 0 0 -1238575939.1034107 -2574776403.4254951 0 -2574776403.4254951 964499502.35693359 0 0 0 0 535145131.95123291 2154972673.209549 0 2154972673.209549 -859978339.14920044 0 0 0 0 -31579084.976129532 355182375.36940956 0 355182375.36940956 37743993.492736816 0 0 0 0 770722012.09449768 685311248.24327087 0 685311248.24327087 -871512493.28520203 0 0 0 0 12061192.578964233 -141172533.31628418 0 -141172533.31628418 -23227744.788516998 0 0 0 0 -54491412.872314453 107984967.40390015 0 107984967.40390015 -701436577.93634033 0 0 0 0 -54665757.17993927 124635707.18209839 0 124635707.18209839 -1147442919.0573883 0 0 0 0 -16399490.537384033 355814908.74792862 0 355814908.74792862 -644613943.69384766 0 0 0 0 -228102007.41811371 89278316.792388916 0 89278316.792388916 -374824337.1098175 0 0 0 0 -259872952.69557953 -65452913.454528809 0 -65452913.454528809 -811222590.45002747 0 0 0 0 129191314.60933685 -50728761.036773682 0 -50728761.036773682 -972550290.02636719 0 0 0 0 654746.73565388354 -217809.49469856359 0 -217809.49469856359 -268036.28031410277 0 0 0 0 41307610.002220154 -216145939.3200531 0 -216145939.3200531 -450519145.76263428 0 0 0 0 -6111317.4723729938 -7763495.8307970315 0 -7763495.8307970315 4098961.7913301028 0 0 0 0 20832701.539276123 -69311062.153015137 0 -69311062.153015137 -768686340.43081665 0 0 0 0 -317222060.65245438 -498778473.65285301 0 -498778473.65285301 -673296186.24517822 0 0 0 0 633415953.24772263 97770740.929450989 0 97770740.929450989 -616323054.05490112 0 0 0 0 216896988.85157013 -391810117.49224854 0 -391810117.49224854 -468200678.80949402 0 0 0 0 -86186419.459472656 215789193.72998047 0 215789193.72998047 -198950334.54367065 0 0 0 0 -2023282.4386351183 -2762162.0162943304 0 -2762162.0162943304 1395055.1986732334 0 0 0 0 -53875240.686653137 -25602222.380836487 0 -25602222.380836487 176223150.50292969 0 0 0 0 -54418020.616603851 -5154888.2284545898 0 -5154888.2284545898 65472042.559204102 0 0 0 0 -38507428.520896912 1660148.220199585 0 1660148.220199585 13059610.977058411 0 0 0 0 3010109.0460405112 -17330104.201608121 0 -17330104.201608121 858367.26819880307 0 0 0 0 -11939302.853492737 -27890814.15476799 0 -27890814.15476799 35878555.690734863 0 0 0 0 -292365574.78773546 44694639.347285271 0 44694639.347285271 11521731.186706543 0 0 0 0 -1054560140.9020958 -1080724701.319252 0 -1080724701.319252 421479500.94039917 0 0 0 0 2911404.5617321469 -3000709.1989719607 0 -3000709.1989719607 -6534962.1287206709 0 0 0 0 -737735861.01306152 -462060719.21392822 0 -462060719.21392822 373467476.64782715 0 0 0 0 -450763532.25379944 -1457310298.9986725 0 -1457310298.9986725 648482861.47741699 0 0 0 0 -822418519.1396904 -735771181.86127472 0 -735771181.86127472 -415773720.57617188 0 0 0 0 -116130168.00348663 394113039.9183197 0 394113039.9183197 -2192087716.4974365 0 0 0 0 -240265284.66323471 303291143.6170311 0 303291143.6170311 -4570236.522277832 0 0 0 0 97487766.80374527 -386931945.79991913 0 -386931945.79991913 482151533.36950684 0 0 0 0 -30754361.581008911 -72541361.605255127 0 -72541361.605255127 84202047.955566406 0 0 0 0 -604582956.3152771 178509954.66012573 0 178509954.66012573 1284633916.2348633 0 0 0 0 -687490307.71955109 -922590079.82327271 0 -922590079.82327271 678693394.48669434 0 0 0 0 -757831652.77778625 -582771276.65093994 0 -582771276.65093994 967148211.66818237 0 0 0 0 -430916477.62716675 -708419464.73435974 0 -708419464.73435974 -550613488.83633423 0 0 0 0 -667608121.05241394 -946233403.25682068 0 -946233403.25682068 533018824.69111633 0 0 0 0 311750413.54040527 620905725.27203369 0 620905725.27203369 -587670459.64501953 0 0 0 0 3416707.2285101376 7366437.3310182318 0 7366437.3310182318 -32914564.574690133 0 0 0 0 -367502216.9115448 -470747465.27783203 0 -470747465.27783203 -1136812556.0157471 0 0 0 0 -355137943.09507751 -585691230.5639801 0 -585691230.5639801 -428027293.12666321 0 0 0 0 -203759126.66815281 38408575.730709076 0 38408575.730709076 -63171190.334213257 0 0 0 0 38302850.492340088 -18669796.461029053 0 -18669796.461029053 -69878953.592071533 0 0 0 0 -999070486.75204468 -483787154.96534729 0 -483787154.96534729 -105691616.1149292 0 0 0 0 9749560.6146888733 -38820128.220428467 0 -38820128.220428467 -68039561.962245941 0 0 0 0 -31540448.517654419 -14714951.412315369 0 -14714951.412315369 21458975.490219116 0 0 0 0 1022862.2125425562 2736602.6034836546 0 2736602.6034836546 -12204862.315125287 0 0 0 0 -131266091.14118195 -87109004.487167358 0 -87109004.487167358 -1103936840.9898071 0 0 0 0 -262385.37035621889 -3224443.2238732316 0 -3224443.2238732316 -11642192.136390813 0 0 0 0 -285442565.85974121 -65932460.142700195 0 -65932460.142700195 -1489908575.2951355 0 0 0 0 -271638897.66676331 -183610388.84786987 0 -183610388.84786987 -805372013.59188843 0 0 0 0 -95058613.557746887 -853696010.48840332 0 -853696010.48840332 -197476436.74880981 0 0 0 0 -1075534591.8873367 234053913.91178894 0 234053913.91178894 -1256284800.0063324 0 0 0 0 -30001925.207813263 -7076350.3185195923 0 -7076350.3185195923 -38798830.863204956 0 0 0 0 1585808211.5135269 734720683.89219666 0 734720683.89219666 305802905.83860779 0 0 0 0 1209395318.5715027 468471695.02157593 0 468471695.02157593 1110694174.1172485 0 0 0 0 1913871.6652926318 327448.91583795846 0 327448.91583795846 -1515030.8783827275 0 0 0 0 -13363257.906941075 2203296.4703229554 0 2203296.4703229554 2251082.1495667472 0 0 0 0 -35018034.067199707 -67121927.968978882 0 -67121927.968978882 -32597998.590866089 0 0 0 0 -534710838.30844116 -256978278.23197937 0 -256978278.23197937 -154064756.12774658 0 0 0 0 -253943192.8032074 -427055963.55056 0 -427055963.55056 -369048371.29425049 0 0 0 0 40959805.50978303 65729122.24961853 0 65729122.24961853 -643070390.95166016 0 0 0 0 -56259456.699645996 -183181865.22442627 0 -183181865.22442627 -661391059.8157959 0 0 0 0 -44044177.084487915 -347294949.69052124 0 -347294949.69052124 -356176154.51695633 0 0 0 0 -111525864.89390182 -596022552.96200562 0 -596022552.96200562 -1272481268.8727417 0 0 0 0 29077024.787189484 175306650.94561768 0 175306650.94561768 -285541419.5308075 0 0 0 0 -36343076.57252121 217148210.00094604 0 217148210.00094604 -148130112.77887726 0 0 0 0 5120756.7394026946 8668070.1953866966 0 8668070.1953866966 -7371699.9320157319 0 0 0 0 -697859882.05984497 -396028580.44446564 0 -396028580.44446564 -232086975.03969574 0 0 0 0 -267580539.69487399 -741243994.53063488 0 -741243994.53063488 -489438082.85598755 0 0 0 0 15917603.694921494 -781405679.46479797 0 -781405679.46479797 -84093678.270385742 0 0 0 0 292294667.47622299 86829843.270462036 0 86829843.270462036 -18414652.786315918 0 0 0 0 -267483678.77771759 -801870984.68881226 0 -801870984.68881226 -816591675.61645508 0 0 0 0 -30282562.508260906 -21706403.479629159 0 -21706403.479629159 -17711058.739898682 0 0 0 0 -13453379.314589273 -3039002.9557201378 0 -3039002.9557201378 -19399052.741536722 0 0 0 0 1241939.3977053161 7839995.7623512223 0 7839995.7623512223 -2751969.4173481017 0 0 0 0 4842545.4115800504 3922989.5091112703 0 3922989.5091112703 -1945854.8675638437 0 0 0 0 -1595633590.5101318 -145743783.26104736 0 -145743783.26104736 -1116948037.7513428 0 0 0 0 -6648712.2005591244 4228853.3383978605 0 4228853.3383978605 -2350030.3035198748 0 0 0 0 13953622.878765106 16528279.543426514 0 16528279.543426514 8557158.8432617188 0 0 0 0 -1827276318.9351425 -2088034350.2667961 0 -2088034350.2667961 -742818111.74179077 0 0 0 0 1998759038.9764938 1204983386.4291229 0 1204983386.4291229 -3813813435.7582703 0 0 0 0 -192504060.28166962 115547234.3692627 0 115547234.3692627 846137647.85048676 0 0 0 0 1257652392.6960602 895914594.10560608 0 895914594.10560608 -2149452501.6664276 0 0 0 0 -6239178.637260437 2942569.2299499512 0 2942569.2299499512 -693070.90185546875 0 0 0 0 -16338147.788376674 5247547.2710487694 0 5247547.2710487694 -4623534.7615057081 0 0 0 0 -14580824.204486847 -7188698.1571960449 0 -7188698.1571960449 4487780.299911499 0 0 0 0 973982.58307817904 -243621.98629781604 0 -243621.98629781604 -2530899.8836409971 0 0 0 0 -414378854.49006653 -354489627.81838989 0 -354489627.81838989 -504566328.512043 0 0 0 0 -17381207.106004238 -5326083.2971852794 0 -5326083.2971852794 -3528170.4135926515 0 0 0 0 -964216314.34441948 -642876945.27023315 0 -642876945.27023315 -49261578.818725586 0 0 0 0 -15418159.706782451 81628.899476714432 0 81628.899476714432 -1004812.6375853717 0 0 0 0 -554612110.7331531 -415457201.72656059 0 -415457201.72656059 -213582422.27523804 0 0 0 0 -974873078.6965332 -441558199.05996704 0 -441558199.05996704 -108746825.5194397 0 0 0 0 262320.9611825943 -17462597.546192169 0 -17462597.546192169 -26180272.830352783 0 0 0 0 12738148.487688065 -7139355.8383178711 0 -7139355.8383178711 -16144469.426269531 0 0 0 0 -26647923.344894409 14676274.290618896 0 14676274.290618896 16829594.830444336 0 0 0 0 -904472078.69768143 -269556813.47261047 0 -269556813.47261047 -114643656.77832031 0 0 0 0 -11868402.627046896 387618.32569336519 0 387618.32569336519 -392419.30744259059 0 0 0 0 1975576.2232398987 -26446063.505859375 0 -26446063.505859375 -8787068.4862670898 0 0 0 0 29236983.95422554 12990234.106933594 0 12990234.106933594 -5510027.8258361816 0 0 0 0 221192.76786858775 -87740.139906674623 0 -87740.139906674623 -692710.68081815541 0 0 0 0 28257136.117677689 -18545201.163818359 0 -18545201.163818359 -18033690.838928223 0 0 0 0 20902481.004760742 -773829263.89440918 0 -773829263.89440918 -1479161320.6778259 0 0 0 0 -1589785891.1442566 -251643975.6550293 0 -251643975.6550293 90380052.417236328 0 0 0 0 -906460998.3098793 -623443482.0153656 0 -623443482.0153656 -654588456.59515381 0 0 0 0 -1491057.5472564269 2270926.4947727025 0 2270926.4947727025 860336.66433410347 0 0 0 0 -956233072.74398994 15926975.858840942 0 15926975.858840942 -638757920.19842529 0 0 0 0 -957792260.88898468 -450843105.26312256 0 -450843105.26312256 -219651069.92880249 0 0 0 0 -1733270419.2870789 -663181403.55929565 0 -663181403.55929565 -275872989.93603516 0 0 0 0 -950794238.89311981 -1204771443.2116699 0 -1204771443.2116699 -1025289101.2659912 0 0 0 0 -245535863.09630585 -642904822.00231934 0 -642904822.00231934 -614658251.6373291 0 0 0 0 442260310.00976562 -218182554.05621338 0 -218182554.05621338 -1025555762.3443604 0 0 0 0 -303649633.86442566 -586485386.44540405 0 -586485386.44540405 -593647064.12304688 0 0 0 0 -289284258.3363266 -559430287.55706787 0 -559430287.55706787 -307937182.23669434 0 0 0 0 -696862321.85708618 -870256134.33273315 0 -870256134.33273315 -512617230.62744141 0 0 0 0 -298561223.19317627 -599465769.63635254 0 -599465769.63635254 -248588646.08343506 0 0 0 0 -304505242.21528625 -561087087.31213379 0 -561087087.31213379 -204092831.71933746 0 0 0 0 186907684.40922546 -10433776.289672852 0 -10433776.289672852 -432132700.95690918 0 0 0 0 -20358341.73526001 -246598241.99035645 0 -246598241.99035645 -210494606.00685883 0 0 0 0 -274806391.7165699 -339820353.6860733 0 -339820353.6860733 -425208899.77749634 0 0 0 0 -611267735.64958191 -242581988.23904419 0 -242581988.23904419 -163685258.30328369 0 0 0 0 -537544892.05893326 -303609235.07852173 0 -303609235.07852173 -408768570.97396851 0 0 0 0 -449642410.10623169 -122457924.42849731 0 -122457924.42849731 -230314927.41842651 0 0 0 0 -184776967.94412613 -169557738.45880127 0 -169557738.45880127 -151511965.54968262 0 0 0 0 272931126.93598175 -199438074.22453308 0 -199438074.22453308 -301510241.61743164 0 0 0 0 299902858.17485046 -396503269.62635803 0 -396503269.62635803 -93336917.407524109 0 0 0 0 264516464.63452911 -168544495.91392517 0 -168544495.91392517 -63127557.580051422 0 0 0 0 4627263.6418310842 -17470762.41715657 0 -17470762.41715657 -58684613.872754261 0 0 0 0 203235042.6263895 -325322850.5082016 0 -325322850.5082016 82496234.062347412 0 0 0 0 4055433.2537455633 -2168972.6625573784 0 -2168972.6625573784 -8669601.8357956558 0 0 0 0 -579330052.31282425 -264664457.94171238 0 -264664457.94171238 287314139.05142212 0 0 0 0 339351517.22915268 -124524858.6754303 0 -124524858.6754303 -218778276.68173218 0 0 0 0 -6647154.490447998 -216245440.99441528 0 -216245440.99441528 -144960458.83436584 0 0 0 0 5114839.7758865356 -126763441.35021973 0 -126763441.35021973 -92245628.12336731 0 0 0 0 232513817.12812424 -140501827.33738708 0 -140501827.33738708 -173741981.61058044 0 0 0 0 488558483.81864929 -27535459.929031372 0 -27535459.929031372 -127679054.0075264 0 0 0 0 589543000.78831673 -208597956.1430397 0 -208597956.1430397 -213565353.63632202 0 0 0 0 291786778.14356613 -193353868.99775696 0 -193353868.99775696 -72361104.630191803 0 0 0 0 271034260.18873072 -88820935.426332474 0 -88820935.426332474 -241502571.8631897 0 0 0 0 -52532032.041625977 -122888260.5038147 0 -122888260.5038147 -157113017.95207214 0 0 0 0 -357147601.45964432 -162395411.13269043 0 -162395411.13269043 -160308572.92901611 0 0 0 0 -61324430.410320282 -164235365.24840164 0 -164235365.24840164 -295658939.54382324 0 0 0 0 -670294689.90957642 -113680421.12710571 0 -113680421.12710571 -227285890.02090454 0 0 0 0 -352090718.73514175 -224621143.1711731 0 -224621143.1711731 -197213320.82815552 0 0 0 0 -341966286.9488678 -262410304.36190796 0 -262410304.36190796 -101482888.41059875 0 0 0 0 -573298483.80769348 -268166670.88894653 0 -268166670.88894653 -98220022.807250977 0 0 0 0 -34593353.227832794 -130096671.49531555 0 -130096671.49531555 -173372713.65679932 0 0 0 0 -292190183.32723999 -615715866.06207275 0 -615715866.06207275 -306411470.85534191 0 0 0 0 -678591823.74469757 -526928543.51037598 0 -526928543.51037598 -122488678.3807373 0 0 0 0 -473453062.25439453 -558928665.61508179 0 -558928665.61508179 -123046863.14178085 0 0 0 0 -661884700.31703949 -534982589.05044556 0 -534982589.05044556 -196402187.13980103 0 0 0 0 -861639190.02377319 -366093830.05661011 0 -366093830.05661011 -99010241.506225586 0 0 0 0 -507151431.16536713 -357050677.60678101 0 -357050677.60678101 -98785086.864345551 0 0 0 0 -454081533.80576706 -383349493.7482605 0 -383349493.7482605 -124878377.03503418 0 0 0 0 -410643384.61545563 -422954915.37194824 0 -422954915.37194824 -92967021.397369385 0 0 0 0 -604260863.19964981 -440839898.21730042 0 -440839898.21730042 -91104688.507751465 0 0 0 0 -355133738.65943146 -491619612.12312317 0 -491619612.12312317 -165212112.53070068 0 0 0 0 -370081527.39819336 -515465976.17120361 0 -515465976.17120361 -139194283.15618896 0 0 0 0 -434006718.69754791 -510602635.62124634 0 -510602635.62124634 -133890153.849823 0 0 0 0 -317489170.30729866 -557765826.941185 0 -557765826.941185 -147691473.46905518 0 0 0 0 -369311813.76088738 -534086969.04270649 0 -534086969.04270649 -141195061.70721436 0 0 0 0 -297826207.03538728 -478115697.37562275 0 -478115697.37562275 -163981971.07080078 0 0 0 0 -301403201.41736984 -433365047.49468994 0 -433365047.49468994 -240607999.65414429 0 0 0 0 -309930888.20461273 -373329316.5778656 0 -373329316.5778656 -158214614.51287842 0 0 0 0 -294530198.65316772 -350169218.48403931 0 -350169218.48403931 -125396042.37683105 0 0 0 0 -236306855.31419754 -364200889.35649109 0 -364200889.35649109 -285450218.51068115 0 0 0 0 -208989794.28473663 -314434480.98077393 0 -314434480.98077393 -201224139.63145447 0 0 0 0 -220234377.84436798 -396776711.33496094 0 -396776711.33496094 -224122938.87986755 0 0 0 0 -229877275.52017975 -434080442.83739471 0 -434080442.83739471 -356993359.64178467 0 0 0 0 -8043313.0105228424 -208116065.82381821 0 -208116065.82381821 -165816785.6786499 0 0 0 0 -253822161.72632599 -183569149.78567505 0 -183569149.78567505 -113462640.31616211 0 0 0 0 -317422737.75942993 -294596295.31481934 0 -294596295.31481934 -117868571.08650208 0 0 0 0 -277137210.8661747 -290578527.77780151 0 -290578527.77780151 -139490350.15087891 0 0 0 0 -221736534.63602066 -298447842.71794128 0 -298447842.71794128 -206626096.18713379 0 0 0 0 -157575918.03626251 -234436348.15492249 0 -234436348.15492249 -155245781.96447754 0 0 0 0 -164668286.05252457 -224361640.53108215 0 -224361640.53108215 -109643631.91760254 0 0 0 0 14091266.453304291 -171643457.21578979 0 -171643457.21578979 -164172872.21934509 0 0 0 0 -130048810.7046051 -166823904.26887894 0 -166823904.26887894 -80882910.208496094 0 0 0 0 -128696390.68454933 -175648343.77891541 0 -175648343.77891541 -269602329.90155029 0 0 0 0 -180099008.98823166 -18433842.222366333 0 -18433842.222366333 -204167691.71048737 0 0 0 0 -63420360.003223419 -71990316.215423584 0 -71990316.215423584 -170894713.60858154 0 0 0 0 -163513117.26146698 -195491477.8258667 0 -195491477.8258667 -185919386.76695251 0 0 0 0 -167925717.96654129 -242171052.34794617 0 -242171052.34794617 -336043054.15761566 0 0 0 0 -56970659.111590385 -75437181.790100098 0 -75437181.790100098 -515819449.46749878 0 0 0 0 -121697754.93296814 -257698595.62808228 0 -257698595.62808228 -402298303.44665527 0 0 0 0 262055095.84083557 5502518.7059173584 0 5502518.7059173584 -520220358.94216919 0 0 0 0 -86881844.91778183 -8817094.4884147644 0 -8817094.4884147644 -391545526.96929932 0 0 0 0 -168153307.25564575 335382533.85876465 0 335382533.85876465 -720721759.29354858 0 0 0 0 848348.24812481552 54204.103460356593 0 54204.103460356593 -633037.43543715775 0 0 0 0 -273734530.62993622 107485336.30476379 0 107485336.30476379 -334783716.01284027 0 0 0 0 -94426748.624401093 103785691.10371399 0 103785691.10371399 -280540960.27401733 0 0 0 0 -152037031.23015976 -83836291.805511475 0 -83836291.805511475 -117456806.59207153 0 0 0 0 -146218300.17037392 64434474.636039734 0 64434474.636039734 -531211463.30773926 0 0 0 0 -191216270.11794281 97273385.729705811 0 97273385.729705811 -256525458.63189697 0 0 0 0 -34569261.553525925 104982328.15586853 0 104982328.15586853 -123554079.62069702 0 0 0 0 -75229259.644504547 -176491966.66696167 0 -176491966.66696167 708363633.57211304 0 0 0 0 -127187584.42293453 57324107.648132324 0 57324107.648132324 66276878.484375 0 0 0 0 263874329.83118057 -176096579.53486633 0 -176096579.53486633 -135542239.54193115 0 0 0 0 1865320.052280426 -231701398.97009277 0 -231701398.97009277 51208974.568032265 0 0 0 0 255522532.14143372 -76568947.061641216 0 -76568947.061641216 -62545932.08581543 0 0 0 0 14366280.784597397 -176842273.17742729 0 -176842273.17742729 -85904993.833618164 0 0 0 0 249024939.39971733 -192078996.86674118 0 -192078996.86674118 -96997655.24609375 0 0 0 0 726501860.60757065 224661203.71359253 0 224661203.71359253 26154842.607025146 0 0 0 0 825348127.01725197 -296903859.55414581 0 -296903859.55414581 -84199246.028060913 0 0 0 0 444305679.63435364 -636189000.13014984 0 -636189000.13014984 -179943343.00079346 0 0 0 0 412708716.24914551 634387672.84397888 0 634387672.84397888 -127369260.9026947 0 0 0 0 259789100.04297256 -160709272.59305 0 -160709272.59305 -855318193.42419434 0 0 0 0 -311314844.95572281 604240947.11690521 0 604240947.11690521 -24356690.287689209 0 0 0 0 -145687705.86019897 210233501.33227539 0 210233501.33227539 31515720.074615479 0 0 0 0 113007787.43044853 174427752.582798 0 174427752.582798 -798892420.43017578 0 0 0 0 -280652192.07035828 381598748.05090332 0 381598748.05090332 -371509925.74838257 0 0 0 0 14369153.911766052 5783802.0455322266 0 5783802.0455322266 -1668359.0505981445 0 0 0 0 2507060.7917005718 -1048938.9454992488 0 -1048938.9454992488 -2792877.0372499749 0 0 0 0 -212868484.48237228 248405040.64413452 0 248405040.64413452 -394931120.30382729 0 0 0 0 -10324641.832798004 134426053.77471924 0 134426053.77471924 -808628805.74595642 0 0 0 0 -25729220.345169067 -9901389.0803527832 0 -9901389.0803527832 6969765.7521057129 0 0 0 0 4460920.670283746 -26002.976696655154 0 -26002.976696655154 -2667679.9268432334 0 0 0 0 -164774075.70879745 510246520.77005005 0 510246520.77005005 -803399918.30334282 0 0 0 0 1130390.0945577705 -209123.94151352346 0 -209123.94151352346 -1585937.4671441168 0 0 0 0 -396867258.74796677 409099767.09985352 0 409099767.09985352 -423537006.70722961 0 0 0 0 -157758057.74926376 320893032.25204468 0 320893032.25204468 -460876074.58810425 0 0 0 0 -145904384.26477432 397979777.74234009 0 397979777.74234009 -439910417.03118896 0 0 0 0 -96133397.478807449 331084617.76785278 0 331084617.76785278 -486505571.50262451 0 0 0 0 -277603887.59516907 455849755.77456665 0 455849755.77456665 -543744441.39892578 0 0 0 0 -309313195.39272308 372962417.28677368 0 372962417.28677368 -433595846.94534302 0 0 0 0 -275448623.57803011 477324376.53175735 0 477324376.53175735 -607610678.71865845 0 0 0 0 -248631396.46430969 340818866.82273865 0 340818866.82273865 -466023946.44281006 0 0 0 0 -355290230.83753252 610581269.68352246 0 610581269.68352246 -715001790.19897461 0 0 0 0 -356767690.93606567 468645862.42533875 0 468645862.42533875 -522099953.59384155 0 0 0 0 -458664959.46883202 576732466.24944305 0 576732466.24944305 -555406819.95687866 0 0 0 0 -286730182.99526978 513281934.41513062 0 513281934.41513062 -614364707.62634277 0 0 0 0 -528799939.53771973 719268557.4657135 0 719268557.4657135 -698639445.07748413 0 0 0 0 -435359120.75162125 537585246.92053223 0 537585246.92053223 -468981811.79514503 0 0 0 0 -275735978.20310307 354321715.83563995 0 354321715.83563995 -442042454.26165771 0 0 0 0 -410323823.7242012 853089634.64059448 0 853089634.64059448 -1005390997.6658783 0 0 0 0 -322397848.58793259 920520554.79756165 0 920520554.79756165 -964338126.46469116 0 0 0 0 -533364868.22050476 783558128.89512634 0 783558128.89512634 -754673924.45880127 0 0 0 0 -396396672.35685968 725775423.39389801 0 725775423.39389801 -875352155.96252441 0 0 0 0 -407690279.33070374 596170515.25456238 0 596170515.25456238 -716099649.01332092 0 0 0 0 -311253515.80279922 483814234.03430176 0 483814234.03430176 -593401025.2796936 0 0 0 0 -248445698.24893856 672661667.75556946 0 672661667.75556946 -804781769.7437439 0 0 0 0 -211636640.82552147 865018893.18112946 0 865018893.18112946 -940891761.54109192 0 0 0 0 -213107924.91172791 618863638.77033997 0 618863638.77033997 -748357979.99810791 0 0 0 0 -398561971.16711426 945951784.71760559 0 945951784.71760559 -937978394.46650696 0 0 0 0 -221539284.55018616 836211559.63421631 0 836211559.63421631 -988502849.64041138 0 0 0 0 41817832.826919556 614198596.60798645 0 614198596.60798645 -918883029.1501236 0 0 0 0 -99858214.293428421 477330926.3702774 0 477330926.3702774 -711588086.0975647 0 0 0 0 -74220881.054199219 467870167.75048828 0 467870167.75048828 -724309302.03570557 0 0 0 0 -147302349.04522324 352216738.47616577 0 352216738.47616577 -539357912.19499207 0 0 0 0 -216080969.06241989 478891080.64916992 0 478891080.64916992 -627194436.90252686 0 0 0 0 -101027341.39987946 539949134.54449463 0 539949134.54449463 -795769963.4886322 0 0 0 0 -45950286.95640707 337456946.08776855 0 337456946.08776855 -592841216.44067383 0 0 0 0 -111422652.12759781 381685734.19120789 0 381685734.19120789 -451793311.28875732 0 0 0 0 -81276142.803600311 342854412.68876648 0 342854412.68876648 -565892981.10760498 0 0 0 0 -6921482.6023330688 -3566173.2322692871 0 -3566173.2322692871 -4452152.852935791 0 0 0 0 -70190892.197071075 238713032.44989014 0 238713032.44989014 -632851593.86758423 0 0 0 0 41649834.537269592 212360.46728515625 0 212360.46728515625 -450100153.96008301 0 0 0 0 -159304878.83465195 271391443.88986206 0 271391443.88986206 -352503781.11854553 0 0 0 0 1802588.1036073174 300885.57928682864 0 300885.57928682864 -1138297.8263818026 0 0 0 0 -106842415.97363281 582826629.44915009 0 582826629.44915009 -559958178.03320312 0 0 0 0 2238773.8494479954 -771508.39993240684 0 -771508.39993240684 -1978161.7801426649 0 0 0 0 -159499191.37155914 349398230.45681763 0 349398230.45681763 -400203465.04994202 0 0 0 0 145235892.89174175 484695882.8678627 0 484695882.8678627 -1002559115.2905273 0 0 0 0 16793396.802833557 242836417.51742554 0 242836417.51742554 -472574296.01089478 0 0 0 0 103092948.98947906 246290549.52334595 0 246290549.52334595 -656907913.92162323 0 0 0 0 52006192.039047241 -78630084.472259521 0 -78630084.472259521 127038012.26837158 0 0 0 0 374251053.38392496 160704446.70921803 0 160704446.70921803 -871619810.5486145 0 0 0 0 397929405.31534958 -38960109.210617065 0 -38960109.210617065 -763950358.38452148 0 0 0 0 -137020427.53770447 599488252.50195312 0 599488252.50195312 -1105115419.4131889 0 0 0 0 -44734688.340450287 39672710.157669067 0 39672710.157669067 -1343151010.5799026 0 0 0 0 -379259949.91387939 413089384.99781799 0 413089384.99781799 -1539157549.7436371 0 0 0 0 -167240452.40611649 389352048.99731445 0 389352048.99731445 -1846681122.6906738 0 0 0 0 -461855189.0483551 1308738090.2851639 0 1308738090.2851639 -1558411096.4854279 0 0 0 0 -12996792.40842247 419839996.48968506 0 419839996.48968506 -1007629240.1119995 0 0 0 0 -76839088.567077637 808476444.46048737 0 808476444.46048737 -1218749291.4456177 0 0 0 0 -262715044.97369194 969390808.70098495 0 969390808.70098495 -1031548971.4858093 0 0 0 0 -279109979.8299408 936452337.82067871 0 936452337.82067871 -1016457807.5820007 0 0 0 0 -320176482.43771362 1051613579.9984589 0 1051613579.9984589 -1025274297.0696726 0 0 0 0 -567276357.21026039 877711691.37127686 0 877711691.37127686 -617977719.71661377 0 0 0 0 -298071856.09890747 1003967724.9522476 0 1003967724.9522476 -924448688.42428589 0 0 0 0 -417309104.6460228 983225226.73179626 0 983225226.73179626 -889840731.4937439 0 0 0 0 -1014411584.3414307 444603767.78312683 0 444603767.78312683 -121896643.00819016 0 0 0 0 -579116702.26078033 959352535.94682312 0 959352535.94682312 -826910471.3059845 0 0 0 0 -744461612.69234467 1060636460.6361694 0 1060636460.6361694 -813114841.50121117 0 0 0 0 -2083423015.898612 844266335.67142487 0 844266335.67142487 -207047230.80671692 0 0 0 0 -363142725.6456871 -164084960.11698914 0 -164084960.11698914 1038351.0590667725 0 0 0 0 -458666.69150561281 3435051.2725300472 0 3435051.2725300472 -6697424.9636127502 0 0 0 0 -1136349171.899168 1872598280.4059677 0 1872598280.4059677 -2351627018.2208405 0 0 0 0 -488910003.03464985 -114599660.67576599 0 -114599660.67576599 -3670582009.8655396 0 0 0 0 -2272499889.1982155 -210490810.25391388 0 -210490810.25391388 -1334170970.2651825 0 0 0 0 -913081238.08970261 284843393.47013855 0 284843393.47013855 -1175663329.9095306 0 0 0 0 -554659915.05382919 92351297.696762085 0 92351297.696762085 -665925767.20031738 0 0 0 0 -636389938.49302292 -125259649.99076843 0 -125259649.99076843 -911868173.72088623 0 0 0 0 -516271233.48812103 -196350170.5014801 0 -196350170.5014801 -830089798.79766846 0 0 0 0 -754626398.50395298 -205814646.38009644 0 -205814646.38009644 -341122379.92077637 0 0 0 0 -539511761.60539246 -410290811.59384155 0 -410290811.59384155 -614908770.03787231 0 0 0 0 -1189715735.6038132 -490812352.28129768 0 -490812352.28129768 -958119758.29473877 0 0 0 0 -295309549.12013531 -32382735.206832886 0 -32382735.206832886 -886239686.33242798 0 0 0 0 -312491567.33422852 -220939980.62940979 0 -220939980.62940979 -1926499704.995491 0 0 0 0 -176645004.83719254 -358058801.78323364 0 -358058801.78323364 -1101758999.194809 0 0 0 0 -159754325.70639038 -261983029.20965576 0 -261983029.20965576 -564478499.47488403 0 0 0 0 2884698.7058486938 237356530.95349121 0 237356530.95349121 -543420412.27548218 0 0 0 0 45869905.822143555 -319186593.6530304 0 -319186593.6530304 -682536148.51238632 0 0 0 0 -121861642.23800659 -395602388.47781372 0 -395602388.47781372 -669493928.83335876 0 0 0 0 -274220529.32244873 -506657515.8445816 0 -506657515.8445816 -490617208.54046631 0 0 0 0 -323380644.82139397 -441924541.09305573 0 -441924541.09305573 -409075799.94781494 0 0 0 0 -84579416.988210678 -310406195.60101318 0 -310406195.60101318 -478106342.63867188 0 0 0 0 -216211336.34880066 -453276765.82891846 0 -453276765.82891846 -388901831.8646698 0 0 0 0 -218284422.09794617 -440279683.08621216 0 -440279683.08621216 -419326366.45193481 0 0 0 0 -593928431.44892883 -443978963.62728882 0 -443978963.62728882 -590393404.16973877 0 0 0 0 -270295352.36153793 -417149026.81576538 0 -417149026.81576538 -598664182.90673065 0 0 0 0 -390279150.53097034 -247573052.30838013 0 -247573052.30838013 -441891151.55737305 0 0 0 0 -404190461.96668243 -482606111.3228302 0 -482606111.3228302 -369574180.98526001 0 0 0 0 -284751746.35507679 -516366073.57212353 0 -516366073.57212353 -304267274.23498535 0 0 0 0 -278264898.19533622 -367298292.30221653 0 -367298292.30221653 -265155621.47564697 0 0 0 0 -220310255.27458954 -442334457.31652832 0 -442334457.31652832 -228618838.1698761 0 0 0 0 -252449626.26506805 -489016390.15866089 0 -489016390.15866089 -250869472.4100647 0 0 0 0 -252766119.33855438 -472379541.59918213 0 -472379541.59918213 -309666042.60256958 0 0 0 0 -244279869.26909637 -443853731.48886108 0 -443853731.48886108 -420525286.34855652 0 0 0 0 -253873378.39798737 -500696227.99380493 0 -500696227.99380493 -348581176.23394775 0 0 0 0 -254740622.46550751 -445507199.87811279 0 -445507199.87811279 -216001512.90377808 0 0 0 0 -232488635.20420074 -532498826.78222656 0 -532498826.78222656 -253075924.84143066 0 0 0 0 -298716674.92349005 -488884315.86232376 0 -488884315.86232376 -233887715.1696167 0 0 0 0 -258306240.77828598 -531562557.2805481 0 -531562557.2805481 -195241007.79437256 0 0 0 0 -264967995.07732773 -506243277.56110764 0 -506243277.56110764 -191533730.71008301 0 0 0 0 -199945159.306633 -542590222.77444458 0 -542590222.77444458 -172407914.57026672 0 0 0 0 -205821985.39539528 -445738739.8914566 0 -445738739.8914566 -96846240.446960449 0 0 0 0 -32433172.221435547 -396306644.96000671 0 -396306644.96000671 -97065220.19934082 0 0 0 0 -144262250.79600525 -501499189.37597656 0 -501499189.37597656 -56662353.549377441 0 0 0 0 -184687768.00372314 -451497513.4649353 0 -451497513.4649353 -115687112.43955994 0 0 0 0 -125794775.0053215 -432592138.2381897 0 -432592138.2381897 -158131408.08111572 0 0 0 0 -246146125.81545258 -577926982.48873901 0 -577926982.48873901 -187838757.32141113 0 0 0 0 -313383391.30182743 -271272753.68425369 0 -271272753.68425369 -28830443.78125 0 0 0 0 -102461140.88736534 -217770093.63181496 0 -217770093.63181496 -32135109.565032959 0 0 0 0 -193963704.31335449 -339634705.73252869 0 -339634705.73252869 -76428643.202301025 0 0 0 0 -172673715.16387558 -487906338.73661804 0 -487906338.73661804 -198292061.91052246 0 0 0 0 -152348082.21588898 -294934363.32653809 0 -294934363.32653809 155735076.74475098 0 0 0 0 -140052942.24727631 -409786992.78128052 0 -409786992.78128052 -26857357.728088379 0 0 0 0 -114962690.86641407 -6436109.7146224976 0 -6436109.7146224976 114230904.25671387 0 0 0 0 -227418562.17585754 -267860223.33403015 0 -267860223.33403015 235221367.96273041 0 0 0 0 -398930835.72744751 -201775441.66493225 0 -201775441.66493225 30760246.652137756 0 0 0 0 -439639417.5780077 159398021.58162689 0 159398021.58162689 72014498.851379395 0 0 0 0 -238100029.03912544 67904988.402381897 0 67904988.402381897 -231141474.23040771 0 0 0 0 -615618456.5076046 -56447781.703899384 0 -56447781.703899384 -266283181.49432373 0 0 0 0 -356240519.71269226 -377325205.8764801 0 -377325205.8764801 -197216356.36697388 0 0 0 0 -336036599.43250084 -92122329.87852478 0 -92122329.87852478 -313794627.75726318 0 0 0 0 82907176.851119041 115052211.224823 0 115052211.224823 -539606619.38476562 0 0 0 0 -178892878.42111206 184321692.82502747 0 184321692.82502747 -25021976.608200073 0 0 0 0 -173087856.36145973 365094256.16296387 0 365094256.16296387 -477123885.2156601 0 0 0 0 -221379334.7236824 14241828.050262451 0 14241828.050262451 -269099543.60409546 0 0 0 0 -389640019.33839321 265268778.6084137 0 265268778.6084137 -570853756.73165894 0 0 0 0 -65723829.52114296 -14435630.094818115 0 -14435630.094818115 140649723.65531921 0 0 0 0 -257001825.10404396 263987586.98883438 0 263987586.98883438 357533197.37081909 0 0 0 0 72934441.496486664 249890182.92445374 0 249890182.92445374 -38460632.004104614 0 0 0 0 7059718.3234462738 162244061.47039795 0 162244061.47039795 285287129.26533508 0 0 0 0 286839150.75780058 358671717.24791336 0 358671717.24791336 -12254625.499755859 0 0 0 0 -2159278.56628147 2881385.97394697 0 2881385.97394697 -16549973.027391657 0 0 0 0 -1723877.2393372059 -7039298.8006439209 0 -7039298.8006439209 -1126167.3899726868 0 0 0 0 81564600.1473248 -25977030.265167236 0 -25977030.265167236 -108377282.00537109 0 0 0 0 75186192.330197364 343591195.37948537 0 343591195.37948537 -535884872.71588135 0 0 0 0 201918475.84661484 -7743892.8173675537 0 -7743892.8173675537 95722628.826343536 0 0 0 0 327191123.77903175 119062276.8974762 0 119062276.8974762 -1608435415.8812256 0 0 0 0 331301400.84322643 -409494142.58934021 0 -409494142.58934021 -833041024.35773849 0 0 0 0 258948728.12920117 -281130085.92033768 0 -281130085.92033768 202681227.13745117 0 0 0 0 -279370.1422050331 1962301.7400056832 0 1962301.7400056832 -13312869.325033665 0 0 0 0 480375346.69206715 98110073.606525421 0 98110073.606525421 -370848183.31336975 0 0 0 0 -80072446.139383793 -584759903.86531067 0 -584759903.86531067 -2556504469.0860291 0 0 0 0 -354910.00868462492 1050135.1807797104 0 1050135.1807797104 -1233589.1501569562 0 0 0 0 699073934.23123312 -315086858.30706024 0 -315086858.30706024 -2404069424.0263977 0 0 0 0 596788753.18024349 24273116.123321533 0 24273116.123321533 -3529592372.3081665 0 0 0 0 592300905.33426666 -73225574.696426392 0 -73225574.696426392 -1649727922.5679092 0 0 0 0 162365927.66954041 366366552.6091156 0 366366552.6091156 -1680521933.7552032 0 0 0 0 507986519.80729771 184157181.42710876 0 184157181.42710876 -2316619239.9407349 0 0 0 0 -72341790.969387054 161084465.03511047 0 161084465.03511047 -627151441.65175629 0 0 0 0 -8507231.9694385529 321965596.26423645 0 321965596.26423645 -836882283.38682556 0 0 0 0 323148656.1640048 10661367.321046591 0 10661367.321046591 -1350732016.1841736 0 0 0 0 -869579664.64624214 189531886.75871658 0 189531886.75871658 -578551760.0274353 0 0 0 0 -350857573.00470352 597752491.82034302 0 597752491.82034302 -1310367514.40625 0 0 0 0 164316085.22784233 341555198.57518005 0 341555198.57518005 -1565814280.032196 0 0 0 0 675564177.04954147 485835007.07298279 0 485835007.07298279 -3410966312.7310715 0 0 0 0 -973450640.53055429 1278274187.6026154 0 1278274187.6026154 -2292691868.5006256 0 0 0 0 512203450.57540321 164506976.85466576 0 164506976.85466576 -2053745119.7139282 0 0 0 0 694307116.62232113 137094185.35707855 0 137094185.35707855 -2311805459.2232361 0 0 0 0 800953960.33415031 161782151.00338745 0 161782151.00338745 -2085017776.3061218 0 0 0 0 156245033.4745388 -855542473.31377411 0 -855542473.31377411 -2472025099.7901001 0 0 0 0 42891019.237185001 -276517815.05986023 0 -276517815.05986023 -348229019.64910889 0 0 0 0 342659190.16852951 571430854.45934296 0 571430854.45934296 607860944.05685425 0 0 0 0 334722613.99411297 391347724.59413147 0 391347724.59413147 -189923464.69269753 0 0 0 0 767196.34128065221 9454761.7562064435 0 9454761.7562064435 -17347169.578781709 0 0 0 0 172962326.4292984 77829073.065864563 0 77829073.065864563 -194380777.64974976 0 0 0 0 380800396.88859725 -303159401.63404083 0 -303159401.63404083 158893363.85186768 0 0 0 0 1075438848.0696125 24628699.493717194 0 24628699.493717194 -953865457.92178345 0 0 0 0 434482360.25600958 328390058.18893433 0 328390058.18893433 -1064930037.8120117 0 0 0 0 335444483.37331164 -199730061.58690453 0 -199730061.58690453 -1077944145.5133972 0 0 0 0 129273369.98934793 200076980.26251221 0 200076980.26251221 -624347814.59133148 0 0 0 0 757505426.80434799 -76069461.110290527 0 -76069461.110290527 -1898342619.7926636 0 0 0 0 633828175.07572746 147206410.1696167 0 147206410.1696167 -1960358120.53302 0 0 0 0 440111202.40853143 103062286.58322144 0 103062286.58322144 -2523234831.0656738 0 0 0 0 540308462.72754383 397925682.73904419 0 397925682.73904419 -2471693478.875 0 0 0 0 -98503237.724849463 136861946.03723145 0 136861946.03723145 -2494371105.063385 0 0 0 0 -1273920608.9740784 45493028.910827637 0 45493028.910827637 -2235314465.6926045 0 0 0 0 -68780760.417076111 -101142519.57608032 0 -101142519.57608032 -2239886231.713222 0 0 0 0 -422117044.39485288 -316673736.5145874 0 -316673736.5145874 -1666601436.7515259 0 0 0 0 115025064.36783391 28685696.866256714 0 28685696.866256714 -2312845548.3137054 0 0 0 0 -295855746.09163177 -421503045.44047546 0 -421503045.44047546 -2724691618.8935089 0 0 0 0 -2225832.6218815744 -178391046.75416183 0 -178391046.75416183 -1630132640.8812256 0 0 0 0 -454827368.84289026 219219064.75006104 0 219219064.75006104 -1712521928.8540497 0 0 0 0 231026998.61194372 128562027.3263855 0 128562027.3263855 -1711011600.9593534 0 0 0 0 104961289.30937767 -141965625.7698822 0 -141965625.7698822 -788403525.62854767 0 0 0 0 -295240370.4858346 24235720.233024597 0 24235720.233024597 -852393255.49368286 0 0 0 0 -182475769.7936486 -66101834.732278824 0 -66101834.732278824 -220153662.99316406 0 0 0 0 -122201143.00224811 126349578.60991859 0 126349578.60991859 -144841628.85879517 0 0 0 0 -124896286.95588967 -121532250.75860596 0 -121532250.75860596 -476266724.68112183 0 0 0 0 -1006900.7461858392 9866612.5360870361 0 9866612.5360870361 -922100916.72565842 0 0 0 0 -163518670.02896032 -111361765.53977966 0 -111361765.53977966 -940076500.72450256 0 0 0 0 -87370.896669948706 106413597.33211517 0 106413597.33211517 -1019234266.695694 0 0 0 0 170232057.75926143 -134695382.57221985 0 -134695382.57221985 -2080680334.2329865 0 0 0 0 283399.14460229489 102230860.10962677 0 102230860.10962677 -1773342390.9022064 0 0 0 0 -8822903.567132324 -300646404.33047485 0 -300646404.33047485 -1372632273.7712402 0 0 0 0 198106344.84215027 339932510.37767029 0 339932510.37767029 -2166383634.822525 0 0 0 0 25218.015780663372 228313077.6383585 0 228313077.6383585 -1854630713.2696075 0 0 0 0 -458044.44004159677 1512310.764225997 0 1512310.764225997 -3430315.335159678 0 0 0 0 -9922574.4670615643 -11357860.100219727 0 -11357860.100219727 18837937.651924133 0 0 0 0 189303299.50752857 253419201.54349518 0 253419201.54349518 -2966214310.8450317 0 0 0 0 -718855361.0777061 1012454876.0155334 0 1012454876.0155334 -1425853211.6195068 0 0 0 0 -376359009.53149533 848447669.21556854 0 848447669.21556854 -4244119824.4885864 0 0 0 0 -331667.4153208253 868855.06619068608 0 868855.06619068608 -1891263.5677155256 0 0 0 0 -371088484.17580271 -1259146568.9995117 0 -1259146568.9995117 -4088386424.8551064 0 0 0 0 -156801.55957260967 2188275.5561071336 0 2188275.5561071336 -4815522.1191982776 0 0 0 0 -14644098.74846828 -3529630.3857116699 0 -3529630.3857116699 16238950.39245224 0 0 0 0 342491.2095168829 26050547.279777527 0 26050547.279777527 -35895310.057678223 0 0 0 0 -21889029.844667017 13705785.325515747 0 13705785.325515747 -37429050.5938797 0 0 0 0 -117658921.88369852 -55001077.242652893 0 -55001077.242652893 47225758.847442627 0 0 0 0 20271992.440922678 30273811.829444885 0 30273811.829444885 -26560675.946228027 0 0 0 0 14545731.411084145 9084426.8537445068 0 9084426.8537445068 -115066210.12962341 0 0 0 0 -279309.30822224298 117315.29964028299 0 117315.29964028299 76861.581998895854 0 0 0 0 -4263723.4688308835 -5287540.1128311157 0 -5287540.1128311157 11181833.779983521 0 0 0 0 4494729.2031971216 -2603549.205291748 0 -2603549.205291748 -1287491.254196167 0 0 0 0 -789799.50533864868 -26983.18924113363 0 -26983.18924113363 199976.37949722633 0 0 0 0 -2607976.0115995407 -2710761.3735656738 0 -2710761.3735656738 3988791.6685943604 0 0 0 0 17215765.53004232 7255034.5949707031 0 7255034.5949707031 -95979116.697834015 0 0 0 0 321104.17912625003 -1529731.7891363353 0 -1529731.7891363353 -5520669.3793572038 0 0 0 0 -168576.72579230272 -924776.07576689869 0 -924776.07576689869 -4765503.2177275009 0 0 0 0 -971154.18548373459 -3473029.4344482422 0 -3473029.4344482422 -19243991.267547607 0 0 0 0 151636.26671419322 -403015.80954109132 0 -403015.80954109132 -2553130.6673934609 0 0 0 0 -1079.3104433446226 -716771.6477355957 0 -716771.6477355957 -2569067.4802246094 0 0 0 0 91361.239565933385 -14661355.011230469 0 -14661355.011230469 -26001638.088623047 0 0 0 0 -6002623.6264661327 -8095161.3266601562 0 -8095161.3266601562 -134046471.2322998 0 0 0 0 -438395.97075856145 -949994.6275300011 0 -949994.6275300011 -2197828.631512396 0 0 0 0 60217.440781030258 32425116.297184642 0 32425116.297184642 -65243127.665100098 0 0 0 0 -14802848.512846842 37823633.389823914 0 37823633.389823914 -37524035.520904541 0 0 0 0 -7945605.7640074296 6448684.9992046356 0 6448684.9992046356 -54164005.317382812 0 0 0 0 14851754.58414226 7691487.5478897095 0 7691487.5478897095 -52346560.897796631 0 0 0 0 -11626259.647512097 -7173091.8611030579 0 -7173091.8611030579 -57216027.788391113 0 0 0 0 143338044.50941783 120636841.23189545 0 120636841.23189545 -279025524.6803894 0 0 0 0 -122139250.51878276 267249124.45097351 0 267249124.45097351 46283029.652077198 0 0 0 0 50703469.212768704 292497597.09463501 0 292497597.09463501 -422909489.44892883 0 0 0 0 419011.39789647085 132819718.43868256 0 132819718.43868256 -42254164.941986084 0 0 0 0 -267654565.78808245 414762356.98666382 0 414762356.98666382 -398409823.44521523 0 0 0 0 -2300896.4399624467 153494892.09815216 0 153494892.09815216 -881303864.0788269 0 0 0 0 -28325187.752028063 335578198.0062561 0 335578198.0062561 -319124420.60624313 0 0 0 0 276671662.36192524 115930660.46274567 0 115930660.46274567 -675157143.90925598 0 0 0 0 244386712.33251715 298811907.62011719 0 298811907.62011719 -211055654.15184021 0 0 0 0 388746276.38201642 -177826414.80059814 0 -177826414.80059814 -34459714.964019775 0 0 0 0 1481070.0246110128 -1573449.4764566161 0 -1573449.4764566161 -1191078.1421252191 0 0 0 0 730968786.83911002 -148684741.85596848 0 -148684741.85596848 22707444.172241211 0 0 0 0 339662437.6195296 -122165653.03620911 0 -122165653.03620911 120831564.54856873 0 0 0 0 726577065.38802099 -160917796.89894104 0 -160917796.89894104 -1825716.0749511719 0 0 0 0 104880426.50096154 205126198.65116882 0 205126198.65116882 33645129.59487915 0 0 0 0 493902646.78294641 48203880.696578979 0 48203880.696578979 20709675.328151703 0 0 0 0 452280909.45152104 292134063.47465515 0 292134063.47465515 373870104.26263428 0 0 0 0 108842127.9183431 97917721.755813599 0 97917721.755813599 287865875.29364014 0 0 0 0 815886108.49743605 -240282286.30754089 0 -240282286.30754089 58426394.514434814 0 0 0 0 1324156.5523525076 241623.4333678931 0 241623.4333678931 -1795626.8423665538 0 0 0 0 27699120.546017647 -4905287.4830322266 0 -4905287.4830322266 -4565423.8521728516 0 0 0 0 447263990.45347476 -23304238.863563538 0 -23304238.863563538 33521616.197509766 0 0 0 0 964587700.08188176 39180862.404342651 0 39180862.404342651 40991658.598735809 0 0 0 0 647571311.07884443 393777231.46111298 0 393777231.46111298 224960833.21694946 0 0 0 0 693436285.59529185 346254760.33399963 0 346254760.33399963 257308723.03033447 0 0 0 0 458010627.59825772 -12802961.377502441 0 -12802961.377502441 406984805.61312294 0 0 0 0 139443884.82645789 121025687.59059906 0 121025687.59059906 270556982.6184082 0 0 0 0 125168885.67586251 155161270.08685303 0 155161270.08685303 43441694.545970678 0 0 0 0 -66926499.943466984 225439415.77478027 0 225439415.77478027 254062792.54397583 0 0 0 0 50534804.437048256 80932742.661254883 0 80932742.661254883 316450805.98796844 0 0 0 0 -223594.66759306326 113470226.3051552 0 113470226.3051552 316840708.79278564 0 0 0 0 24066070.993254513 77394919.017776489 0 77394919.017776489 281056470.6996994 0 0 0 0 39480433.019759297 140308922.42036438 0 140308922.42036438 307328527.65019226 0 0 0 0 59476338.447948039 55056486.79486084 0 55056486.79486084 197264303.54269409 0 0 0 0 37415.599749102432 129574027.06106567 0 129574027.06106567 204890568.67236328 0 0 0 0 -73255986.145784885 51159389.633911133 0 51159389.633911133 43779726.218412399 0 0 0 0 78875123.360843837 100882927.00430298 0 100882927.00430298 45378850.97428894 0 0 0 0 -1632181.8491657563 -24330629.58555603 0 -24330629.58555603 -207736148.73352051 0 0 0 0 79416525.15313372 87166844.470596313 0 87166844.470596313 -418478784.23281479 0 0 0 0 -129252.87137157112 134706087.56987 0 134706087.56987 -200847140.02206421 0 0 0 0 153259276.95970917 245495734.93823242 0 245495734.93823242 -197439453.60256958 0 0 0 0 90602743.751117229 228183360.24317932 0 228183360.24317932 116315414.95681763 0 0 0 0 71244962.478852749 56267795.56086731 0 56267795.56086731 -265717614.9522438 0 0 0 0 -45595410.271377072 197822609.69888783 0 197822609.69888783 28418176.821609497 0 0 0 0 258594341.44542849 151638738.06816101 0 151638738.06816101 24966158.756530762 0 0 0 0 231639868.78026792 352867915.73790455 0 352867915.73790455 72615554.51550293 0 0 0 0 571993747.75238276 290255690.29001617 0 290255690.29001617 84131610.569046021 0 0 0 0 112221943.98355016 214050657.90361977 0 214050657.90361977 157718956.85644531 0 0 0 0 133031302.44341528 164623897.38560963 0 164623897.38560963 375535311.19436646 0 0 0 0 409797722.6564467 84793369.625656128 0 84793369.625656128 206957037.55609131 0 0 0 0 357816200.26884967 253315527.99648666 0 253315527.99648666 301760496.06137085 0 0 0 0 460878031.9041779 453405563.79129028 0 453405563.79129028 233443046.83721924 0 0 0 0 89985192.222518921 13924794.445281982 0 13924794.445281982 -69490148.527175903 0 0 0 0 58999613.427915573 34920549.9190979 0 34920549.9190979 63808786.21685791 0 0 0 0 82689970.219947815 91219493.140975952 0 91219493.140975952 -84475750.877044678 0 0 0 0 44577340.271884918 -42188700.012756348 0 -42188700.012756348 -9878410.7298583984 0 0 0 0 2341673.0366446204 4706908.1627402343 0 4706908.1627402343 -17293201.224268571 0 0 0 0 -8770910.0364837646 -32750816.289474487 0 -32750816.289474487 20580598.177856445 0 0 0 0 295103418.00103998 251293381.9812851 0 251293381.9812851 29361410.232513428 0 0 0 0 844562255.29613853 462171395.1247406 0 462171395.1247406 -14061517.67276001 0 0 0 0 475398554.64470863 476047220.48141479 0 476047220.48141479 74139105.474304199 0 0 0 0 524323661.20840132 354417537.07441711 0 354417537.07441711 -8250219.0751495361 0 0 0 0 362339033.31771135 578427464.86375427 0 578427464.86375427 443228725.83424759 0 0 0 0 510077166.23050308 -132671263.3978653 0 -132671263.3978653 10547807.355457306 0 0 0 0 9963514.2679972127 4045899.0065979362 0 4045899.0065979362 -11183048.153613195 0 0 0 0 14826465.199721813 12342324.347118378 0 12342324.347118378 -25710011.262451172 0 0 0 0 -41987094.081108093 -128117365.76434326 0 -128117365.76434326 51536539.997589111 0 0 0 0 1467246.8347236258 2412498.809154436 0 2412498.809154436 -4059899.7306195758 0 0 0 0 24165254.684274673 13975439.994384766 0 13975439.994384766 -40570088.604827881 0 0 0 0 4325366.3703804407 4896440.4645008296 0 4896440.4645008296 -19175597.00328967 0 0 0 0 5309714.1924586296 287488.76302337646 0 287488.76302337646 -27770990.572677612 0 0 0 0 18090398.334112167 8452078.1183624268 0 8452078.1183624268 -25865142.723083496 0 0 0 0 13000807.602072716 15009726.070426941 0 15009726.070426941 -4407526.4367218018 0 0 0 0 4315867.5638008118 33078249.917800903 0 33078249.917800903 29708960.868881226 0 0 0 0 17762555.234546185 6007773.9908065796 0 6007773.9908065796 -593310.98364257812 0 0 0 0 10169009.438335419 46232559.303436279 0 46232559.303436279 -12182497.147399902 0 0 0 0 18516731.854885101 27356045.593719482 0 27356045.593719482 7960408.9533691406 0 0 0 0 -10708398.500490189 29535914.344741821 0 29535914.344741821 16299875.966369629 0 0 0 0 24930663.225227356 7385521.6027526855 0 7385521.6027526855 29869697.533782959 0 0 0 0 73612436.046639442 64261674.850372314 0 64261674.850372314 91856145.536865234 0 0 0 0 22273580.365882874 46211257.647422791 0 46211257.647422791 102492006.05737305 0 0 0 0 -6221.3710878398269 74004.459448099136 0 74004.459448099136 -76281.200410785154 0 0 0 0 281347.86839353759 324402.31589572877 0 324402.31589572877 -494689.59505786747 0 0 0 0 36481953.322570801 -34370197.979125977 0 -34370197.979125977 -33797013.336791992 0 0 0 0 20989559.632537842 56678754.328125 0 56678754.328125 109973613.93701172 0 0 0 0 1052955.2370899636 -365036.00401457399 0 -365036.00401457399 -1260657.4329244364 0 0 0 0 -865109.54708099365 12503856.465805054 0 12503856.465805054 -10521906.955841064 0 0 0 0 -2856972.121175766 -1435566.1407928467 0 -1435566.1407928467 -11331561.182195663 0 0 0 0 2629801.8480065195 494614.34894648939 0 494614.34894648939 -3689441.1218486428 0 0 0 0 3064084.7139405105 -285980.03985557705 0 -285980.03985557705 -4152817.5365301818 0 0 0 0 29195899.093976974 5102793.7885360718 0 5102793.7885360718 -8729727.3051452637 0 0 0 0 28550717.372695923 -9149143.4630126953 0 -9149143.4630126953 -38522546.299438477 0 0 0 0 91604310.618347168 -1780469.0710144043 0 -1780469.0710144043 -15580462.2109375 0 0 0 0 43758053.512611389 -21730104.214172363 0 -21730104.214172363 12676413.969299316 0 0 0 0 -119402.90674321633 2096976.1336973682 0 2096976.1336973682 -1224822.1406179629 0 0 0 0 621007.87143707275 850828.22729492188 0 850828.22729492188 -591908.03747558594 0 0 0 0 1902411.3053358421 2384578.371452339 0 2384578.371452339 -12437627.42339305 0 0 0 0 5501899.8647011518 13562592.954067945 0 13562592.954067945 -24731065.728302002 0 0 0 0 145932.54770278931 4975090.2655181885 0 4975090.2655181885 -646083.12927246094 0 0 0 0 199802.02698543947 2017965.4507103823 0 2017965.4507103823 -128844.88051125407 0 0 0 0 1717449.734161377 2087394.1097412109 0 2087394.1097412109 1680680.8619384766 0 0 0 0 985330.23638948146 987054.13375742733 0 987054.13375742733 -19487.818408973515 0 0 0 0 1355890.2797622811 1087230.5554758683 0 1087230.5554758683 -6096795.0612734389 0 0 0 0 6720047.930566445 -39239716.586384773 0 -39239716.586384773 -11651414.216888428 0 0 0 0 6880665.1936720442 9523023.0563214421 0 9523023.0563214421 -10252313.629052565 0 0 0 0 -4719273.5528011322 -18426519.754089355 0 -18426519.754089355 -31998752.180274963 0 0 0 0 4478964.9524973053 -6262531.8130213339 0 -6262531.8130213339 -14561688.06772925 0 0 0 0 -20814009.83872366 -5287255.5756187439 0 -5287255.5756187439 -17002162.982299805 0 0 0 0 28084341.042501926 -26754142.377426147 0 -26754142.377426147 -13558254.760635376 0 0 0 0 16223589.929101944 -5867200.2793273926 0 -5867200.2793273926 -8599671.6542434692 0 0 0 0 -1199560.036781311 7816839.2708892822 0 7816839.2708892822 -34119476.52022171 0 0 0 0 7367602.2857570648 2035444.4424591064 0 2035444.4424591064 -33038372.16796875 0 0 0 0 47042844.585012436 -6713884.0980682373 0 -6713884.0980682373 -78730519.004547119 0 0 0 0 31868466.335747719 -37597311.40839386 0 -37597311.40839386 15543048.315948486 0 0 0 0 1843441.6349537596 418971.61553075165 0 418971.61553075165 -3339360.5144107714 0 0 0 0 -79407523.841239929 80486062.495117188 0 80486062.495117188 -51656709.889724731 0 0 0 0 983009.39614526276 -97586.808619894087 0 -97586.808619894087 -1304122.6457509696 0 0 0 0 -20849306.040426254 22494836.859970093 0 22494836.859970093 16741722.429412842 0 0 0 0 87243061.239134789 -152171396.90657043 0 -152171396.90657043 63974962.296630859 0 0 0 0 63468166.359886169 -27755823.431091309 0 -27755823.431091309 -66297721.8019104 0 0 0 0 53100624.443540573 135307299.61627197 0 135307299.61627197 35474677.227729797 0 0 0 0 -15589912.386796474 6036828.7968978882 0 6036828.7968978882 71790974.419311523 0 0 0 0 885295.35726231337 179142.16335391998 0 179142.16335391998 -1203433.7369602621 0 0 0 0 71601507.811952591 145101374.76939392 0 145101374.76939392 -45572260.797210693 0 0 0 0 20714676.850248337 -15760191.493560791 0 -15760191.493560791 -16806426.800933838 0 0 0 0 41605139.159936905 21599691.973144531 0 21599691.973144531 -4176712.8518066406 0 0 0 0 3945863.8583486024 3535093.2504579574 0 3535093.2504579574 -18322708.783588246 0 0 0 0 4385259.5795960426 16984843.018386841 0 16984843.018386841 123759958.76973534 0 0 0 0 -12594457.586042404 -14893913.091720581 0 -14893913.091720581 -10255537.584106445 0 0 0 0 1067106.0631918607 2872989.4078861997 0 2872989.4078861997 -64448.509792640805 0 0 0 0 7639962.7442588806 -2357498.1820678711 0 -2357498.1820678711 -2775922.4949951172 0 0 0 0 4736082.3529747957 5620408.6928842142 0 5620408.6928842142 -9963735.1653686017 0 0 0 0 11734028.755149841 -11749243.893760681 0 -11749243.893760681 1262814.5293579102 0 0 0 0 2888654.0265403674 -6778417.2375277355 0 -6778417.2375277355 -3373118.3262372613 0 0 0 0 4761896.7585800886 -1257274.5071890559 0 -1257274.5071890559 -5113555.8578651249 0 0 0 0 5272089.070936203 19358369.17477417 0 19358369.17477417 -45709408.207447052 0 0 0 0 19051099.027021408 11544799.354919434 0 11544799.354919434 -46609278.803390503 0 0 0 0 6425007.9605801925 -1669273.4081361964 0 -1669273.4081361964 -12237460.053487912 0 0 0 0 5640363.9000034332 10358456.658721924 0 10358456.658721924 -38694581.739883423 0 0 0 0 11961877.290838242 -997745.36288452148 0 -997745.36288452148 37082459.610534668 0 0 0 0 8678255.1205863953 -52577995.095359802 0 -52577995.095359802 6281070.0804443359 0 0 0 0 -61015726.913805008 -4871254.0474395752 0 -4871254.0474395752 37151224.550071955 0 0 0 0 137907346.27811217 -159586664.85414124 0 -159586664.85414124 163948687.47924805 0 0 0 0 45071141.996454716 14353817.943214417 0 14353817.943214417 12618392.019958496 0 0 0 0 1829031.1966530157 -1452484.0937568294 0 -1452484.0937568294 -2644685.3983163834 0 0 0 0 20451933.426138878 46910216.324668884 0 46910216.324668884 25354451.114013672 0 0 0 0 -105461586.57992077 28262394.425735474 0 28262394.425735474 45496711.603477478 0 0 0 0 -153386397.69913864 -118007924.24867249 0 -118007924.24867249 -8485199.3517799377 0 0 0 0 147065567.11852694 15579587.625152588 0 15579587.625152588 -459677236.77633667 0 0 0 0 56322491.163830757 -26536647.278747559 0 -26536647.278747559 -6181385.6797485352 0 0 0 0 83744532.035067558 -13758365.20929718 0 -13758365.20929718 -378692620.33828735 0 0 0 0 -67998496.195131302 3972849.5757293701 0 3972849.5757293701 49815492.895075798 0 0 0 0 36659486.095569611 -37332716.219619751 0 -37332716.219619751 -17328984.663132191 0 0 0 0 12439754.525009025 -3587839.8800892904 0 -3587839.8800892904 -16051871.864473986 0 0 0 0 109423.3003116874 1721589.0057880878 0 1721589.0057880878 -2003827.113483361 0 0 0 0 31019725.662320137 -7610716.8233642578 0 -7610716.8233642578 -19201031.036941528 0 0 0 0 11058175.005224705 -7839729.4129714966 0 -7839729.4129714966 -8192817.2672424316 0 0 0 0 21605012.280667305 -9580739.7945175171 0 -9580739.7945175171 -29636234.163833618 0 0 0 0 9096211.9429823365 -1245626.04483293 0 -1245626.04483293 -11088816.645460665 0 0 0 0 20372639.534511566 7763596.9372558594 0 7763596.9372558594 -31506840.067199707 0 0 0 0 52158518.656695366 -13444206.256633759 0 -13444206.256633759 -58694840.584991455 0 0 0 0 47220677.385504723 -4627475.8890838623 0 -4627475.8890838623 -12107044.057312012 0 0 0 0 -16936783.935360909 18865797.026077271 0 18865797.026077271 13955497.606666565 0 0 0 0 4839666.2518403465 -8661851.8873080127 0 -8661851.8873080127 -11076898.910357237 0 0 0 0 15016207.108451091 1612132.3965001479 0 1612132.3965001479 -10568105.201324452 0 0 0 0 159556513.29325485 66530477.83102417 0 66530477.83102417 12898626.928750515 0 0 0 0 8617654.5052577276 3587509.7144841254 0 3587509.7144841254 -4782562.3745053383 0 0 0 0 134032694.99618149 -194115914.50324249 0 -194115914.50324249 133055184.42543936 0 0 0 0 -282547644.12996054 80913194.429107666 0 80913194.429107666 341099840.39427567 0 0 0 0 146205060.09503365 -94826362.151977539 0 -94826362.151977539 -2511182.4406394958 0 0 0 0 2762637.0696217101 2014648.3604277223 0 2014648.3604277223 -1283089.3509976438 0 0 0 0 346151827.85033655 -451117658.69953489 0 -451117658.69953489 178195177.21881104 0 0 0 0 373745864.76441193 -164420093.5895462 0 -164420093.5895462 -56832950.83454895 0 0 0 0 217612707.07588053 -80661431.939675331 0 -80661431.939675331 -96858716.879440308 0 0 0 0 814258731.80910683 90762101.441261292 0 90762101.441261292 -131482290.4855423 0 0 0 0 934429288.8668499 -645813829.45904541 0 -645813829.45904541 -341523688.78436279 0 0 0 0 903708155.4569025 -186299647.664814 0 -186299647.664814 -685870750.52334595 0 0 0 0 132936846.17140198 138831366.53736877 0 138831366.53736877 -54303903.928215027 0 0 0 0 199840363.88685989 150287908.40731812 0 150287908.40731812 -55778347.37171936 0 0 0 0 238060250.6657095 63425946.492404938 0 63425946.492404938 -54442160.112182617 0 0 0 0 107185996.84564495 -40581381.249923706 0 -40581381.249923706 -7307283.265838623 0 0 0 0 29207002.514068604 1171807.8286743164 0 1171807.8286743164 -20613890.926422119 0 0 0 0 222639748.14362717 -49785786.979804993 0 -49785786.979804993 -20265227.598470688 0 0 0 0 62367979.969221115 24579120.612449646 0 24579120.612449646 43980001.4090271 0 0 0 0 48073360.158996582 -16441948.95223999 0 -16441948.95223999 -31069937.738777161 0 0 0 0 -17309354.125639915 -15966796.550262451 0 -15966796.550262451 13137629.330947876 0 0 0 0 24989245.282957077 -32416155.730743408 0 -32416155.730743408 -29069732.03604126 0 0 0 0 15553038.799887475 4034237.4200578928 0 4034237.4200578928 -9846998.6251109652 0 0 0 0 -4377356.3347263336 -6100624.2946853638 0 -6100624.2946853638 -49561481.135375977 0 0 0 0 37647602.603442192 -14678702.672409058 0 -14678702.672409058 -106463764.47338867 0 0 0 0 37715584.288726807 66174256.726715088 0 66174256.726715088 -59899874.711151123 0 0 0 0 18487805.264793396 54904716.354141235 0 54904716.354141235 -48805733.217964172 0 0 0 0 27490856.10533905 -42124133.960083008 0 -42124133.960083008 -56478606.298751831 0 0 0 0 1272971.7739562988 11088771.640419006 0 11088771.640419006 15317923.046066284 0 0 0 0 -316713.34556049109 4597636.2889985889 0 4597636.2889985889 -5022645.8982605785 0 0 0 0 -3767190.3152236938 23910284.856414795 0 23910284.856414795 11476351.471893311 0 0 0 0 -6800754.3794895709 5454082.0994076952 0 5454082.0994076952 -256407.13571932912 0 0 0 0 -20577412.485855103 -38921865.526008606 0 -38921865.526008606 2124545.5859680176 0 0 0 0 18489234.567281723 -12103436.260604858 0 -12103436.260604858 6006388.0504608154 0 0 0 0 -7865524.9843902588 12949659.14239502 0 12949659.14239502 25348001.898651123 0 0 0 0 -146287.31996581145 4177513.7546249181 0 4177513.7546249181 -3971344.9685260318 0 0 0 0 -4884299.539770795 10461267.553884719 0 10461267.553884719 -7461982.4705692604 0 0 0 0 2367029.2703552246 7782654.8080444336 0 7782654.8080444336 2820209.014175415 0 0 0 0 2423568.4644393921 7322673.8211975098 0 7322673.8211975098 3668624.4549865723 0 0 0 0 487406.74933482055 562778.11907950789 0 562778.11907950789 756153.54077254981 0 0 0 0 4756752.1045837402 6385741.29296875 0 6385741.29296875 5929961.5401916504 0 0 0 0 201241.31207981799 688875.00657850504 0 688875.00657850504 515430.50980401039 0 0 0 0 11498561.546707153 16165694.626525879 0 16165694.626525879 643484.6376953125 0 0 0 0 -10798321.369041443 -152596.84149169922 0 -152596.84149169922 25925229.609375 0 0 0 0 17644827.179058075 8124160.0917663574 0 8124160.0917663574 -11331880.17578125 0 0 0 0 12084566.534076691 -7234300.5277709961 0 -7234300.5277709961 -35831107.519500732 0 0 0 0 19489727.977550507 10845492.266845703 0 10845492.266845703 -25996372.012393951 0 0 0 0 786064.29600524902 -3195591.5793457031 0 -3195591.5793457031 -2335950.6052856445 0 0 0 0 16026574.820842743 2491649.7391967773 0 2491649.7391967773 -26519017.03314209 0 0 0 0 22053432.806228638 13281928.010421753 0 13281928.010421753 -45792165.406898499 0 0 0 0 16883511.547592163 3513002.7739562988 0 3513002.7739562988 -64247702.013465881 0 0 0 0 4903592.3701963425 -15870303.014678955 0 -15870303.014678955 -55080181.170837402 0 0 0 0 -1248772.5359668732 -9648012.1651306152 0 -9648012.1651306152 -18741187.152587891 0 0 0 0 19274593.438408852 22285217.415988922 0 22285217.415988922 -5389660.6383361816 0 0 0 0 422118.562358208 230129.68285028636 0 230129.68285028636 -210646.09448860586 0 0 0 0 406170.17623243574 279741.2054534927 0 279741.2054534927 -29101.70482327044 0 0 0 0 -66597855.003456116 3938898.1928100586 0 3938898.1928100586 -45736091.259124756 0 0 0 0 -62160837.079471588 6926500.2911987305 0 6926500.2911987305 19635860.901000977 0 0 0 0 -40940589.404485703 44160622.302978516 0 44160622.302978516 1951186.6806030273 0 0 0 0 35412980.691059113 27221954.747802734 0 27221954.747802734 -3541621.4364013672 0 0 0 0 -10692516.277131081 75356831.047904968 0 75356831.047904968 -53568332.685516357 0 0 0 0 6043045.0548828803 724486.85555267334 0 724486.85555267334 -7042102.9955310598 0 0 0 0 -334582577.75552368 143227707.80860901 0 143227707.80860901 32269712.342330933 0 0 0 0 -65739455.643417358 140876778.04777527 0 140876778.04777527 -220060933.85130501 0 0 0 0 -82258180.953286171 786524985.88943863 0 786524985.88943863 -1064585397.9476624 0 0 0 0 -198655095.46508026 913705417.2510376 0 913705417.2510376 -1190612084.6755981 0 0 0 0 -219297522.09039593 658450994.82293701 0 658450994.82293701 -761308248.29864502 0 0 0 0 -55832063.830396652 467806416.34052277 0 467806416.34052277 -605824924.98823619 0 0 0 0 -141057699.71252823 94662261.04649353 0 94662261.04649353 -299478821.76055908 0 0 0 0 2317764.1962291747 -597695.55046793818 0 -597695.55046793818 -5721092.4052837417 0 0 0 0 1782290.6337852478 4913231.0655517578 0 4913231.0655517578 -13830159.254272461 0 0 0 0 33095016.678355694 14870621.93289566 0 14870621.93289566 -17484847.184814453 0 0 0 0 17865606.824897766 1186169.3735961914 0 1186169.3735961914 -20735536.878173828 0 0 0 0 -570063.41644072533 -239236.1048470065 0 -239236.1048470065 808330.70250862092 0 0 0 0 -7023017.6998977661 5926397.036895752 0 5926397.036895752 -13845003.574645996 0 0 0 0 -5111739.6673448272 5840509.8492505699 0 5840509.8492505699 -2096962.2369225845 0 0 0 0 76527440.461849213 121364596.7129364 0 121364596.7129364 -1578900715.179718 0 0 0 0 746781940.72107697 485909240.24349976 0 485909240.24349976 -9671081.4877929688 0 0 0 0 -42784.61554935202 171641.57311050594 0 171641.57311050594 -333205.82980039716 0 0 0 0 247205294.10848618 40955971.724822998 0 40955971.724822998 37105206.843650818 0 0 0 0 240727233.09642029 49146242.728897095 0 49146242.728897095 32796657.406463623 0 0 0 0 981132096.06735229 -9053643.881362915 0 -9053643.881362915 -57853788.95262146 0 0 0 0 80459267.214912415 -191726432.71294403 0 -191726432.71294403 72541568.924819946 0 0 0 0 -92166301.953079224 92648078.100570679 0 92648078.100570679 55749926.265838623 0 0 0 0 -30997624.452358246 -13827486.381278992 0 -13827486.381278992 127900789.07447815 0 0 0 0 -131227357.44939804 160920168.35626221 0 160920168.35626221 23832649.13697052 0 0 0 0 14794705.082420349 93223662.842582703 0 93223662.842582703 -243215411.74583435 0 0 0 0 132836387.74295616 125652318.02777863 0 125652318.02777863 -25601764.660476685 0 0 0 0 10400397.33743348 1494381.0493970141 0 1494381.0493970141 -4776196.2180940388 0 0 0 0 980570324.27301407 -344581679.0244751 0 -344581679.0244751 -158901163.74090576 0 0 0 0 517376804.4439621 795101781.19173813 0 795101781.19173813 849057660.12818909 0 0 0 0 3829482.2614246309 343020.6057003364 0 343020.6057003364 -1392395.1102861604 0 0 0 0 -72868597.317056656 524445229.00511932 0 524445229.00511932 1157382939.2439041 0 0 0 0 1407515529.266819 1529287702.1797791 0 1529287702.1797791 -7871856.7483520508 0 0 0 0 -85525787.185590744 275350565.15253448 0 275350565.15253448 -183100319.42897224 0 0 0 0 -458889439.30271816 1758522180.7570915 0 1758522180.7570915 -333753612.13801575 0 0 0 0 10100977.023015976 975255554.97893143 0 975255554.97893143 90432957.383087158 0 0 0 0 2107863462.7668304 302243899.94161224 0 302243899.94161224 -409896462.28979492 0 0 0 0 817621458.40288448 368270641.67385483 0 368270641.67385483 -319515866.80712891 0 0 0 0 599864870.11499023 898721935.33102417 0 898721935.33102417 -38308901.692825317 0 0 0 0 646329185.19401932 551075766.39897156 0 551075766.39897156 33248167.73248291 0 0 0 0 579123353.07919121 218765763.92105484 0 218765763.92105484 323031157.53417969 0 0 0 0 27834704.278839111 972403805.92178345 0 972403805.92178345 870567687.21698761 0 0 0 0 -1256338.1905567758 923034.91442149878 0 923034.91442149878 -2316802.9825248979 0 0 0 0 42725239.854785919 377176614.11825562 0 377176614.11825562 -2369889252.2072144 0 0 0 0 181302957.54467392 482951373.72543335 0 482951373.72543335 1226473016.8208542 0 0 0 0 -564802831.16845798 1477164374.5649605 0 1477164374.5649605 -1437757843.4372864 0 0 0 0 -581034929.42090607 1647982945.1190796 0 1647982945.1190796 124577354.51371765 0 0 0 0 -753131753.08362353 751794564.13526988 0 751794564.13526988 -866132156.47879028 0 0 0 0 -569820286.40185165 878960357.82414246 0 878960357.82414246 -822051286.0560112 0 0 0 0 -198344918.87275696 951435789.16175842 0 951435789.16175842 -2148906343.1099854 0 0 0 0 -738513933.83544874 1281197695.3168926 0 1281197695.3168926 -1235504819.578949 0 0 0 0 -693051708.94150925 742496739.69274902 0 742496739.69274902 -580733167.81662178 0 0 0 0 -433911183.26358414 508910483.4187851 0 508910483.4187851 -541384102.37857056 0 0 0 0 -632279827.40423584 946816410.15717316 0 946816410.15717316 -888813778.08096313 0 0 0 0 -501172081.18458748 731130232.32652283 0 731130232.32652283 -697480276.68736267 0 0 0 0 -617518202.30477715 1282082625.4097786 0 1282082625.4097786 -470548319.70457458 0 0 0 0 -553212003.06913948 617856626.549263 0 617856626.549263 -505048641.92356873 0 0 0 0 -1218459173.7613273 559434468.5508728 0 559434468.5508728 -509399074.7958374 0 0 0 0 -1060659630.9585218 826049606.54078293 0 826049606.54078293 -293351911.70587158 0 0 0 0 -1361852801.2572708 1091330127.1293259 0 1091330127.1293259 -180551160.07736206 0 0 0 0 -2701401500.885788 241222452.39560699 0 241222452.39560699 -232559221.03014088 0 0 0 0 -1132908424.8206334 -620756039.3398056 0 -620756039.3398056 -2475350832.1363525 0 0 0 0 -413634511.0157671 596080106.14838028 0 596080106.14838028 -545283065.75900269 0 0 0 0 -784676112.37959814 1511251885.8806725 0 1511251885.8806725 -2122518429.1974792 0 0 0 0 -2726987108.4815559 -595870225.20532227 0 -595870225.20532227 -119026321.6403656 0 0 0 0 -258579.56414115755 -832437.51592314616 0 -832437.51592314616 -7633467.8444889337 0 0 0 0 -1343136720.3902349 1758166261.234848 0 1758166261.234848 -1883613385.8166046 0 0 0 0 2151341242.3131218 673598558.58579636 0 673598558.58579636 -1140609668.9299164 0 0 0 0 881005201.90603065 -342969356.05007935 0 -342969356.05007935 -1029590823.9217653 0 0 0 0 454339295.6712513 -258615244.16697693 0 -258615244.16697693 -700636120.45874023 0 0 0 0 243235422.73837662 -1142775574.1066742 0 -1142775574.1066742 -2518636455.7532864 0 0 0 0 1076684148.4096794 -1007907530.5197678 0 -1007907530.5197678 -430058215.1087265 0 0 0 0 871658307.9290657 -292176962.02400208 0 -292176962.02400208 -837072934.23210144 0 0 0 0 439101637.35568428 -1040666419.5049057 0 -1040666419.5049057 1317042668.9248199 0 0 0 0 729949405.90755653 -1202565042.9870758 0 -1202565042.9870758 56029535.855690002 0 0 0 0 -272415630.91458511 -246952384.4701767 0 -246952384.4701767 863291914.24021912 0 0 0 0 -1220214271.2142239 -139822481.68510437 0 -139822481.68510437 246399954.80098057 0 0 0 0 95288.563398166094 -3534663.3311924897 0 -3534663.3311924897 -21748728.078759104 0 0 0 0 331401058.63714147 303728609.81766224 0 303728609.81766224 -601600416.44424438 0 0 0 0 -381088526.25835514 -585634578.57401657 0 -585634578.57401657 -146855061.56387329 0 0 0 0 -86458860.957115173 -387082942.14723206 0 -387082942.14723206 -2478783.2136669159 0 0 0 0 -94831989.369539261 -335110913.63829422 0 -335110913.63829422 -321371574.01864624 0 0 0 0 1599324.3054277974 -6051885.2120941412 0 -6051885.2120941412 -34833164.253842324 0 0 0 0 -168897357.42557669 -448249084.29988861 0 -448249084.29988861 -47424637.776855469 0 0 0 0 517726061.83527708 27609602.625526428 0 27609602.625526428 -7860153.4218139648 0 0 0 0 -144119273.82151413 -560933068.36364746 0 -560933068.36364746 160271720.40495491 0 0 0 0 -68276448.944496155 -577075594.12322998 0 -577075594.12322998 -165007588.8324585 0 0 0 0 -21638432.287502289 -628614854.84539795 0 -628614854.84539795 -371767437.15031433 0 0 0 0 297497436.43511581 -197198089.67548752 0 -197198089.67548752 -742212048.58377075 0 0 0 0 1049921627.3339849 -449890623.66472054 0 -449890623.66472054 -767644633.77197266 0 0 0 0 556365302.7242012 -523941774.99449158 0 -523941774.99449158 -658315988.45880127 0 0 0 0 146820722.74835587 -77277859.414291382 0 -77277859.414291382 -1011610991.6266479 0 0 0 0 206940549.08973694 -285291393.74719238 0 -285291393.74719238 -457413263.83512878 0 0 0 0 139941111.39750671 7794014.7546463013 0 7794014.7546463013 -1010110107.9247894 0 0 0 0 -347000.28010091558 2946884.3639758751 0 2946884.3639758751 -737843.20669114962 0 0 0 0 -109513632.51209831 226576921.99298096 0 226576921.99298096 -295447998.62353516 0 0 0 0 130511920.53253174 166564161.52589417 0 166564161.52589417 -659009334.05392456 0 0 0 0 58647022.93309021 -7788939.0598602295 0 -7788939.0598602295 -735682417.47116089 0 0 0 0 131003808.06192017 133761500.38580322 0 133761500.38580322 -834254119.70555115 0 0 0 0 57393790.149863243 20611548.243293762 0 20611548.243293762 -568702359.57174683 0 0 0 0 -2047937.5442738403 5649095.2467847914 0 5649095.2467847914 -1159037.4905552827 0 0 0 0 56075988.336556911 -122377913.03542709 0 -122377913.03542709 219028572.78320312 0 0 0 0 -2327574.7840857692 3711089.9345722273 0 3711089.9345722273 6471578.1499443352 0 0 0 0 54558590.9668293 137345572.53868103 0 137345572.53868103 148054992.15014648 0 0 0 0 -54039578.196960449 76887018.885375977 0 76887018.885375977 94863086.980987549 0 0 0 0 -56280869.906997681 17072919.311256409 0 17072919.311256409 184195348.47610664 0 0 0 0 -37051163.449908733 142809049.32103157 0 142809049.32103157 156535950.97006226 0 0 0 0 -70659684.335263252 218566454.9406395 0 218566454.9406395 -1033261.5400390625 0 0 0 0 -29196149.649230957 63791655.779983521 0 63791655.779983521 91661871.284164429 0 0 0 0 -143854635.37288666 90763493.82093811 0 90763493.82093811 136205102.13539124 0 0 0 0 -32010268.766578674 168440586.54072571 0 168440586.54072571 -774423638.92292786 0 0 0 0 -110919115.77149582 33418178.016998291 0 33418178.016998291 -67135661.397045135 0 0 0 0 4829378.8425978255 -6924958.3750176858 0 -6924958.3750176858 -47708666.948269203 0 0 0 0 530090869.20440102 -136681334.69099426 0 -136681334.69099426 -503635971.81100464 0 0 0 0 1298133829.0787778 322840206.59245872 0 322840206.59245872 161183388.22445679 0 0 0 0 11915362.409422155 -2844815.3691815138 0 -2844815.3691815138 -60780280.803356588 0 0 0 0 1821130076.6989059 -376761440.49965286 0 -376761440.49965286 -1478540526.7442932 0 0 0 0 206965161.07876587 150650179.80996704 0 150650179.80996704 -9929240.3836669922 0 0 0 0 18469783.72352007 24158754.005462788 0 24158754.005462788 -11305430.727312248 0 0 0 0 43556154.025062561 65039421.875144958 0 65039421.875144958 -8293291.2025604248 0 0 0 0 153968505.32061112 -596001273.79942322 0 -596001273.79942322 -1899200476.9978638 0 0 0 0 -829165396.06659651 358644681.0318985 0 358644681.0318985 1069389179.4334106 0 0 0 0 -167383866.19112164 911490540.86869049 0 911490540.86869049 -3011100848.4009094 0 0 0 0 2464568.3589312737 7818878.0959440516 0 7818878.0959440516 -9451311.7727224305 0 0 0 0 658978084.45497215 43935085.498962402 0 43935085.498962402 -5871704136.9802856 0 0 0 0 513395654.84459019 412143015.93970394 0 412143015.93970394 -2874906080.4458466 0 0 0 0 517191318.54846847 -1315589463.4748993 0 -1315589463.4748993 -4807981259.9653854 0 0 0 0 1001522648.1955391 -1595049243.5255051 0 -1595049243.5255051 -5982954265.6113129 0 0 0 0 273571219.3406812 -1667325222.8386917 0 -1667325222.8386917 -5723639190.6885834 0 0 0 0 569577332.14494336 -1038437551.0529327 0 -1038437551.0529327 -5088973781.7341995 0 0 0 0 -3166335505.6152816 -2850296619.3122559 0 -2850296619.3122559 -5989805019.5301361 0 0 0 0 -2593639200.9328961 -3333791620.5574875 0 -3333791620.5574875 -1970421697.8739471 0 0 0 0 -1605415899.2238607 -1188818366.8881226 0 -1188818366.8881226 855720707.11871338 0 0 0 0 322760924.7470336 -2216931787.4705124 0 -2216931787.4705124 -4254538394.8608704 0 0 0 0 317266601.10204899 -2582463668.2793274 0 -2582463668.2793274 -6003140936.455719 0 0 0 0 520659639.92000753 -857615692.13836861 0 -857615692.13836861 -3809088804.1316528 0 0 0 0 -177743620.99932671 -1471220821.3017349 0 -1471220821.3017349 -2871295565.4965363 0 0 0 0 -544978678.56646705 -528080322.73034668 0 -528080322.73034668 -950300813.98294067 0 0 0 0 -366177447.32615852 -765188623.55270386 0 -765188623.55270386 -1734992439.8397284 0 0 0 0 -818342462.379704 -195150329.43174362 0 -195150329.43174362 -215885217.63432312 0 0 0 0 -244294009.67197275 240753244.90262985 0 240753244.90262985 100563731.35975647 0 0 0 0 371133478.38903475 464669726.13473129 0 464669726.13473129 21104956.683120728 0 0 0 0 65266079.884154439 -153038057.71295547 0 -153038057.71295547 -1207122307.8656006 0 0 0 0 -257165472.30246815 497833656.19173431 0 497833656.19173431 178933551.92114258 0 0 0 0 447090525.19489914 166904385.94849396 0 166904385.94849396 -1493260356.6027832 0 0 0 0 12566096.321923412 27966570.540841743 0 27966570.540841743 -5665616.6424470246 0 0 0 0 29649462.355825424 -7191319.4851837158 0 -7191319.4851837158 68141858.969894409 0 0 0 0 -298594973.47261095 -12648055.655006409 0 -12648055.655006409 720865782.5740509 0 0 0 0 8101373.4960094951 14645727.65225938 0 14645727.65225938 -14958322.974068746 0 0 0 0 6681516.3972330093 11426752.678184509 0 11426752.678184509 -4394000.3279800415 0 0 0 0 4646423.4468870452 9654005.6118940264 0 9654005.6118940264 -6498653.8850816004 0 0 0 0 -1580102.6047172546 41670274.231399536 0 41670274.231399536 185124921.8731308 0 0 0 0 8341817.849501133 5504570.8113021851 0 5504570.8113021851 -13036456.454956055 0 0 0 0 4567317.6142816544 7437703.4922637939 0 7437703.4922637939 -6135615.4154815674 0 0 0 0 9285854.1890966892 5689300.4298210144 0 5689300.4298210144 -8369181.2170715332 0 0 0 0 7759457.5020056963 10286995.239643097 0 10286995.239643097 -3643956.0129699707 0 0 0 0 643081042.13569069 -346151688.28030396 0 -346151688.28030396 60301280.994651794 0 0 0 0 551507279.76706362 201603212.21415901 0 201603212.21415901 -223353550.6633606 0 0 0 0 446930219.74319458 -19590256.956802368 0 -19590256.956802368 -452981729.52149963 0 0 0 0 467178693.15882206 260136394.87243652 0 260136394.87243652 -378354660.72642517 0 0 0 0 11804134.174823945 6261029.5156509578 0 6261029.5156509578 -21009549.613160811 0 0 0 0 11659231.691459656 8617888.5066432953 0 8617888.5066432953 -5948997.0596618652 0 0 0 0 12426268.770735741 11729515.470687866 0 11729515.470687866 -4456973.5274543762 0 0 0 0 6172271.7105318634 9095090.3782339245 0 9095090.3782339245 -20200220.32810732 0 0 0 0 -3165066.3144582161 -6170498.1640090346 0 -6170498.1640090346 -13633289.282658402 0 0 0 0 20428.938374747813 1535259.2719899826 0 1535259.2719899826 -3664902.5813364238 0 0 0 0 469669528.03345418 1020736475.4989548 0 1020736475.4989548 -5515029802.4479294 0 0 0 0 -162206842.05142868 -3591428024.381958 0 -3591428024.381958 -5976878131.9706497 0 0 0 0 -465431885.27446687 -1319358791.318779 0 -1319358791.318779 -3742172944.0679092 0 0 0 0 -2354993.367962304 -1942559.9515975341 0 -1942559.9515975341 -4129189.6429321393 0 0 0 0 227901118.01559269 262865961.98431396 0 262865961.98431396 -7809000983.6436996 0 0 0 0 579388107.48859465 1843496550.8602982 0 1843496550.8602982 -5973435399.2195435 0 0 0 0 881066520.34460795 288494418.68359375 0 288494418.68359375 -2942828356.4073486 0 0 0 0 5933320.5839787722 5132877.7570266724 0 5132877.7570266724 -5509987.6725463867 0 0 0 0 -1243178142.3479097 1784149656.986145 0 1784149656.986145 -2726975102.4834442 0 0 0 0 -5449424752.8572836 2220918994.0310059 0 2220918994.0310059 2100843540.8930664 0 0 0 0 2466146.2888551359 7508298.2131805001 0 7508298.2131805001 -2092068.4636450261 0 0 0 0 2372067.015999611 6208252.1834585369 0 6208252.1834585369 -768773.29696765542 0 0 0 0 -425664668.31267154 -186854766.09778595 0 -186854766.09778595 545643479.82415771 0 0 0 0 3612639.3765805084 13945202.887456506 0 13945202.887456506 -8619124.0747142136 0 0 0 0 -167176417.75017416 -180078578.02104187 0 -180078578.02104187 210412633.50141144 0 0 0 0 132784866.85425478 939607753.49947929 0 939607753.49947929 -2522548056.5672455 0 0 0 0 869037.70424796827 14727077.527106628 0 14727077.527106628 -5933451.4772068486 0 0 0 0 -8414705.0232064724 19799530.290977478 0 19799530.290977478 10756699.143585205 0 0 0 0 12003127.919718742 8354379.3574752808 0 8354379.3574752808 -5757755.9139862061 0 0 0 0 6606386.3410764486 8742222.3132491522 0 8742222.3132491522 -16644380.327593759 0 0 0 0 36497226.466906548 39893952.534606934 0 39893952.534606934 -25561486.703308105 0 0 0 0 -14651346.98661685 45234024.173980713 0 45234024.173980713 -4394868.2268371582 0 0 0 0 8437343.8450403214 7127895.2595367432 0 7127895.2595367432 -9031368.3578453064 0 0 0 0 152467909.56611443 28205710.92225647 0 28205710.92225647 -102416613.06069946 0 0 0 0 6170223.7427622164 2430802.4663514923 0 2430802.4663514923 -15882663.074832454 0 0 0 0 88511316.386325836 7827982.5217895508 0 7827982.5217895508 -6868562.7606544495 0 0 0 0 133753179.61515045 52051396.591064453 0 52051396.591064453 -105717842.71848297 0 0 0 0 192537652.39426804 -46062055.570739746 0 -46062055.570739746 29115676.233886719 0 0 0 0 -67539635.025808334 25370794.293804169 0 25370794.293804169 11202545.332824707 0 0 0 0 -9220415.8329365868 7115040.27066724 0 7115040.27066724 5302430.0868245363 0 0 0 0 -21300744.144170761 111673216.9100647 0 111673216.9100647 -80840096.53213501 0 0 0 0 34496675.409179688 -63399899.335617065 0 -63399899.335617065 369813707.23498535 0 0 0 0 117753756.39781427 191891818.19011784 0 191891818.19011784 136408591.43093872 0 0 0 0 137202866.02488196 38156096.247761726 0 38156096.247761726 -10847603.186859131 0 0 0 0 252460512.98699141 -717617481.44992065 0 -717617481.44992065 -476216531.19348145 0 0 0 0 198591966.35375023 -212203007.11054993 0 -212203007.11054993 -835516862.46026611 0 0 0 0 108170646.97602654 -536096168.73937988 0 -536096168.73937988 -1159343503.2694092 0 0 0 0 -1724472614.9035368 1710240765.9590683 0 1710240765.9590683 518379661.26571655 0 0 0 0 142978107.42231369 -843263546.22384644 0 -843263546.22384644 -3917452243.2258606 0 0 0 0 -2567066791.1291695 -761889657.5668335 0 -761889657.5668335 63547066.978271484 0 0 0 0 451809098.25940895 -246198160.85099792 0 -246198160.85099792 -21895944.630233765 0 0 0 0 -1647427.8964691956 2331416.4092610031 0 2331416.4092610031 -3085809.8305472881 0 0 0 0 178666965.28063864 2082647221.7945747 0 2082647221.7945747 279125754.05755615 0 0 0 0 -492382782.41804123 -26089024.682670593 0 -26089024.682670593 1772103605.247467 0 0 0 0 1309670.075554573 2658905.7060998157 0 2658905.7060998157 -1349303.682698749 0 0 0 0 -282180067.68766022 -292298591.4085083 0 -292298591.4085083 421104843.38787842 0 0 0 0 -6750106.8198575201 6738292.0278485119 0 6738292.0278485119 -18590.364076077938 0 0 0 0 -149845.68790775962 1594704.5628952202 0 1594704.5628952202 275548.93611517549 0 0 0 0 -360145692.71910477 475861346.77798462 0 475861346.77798462 2372426365.2052002 0 0 0 0 543984256.57040918 316173454.83537292 0 316173454.83537292 153737895.56298828 0 0 0 0 -18196.828726703767 131398.49287400395 0 131398.49287400395 -408861.13548964262 0 0 0 0 -4076947.0750383278 7054443.5395940319 0 7054443.5395940319 -969066.31410382688 0 0 0 0 1191825.4220391824 8594692.2645414844 0 8594692.2645414844 -2681765.8877913877 0 0 0 0 22373856.118110657 -56842548.168273926 0 -56842548.168273926 178793787.90667725 0 0 0 0 329145324.2003808 578807920.43740845 0 578807920.43740845 -264585012.46517944 0 0 0 0 -15557147.819198608 -94290266.167205811 0 -94290266.167205811 154827193.96955109 0 0 0 0 -128270829.41753197 103011989.6920929 0 103011989.6920929 155458736.43437195 0 0 0 0 81515874.535205841 20700092.6822052 0 20700092.6822052 -12966501.691131592 0 0 0 0 103041799.99496698 205259366.58708954 0 205259366.58708954 -689771957.58651733 0 0 0 0 -188563590.23718452 429321718.43460083 0 429321718.43460083 -557349057.65594482 0 0 0 0 32282021.372957945 -48464937.9662323 0 -48464937.9662323 76876603.42036438 0 0 0 0 -54806272.467093751 -151189224.30524445 0 -151189224.30524445 -34836268.99697876 0 0 0 0 -388109195.92581081 287125598.84161377 0 287125598.84161377 -150011950.40854645 0 0 0 0 583952.9907162952 1141440.0939836502 0 1141440.0939836502 -3163072.071292311 0 0 0 0 662052107.59455204 -1129543193.7496948 0 -1129543193.7496948 -2954297278.6194611 0 0 0 0 919657738.43227744 -279531385.25607491 0 -279531385.25607491 -2325514160.6896973 0 0 0 0 -226254674.16413307 869940840.32884216 0 869940840.32884216 -1339165288.8470612 0 0 0 0 260727899.4495039 -420791317.69430542 0 -420791317.69430542 -1681177168.9300728 0 0 0 0 49465295.695772886 -336663084.8713913 0 -336663084.8713913 -550243057.13964844 0 0 0 0 -508753912.45183158 -206019089.54985046 0 -206019089.54985046 -525932116.90823364 0 0 0 0 -271845640.30358076 371969748.96884155 0 371969748.96884155 -1342972546.344574 0 0 0 0 -186154501.75247496 -273029177.01421547 0 -273029177.01421547 -429486961.31439209 0 0 0 0 -50629608.479815483 238995194.15888786 0 238995194.15888786 -43719586.468780518 0 0 0 0 4889646.6290227389 -9417107.0750651937 0 -9417107.0750651937 -15971230.833137393 0 0 0 0 -74936939.235010147 56208148.347747803 0 56208148.347747803 -236496168.01290894 0 0 0 0 20181344.809165955 52585527.19303894 0 52585527.19303894 -264069860.66430664 0 0 0 0 417805396.96635437 152227530.1269455 0 152227530.1269455 -2322078278.8521729 0 0 0 0 -462588429.49153328 683118604.84263611 0 683118604.84263611 -714677486.68278503 0 0 0 0 -501216331.33533287 -981304647.59024048 0 -981304647.59024048 -757062630.22433472 0 0 0 0 660329.80567362439 -3800000.8381363638 0 -3800000.8381363638 -5342176.5451429933 0 0 0 0 -697069171.50791264 1313731003.0568237 0 1313731003.0568237 -2252991367.962677 0 0 0 0 182211973.14203167 -72862390.827590942 0 -72862390.827590942 -944909503.23472595 0 0 0 0 397256200.34590793 40541649.353086472 0 40541649.353086472 -1022374735.6474609 0 0 0 0 275916554.40985775 51328473.39944458 0 51328473.39944458 -1006930718.0676117 0 0 0 0 -53470529.166491628 268360249.2305975 0 268360249.2305975 -480708820.83502197 0 0 0 0 273862778.65415192 29538067.174926758 0 29538067.174926758 -868978740.44500732 0 0 0 0 88582111.71623373 -122009760.35835266 0 -122009760.35835266 -494238578.09094238 0 0 0 0 104760077.74024153 -229898239.50884247 0 -229898239.50884247 -993918762.77685547 0 0 0 0 251802605.10465875 280922692.19902039 0 280922692.19902039 -651683109.8694458 0 0 0 0 -226902088.84331846 -273571919.08784485 0 -273571919.08784485 -324486217.82272339 0 0 0 0 691337.86499518668 218107.22906558774 0 218107.22906558774 -1333009.4587260634 0 0 0 0 -278945667.89126956 -26287722.650294304 0 -26287722.650294304 -847494751.85211182 0 0 0 0 119902766.07000744 17938505.887290955 0 17938505.887290955 -972334980.5945282 0 0 0 0 -279879988.26991749 -14764580.984802246 0 -14764580.984802246 -744671657.67318726 0 0 0 0 149076709.91609669 46072303.851852417 0 46072303.851852417 -1033254975.7362309 0 0 0 0 -237704608.7360096 14899089.317962646 0 14899089.317962646 -744730283.71683097 0 0 0 0 -292088290.89031076 -62279732.617950439 0 -62279732.617950439 -637746706.75991821 0 0 0 0 -379184663.71062565 31492513.526687622 0 31492513.526687622 -738551204.61265564 0 0 0 0 -479042152.05757523 195379106.56565857 0 195379106.56565857 -820417931.90496826 0 0 0 0 -685223064.51064372 42542741.460870743 0 42542741.460870743 -527768095.99438477 0 0 0 0 -622543285.47603869 251165191.13251495 0 251165191.13251495 -811670485.01080322 0 0 0 0 117591311.72635508 -247660486.65357971 0 -247660486.65357971 -639245110.51879883 0 0 0 0 -428983051.72234488 5583945.0556335449 0 5583945.0556335449 -233367573.25991821 0 0 0 0 119964124.01801109 -172359470.89818573 0 -172359470.89818573 -380648443.28497314 0 0 0 0 174476427.68778419 -22069503.033987045 0 -22069503.033987045 -684904785.16323853 0 0 0 0 339464873.48692608 -177372849.50395966 0 -177372849.50395966 -875960476.72666931 0 0 0 0 348864172.1831131 -141498843.48001099 0 -141498843.48001099 -1223940157.3903656 0 0 0 0 277303130.50840759 -505663264.48908997 0 -505663264.48908997 -633432398.12271118 0 0 0 0 199132783.43914223 -108734722.99414062 0 -108734722.99414062 -490485704.442173 0 0 0 0 16893081.948090553 129017624.05493164 0 129017624.05493164 101135761.82028961 0 0 0 0 17420796.850669861 141668914.96728516 0 141668914.96728516 355670722.90454102 0 0 0 0 626125202.19371796 305963461.08384705 0 305963461.08384705 -329799318.45918655 0 0 0 0 -184371508.43943024 -197642641.57261276 0 -197642641.57261276 437901186.96894836 0 0 0 0 367864468.30312127 394794832.79183388 0 394794832.79183388 -255706009.43792725 0 0 0 0 408450583.0279398 43516607.384864807 0 43516607.384864807 -9402617.7435302734 0 0 0 0 -4866290.5108243115 10039622.719748013 0 10039622.719748013 -8369295.2562974691 0 0 0 0 -534153.78066663817 2357927.9939083681 0 2357927.9939083681 -1273374.6818691641 0 0 0 0 -92216706.353531942 520266574.67826509 0 520266574.67826509 -1562623958.68927 0 0 0 0 -373641467.49058735 -2235762593.3937893 0 -2235762593.3937893 -5975264270.6524811 0 0 0 0 -148269475.14968011 -1253450622.917717 0 -1253450622.917717 -2018166669.8393726 0 0 0 0 998446580.73046017 -70177159.933208466 0 -70177159.933208466 -5987167198.6954193 0 0 0 0 -1004859690.1188524 1464657643.8925476 0 1464657643.8925476 -3834155820.8107605 0 0 0 0 971357386.61429942 735345368.05656433 0 735345368.05656433 -5955813720.242569 0 0 0 0 -1975273762.5518467 1428290973.5402391 0 1428290973.5402391 -521900418.62530518 0 0 0 0 -1983109189.0763519 534208628.76654053 0 534208628.76654053 325263475.80497742 0 0 0 0 -2319538.5062840865 3400103.5294664688 0 3400103.5294664688 -4404964.6037057042 0 0 0 0 -751703849.48420715 -143302576.72422791 0 -143302576.72422791 106275339.25895309 0 0 0 0 -1473650279.6362243 466399654.52096558 0 466399654.52096558 -23117073.089538574 0 0 0 0 -605529213.65384042 55758955.54360199 0 55758955.54360199 995004148.14492798 0 0 0 0 -1448667713.5189843 854529508.2249999 0 854529508.2249999 1115162627.8179932 0 0 0 0 -1052430179.1926823 938732137.98228455 0 938732137.98228455 -134685777.19729614 0 0 0 0 -1040348914.8052853 1124333580.4492035 0 1124333580.4492035 382905048.85708618 0 0 0 0 -968127557.14531374 746997304.72964478 0 746997304.72964478 131130710.05160522 0 0 0 0 -481467712.2015543 344708849.35939789 0 344708849.35939789 -514428348.67102051 0 0 0 0 -707456257.39993048 224190571.13809204 0 224190571.13809204 -200039577.18482971 0 0 0 0 -1179422978.5262454 646953831.42127991 0 646953831.42127991 -565836900.75756836 0 0 0 0 -764725481.74637914 304250020.91990662 0 304250020.91990662 -467660189.17901611 0 0 0 0 -2630984584.3308511 1798953342.750824 0 1798953342.750824 466586234.31140137 0 0 0 0 -835340428.85803747 617704668.52365112 0 617704668.52365112 -1726079038.6182861 0 0 0 0 586228268.72986269 205513261.69206238 0 205513261.69206238 -2026872981.7486572 0 0 0 0 1458076212.3433504 979129236.05236816 0 979129236.05236816 -3530774089.013813 0 0 0 0 626227991.19908762 88151095.415039062 0 88151095.415039062 -1733790295.2218018 0 0 0 0 -857922.19054201106 531822.00253495574 0 531822.00253495574 -411216.94535586238 0 0 0 0 1846215060.9693761 -1787113225.7563782 0 -1787113225.7563782 1106986246.9315186 0 0 0 0 1279177985.2004404 564800988.6842041 0 564800988.6842041 -3490707370.7172546 0 0 0 0 -1159209695.5479324 198385653.37699556 0 198385653.37699556 245362024.52206421 0 0 0 0 71917671.43002522 470347877.91864014 0 470347877.91864014 -1208888402.8402901 0 0 0 0 -656165.60493945959 -836451.18623238802 0 -836451.18623238802 -2974542.4608415812 0 0 0 0 -710406791.80111015 1236051838.0559692 0 1236051838.0559692 -952804036.80422592 0 0 0 0 -1078847100.6160808 341791277.03216553 0 341791277.03216553 -284674714.69366455 0 0 0 0 210825765.34702653 -227223291.52137756 0 -227223291.52137756 250408130.13258362 0 0 0 0 203568.90873550967 2683632.101463459 0 2683632.101463459 -2772857.2574898005 0 0 0 0 -172457.84458385548 1163632.3487104028 0 1163632.3487104028 -1184980.0277613401 0 0 0 0 97873273.09979701 567135141.89497375 0 567135141.89497375 -651492233.74868774 0 0 0 0 649814855.45490408 -381221131.63798523 0 -381221131.63798523 -686907929.85562134 0 0 0 0 -364765252.44304287 313436685.16040039 0 313436685.16040039 607305041.79284668 0 0 0 0 -332185531.61337292 1280231191.4740906 0 1280231191.4740906 -1666351647.7897644 0 0 0 0 -442468031.3770504 -568312162.88311768 0 -568312162.88311768 166016588.44691467 0 0 0 0 851351950.76543832 252743432.93331528 0 252743432.93331528 -5968916585.6862183 0 0 0 0 86791.724276209483 1270141.3042521765 0 1270141.3042521765 -1180300.3174389452 0 0 0 0 262550440.07046071 1407827669.8654633 0 1407827669.8654633 -5895928301.6513062 0 0 0 0 198002.61379822801 2338966.7213557111 0 2338966.7213557111 -2021113.3320616335 0 0 0 0 1129566622.0100763 -402027610.43883514 0 -402027610.43883514 -3759787139.2212219 0 0 0 0 -1322947840.5767426 1298404025.0005569 0 1298404025.0005569 -1680763880.5737305 0 0 0 0 1549056.3607650681 -48769118.335525513 0 -48769118.335525513 -2752203211.9393311 0 0 0 0 458193.96929931216 912219.56504742382 0 912219.56504742382 -4898264.1646136791 0 0 0 0 -62671155.759307384 1054826726.4824829 0 1054826726.4824829 -5961000327.7733459 0 0 0 0 -202756439.04461795 -1070770209.5587997 0 -1070770209.5587997 -2758133214.9940796 0 0 0 0 857084321.85202622 129863530.3387661 0 129863530.3387661 -3413402581.5722046 0 0 0 0 932130047.73632026 -638944690.32641602 0 -638944690.32641602 -5975723240.5457935 0 0 0 0 -561200811.7869184 564189366.24268961 0 564189366.24268961 951872885.07067871 0 0 0 0 -464429267.80940276 -926492529.58227539 0 -926492529.58227539 -848287360.97132874 0 0 0 0 227229.73172848584 16996650.706748962 0 16996650.706748962 11719868.295898438 0 0 0 0 -1672673626.881695 1242809066.8553543 0 1242809066.8553543 121288563.61468506 0 0 0 0 1107964.5663482684 -2597774.9808356985 0 -2597774.9808356985 -5538226.7821097225 0 0 0 0 110454329.43951046 89749110.871032715 0 89749110.871032715 59598606.630233765 0 0 0 0 677101.31613843318 -1665066.9926617295 0 -1665066.9926617295 -4673385.0424095392 0 0 0 0 276682.98709252401 1204327.4778240605 0 1204327.4778240605 -6690604.9770424515 0 0 0 0 67303063.34805584 -66464327.335502625 0 -66464327.335502625 52520211.162857056 0 0 0 0 -763710027.07372761 532217569.51519775 0 532217569.51519775 -165826700.48121452 0 0 0 0 -13721847.921666771 -264921987.81381798 0 -264921987.81381798 -237421867.04168701 0 0 0 0 -304816.97262328619 109823204.38735962 0 109823204.38735962 128152456.8870697 0 0 0 0 195720718.43707013 -116244124.43347168 0 -116244124.43347168 -544796728.43615723 0 0 0 0 162592500.97519067 -14241478.665893555 0 -14241478.665893555 -360077147.7192688 0 0 0 0 71377950.575191021 -167205955.62150574 0 -167205955.62150574 -71804992.280441284 0 0 0 0 742488.35464030656 248671351.03058392 0 248671351.03058392 -764729268.52288818 0 0 0 0 230833056.65572393 685821339.98410034 0 685821339.98410034 -356039086.19477844 0 0 0 0 231040652.95857725 37168816.536121368 0 37168816.536121368 -1243190805.1228027 0 0 0 0 395843291.16358471 1364303246.7359619 0 1364303246.7359619 -2446490725.0441895 0 0 0 0 -282263996.79068434 608648257.54905701 0 608648257.54905701 -897869988.71681404 0 0 0 0 998207.91278466908 299896.59908403456 0 299896.59908403456 -4250498.0199079812 0 0 0 0 -813749975.18687797 -2270043.8193740845 0 -2270043.8193740845 -1878118022.9257202 0 0 0 0 -662521227.36200428 593201809.68545532 0 593201809.68545532 -896965003.53660011 0 0 0 0 -30300.888958845608 976560.48086712253 0 976560.48086712253 -2655758.855572924 0 0 0 0 -825758810.83174121 735420069.13521767 0 735420069.13521767 -509147166.12615967 0 0 0 0 717068.0119119517 144547.09147731215 0 144547.09147731215 -2059950.2952339798 0 0 0 0 349019869.44005042 -376945384.11610031 0 -376945384.11610031 -671383609.17492676 0 0 0 0 -299278701.94955254 537391165.56658936 0 537391165.56658936 -158506695.13209534 0 0 0 0 -1584246641.3722379 1313995610.0497017 0 1313995610.0497017 -1680354456.0855713 0 0 0 0 -1313749933.7212408 32020948.689727783 0 32020948.689727783 -866409760.26312256 0 0 0 0 -231030010.75293779 157743226.60412598 0 157743226.60412598 -701846471.98385 0 0 0 0 -373277251.62840557 625689085.82263184 0 625689085.82263184 -700641231.47466087 0 0 0 0 -726232870.06076145 263458041.6295166 0 263458041.6295166 -656150195.10482788 0 0 0 0 -217002873.79434395 366676210.14165497 0 366676210.14165497 -970844533.79412842 0 0 0 0 -240865994.71368551 311814839.72999573 0 311814839.72999573 -685173305.48272705 0 0 0 0 -258059510.29288831 699225672.83358765 0 699225672.83358765 -728281296.87640381 0 0 0 0 -255407983.00138941 441154324.70244598 0 441154324.70244598 -742030508.73834229 0 0 0 0 -71292485.877345324 550181081.2273407 0 550181081.2273407 -751037393.08451366 0 0 0 0 -72951013.000827909 579557700.03788757 0 579557700.03788757 -1057625596.4318848 0 0 0 0 -159287468.2028681 577059871.77941895 0 577059871.77941895 -1034872183.9128418 0 0 0 0 45756443.492579281 538261481.48422623 0 538261481.48422623 -1148335709.0037231 0 0 0 0 111131911.40686309 307666278.92610168 0 307666278.92610168 -961591810.95552063 0 0 0 0 266215619.59088379 371256181.88399124 0 371256181.88399124 -953260823.04315186 0 0 0 0 23630259.032842163 374904204.80419922 0 374904204.80419922 -683431941.37072754 0 0 0 0 74029358.560168773 247925696.10061646 0 247925696.10061646 -978120830.09431458 0 0 0 0 -138410924.29827029 564435309.28518677 0 564435309.28518677 -1012195290.1993256 0 0 0 0 -209678615.63654006 412805611.77893066 0 412805611.77893066 -1268404704.5498657 0 0 0 0 -2297613.9044470415 258577612.59187317 0 258577612.59187317 -1189165833.8865051 0 0 0 0 -160364918.91138363 992087116.71916199 0 992087116.71916199 -2033912847.1822357 0 0 0 0 381750.73432255478 823673.38409007341 0 823673.38409007341 -3454777.0740666687 0 0 0 0 -1014913332.1084337 1577012084.8773651 0 1577012084.8773651 -1609446920.8234558 0 0 0 0 -789124.75889327493 345058748.53749847 0 345058748.53749847 -142830004.31783295 0 0 0 0 -1021409605.9185475 815091535.69342041 0 815091535.69342041 -945558550.31549072 0 0 0 0 -142194747.39294964 605696272.9919281 0 605696272.9919281 -1243651996.4690857 0 0 0 0 -489692008.17514277 939527086.77659607 0 939527086.77659607 -1382638564.493042 0 0 0 0 -2254609.9169323333 13439661.474953245 0 13439661.474953245 -49246911.094765231 0 0 0 0 353192984.05317068 413596063.92478085 0 413596063.92478085 -603156167.62609863 0 0 0 0 541814953.55130005 120984277.08421326 0 120984277.08421326 -202411182.59484863 0 0 0 0 90494488.392841339 34864244.224908829 0 34864244.224908829 -89153165.517759323 0 0 0 0 -5746987.0451842034 -74258014.538855582 0 -74258014.538855582 -120011406.15800858 0 0 0 0 -51861738.083786011 154228909.36677551 0 154228909.36677551 -90326754.294989347 0 0 0 0 128960022.95592022 -20123687.529308319 0 -20123687.529308319 -164752465.91425323 0 0 0 0 57928924.085086823 15892295.118346214 0 15892295.118346214 -77927934.669979095 0 0 0 0 364385989.2605896 155165399.33013916 0 155165399.33013916 -75894463.629470825 0 0 0 0 -314784949.29693604 66488339.303924561 0 66488339.303924561 164617881.23809814 0 0 0 0 -98275731.435523987 -448503463.22956848 0 -448503463.22956848 -227443952.79579926 0 0 0 0 -2963486.5390403345 -844514.91902634501 0 -844514.91902634501 -3639441.4140526801 0 0 0 0 256890241.78903627 194934600.24733067 0 194934600.24733067 -16710149.981842041 0 0 0 0 184682040.50627804 -69246488.982294083 0 -69246488.982294083 -186111890.50692749 0 0 0 0 132272267.83890152 304106755.17937469 0 304106755.17937469 178195011.12654877 0 0 0 0 -2794758.9532703105 56214.544767901301 0 56214.544767901301 952741.14340034872 0 0 0 0 -295827770.18338013 87066186.118049622 0 87066186.118049622 -22554391.171142578 0 0 0 0 401302952.27629471 -181235819.83653259 0 -181235819.83653259 -5916227.6120605469 0 0 0 0 22705277.169136047 -145142972.95161438 0 -145142972.95161438 -130064343.8369751 0 0 0 0 327647440.00474548 -36031230.972686768 0 -36031230.972686768 -289136922.94058228 0 0 0 0 170961351.63618469 -236526251.54016113 0 -236526251.54016113 -471673099.53642273 0 0 0 0 81783332.812057495 135630067.87890625 0 135630067.87890625 -385014264.94573975 0 0 0 0 84555586.903083801 74715668.189346313 0 74715668.189346313 111624861.38153076 0 0 0 0 107008782.54495239 23032181.931976318 0 23032181.931976318 202297670.08102417 0 0 0 0 585147320.6373291 -70135095.41481781 0 -70135095.41481781 -472412856.71779633 0 0 0 0 641496933.96443939 422828127.11183167 0 422828127.11183167 -212385074.85476303 0 0 0 0 276956173.43742371 -68446180.177157402 0 -68446180.177157402 518220733.99078369 0 0 0 0 -6309239.5462610573 7410930.2142349146 0 7410930.2142349146 6638432.4552545846 0 0 0 0 -1258346.6324411593 6728796.3141225763 0 6728796.3141225763 -40732157.348914072 0 0 0 0 -287157524.75599527 -611414645.25438118 0 -611414645.25438118 -529090418.70857239 0 0 0 0 177519219.08219433 41572595.074928284 0 41572595.074928284 -656463502.84161377 0 0 0 0 135765587.34648514 -54548896.1366539 0 -54548896.1366539 175622901.92674255 0 0 0 0 53632899.337963104 210523941.91236115 0 210523941.91236115 -95054507.074245453 0 0 0 0 725571245.43450928 431635027.39590454 0 431635027.39590454 31835946.827709198 0 0 0 0 -13441118.923942948 14138279.464554774 0 14138279.464554774 -19729245.731731653 0 0 0 0 -10828233.552684784 2556920.3223800659 0 2556920.3223800659 -16156262.04069519 0 0 0 0 2945602.2955060005 -33452113.480325699 0 -33452113.480325699 -63214309.631080627 0 0 0 0 -9619720.7209339142 -5878203.9993247986 0 -5878203.9993247986 -33940689.266357422 0 0 0 0 -1846408.5070981849 -3707478.9771782309 0 -3707478.9771782309 -1488340.8535221517 0 0 0 0 25665621.277026653 -15149577.590485573 0 -15149577.590485573 -66221124.465393066 0 0 0 0 35891718.748966217 6167348.5310516357 0 6167348.5310516357 -57141564.931335449 0 0 0 0 -7320969.6915988922 -14961607.225337982 0 -14961607.225337982 -49036878.696939468 0 0 0 0 33840276.235202789 -183363005.79866409 0 -183363005.79866409 -130534352.71922302 0 0 0 0 28672451.007703781 -87612280.394512177 0 -87612280.394512177 -16795295.602813721 0 0 0 0 285459298.96492767 162906028.90866852 0 162906028.90866852 -406582695.65293884 0 0 0 0 470309684.18396139 -433311309.00207233 0 -433311309.00207233 356984995.23934579 0 0 0 0 -92133257.282178164 55672059.818452835 0 55672059.818452835 302926927.77525663 0 0 0 0 -564124527.2706778 1097850180.0498209 0 1097850180.0498209 -409630755.231112 0 0 0 0 -582097210.36677551 894322607.98634911 0 894322607.98634911 -989439465.77720642 0 0 0 0 -110804.77290620867 -836774.99744881864 0 -836774.99744881864 -3916787.9836799544 0 0 0 0 120574003.24532169 -197168903.40371346 0 -197168903.40371346 197857462.80912352 0 0 0 0 52678844.180063009 -66409813.198804379 0 -66409813.198804379 91072279.510194778 0 0 0 0 -210433544.35647082 -258126998.63978606 0 -258126998.63978606 566419104.54095137 0 0 0 0 -224260445.1920166 39083307.111591578 0 39083307.111591578 -1215838358.018271 0 0 0 0 -607247098.5736022 -249388432.57247007 0 -249388432.57247007 465431763.40074492 0 0 0 0 -28144701.566085815 424038026.77078247 0 424038026.77078247 -728237679.45172119 0 0 0 0 239762538.34469938 300033683.02694416 0 300033683.02694416 -861287732.3274231 0 0 0 0 -872322.21897588077 3672673.308365372 0 3672673.308365372 -205406.53307029605 0 0 0 0 8752770.6847559176 -10315884.375721138 0 -10315884.375721138 -5168851.2955647334 0 0 0 0 -79723873.898802757 -71943930.280036926 0 -71943930.280036926 71957757.324989319 0 0 0 0 1058028.8896597577 6829995.4097759956 0 6829995.4097759956 -42406018.126362294 0 0 0 0 1140719454.8232846 231352806.11705804 0 231352806.11705804 -767170450.55674076 0 0 0 0 375759737.16200852 1206594585.0138373 0 1206594585.0138373 -1688265199.0372443 0 0 0 0 186086335.22142506 -153833385.83158875 0 -153833385.83158875 590229157.19041443 0 0 0 0 -120904477.80721426 -262129383.05105531 0 -262129383.05105531 -365362928.02372169 0 0 0 0 -2518633.1772901807 1625395.6709991675 0 1625395.6709991675 -887660.26884720568 0 0 0 0 -529754416.08584261 830378319.71593523 0 830378319.71593523 -189839554.60469532 0 0 0 0 -164749278.68051541 -71367290.987794042 0 -71367290.987794042 -884526697.55194092 0 0 0 0 65128801.588307381 -234760692.76671124 0 -234760692.76671124 365117108.38605642 0 0 0 0 -273170255.79320407 135700022.01217067 0 135700022.01217067 159837887.76855278 0 0 0 0 464352097.61594582 279140117.40239906 0 279140117.40239906 68154151.875490665 0 0 0 0 -5110285.9421608578 3646269.1579105165 0 3646269.1579105165 -3850417.0060964469 0 0 0 0 86544076.073637962 142100835.51125598 0 142100835.51125598 164979815.99692249 0 0 0 0 -110850395.46717954 -159484906.09575927 0 -159484906.09575927 134341131.13099623 0 0 0 0 -397959725.36910844 30670852.976281643 0 30670852.976281643 225820568.05022812 0 0 0 0 -43182571.057105541 97793008.501494408 0 97793008.501494408 -32906012.555077553 0 0 0 0 -18251290.266605854 135528156.61597586 0 135528156.61597586 -113649830.8176403 0 0 0 0 -286603039.99643564 164669866.65552807 0 164669866.65552807 165335966.45732403 0 0 0 0 70880188.535154343 4475023.4491629601 0 4475023.4491629601 59348116.040028572 0 0 0 0 -14241848.572732329 -35271225.978954315 0 -35271225.978954315 -106353586.07503891 0 0 0 0 50784604.047825336 71650.031789302826 0 71650.031789302826 -39980290.054839134 0 0 0 0 177936086.72547531 694825736.97057724 0 694825736.97057724 1402678680.3252678 0 0 0 0 1443478.5372767202 -193666.04442078003 0 -193666.04442078003 -2159781.1523177931 0 0 0 0 -272830764.25746489 6587691.715301156 0 6587691.715301156 252098932.86804104 0 0 0 0 -304969940.17239314 -11016383.081438065 0 -11016383.081438065 571488088.0699501 0 0 0 0 -348142570.86540461 133694582.94204521 0 133694582.94204521 404548520.33825779 0 0 0 0 -241360802.34727979 248098459.46138573 0 248098459.46138573 556179585.84376097 0 0 0 0 -105238431.68099546 300351988.81421089 0 300351988.81421089 348508109.75099182 0 0 0 0 -294684691.2160399 113900720.15066719 0 113900720.15066719 326158046.56086922 0 0 0 0 34164382.460195065 199064804.18709564 0 199064804.18709564 101036546.87902451 0 0 0 0 -117701843.36879858 217263530.62534535 0 217263530.62534535 217628088.69656754 0 0 0 0 -285508902.0167408 112695662.50067329 0 112695662.50067329 153063902.92738152 0 0 0 0 -78758566.013796091 65048946.230492592 0 65048946.230492592 -19561955.256219864 0 0 0 0 2299342.5350352544 -6187437.9087412767 0 -6187437.9087412767 -18615571.384315457 0 0 0 0 -339975189.71824747 -182083041.12953186 0 -182083041.12953186 28275250.122699738 0 0 0 0 6109442.9708328247 -387637464.56998825 0 -387637464.56998825 -3203922.2760391235 0 0 0 0 176683767.79072857 163770011.38554573 0 163770011.38554573 -265751271.41980362 0 0 0 0 633794188.06461048 -686851642.51946354 0 -686851642.51946354 30169382.243530273 0 0 0 0 -1070398349.29978 -456912732.03179932 0 -456912732.03179932 32823638.764095306 0 0 0 0 85270156.23745501 -232502684.99974465 0 -232502684.99974465 -147884170.55690002 0 0 0 0 -885497395.25380921 316365629.74458122 0 316365629.74458122 -199633035.37007713 0 0 0 0 379446.35732560384 -1246701.4313079908 0 -1246701.4313079908 -5747848.7372217234 0 0 0 0 165673226.25711083 -39295091.367259026 0 -39295091.367259026 -588590411.64984322 0 0 0 0 -468534290.08276153 -1033333.8485946655 0 -1033333.8485946655 -23644986.067622781 0 0 0 0 -361085345.69462979 386583039.55467153 0 386583039.55467153 -295249105.16783142 0 0 0 0 -217991819.06128657 -1163501951.4436836 0 -1163501951.4436836 865547200.80475998 0 0 0 0 -83637021.122459888 524531161.14350605 0 524531161.14350605 -1616462393.6862259 0 0 0 0 857437237.51593041 -997465618.55295944 0 -997465618.55295944 -388200033.14587593 0 0 0 0 -856543495.84559441 -1331072616.2850494 0 -1331072616.2850494 -442677370.37348366 0 0 0 0 -717331214.1325047 1084360853.4544296 0 1084360853.4544296 706784016.9828577 0 0 0 0 -2150115145.9636536 875919730.97140884 0 875919730.97140884 680973340.28758621 0 0 0 0 183627765.39050627 733482800.44691467 0 733482800.44691467 -1621052569.0301018 0 0 0 0 254469476.59247684 375465687.12391663 0 375465687.12391663 -75892742.51171875 0 0 0 0 524064366.54018593 264540593.52798843 0 264540593.52798843 -36159722.781421661 0 0 0 0 628865600.72460556 316683923.12996674 0 316683923.12996674 -870068126.01853943 0 0 0 0 53803711.800416946 -525797861.70400429 0 -525797861.70400429 -1135911080.5273705 0 0 0 0 -39852677.520093918 -239381159.84639025 0 -239381159.84639025 -203746918.89533615 0 0 0 0 165406396.26045036 -93871771.120689392 0 -93871771.120689392 -230585118.74667454 0 0 0 0 435223927.42259884 162547135.86061287 0 162547135.86061287 -30746065.456192017 0 0 0 0 83226346.020929337 -76921446.438442707 0 -76921446.438442707 -186525676.6386776 0 0 0 0 174966662.44228268 -220866959.04491663 0 -220866959.04491663 -266013055.38295555 0 0 0 0 -130559499.6568222 100250210.74042892 0 100250210.74042892 -165129903.87779903 0 0 0 0 -464248.64336236008 -87414.339428081177 0 -87414.339428081177 -3714102.5877373917 0 0 0 0 -245538221.62658501 29761943.024000168 0 29761943.024000168 -57893894.565689087 0 0 0 0 -124502949.48675339 -22563606.50785638 0 -22563606.50785638 -41057000.692325592 0 0 0 0 -124509819.19535637 51652240.274648666 0 51652240.274648666 -73968931.159191132 0 0 0 0 -1791672.5936837704 1581305.4436326167 0 1581305.4436326167 -11341074.249026623 0 0 0 0 -19642698.003062248 37293216.445201874 0 37293216.445201874 -129716738.70874977 0 0 0 0 -17320931.07109499 20281862.318940282 0 20281862.318940282 -117240914.16368866 0 0 0 0 1515490.1878147125 -301172.47817230225 0 -301172.47817230225 -106888051.76148033 0 0 0 0 -17086365.397081375 20167832.382225037 0 20167832.382225037 -92822388.202552795 0 0 0 0 -14545587.723639488 10440965.873710632 0 10440965.873710632 -62868675.600578308 0 0 0 0 -23195568.579830647 649029.23004794121 0 649029.23004794121 -39757313.205795288 0 0 0 0 -26339408.665923953 14611155.160667419 0 14611155.160667419 -33544660.655380249 0 0 0 0 -56632984.038961411 14385310.725269318 0 14385310.725269318 -45272741.674678802 0 0 0 0 -56199555.465582371 14620427.541487217 0 14620427.541487217 -54253204.528903961 0 0 0 0 -94702344.138477325 467171.78512001038 0 467171.78512001038 -24307655.386493683 0 0 0 0 -68798336.847449303 -19256267.941544533 0 -19256267.941544533 -43681830.129863739 0 0 0 0 -511392950.20790076 71511118.861778259 0 71511118.861778259 1403890318.9263992 0 0 0 0 -8920794.2299776077 33257571.537700653 0 33257571.537700653 -126998636.08233833 0 0 0 0 -995531.38573681586 5762114.9323460199 0 5762114.9323460199 -22519697.493895914 0 0 0 0 5289506.0577545166 652512.0344543457 0 652512.0344543457 -9564003.7903594971 0 0 0 0 -111457.93280823901 2758059.5311832 0 2758059.5311832 -30552779.833094116 0 0 0 0 3319053.2129670149 -2690657.1960100867 0 -2690657.1960100867 -14404915.68986579 0 0 0 0 4222474.9180860519 -1881486.813293457 0 -1881486.813293457 -8652544.6784057617 0 0 0 0 -221270.5693330653 10387397.971834976 0 10387397.971834976 -32426834.668408524 0 0 0 0 3104335.3592137303 5860770.2638448998 0 5860770.2638448998 -29692962.175660111 0 0 0 0 415258444.48125237 462715219.03047675 0 462715219.03047675 368173724.83355713 0 0 0 0 415051161.25567818 469958121.15418434 0 469958121.15418434 148398817.22693634 0 0 0 0 11662186.283178329 20789091.855857849 0 20789091.855857849 -135316793.11070251 0 0 0 0 -8178990.5398216248 26440047.027935028 0 26440047.027935028 -134984200.26329422 0 0 0 0 15471483.412976265 1437782.10704422 0 1437782.10704422 -52102043.648609161 0 0 0 0 -198923.93243248761 1427336.9585921299 0 1427336.9585921299 -8600956.0545957424 0 0 0 0 8194820.251950264 -11815711.779197693 0 -11815711.779197693 -87753594.765052795 0 0 0 0 8691742.2303791046 -7342250.2677307129 0 -7342250.2677307129 -62745316.551109314 0 0 0 0 3972705.7852458954 -5078132.9539451599 0 -5078132.9539451599 -50382574.18416214 0 0 0 0 10066478.508281708 9007431.0893745422 0 9007431.0893745422 -59844114.221784592 0 0 0 0 -9039708.7631988525 -7372104.1412010193 0 -7372104.1412010193 -7434067.9012851715 0 0 0 0 24700836.073502064 -1388828.669552803 0 -1388828.669552803 -52513403.840370178 0 0 0 0 22033639.322902679 6688366.9579563141 0 6688366.9579563141 -56502803.511558533 0 0 0 0 3683854.8978884453 -3256180.2182554305 0 -3256180.2182554305 -18586630.738587216 0 0 0 0 41950462.253929138 -62268957.594526291 0 -62268957.594526291 -93068814.163990021 0 0 0 0 8677248.4746694565 4877321.9935684204 0 4877321.9935684204 -21529558.687828064 0 0 0 0 4992007.8133929335 -666569.29615607858 0 -666569.29615607858 -25283763.555199057 0 0 0 0 10901580.611061096 2762097.0550670624 0 2762097.0550670624 -32751949.188201904 0 0 0 0 2515558.3814659119 -937088.4471244812 0 -937088.4471244812 -22591165.832397461 0 0 0 0 192656.10424927995 6656623.915188238 0 6656623.915188238 -33736490.846815765 0 0 0 0 -1628940.786239624 7783256.8569030762 0 7783256.8569030762 -34541605.209777832 0 0 0 0 -264208.78872299194 2056609.0550308228 0 2056609.0550308228 -25813120.581863403 0 0 0 0 2798689.6632008757 -2640293.1666103685 0 -2640293.1666103685 -15600712.567407899 0 0 0 0 8421673.3004922867 -665010.72525024414 0 -665010.72525024414 -11691680.899658203 0 0 0 0 8405370.5687713623 -893909.06421279907 0 -893909.06421279907 -9205193.9756774902 0 0 0 0 6459994.4990398223 -10034507.447618403 0 -10034507.447618403 -20398646.672930464 0 0 0 0 4685998.6621265095 -343671.66409470793 0 -343671.66409470793 -11318640.703433327 0 0 0 0 1240581.691910116 6448660.2143202238 0 6448660.2143202238 -37848303.164501876 0 0 0 0 -217545.39912832156 6869318.899981305 0 6869318.899981305 -36893231.75145261 0 0 0 0 563486.60006713867 458704.36517333984 0 458704.36517333984 -12041990.017996788 0 0 0 0 772904.82230758667 544642.96466827393 0 544642.96466827393 -12040090.886901855 0 0 0 0 -248254.74390563648 165127.74652584083 0 165127.74652584083 -5682327.2567297295 0 0 0 0 3826042.3709726222 1095809.809031242 0 1095809.809031242 -11082861.352935664 0 0 0 0 14764276.520688534 -6728288.1885476112 0 -6728288.1885476112 -9151939.6803741455 0 0 0 0 59778510.082382202 -50408755.911117554 0 -50408755.911117554 -63249384.371246338 0 0 0 0 8456041.9585667141 -5032801.8172193514 0 -5032801.8172193514 -29126982.78560777 0 0 0 0 14328358.57068634 -3425442.4869537354 0 -3425442.4869537354 -3291845.9322509766 0 0 0 0 68725962.667617798 -18373665.004592896 0 -18373665.004592896 -63022829.716766357 0 0 0 0 1136086.4456830341 7910869.9335178956 0 7910869.9335178956 -33176556.77750358 0 0 0 0 -1096590.6482391357 7221358.2138977051 0 7221358.2138977051 -34680775.38558197 0 0 0 0 10221808.959892273 1057837.8242645264 0 1057837.8242645264 -18033921.681968689 0 0 0 0 9912390.5865058899 866052.16919326782 0 866052.16919326782 -18148323.601715088 0 0 0 0 8745421.80727005 -2578445.7585372925 0 -2578445.7585372925 -9315897.5013542175 0 0 0 0 2819125.6140916678 -1196062.0967520531 0 -1196062.0967520531 -12700665.506170802 0 0 0 0 3143493.6190895475 5422655.0772481058 0 5422655.0772481058 -34108518.914955415 0 0 0 0 10019897.892449316 -10053067.060416099 0 -10053067.060416099 -23874198.493530847 0 0 0 0 8806567.0677193552 3197236.5973583162 0 3197236.5973583162 -38540756.831235491 0 0 0 0 526677187.44635105 234092153.60268688 0 234092153.60268688 175092689.42515564 0 0 0 0 698056183.02341032 404613306.18701172 0 404613306.18701172 -216888239.87420273 0 0 0 0 660707856.75037384 133648649.30460739 0 133648649.30460739 141574318.26276779 0 0 0 0 12357882.686089743 -19571891.561283097 0 -19571891.561283097 -18103796.83128728 0 0 0 0 38512627.022270203 -1350879.2004470825 0 -1350879.2004470825 -14251993.682434082 0 0 0 0 3525162.5404919758 13738599.202055469 0 13738599.202055469 -16656161.196412764 0 0 0 0 40157450.165740967 -1275059.963470459 0 -1275059.963470459 -15006935.252227783 0 0 0 0 2435315.2816185299 17101325.063140996 0 17101325.063140996 -45431880.749238119 0 0 0 0 32212151.437316895 4390271.8762817383 0 4390271.8762817383 -11932802.391601562 0 0 0 0 19539879.774704576 -16030413.468120322 0 -16030413.468120322 -40585224.785607859 0 0 0 0 11311365.7875387 3834476.8081548382 0 3834476.8081548382 -40214281.495116755 0 0 0 0 20976761.269515991 -2420257.7380828857 0 -2420257.7380828857 -7614274.2400512695 0 0 0 0 65483098.582015991 17893656.748565674 0 17893656.748565674 -49162018.896148682 0 0 0 0 75804586.217575073 -9927958.9948348999 0 -9927958.9948348999 -86463066.90133667 0 0 0 0 85987393.830673218 6169933.745803833 0 6169933.745803833 -73568545.456558228 0 0 0 0 123674581.55093765 25283435.376296997 0 25283435.376296997 -94474569.449432373 0 0 0 0 90390942.44631958 51024770.562698364 0 51024770.562698364 -40791848.589321136 0 0 0 0 -12548639.954967499 -84165491.08083725 0 -84165491.08083725 -55347768.569366455 0 0 0 0 11907102.948409982 -5325371.5249542594 0 -5325371.5249542594 -26809699.762044482 0 0 0 0 143428883.08043671 65073697.981155396 0 65073697.981155396 -68816824.264709473 0 0 0 0 235156194.45932961 -63010675.524261475 0 -63010675.524261475 -220683544.46618652 0 0 0 0 -2406481.4804836526 19027611.778924264 0 19027611.778924264 -57600330.171766587 0 0 0 0 63623722.617404938 92155562.944956779 0 92155562.944956779 -73222897.82661438 0 0 0 0 1820463.4912102334 6117461.8173255222 0 6117461.8173255222 -6875716.5975345541 0 0 0 0 1012669755.4104967 -298825673.56137085 0 -298825673.56137085 -393315718.52889252 0 0 0 0 692614473.80694008 53477372.248268127 0 53477372.248268127 -133728323.12243271 0 0 0 0 9170247.3563601635 6421315.986981703 0 6421315.986981703 -35460647.797155969 0 0 0 0 513854.06144731399 18959146.730888553 0 18959146.730888553 9811841.5209887736 0 0 0 0 40457330.090774536 -5171799.6557388306 0 -5171799.6557388306 -7095426.4735412598 0 0 0 0 58705060.828296661 10175031.206642151 0 10175031.206642151 -74341856.067047119 0 0 0 0 -69316378.409479141 -34517879.18031311 0 -34517879.18031311 -63792477.530227661 0 0 0 0 40016315.466374397 -88672407.85337162 0 -88672407.85337162 -291287827.32421875 0 0 0 0 52971887.857513428 -15363469.552658081 0 -15363469.552658081 -8654162.9586009979 0 0 0 0 134538222.85832977 -25990480.14780426 0 -25990480.14780426 -59058755.811584473 0 0 0 0 102946857.26766968 27127963.45425415 0 27127963.45425415 -79332483.024719238 0 0 0 0 174111442.5161171 17345277.060569763 0 17345277.060569763 -88561942.301574707 0 0 0 0 59102980.879585266 -5694741.0048522949 0 -5694741.0048522949 -63106152.963726044 0 0 0 0 68575902.375167847 -32938965.937652588 0 -32938965.937652588 -120319071.59450817 0 0 0 0 117803977.01028442 4943707.6389007568 0 4943707.6389007568 -121487621.70513916 0 0 0 0 100242110.52281189 -10598756.217262268 0 -10598756.217262268 -114004202.00024414 0 0 0 0 61617817.32409668 -31336180.198303223 0 -31336180.198303223 -100158636.36444092 0 0 0 0 45034606.63847065 -73535672.832868576 0 -73535672.832868576 -171961269.53094482 0 0 0 0 51396529.444992065 -27104738.315643311 0 -27104738.315643311 -113428005.26428223 0 0 0 0 62616327.673171997 -43231547.040802002 0 -43231547.040802002 -136136429.17694092 0 0 0 0 -65506750.714401245 -92063763.597625732 0 -92063763.597625732 -112550609.00094604 0 0 0 0 -1448977.5221058764 -3540342.2269771248 0 -3540342.2269771248 -2663609.5028466284 0 0 0 0 -145527187.9214325 -119730832.97920227 0 -119730832.97920227 -104862401.78936768 0 0 0 0 357503531.63520813 295688295.59104156 0 295688295.59104156 85788422.360723495 0 0 0 0 -110531730.38602638 -221096652.42512321 0 -221096652.42512321 -165669622.52508545 0 0 0 0 -90393791.43687439 -50133618.88710022 0 -50133618.88710022 -84512010.313720703 0 0 0 0 69564070.223091125 -25838412.974840164 0 -25838412.974840164 -167480038.56674194 0 0 0 0 -24296849.734237671 -115480291.93829346 0 -115480291.93829346 -186241680.58670044 0 0 0 0 -56374525.267349243 -111217125.71040344 0 -111217125.71040344 -120709057.48492432 0 0 0 0 -138344473.65372753 -607317334.3868103 0 -607317334.3868103 245672196.48602295 0 0 0 0 282814932.09028625 93466115.569946289 0 93466115.569946289 -330446426.21890259 0 0 0 0 -48341373.964553833 -40861323.105438232 0 -40861323.105438232 -92214119.449584961 0 0 0 0 457744592.89317513 -26486322.354064941 0 -26486322.354064941 -1189277643.5823364 0 0 0 0 125673345.0146637 62545545.256057739 0 62545545.256057739 -230111668.08782959 0 0 0 0 181386783.42182541 70975237.755187988 0 70975237.755187988 -334881756.97164917 0 0 0 0 146134158.70159149 6595091.4456939697 0 6595091.4456939697 -152537668.31262207 0 0 0 0 197721364.55175781 16037812.44354248 0 16037812.44354248 -288972542.1071167 0 0 0 0 131628245.03082085 44223759.938102722 0 44223759.938102722 -230426684.90234375 0 0 0 0 173750426.17927933 111760180.16132355 0 111760180.16132355 -199786873.54138184 0 0 0 0 12004617.910379022 -11497599.933534138 0 -11497599.933534138 -20601426.055098459 0 0 0 0 -3574912.1616973877 -72223044.787033081 0 -72223044.787033081 -68978976.905426025 0 0 0 0 67730038.657958031 -35975254.313306808 0 -35975254.313306808 -108972966.70068359 0 0 0 0 38438609.198852539 -45008588.167266846 0 -45008588.167266846 -72951530.728027344 0 0 0 0 -10198484.126693726 -51973019.078704834 0 -51973019.078704834 -90314085.617546082 0 0 0 0 8941322.0643157959 -72194807.954071045 0 -72194807.954071045 -84799407.195648193 0 0 0 0 8647983.3619537354 -67230634.455413818 0 -67230634.455413818 -108062299.78329468 0 0 0 0 37474700.853772163 -53681938.69562912 0 -53681938.69562912 -102032094.94445801 0 0 0 0 6929497.3853912354 -74151921.026245117 0 -74151921.026245117 -114470621.35629272 0 0 0 0 56928286.594047546 -39521996.542163849 0 -39521996.542163849 -62409466.960998535 0 0 0 0 -5929855.9151992798 -74049786.876403809 0 -74049786.876403809 -40678582.336074829 0 0 0 0 33834673.501937866 -53736786.290008545 0 -53736786.290008545 -71247055.74420166 0 0 0 0 39078632.292572021 -59827734.599517822 0 -59827734.599517822 -79238498.74395752 0 0 0 0 1621686.1162719727 -43408933.006530762 0 -43408933.006530762 8061106.5485534668 0 0 0 0 -1202395.8646430969 4333278.2330780029 0 4333278.2330780029 -13678099.932128906 0 0 0 0 6462815.5165926851 -2629725.2457088679 0 -2629725.2457088679 -38130738.366510026 0 0 0 0 1374074.7982645482 8332512.0890338309 0 8332512.0890338309 -33714557.58944948 0 0 0 0 6646731.3239364624 383419.79837036133 0 383419.79837036133 -11624677.150482178 0 0 0 0 -49851506.377639771 -41981948.826782227 0 -41981948.826782227 131624078.543396 0 0 0 0 -80095539.391311646 -4086289.7495727539 0 -4086289.7495727539 90589099.473571777 0 0 0 0 28697625.938354492 -121376930.07879639 0 -121376930.07879639 165978958.2203064 0 0 0 0 -75944.956598185003 538184.00223358721 0 538184.00223358721 -2910188.2430841383 0 0 0 0 -55668249.436569214 -7581792.0527038574 0 -7581792.0527038574 12550193.254821777 0 0 0 0 5863405.4203590341 -6108841.5395053402 0 -6108841.5395053402 -40114907.481748648 0 0 0 0 10583577.312156677 -577502.24215698242 0 -577502.24215698242 -14860148.729919434 0 0 0 0 11644293.918100357 -5834567.2892036438 0 -5834567.2892036438 -13319361.005020142 0 0 0 0 39095579.366333008 -78190750.737304688 0 -78190750.737304688 -47654040.048583984 0 0 0 0 7529292.2249350417 -8312641.090402294 0 -8312641.090402294 -21650439.078243703 0 0 0 0 2008310.951601421 2562427.4101721086 0 2562427.4101721086 -8842602.4606745914 0 0 0 0 134493041.04408264 24701124.776550293 0 24701124.776550293 -108037433.77880859 0 0 0 0 5619738.5533802193 -7927927.9153987132 0 -7927927.9153987132 -8486386.0062933713 0 0 0 0 69227495.254543304 -59397275.406173706 0 -59397275.406173706 27888730.978942871 0 0 0 0 82670384.175949097 -47528180.958557129 0 -47528180.958557129 -34200114.005615234 0 0 0 0 101461090.28619385 -24920496.70123291 0 -24920496.70123291 -45680929.930908203 0 0 0 0 150186229.49201202 -128532293.81854248 0 -128532293.81854248 -80000704.774383545 0 0 0 0 150114969.5598011 -39107690.044792175 0 -39107690.044792175 -219232178.77380371 0 0 0 0 137983768.6648407 -48068387.814178467 0 -48068387.814178467 -82529613.574829102 0 0 0 0 118142763.42481279 5390210.4432907104 0 5390210.4432907104 -34401999.53894043 0 0 0 0 111976332.94546509 3618002.1557617188 0 3618002.1557617188 4236247.7307128906 0 0 0 0 140018243.5196228 -17788356.708618164 0 -17788356.708618164 -148595212.85124207 0 0 0 0 118151264.49474478 5372467.4208183289 0 5372467.4208183289 -81896640.703613281 0 0 0 0 100599833.02853394 -21365968.155334473 0 -21365968.155334473 -41466807.146606445 0 0 0 0 101093260.04290771 -6274093.8248291016 0 -6274093.8248291016 -19963301.965454102 0 0 0 0 100035346.56811523 -3213491.8696289062 0 -3213491.8696289062 6247752.5244140625 0 0 0 0 83886828.383270264 -21115052.936462402 0 -21115052.936462402 27665411.012878418 0 0 0 0 83052967.181335449 -29135600.740112305 0 -29135600.740112305 8782897.8414306641 0 0 0 0 86001978.201141357 -36812526.254516602 0 -36812526.254516602 -2631564.701171875 0 0 0 0 22363995.263413429 2032546.3629074097 0 2032546.3629074097 -7869944.2705078125 0 0 0 0 76428821.171356201 -38638240.396728516 0 -38638240.396728516 12204723.758117676 0 0 0 0 79366884.777435303 -31980959.479553223 0 -31980959.479553223 18473654.009765625 0 0 0 0 3785339.9985590745 -5879520.555855453 0 -5879520.555855453 -27527423.526524015 0 0 0 0 86732199.085578918 -14226280.460845947 0 -14226280.460845947 50188488.171325684 0 0 0 0 930033.32167616114 -688244.36111661792 0 -688244.36111661792 -5363858.028333012 0 0 0 0 -156808376.45511627 179481143.43740845 0 179481143.43740845 139735467.22039795 0 0 0 0 16251372.134658813 -222411586.01818848 0 -222411586.01818848 143079706.59861755 0 0 0 0 67754908.892467499 -37982762.522201538 0 -37982762.522201538 28479708.626953125 0 0 0 0 -11484897.176341057 -336577796.15678024 0 -336577796.15678024 -215183309.41163635 0 0 0 0 -588475.97209321894 -534184.06646227092 0 -534184.06646227092 -817592.80033172667 0 0 0 0 387827702.45105743 279402258.94233704 0 279402258.94233704 95941630.649927139 0 0 0 0 -303986470.04353046 -319869501.4072094 0 -319869501.4072094 227890233.17575073 0 0 0 0 146111057.65236241 -230166866.19103551 0 -230166866.19103551 -428887776.8006897 0 0 0 0 357959107.31177521 -22205324.505218506 0 -22205324.505218506 -453695899.39578247 0 0 0 0 300637734.59803295 -77485071.251850128 0 -77485071.251850128 -485001884.55502319 0 0 0 0 143873119.94992828 20367744.738212585 0 20367744.738212585 -136136960.50692749 0 0 0 0 229682932.38059235 -49456054.147766113 0 -49456054.147766113 -202885466.68190193 0 0 0 0 237138441.68073845 -115662184.8423233 0 -115662184.8423233 -216266953.80155945 0 0 0 0 411723982.82578957 -44738588.168510437 0 -44738588.168510437 -273959597.56268311 0 0 0 0 26885126.226795197 -49728502.851997375 0 -49728502.851997375 -148238378.95993042 0 0 0 0 15403214.292928696 -111703264.96487427 0 -111703264.96487427 -121266902.4012146 0 0 0 0 10738069.466805935 -171834030.32564545 0 -171834030.32564545 -154490086.35707092 0 0 0 0 74141825.088226318 -13853372.884857178 0 -13853372.884857178 -390167620.85383606 0 0 0 0 106787843.44833803 -120843711.86060905 0 -120843711.86060905 -199644137.13252258 0 0 0 0 -63269813.943023682 -38196196.099990845 0 -38196196.099990845 -303563318.79205322 0 0 0 0 -66380781.443411827 245175779.15588379 0 245175779.15588379 -458905189.75033951 0 0 0 0 -212469995.64618516 217504134.85606384 0 217504134.85606384 -382646448.50288391 0 0 0 0 -77160254.976594925 97625146.674888611 0 97625146.674888611 -86633752.877685547 0 0 0 0 321408455.95360661 30944350.064590454 0 30944350.064590454 -256550518.83462524 0 0 0 0 643613451.47443008 441705403.39169312 0 441705403.39169312 -12948704.991622925 0 0 0 0 -1989891.3367066979 -671913.13793644682 0 -671913.13793644682 842492.93724574149 0 0 0 0 -73104172.853087038 -299036344.91705143 0 -299036344.91705143 -412513941.75531006 0 0 0 0 364876181.2539053 -33395948.49719274 0 -33395948.49719274 -123223734.62625122 0 0 0 0 234739494.3396492 93122888.742782593 0 93122888.742782593 100114523.36927795 0 0 0 0 284626081.80257607 25928276.575294495 0 25928276.575294495 -297374949.06466675 0 0 0 0 -456624836.41019583 259554238.81934738 0 259554238.81934738 -539617895.20803833 0 0 0 0 -641094259.07370996 527186974.47112274 0 527186974.47112274 -454470513.92938232 0 0 0 0 -317767233.68115044 421535235.0242157 0 421535235.0242157 -461807931.69973755 0 0 0 0 -325523386.09706116 242178964.38937378 0 242178964.38937378 -277987485.28994751 0 0 0 0 -299542186.86926842 356236880.77571869 0 356236880.77571869 -483274485.05500793 0 0 0 0 -415205486.24791169 266542554.83932495 0 266542554.83932495 -83152552.29196167 0 0 0 0 -283137634.54104805 398860572.88111877 0 398860572.88111877 -723395121.60243225 0 0 0 0 -364671711.91507107 181076748.79121971 0 181076748.79121971 -795486682.98954773 0 0 0 0 -214495940.10057962 376833875.42227936 0 376833875.42227936 -675495893.76393127 0 0 0 0 31792029.325903654 -262356513.15860748 0 -262356513.15860748 226107331.66349792 0 0 0 0 2143153.0723233353 24994.995345018804 0 24994.995345018804 -2743031.1160944104 0 0 0 0 10935993.493890405 -26880173.117019653 0 -26880173.117019653 98197937.15927124 0 0 0 0 11333650.15461731 -374618927.82673645 0 -374618927.82673645 -118009871.89794922 0 0 0 0 48155899.774264693 -85369304.061128616 0 -85369304.061128616 -600593195.97491455 0 0 0 0 -258247792.44491363 82924042.231281281 0 82924042.231281281 -558046714.2779541 0 0 0 0 -177623667.65397 173886778.45292664 0 173886778.45292664 -477003261.25697327 0 0 0 0 -320923916.94080687 448607323.58685303 0 448607323.58685303 -662441311.74715805 0 0 0 0 -352450382.63544571 381200781.74337387 0 381200781.74337387 -783638570.13922119 0 0 0 0 -321600595.0567534 223447627.90172577 0 223447627.90172577 -832104703.2775116 0 0 0 0 -358768066.48634672 173169716.39221954 0 173169716.39221954 -899496639.03721619 0 0 0 0 -616532361.99562263 305119130.91751099 0 305119130.91751099 -748575714.63394165 0 0 0 0 -424115163.80955219 485001659.79193878 0 485001659.79193878 -868805400.9553442 0 0 0 0 -580703988.46615219 350848366.16503143 0 350848366.16503143 -1012849199.8240618 0 0 0 0 -694115832.85838604 162093348.5967865 0 162093348.5967865 -1008814842.9072113 0 0 0 0 -385111784.34993744 1238420159.1154022 0 1238420159.1154022 -1157578026.2670746 0 0 0 0 -238412894.97028637 978137602.74820709 0 978137602.74820709 -1629417427.3029633 0 0 0 0 -466589812.83077383 285522501.20487213 0 285522501.20487213 -1351645605.3579865 0 0 0 0 -344219035.25383145 891400317.95015717 0 891400317.95015717 -1002184490.8412628 0 0 0 0 -510865082.8675102 823917070.23740387 0 823917070.23740387 -850655303.83507061 0 0 0 0 -379281778.27152252 593505802.86856461 0 593505802.86856461 -519003580.13909912 0 0 0 0 -698031489.97409201 898410964.7977066 0 898410964.7977066 -666321712.47047424 0 0 0 0 -952641975.27983046 840551594.1669879 0 840551594.1669879 -613775259.40516663 0 0 0 0 -291119334.96138954 1390697847.6281433 0 1390697847.6281433 -1291679893.8818817 0 0 0 0 -893836950.21624601 1389670059.5078597 0 1389670059.5078597 -874286022.82199097 0 0 0 0 -351180878.79692554 1196788876.8020325 0 1196788876.8020325 -925996746.73272705 0 0 0 0 -464474305.70504332 1094492387.2412148 0 1094492387.2412148 -874201045.50282288 0 0 0 0 555548261.06527805 754208352.95976257 0 754208352.95976257 -996705228.54399109 0 0 0 0 -48603297.318059921 465042348.25730896 0 465042348.25730896 -389838385.54449844 0 0 0 0 134126623.38652229 220253903.19536972 0 220253903.19536972 -352377554.27653885 0 0 0 0 -109505958.61991596 339673553.07334518 0 339673553.07334518 -198654697.04150391 0 0 0 0 121815733.82396698 -5007063.6033401489 0 -5007063.6033401489 -124052011.28314972 0 0 0 0 -108061958.35253191 277691229.14757538 0 277691229.14757538 -382718445.11660767 0 0 0 0 -375886420.9297905 595792415.15841675 0 595792415.15841675 -517858001.22381592 0 0 0 0 -440953663.51190376 541230778.25434113 0 541230778.25434113 -345339786.8269186 0 0 0 0 -801338229.6734724 916804549.00872803 0 916804549.00872803 -598625177.39621735 0 0 0 0 -457353848.81899071 503505997.18606949 0 503505997.18606949 -417247277.38951111 0 0 0 0 -700508192.58430862 912770627.73740768 0 912770627.73740768 -981997348.48947144 0 0 0 0 -1084636420.1703434 826172854.3422699 0 826172854.3422699 -294691083.90380096 0 0 0 0 -588771629.28844357 542367597.44617844 0 542367597.44617844 -143540012.39933777 0 0 0 0 -717285374.10334015 283178389.93228912 0 283178389.93228912 -20563191.445869446 0 0 0 0 -293405671.57930899 117048795.39457703 0 117048795.39457703 -226335224.91932678 0 0 0 0 -247646883.65600014 509959516.04470062 0 509959516.04470062 -496377703.71253204 0 0 0 0 -311476138.98336411 72439119.80896759 0 72439119.80896759 -28093531.063339233 0 0 0 0 -316757879.34224319 103308274.18289948 0 103308274.18289948 -208149676.98532867 0 0 0 0 -268363657.09886932 291535097.9772644 0 291535097.9772644 40965943.620239258 0 0 0 0 -370121477.38336182 -4181958.0176887512 0 -4181958.0176887512 72411574.985916138 0 0 0 0 -85362892.611577511 523985989.92238665 0 523985989.92238665 206720535.57791138 0 0 0 0 -27548992.685699463 81582375.110877991 0 81582375.110877991 -256294292.01696777 0 0 0 0 -981407269.39921951 -165921434.15223694 0 -165921434.15223694 70016716.024528503 0 0 0 0 -741050861.13908863 297097189.69920349 0 297097189.69920349 154829975.43058777 0 0 0 0 -1732034626.5922012 586631985.79661942 0 586631985.79661942 99931307.424331665 0 0 0 0 -1459890721.7260611 964793447.17882538 0 964793447.17882538 137923644.8994751 0 0 0 0 -1607092396.0109048 1674212179.2100997 0 1674212179.2100997 173593274.72114563 0 0 0 0 -2891272611.2165976 1157150303.3184433 0 1157150303.3184433 340323983.25059509 0 0 0 0 -1493652392.2428572 885448311.50089264 0 885448311.50089264 294306315.00361633 0 0 0 0 -3540027151.6874962 2102084052.8472862 0 2102084052.8472862 -829117115.73838806 0 0 0 0 -1248549964.9234746 1394006907.1303291 0 1394006907.1303291 -1809781781.749527 0 0 0 0 -1934445587.5058794 -154361496.84815598 0 -154361496.84815598 -3472874556.8513708 0 0 0 0 -1958587876.1790323 2367091651.3011551 0 2367091651.3011551 -2858789290.5332642 0 0 0 0 -1634101469.4106302 2594838445.1957169 0 2594838445.1957169 -3359926425.9295607 0 0 0 0 213217734.62819481 116275190.07721329 0 116275190.07721329 -3505534960.3220778 0 0 0 0 -533896732.13462543 91936210.323688507 0 91936210.323688507 -7564301.0008392334 0 0 0 0 -3108133375.6415629 -350835110.21439028 0 -350835110.21439028 408111030.97396851 0 0 0 0 -6701929.2574963029 3490667.7064715512 0 3490667.7064715512 -2620555.5280237459 0 0 0 0 1009814841.6146679 43114682.307342529 0 43114682.307342529 -107487038.60088348 0 0 0 0 579592744.26002979 -74546946.462387085 0 -74546946.462387085 -229628278.27455521 0 0 0 0 186096781.97830641 327748444.27266693 0 327748444.27266693 225935290.58597565 0 0 0 0 -3814602.7666706624 4563643.090571519 0 4563643.090571519 -679432.98421362042 0 0 0 0 941380176.1611433 562537463.34842682 0 562537463.34842682 226842870.56611472 0 0 0 0 -20897130.554692268 284472752.04764938 0 284472752.04764938 1029380958.3057632 0 0 0 0 -2912418.3968040394 2862101.3924621865 0 2862101.3924621865 199957.12518516183 0 0 0 0 -903029333.81885135 2003016635.408596 0 2003016635.408596 483358735.14030457 0 0 0 0 884231099.08111906 398719973.67782974 0 398719973.67782974 -1272647816.3010664 0 0 0 0 -864035804.87329924 1941480401.5156784 0 1941480401.5156784 -717725442.54688454 0 0 0 0 -553703482.45101166 1279906196.5104446 0 1279906196.5104446 -483349877.35822296 0 0 0 0 -1307301345.0628042 1413945935.1842175 0 1413945935.1842175 -399409174.73680115 0 0 0 0 -594570871.93897748 543110552.66304016 0 543110552.66304016 -2009993346.6474228 0 0 0 0 642533386.01227951 168224675.21768188 0 168224675.21768188 -2056585670.1860542 0 0 0 0 657056574.56528807 754700389.92865753 0 754700389.92865753 -1239345858.8902893 0 0 0 0 1727080427.7297325 1529157105.4099712 0 1529157105.4099712 -556630168.33596802 0 0 0 0 1230509752.6135635 626654.67162322998 0 626654.67162322998 -298434918.71311283 0 0 0 0 2229461029.5853872 464809110.22093964 0 464809110.22093964 242245544.72675323 0 0 0 0 -1709825.4905342464 2057772.1505417302 0 2057772.1505417302 -50388.094564251602 0 0 0 0 1153259378.6946068 -299582251.85396957 0 -299582251.85396957 -1458508261.441864 0 0 0 0 750970495.51747608 317946268.15248489 0 317946268.15248489 348598089.1771698 0 0 0 0 1031818729.3319721 494225655.19113159 0 494225655.19113159 426670325.31583405 0 0 0 0 -269562367.28609473 -110886110.26139832 0 -110886110.26139832 -96461169.011341095 0 0 0 0 4164070.7547250814 169066.00723218918 0 169066.00723218918 -6438692.0379269589 0 0 0 0 3623621477.8001862 -441136438.93884277 0 -441136438.93884277 -1479144938.6070786 0 0 0 0 1049348394.6736422 505512675.36838531 0 505512675.36838531 -240745138.318573 0 0 0 0 3105880493.9593153 -1852614588.2480164 0 -1852614588.2480164 1545273063.8007698 0 0 0 0 2542511931.7922039 660539637.53027773 0 660539637.53027773 -407773508.46656036 0 0 0 0 1179634151.3616705 82194282.7967453 0 82194282.7967453 -643507008.96485901 0 0 0 0 1269433934.5493565 -2223332765.2253494 0 -2223332765.2253494 -66765363.55585146 0 0 0 0 671815540.09621072 -1363365003.8064575 0 -1363365003.8064575 -2222302015.5406189 0 0 0 0 621230924.66466713 -310901697.42324066 0 -310901697.42324066 -1769684292.4347992 0 0 0 0 856006329.47615981 -495460417.23879814 0 -495460417.23879814 -1628155468.2486496 0 0 0 0 365175720.92522335 -755660303.650177 0 -755660303.650177 -2536049800.9795074 0 0 0 0 -27207317.355216265 -443897431.41803646 0 -443897431.41803646 -3383282430.4443665 0 0 0 0 1410983960.4613016 181654580.08587646 0 181654580.08587646 -3238746780.3608932 0 0 0 0 1701434953.3602955 -256426590.84372902 0 -256426590.84372902 -5986927619.9053497 0 0 0 0 1767948987.0890412 -1107827508.4409485 0 -1107827508.4409485 -4117336841.0074139 0 0 0 0 1238036249.8555369 -1120104423.0421181 0 -1120104423.0421181 -4099347124.6222687 0 0 0 0 -412127548.76862192 -920013287.88746643 0 -920013287.88746643 -5983638705.8271103 0 0 0 0 1911958828.5845742 -131247709.97147894 0 -131247709.97147894 -6380481539.5544434 0 0 0 0 2264794318.5705862 -2245221867.2664795 0 -2245221867.2664795 -4745726304.826889 0 0 0 0 -761854338.83091497 1852328789.6257172 0 1852328789.6257172 -3481391606.1163483 0 0 0 0 -1305700740.7012925 1735382698.88451 0 1735382698.88451 -2374683692.6830931 0 0 0 0 -2031119691.6304712 2160311856.3616219 0 2160311856.3616219 -2339065693.8705182 0 0 0 0 -1110732654.6124158 2432097148.1020699 0 2432097148.1020699 -2750106608.4085846 0 0 0 0 -1719044594.0543251 2502769949.0706673 0 2502769949.0706673 -2646388331.8397293 0 0 0 0 -534362394.40426588 1966287114.9375839 0 1966287114.9375839 -3176011152.5389938 0 0 0 0 -3388970597.1984692 758333461.79302025 0 758333461.79302025 -3338625675.2008591 0 0 0 0 -782417606.3578217 1036616100.5319595 0 1036616100.5319595 -3144899095.2042999 0 0 0 0 102824310.69167352 -121454258.79968262 0 -121454258.79968262 -3993986736.3685112 0 0 0 0 248982746.283526 -1836278359.6800995 0 -1836278359.6800995 -2522863613.0572128 0 0 0 0 -521831290.81708384 2484836505.2420044 0 2484836505.2420044 -2533549349.4262619 0 0 0 0 8078.1671905901931 920103.1883588389 0 920103.1883588389 -4528489.7549723312 0 0 0 0 -1510157598.373987 1943132841.8557014 0 1943132841.8557014 -618826101.82102203 0 0 0 0 -152251477.32532036 -551494865.26767254 0 -551494865.26767254 -801135914.02039337 0 0 0 0 -368109511.30229312 2353700068.1766319 0 2353700068.1766319 -2526902691.8758736 0 0 0 0 1135426357.3588419 1142446160.6837921 0 1142446160.6837921 -5973040280.2989578 0 0 0 0 32619.885245962301 1593137.8703736481 0 1593137.8703736481 -4568851.989417322 0 0 0 0 410667970.80347139 -1667348423.8186917 0 -1667348423.8186917 -2004092535.6034088 0 0 0 0 62578897.935082972 441331533.48214722 0 441331533.48214722 -5969823499.5775585 0 0 0 0 -1378115581.2543321 2058514631.034687 0 2058514631.034687 -3261543301.659874 0 0 0 0 -163125754.72842148 1835147537.7038994 0 1835147537.7038994 -5985426140.1867371 0 0 0 0 21770520.291994482 572140051.85841942 0 572140051.85841942 -3105783488.1588745 0 0 0 0 -216820790.10712957 2038260069.1068697 0 2038260069.1068697 -3954488179.9509583 0 0 0 0 -1323861646.0985134 3214566686.9651451 0 3214566686.9651451 -3600794869.7741089 0 0 0 0 -360689156.68535191 2899587346.1889515 0 2899587346.1889515 -5987408201.332016 0 0 0 0 -1030264871.5715472 2175547805.2447701 0 2175547805.2447701 -2972383938.2334042 0 0 0 0 -1031349395.4549987 2599871516.3646317 0 2599871516.3646317 -3456520986.7271919 0 0 0 0 -4044629.177041457 3490107.9150533453 0 3490107.9150533453 -10444143.379143937 0 0 0 0 -1638886925.3551121 4127840000.7402611 0 4127840000.7402611 -5970367387.1695929 0 0 0 0 -5467720737.3433094 3772132937.3008289 0 3772132937.3008289 -1710434877.6550446 0 0 0 0 -2474598.0563662085 5566041.0109332697 0 5566041.0109332697 -26302316.706342198 0 0 0 0 -47841319.160393715 1015823403.7931919 0 1015823403.7931919 -682043933.1763916 0 0 0 0 -1483090442.4708097 486121169.23710442 0 486121169.23710442 -191122168.4926815 0 0 0 0 -61089435.810195923 -290749186.89672089 0 -290749186.89672089 -176404173.70029068 0 0 0 0 -1050537758.738153 2163608528.3765602 0 2163608528.3765602 -2733427389.7720604 0 0 0 0 -1057318539.7921318 2124431504.648587 0 2124431504.648587 -2775415487.7918701 0 0 0 0 -1162812085.6338415 1409180726.8196449 0 1409180726.8196449 -931551242.43244171 0 0 0 0 -1579627018.0841844 2409675761.4641638 0 2409675761.4641638 -2288506004.1874161 0 0 0 0 -334904503.33860826 583614283.07299805 0 583614283.07299805 -1249993852.0981636 0 0 0 0 -566663912.00570953 1147397606.0132113 0 1147397606.0132113 -1654156827.0205536 0 0 0 0 -780448405.13230419 1119254480.0041466 0 1119254480.0041466 -1483619977.4359131 0 0 0 0 -32046033.730606079 209259474.7113266 0 209259474.7113266 -1440736625.1086731 0 0 0 0 -14011259.90700078 -335684846.36623764 0 -335684846.36623764 -572962193.52639771 0 0 0 0 -2364393.2766215065 407362.80881162826 0 407362.80881162826 731779.66290909797 0 0 0 0 -345214398.16397476 251611891.57801819 0 251611891.57801819 107218625.96614838 0 0 0 0 1117741.1142921448 196166229.47943115 0 196166229.47943115 -17322506.685394287 0 0 0 0 -473952432.42462587 5720929.663936615 0 5720929.663936615 -121620921.13258362 0 0 0 0 -321046746.45701599 -168025948.16756439 0 -168025948.16756439 -8251111.9399414062 0 0 0 0 -455593565.47233629 3330589.230047226 0 3330589.230047226 92337292.264831543 0 0 0 0 -663876555.61302948 534749014.23248291 0 534749014.23248291 -494719520.38944244 0 0 0 0 -197493394.05019569 -234786667.92139816 0 -234786667.92139816 -293401435.08527756 0 0 0 0 865008519.36901855 144987473.85240364 0 144987473.85240364 -405834962.57780457 0 0 0 0 -1216532.1919326345 6192604.605634328 0 6192604.605634328 -33370417.707540818 0 0 0 0 86967606.464848042 -191012268.67059326 0 -191012268.67059326 89142161.104476929 0 0 0 0 -9856978.1161112785 -20113566.7735672 0 -20113566.7735672 -63611448.070037842 0 0 0 0 -176206320.81955004 -107837853.0039978 0 -107837853.0039978 43593207.171165466 0 0 0 0 36788105.741388321 -234325617.94957733 0 -234325617.94957733 -470723.35503959656 0 0 0 0 564902349.23359013 -136756434.41274261 0 -136756434.41274261 -121860816.83489227 0 0 0 0 193886646.66361761 4638375.4674768448 0 4638375.4674768448 -10725007.869438171 0 0 0 0 70658842.80921936 -105861133.54504395 0 -105861133.54504395 14493536.363853455 0 0 0 0 -141913789.38663244 -134435059.49591064 0 -134435059.49591064 39463860.20489502 0 0 0 0 38523865.786061287 -42310083.07421875 0 -42310083.07421875 -108189195.22980499 0 0 0 0 -148407056.67948437 -114963675.8265152 0 -114963675.8265152 12651691.794075012 0 0 0 0 -8504634.6747984812 1988086.0712049864 0 1988086.0712049864 -5196273.2599949539 0 0 0 0 -14432111.507583618 1875894.9022674561 0 1875894.9022674561 -15268499.305168152 0 0 0 0 -8259436.6574705327 3341210.139261568 0 3341210.139261568 357506.02175346017 0 0 0 0 587169768.99604034 379804793.88567352 0 379804793.88567352 75066227.495347977 0 0 0 0 100895475.97577667 103641869.71043396 0 103641869.71043396 142670358.98910522 0 0 0 0 -1980705.0263900757 42462121.813709259 0 42462121.813709259 203959231.51438904 0 0 0 0 -11709629.465515979 10554879.616588905 0 10554879.616588905 -7540284.4030623287 0 0 0 0 14531430.840194702 15056533.733596802 0 15056533.733596802 8513475.0808105469 0 0 0 0 -12569932.131699085 215716942.2712059 0 215716942.2712059 9625090.7647399902 0 0 0 0 -139210308.53507042 -43668277.523040771 0 -43668277.523040771 2928689.6270751953 0 0 0 0 -8615817.7774254419 2297280.1379642645 0 2297280.1379642645 3743601.1675786078 0 0 0 0 -28404234.582162857 47631430.081222534 0 47631430.081222534 57647638.71453476 0 0 0 0 -14273794.899715448 9150256.4798181318 0 9150256.4798181318 -9551264.004595682 0 0 0 0 -196965710.00456429 43072155.822402954 0 43072155.822402954 175274928.37011719 0 0 0 0 -3765587.6575674606 2505301.8947122153 0 2505301.8947122153 -11738039.728648901 0 0 0 0 -4378652.988115414 2087228.6718915161 0 2087228.6718915161 2640205.7703660876 0 0 0 0 -165578285.35327244 -81030157.650466919 0 -81030157.650466919 10953401.639442444 0 0 0 0 -45221407.310283899 21256317.500699997 0 21256317.500699997 47780103.237579346 0 0 0 0 -170803846.75555134 -86221988.377571106 0 -86221988.377571106 36077934.798294067 0 0 0 0 251735743.18033838 -262917641.03926635 0 -262917641.03926635 104411109.43114662 0 0 0 0 200498470.50731111 -210337386.59352541 0 -210337386.59352541 202791509.73253536 0 0 0 0 -988926.30465776136 -2738593.1323742792 0 -2738593.1323742792 -8632617.8001122288 0 0 0 0 -689338667.73668694 296252554.92921352 0 296252554.92921352 -185075230.15258598 0 0 0 0 -378338657.30418777 122568698.97097301 0 122568698.97097301 -107863348.11406898 0 0 0 0 -247225014.93618798 177012561.322299 0 177012561.322299 -396875702.82108307 0 0 0 0 -91250490.133913517 54434493.380741119 0 54434493.380741119 -593775349.94663239 0 0 0 0 -303193309.89131212 175084910.45815372 0 175084910.45815372 -386484538.82459545 0 0 0 0 -986791848.1717267 297824201.93763924 0 297824201.93763924 -71029175.744697571 0 0 0 0 -689391210.54206407 303861615.49074548 0 303861615.49074548 -189675124.38407516 0 0 0 0 -491787993.53128338 718669713.18468094 0 718669713.18468094 -1148416941.3492107 0 0 0 0 -421878624.19456673 466851758.24129391 0 466851758.24129391 -878813303.64232254 0 0 0 0 249587478.82386565 -235786682.13849175 0 -235786682.13849175 3960522.8664970398 0 0 0 0 -3008118670.1758976 1745232348.0904312 0 1745232348.0904312 122617788.5970211 0 0 0 0 122184996.68103313 -8618564.0054059029 0 -8618564.0054059029 -24417209.728796959 0 0 0 0 221320346.12672806 -98811651.233076096 0 -98811651.233076096 -116563258.62777174 0 0 0 0 235325010.02846718 -181060631.79447651 0 -181060631.79447651 -106005680.33717096 0 0 0 0 217275835.86172295 -225569123.93708324 0 -225569123.93708324 31162953.253565788 0 0 0 0 154999411.81089973 -114648765.04947472 0 -114648765.04947472 -28076731.551534653 0 0 0 0 188755622.11194491 -196646608.50309658 0 -196646608.50309658 115808505.87105179 0 0 0 0 338671471.83655047 -338900325.17160511 0 -338900325.17160511 140480699.2124896 0 0 0 0 236082107.07265496 -206164203.48691416 0 -206164203.48691416 50597975.816833496 0 0 0 0 234118301.60000038 -265872926.75218058 0 -265872926.75218058 88402365.936523199 0 0 0 0 330488060.65541911 -255911103.97566795 0 -255911103.97566795 47262170.261976242 0 0 0 0 227565543.9345336 -252814502.77892542 0 -252814502.77892542 75105411.675821304 0 0 0 0 240705348.65647984 -229540245.24883562 0 -229540245.24883562 7881863.670343399 0 0 0 0 -3462226.5880784071 16553123.060064351 0 16553123.060064351 -398326.52446796 0 0 0 0 779794630.51989734 -254284570.62292016 0 -254284570.62292016 -12919868.933053493 0 0 0 0 219812524.5481472 -74797675.292186737 0 -74797675.292186737 -91188765.308006287 0 0 0 0 561066.51912420697 5603538.6871820046 0 5603538.6871820046 -39572093.070931986 0 0 0 0 619240446.56817961 -129235888.93622708 0 -129235888.93622708 -31960065.399590015 0 0 0 0 367188979.08458114 -84164966.100042343 0 -84164966.100042343 -8294146.1157026291 0 0 0 0 101157804.22967863 -51601803.340738297 0 -51601803.340738297 31162354.286979675 0 0 0 0 -2975716.7969574081 16313999.823594827 0 16313999.823594827 543937.11222688062 0 0 0 0 186129849.76969576 44160067.357415199 0 44160067.357415199 -149549216.81225586 0 0 0 0 -666559.49826782488 6092996.7916333554 0 6092996.7916333554 -36873651.129451692 0 0 0 0 164775316.84694648 -41174239.403979063 0 -41174239.403979063 -4402865.4533224106 0 0 0 0 149916137.55863512 -57130999.591479778 0 -57130999.591479778 1958338.6005125046 0 0 0 0 226059613.63794041 -231890989.86040592 0 -231890989.86040592 108811634.31840801 0 0 0 0 295182674.29798245 -155597775.79556799 0 -155597775.79556799 45397518.097547889 0 0 0 0 221832564.42537183 -213617017.70726705 0 -213617017.70726705 30879897.982343674 0 0 0 0 117895391.53376472 -85238162.656643867 0 -85238162.656643867 29709490.368660212 0 0 0 0 193659223.45588493 -180193042.16565704 0 -180193042.16565704 75371150.010764122 0 0 0 0 195565575.12459904 -171775610.39570498 0 -171775610.39570498 94998407.327516556 0 0 0 0 79892475.921158075 -63642675.938580513 0 -63642675.938580513 80278662.638718843 0 0 0 0 112358883.89583081 -35356149.779354334 0 -35356149.779354334 -2566226.0343208313 0 0 0 0 181928799.77433205 -152298483.1467452 0 -152298483.1467452 114412751.47372818 0 0 0 0 1674775.1067208052 -10875122.420126915 0 -10875122.420126915 -21664967.132595062 0 0 0 0 -771221.39496693946 3692503.5951065733 0 3692503.5951065733 48647.807388424873 0 0 0 0 193984295.96523237 -77914339.15478754 0 -77914339.15478754 630585719.51857376 0 0 0 0 38232932.274180174 19314893.787305832 0 19314893.787305832 -262526.39456862211 0 0 0 0 51472092.087332308 32751301.567486763 0 32751301.567486763 30230716.757935524 0 0 0 0 237698189.07693455 326426260.6129055 0 326426260.6129055 -34183172.838399887 0 0 0 0 362483545.49477541 164402462.3480196 0 164402462.3480196 -494031797.73812103 0 0 0 0 88546397.841158509 169023935.71895313 0 169023935.71895313 -167591817.78571844 0 0 0 0 51893220.298382461 48572727.238265038 0 48572727.238265038 -182996625.48290062 0 0 0 0 60525021.382381439 197794191.41575336 0 197794191.41575336 18427159.148939133 0 0 0 0 -8582025.2632024288 -7944790.9808659554 0 -7944790.9808659554 100137726.81035709 0 0 0 0 28831694.417634845 1104853.5230784416 0 1104853.5230784416 45026163.850757599 0 0 0 0 -23932448.979736626 119575269.55735397 0 119575269.55735397 -51169545.491270065 0 0 0 0 -120829687.41329575 115115208.5850482 0 115115208.5850482 -22265641.952692509 0 0 0 0 -131108353.22423697 -68257235.949760914 0 -68257235.949760914 65217765.576327801 0 0 0 0 205609016.36551714 -228643162.22045517 0 -228643162.22045517 72164975.752710342 0 0 0 0 68127610.856467962 -149722049.27231598 0 -149722049.27231598 214544396.27079105 0 0 0 0 131190571.269346 -96581824.547543526 0 -96581824.547543526 48994395.961381197 0 0 0 0 449139671.6768508 -241211411.25715145 0 -241211411.25715145 98206838.131048203 0 0 0 0 232778953.35589838 -92370243.37605381 0 -92370243.37605381 151895360.15740275 0 0 0 0 -337581862.40993023 264169541.57496452 0 264169541.57496452 -109700987.03038788 0 0 0 0 -1111514.9650047787 -3662364.4471535753 0 -3662364.4471535753 -11891104.098282177 0 0 0 0 -948462148.90546894 494934505.81818676 0 494934505.81818676 317060599.62114334 0 0 0 0 440811583.47868925 -465121074.75543159 0 -465121074.75543159 232677982.4365654 0 0 0 0 -897337901.46170521 314468618.76013565 0 314468618.76013565 -354190014.30717468 0 0 0 0 111703292.07758021 -5397420.5874452591 0 -5397420.5874452591 239294995.69265223 0 0 0 0 139291804.97044897 -265870708.97725773 0 -265870708.97725773 457783836.77737522 0 0 0 0 129963370.86604071 81301000.676411152 0 81301000.676411152 74538714.205917045 0 0 0 0 612542671.49902689 -504129791.52834821 0 -504129791.52834821 -391977389.59863853 0 0 0 0 153731438.27752542 -41826549.555527925 0 -41826549.555527925 -373030192.64888859 0 0 0 0 -141657488.70963252 -99204470.100213051 0 -99204470.100213051 -381480020.11804688 0 0 0 0 267545795.37025678 301963710.62417018 0 301963710.62417018 -2382576991.601892 0 0 0 0 -52995519.909986317 168741196.32673752 0 168741196.32673752 -64121985.60609436 0 0 0 0 -293969603.26386869 11486720.753838539 0 11486720.753838539 139408881.97623599 0 0 0 0 -11552570.940816611 304447174.46909142 0 304447174.46909142 158601125.15687943 0 0 0 0 -165291696.67732117 135987083.38362122 0 135987083.38362122 49831372.006885529 0 0 0 0 -281873557.11615747 -240924819.6006155 0 -240924819.6006155 -172957080.71770048 0 0 0 0 -85332966.501618922 48355080.382185698 0 48355080.382185698 -196752476.47492218 0 0 0 0 -6404265.4557819366 37055950.547307968 0 37055950.547307968 -1089454436.5714483 0 0 0 0 359388930.15784585 -208417670.96263003 0 -208417670.96263003 -856202808.42353725 0 0 0 0 -154761478.51820779 -30288457.420366287 0 -30288457.420366287 -898057399.3366394 0 0 0 0 -556878648.48370361 -1068188040.585265 0 -1068188040.585265 -1773125017.2697725 0 0 0 0 1007853330.0630609 -1536801458.3649585 0 -1536801458.3649585 -5985861719.7890034 0 0 0 0 -1990431059.4003174 -2963389265.5414209 0 -2963389265.5414209 -2581774100.227685 0 0 0 0 1006906517.6161054 -1531596593.3943396 0 -1531596593.3943396 -5972258401.3806362 0 0 0 0 817622292.86476707 -112827977.46551394 0 -112827977.46551394 -3661452203.8208323 0 0 0 0 859044101.8912977 112763971.23380232 0 112763971.23380232 -2497803817.4097166 0 0 0 0 873600715.80331862 1165315088.3223758 0 1165315088.3223758 -5984862664.869792 0 0 0 0 53907945.940085769 1032415426.0271122 0 1032415426.0271122 -1892369575.3016939 0 0 0 0 363041.07506729616 852684.49502707692 0 852684.49502707692 -7888066.5284452885 0 0 0 0 -1084346714.3667371 3197811620.1958828 0 3197811620.1958828 -5974430680.0658216 0 0 0 0 -126366510.74103442 -1273173241.5745215 0 -1273173241.5745215 -1243782025.3793602 0 0 0 0 501944790.32825786 -772398813.36941147 0 -772398813.36941147 -5972068430.0759993 0 0 0 0 343141385.58927917 1342018792.2352743 0 1342018792.2352743 -5973324281.237812 0 0 0 0 411839134.75391531 283560548.29349518 0 283560548.29349518 -2056711928.3934021 0 0 0 0 -367838026.8626979 240720675.85568714 0 240720675.85568714 -2058225594.2025146 0 0 0 0 -819184100.85585546 490082090.74274158 0 490082090.74274158 -491960157.38562775 0 0 0 0 -377776627.92275488 539019398.90365791 0 539019398.90365791 84854311.140524864 0 0 0 0 -703984637.60233307 11723781.563666344 0 11723781.563666344 -468001132.30388832 0 0 0 0 -169912029.00081682 301918590.86177063 0 301918590.86177063 45012147.147877693 0 0 0 0 -741809662.77011716 441983238.60739326 0 441983238.60739326 12005066.426841736 0 0 0 0 -116750731.00757933 -113140726.06604099 0 -113140726.06604099 70168937.037359238 0 0 0 0 -768786503.63556206 -141668511.81215608 0 -141668511.81215608 158629865.86823273 0 0 0 0 -481682620.59631562 95255103.594869614 0 95255103.594869614 6785094.8318519592 0 0 0 0 -8764356.9900370836 3318742.7831163406 0 3318742.7831163406 2800634.2172177434 0 0 0 0 -154563460.52627331 319640784.20972443 0 319640784.20972443 -122209174.40097046 0 0 0 0 -60972200.448364735 177372136.10607338 0 177372136.10607338 -163952233.02539873 0 0 0 0 -174932377.12536627 291964643.37827635 0 291964643.37827635 -148498939.6589222 0 0 0 0 -785653.60857974377 -3675207.8129585031 0 -3675207.8129585031 -14004281.577535147 0 0 0 0 -292620103.26309228 355495650.42443848 0 355495650.42443848 -182601019.01660347 0 0 0 0 -295470341.64501393 385052140.92282581 0 385052140.92282581 -412492240.67963409 0 0 0 0 398817416.58045828 287109797.91128564 0 287109797.91128564 -2011980604.7237859 0 0 0 0 -246653.00701922018 -2255405.9037069459 0 -2255405.9037069459 -13427704.144063296 0 0 0 0 368482685.72114909 233128890.44475889 0 233128890.44475889 -268344303.31853008 0 0 0 0 4070447.5845460892 -73252395.675661087 0 -73252395.675661087 -128226783.69628143 0 0 0 0 -293374074.35525721 290152914.00053024 0 290152914.00053024 -168358131.22001266 0 0 0 0 -5567756.8114629844 -4077938.890302646 0 -4077938.890302646 -6732750.2873265259 0 0 0 0 -734959.14724313014 672057.92315557564 0 672057.92315557564 -2538685.7036733702 0 0 0 0 -68823380.970339209 1262254664.0410805 0 1262254664.0410805 -2933331370.4848022 0 0 0 0 538908492.79460776 -860660408.07169724 0 -860660408.07169724 -5921081402.0629368 0 0 0 0 -1084403111.6054542 -203579802.05783272 0 -203579802.05783272 606916473.14473724 0 0 0 0 -92776738.025012165 -84234229.392326355 0 -84234229.392326355 615599867.44752002 0 0 0 0 1079998104.9450016 105755709.41632271 0 105755709.41632271 -5960192165.8779602 0 0 0 0 -1753329.0087152547 494435.45165283838 0 494435.45165283838 -4542401.9039235637 0 0 0 0 -269460024.81000745 -1160284404.9803543 0 -1160284404.9803543 -3403712232.5744171 0 0 0 0 -848199193.04198432 1631852099.1446304 0 1631852099.1446304 -1497302129.5536976 0 0 0 0 -475006043.98016095 -343556840.62303066 0 -343556840.62303066 430082247.55548859 0 0 0 0 691483741.98954535 -33186608.632609844 0 -33186608.632609844 -256002859.54050064 0 0 0 0 -101722986.39878407 -69902578.98300457 0 -69902578.98300457 120850979.96555138 0 0 0 0 27058519.015054464 -218854472.32676697 0 -218854472.32676697 44705224.959400654 0 0 0 0 10628586.978487441 -13510406.246974945 0 -13510406.246974945 -106618094.96523094 0 0 0 0 -351511.59485692118 -5132783.6214279337 0 -5132783.6214279337 -13318234.371818997 0 0 0 0 -1818280.9113591386 451590.92843018519 0 451590.92843018519 -9741190.4584619831 0 0 0 0 -22389918.514038108 16793528.392137527 0 16793528.392137527 393079351.53926086 0 0 0 0 64510476.223752804 43554157.840409279 0 43554157.840409279 -91752439.452835083 0 0 0 0 -110585125.05047387 -64130649.072369039 0 -64130649.072369039 -30263200.26530838 0 0 0 0 -1358715.7441102089 -438381.7403103048 0 -438381.7403103048 -4250893.1963249594 0 0 0 0 58731767.653148763 -109610769.26025009 0 -109610769.26025009 336487215.74803162 0 0 0 0 -2836372.7351219119 -4373182.4684871892 0 -4373182.4684871892 -2721544.0464785993 0 0 0 0 -17826451.255297661 -20664468.194263458 0 -20664468.194263458 2726214.1714172363 0 0 0 0 -6343052.158185482 -14843511.907924652 0 -14843511.907924652 -9599406.8596763611 0 0 0 0 11214971.090105431 -9220028.7936424017 0 -9220028.7936424017 -41800933.553207397 0 0 0 0 11169759.706573009 -4344463.656791687 0 -4344463.656791687 -37109815.421165466 0 0 0 0 6132053.2326540947 -7933965.6014671326 0 -7933965.6014671326 -28697434.381286621 0 0 0 0 6601376.1322237849 -6646368.0815296173 0 -6646368.0815296173 -35535256.436714172 0 0 0 0 -1932384.8162362846 -7742572.3621709608 0 -7742572.3621709608 -23091528.182234313 0 0 0 0 678072.37382856454 -760742.57534780353 0 -760742.57534780353 -19524445.452722237 0 0 0 0 4676402.4174742997 -1310484.9329280853 0 -1310484.9329280853 -2858732.4528961182 0 0 0 0 3286445.234128952 -6024923.1037712097 0 -6024923.1037712097 -35489242.376224518 0 0 0 0 394270.81158358499 -825645.95384401199 0 -825645.95384401199 -18967193.198548764 0 0 0 0 -813788.32749115594 -1601941.919570534 0 -1601941.919570534 -16658427.170784846 0 0 0 0 144978050.04008353 -40825690.649486542 0 -40825690.649486542 -28831317.22889328 0 0 0 0 118397533.00418949 -25314618.716159821 0 -25314618.716159821 -26843149.606427193 0 0 0 0 -41389422.004621267 -50443317.336033821 0 -50443317.336033821 25346684.458312988 0 0 0 0 -7637427.0013599396 -54690107.285747528 0 -54690107.285747528 25813570.333058357 0 0 0 0 8164393.5172226429 -117596492.15677547 0 -117596492.15677547 33963792.558609009 0 0 0 0 36785957.619241714 -136720498.40090942 0 -136720498.40090942 41299699.676319122 0 0 0 0 174342913.77373624 -233427746.15995026 0 -233427746.15995026 52902386.806129456 0 0 0 0 328835954.51054144 -256038857.34735489 0 -256038857.34735489 83075405.182979584 0 0 0 0 268905339.99744892 172532842.05623388 0 172532842.05623388 -245354142.16274643 0 0 0 0 -21616909.112879395 -18849669.230316162 0 -18849669.230316162 -4780639.5208892822 0 0 0 0 468253.62903145957 -183790.35371774901 0 -183790.35371774901 -1043132.8286682842 0 0 0 0 414177880.00061417 176636985.44568634 0 176636985.44568634 -155210367.62817383 0 0 0 0 -203307170.51631969 -100349277.56216288 0 -100349277.56216288 141106985.22835541 0 0 0 0 -84400971.438045025 -185736591.20005417 0 -185736591.20005417 139726840.5658989 0 0 0 0 -141264459.89170456 62586663.743824005 0 62586663.743824005 6650537.9684333801 0 0 0 0 -61347126.468325615 52506678.150474548 0 52506678.150474548 -49585735.750221252 0 0 0 0 -90068409.158982158 -95389435.900393486 0 -95389435.900393486 -81357104.562368393 0 0 0 0 -879563.45336373802 193199.03481807187 0 193199.03481807187 12194.603118059691 0 0 0 0 -220591947.37582225 1329698.9932105541 0 1329698.9932105541 87824774.09563446 0 0 0 0 -56868700.580396652 5335409.7742958069 0 5335409.7742958069 27621718.424985886 0 0 0 0 -76786914.921434641 -10143114.200127602 0 -10143114.200127602 27759600.14414978 0 0 0 0 -62957699.220700741 -57369839.420085907 0 -57369839.420085907 66011892.130228043 0 0 0 0 -41891442.089029312 -21353170.348995209 0 -21353170.348995209 31289941.659999847 0 0 0 0 -48959647.709615231 -1609231.2609357834 0 -1609231.2609357834 18561941.787998199 0 0 0 0 -44562599.179082274 -6677741.139080286 0 -6677741.139080286 5670134.6519927979 0 0 0 0 -26087944.706902742 -14751396.95903492 0 -14751396.95903492 7572307.0260620117 0 0 0 0 -30052175.018410165 -38596512.950206667 0 -38596512.950206667 19927361.053253174 0 0 0 0 -24175948.619513988 -22282880.228885651 0 -22282880.228885651 4178961.0820503235 0 0 0 0 -30181410.282622814 -23152983.664197922 0 -23152983.664197922 10304114.067955017 0 0 0 0 -15507903.981338263 -11641361.190725327 0 -11641361.190725327 -17620605.15675354 0 0 0 0 -3573146.6219058037 -12792385.874881744 0 -12792385.874881744 -28775359.551574707 0 0 0 0 53909415.445952415 75999057.601072788 0 75999057.601072788 -14141514.210411072 0 0 0 0 44958779.959693313 51370114.125753313 0 51370114.125753313 -15277776.093673706 0 0 0 0 41562879.344753265 30550131.937734604 0 30550131.937734604 -298147.90377235413 0 0 0 0 45567972.199144661 62030829.381455421 0 62030829.381455421 24144794.995704651 0 0 0 0 492306.34067421034 -535659.57789893541 0 -535659.57789893541 -3121604.9048357047 0 0 0 0 49590879.182066441 81981747.694089651 0 81981747.694089651 19807608.442848206 0 0 0 0 127767554.50085449 -281047686.33876038 0 -281047686.33876038 100485337.84652519 0 0 0 0 1434553.3278243542 -17704693.825386047 0 -17704693.825386047 -24454838.448265076 0 0 0 0 5813583.2347784042 -18668138.15246582 0 -18668138.15246582 -31248848.949886322 0 0 0 0 -3769340.289198325 83292.847354004392 0 83292.847354004392 -12685774.136975955 0 0 0 0 -1278676.0634964705 -20873388.296264648 0 -20873388.296264648 -28732495.131362915 0 0 0 0 -74650945.61126709 -55338855.255844116 0 -55338855.255844116 -141900391.68249512 0 0 0 0 2980176.1677610688 -1121646.709896429 0 -1121646.709896429 -11414519.771790672 0 0 0 0 -11821302.299250603 -15467764.465564728 0 -15467764.465564728 -23852721.222896576 0 0 0 0 -4488924.4806711376 -4391053.7192964554 0 -4391053.7192964554 -20430687.714744568 0 0 0 0 3048148.930157423 -16855348.16204071 0 -16855348.16204071 -26358900.513961792 0 0 0 0 15771204.10694313 -12283616.662117004 0 -12283616.662117004 -24122303.022167444 0 0 0 0 8855504.0289063454 -22945969.119075775 0 -22945969.119075775 -21378979.44134903 0 0 0 0 5998469.8260331154 -32904688.290794373 0 -32904688.290794373 -8393128.0674591064 0 0 0 0 -6900164.9008295536 -20921490.299253464 0 -20921490.299253464 -10507840.71787262 0 0 0 0 28454803.123126984 -50300973.949733734 0 -50300973.949733734 -1410660.9263000488 0 0 0 0 14397242.20876193 -12491367.396224976 0 -12491367.396224976 -21696759.270965576 0 0 0 0 32367672.370055199 -14025581.877033234 0 -14025581.877033234 -26836975.065359116 0 0 0 0 34660337.026489735 5827780.9217338562 0 5827780.9217338562 -10048100.382293701 0 0 0 0 2798669.913034006 -3182488.7868449232 0 -3182488.7868449232 -21075675.078168623 0 0 0 0 23302268.24649328 -5751444.5773696899 0 -5751444.5773696899 -24557634.482685089 0 0 0 0 -2821510.6141504063 5192033.75436131 0 5192033.75436131 -15991864.829824131 0 0 0 0 10399709.099896669 -3310689.0114402771 0 -3310689.0114402771 -34694706.276351929 0 0 0 0 -4190211.1995961731 158024.40070998098 0 158024.40070998098 -14838311.79682469 0 0 0 0 20010794.22164917 7307138.0065002441 0 7307138.0065002441 -5717445.2321739197 0 0 0 0 -8679604.5971980691 -8413764.0956897736 0 -8413764.0956897736 -22690925.506420135 0 0 0 0 -20919725.323173285 4692647.1045570374 0 4692647.1045570374 -12075940.164916992 0 0 0 0 16058727.429014206 743537.19805526733 0 743537.19805526733 -39111634.211883545 0 0 0 0 8924708.6346292496 5655226.2527236938 0 5655226.2527236938 -27978674.456497192 0 0 0 0 12734814.418460846 2754224.8110427856 0 2754224.8110427856 -26227586.045310974 0 0 0 0 13680843.392422199 -2977661.3901901245 0 -2977661.3901901245 -37191322.343475342 0 0 0 0 12566959.620800138 -5161956.9146747589 0 -5161956.9146747589 -38182354.834068298 0 0 0 0 -28402648.738858223 108909825.93950844 0 108909825.93950844 445379211.44756699 0 0 0 0 82274292.616026878 70709802.012987137 0 70709802.012987137 252502534.93367577 0 0 0 0 52384599.917669296 106989760.70831871 0 106989760.70831871 79956410.830000877 0 0 0 0 22782150.438171387 195362647.59218597 0 195362647.59218597 147870284.39645767 0 0 0 0 35951772.114031196 91084163.084075928 0 91084163.084075928 222549794.56940842 0 0 0 0 5740129.5730476379 218526516.9979229 0 218526516.9979229 48247081.495161057 0 0 0 0 -409751646.81340027 -42258587.497587204 0 -42258587.497587204 849304558.809412 0 0 0 0 -251990415.32547379 69011298.569288254 0 69011298.569288254 291503216.00118172 0 0 0 0 128657615.12477207 -13340616.843027115 0 -13340616.843027115 285220629.38390541 0 0 0 0 55702723.789819717 191748560.87063408 0 191748560.87063408 302359983.43225479 0 0 0 0 -223136465.31689334 291139854.35160995 0 291139854.35160995 -397953076.88647079 0 0 0 0 -708291.04404440662 -182837.63573282212 0 -182837.63573282212 -318048.9868092523 0 0 0 0 -455369044.45452982 1232488972.4665313 0 1232488972.4665313 -1298320718.2673817 0 0 0 0 -242532471.44853997 201286795.19602585 0 201286795.19602585 -598870081.3393259 0 0 0 0 -1911815.9867908303 -435600.15064225905 0 -435600.15064225905 -909431.33497789013 0 0 0 0 -87939722.536639214 201940520.69987106 0 201940520.69987106 -494385897.09941483 0 0 0 0 -104926158.71406054 232965083.64523888 0 232965083.64523888 -377720734.44127274 0 0 0 0 123279265.17792118 143848948.05955124 0 143848948.05955124 -430011951.7709446 0 0 0 0 -285906.60653852794 -122259.54159087408 0 -122259.54159087408 157493.71474241279 0 0 0 0 -114634185.30797142 222165244.2787118 0 222165244.2787118 -195310607.90670013 0 0 0 0 -88498911.868161559 63345992.719641685 0 63345992.719641685 -40816250.7531147 0 0 0 0 -2395299.8884611255 500604.07507357839 0 500604.07507357839 31383.933283912484 0 0 0 0 -165270162.6446299 149795189.80600739 0 149795189.80600739 -89853542.528043747 0 0 0 0 5518636.4478487968 9851910.5995521545 0 9851910.5995521545 -22952724.109379768 0 0 0 0 -45398666.978187084 4968342.3588619232 0 4968342.3588619232 2065013.2786064148 0 0 0 0 200435.92828607559 -2077416.9514369965 0 -2077416.9514369965 1427798.4075303078 0 0 0 0 -2372980.026095483 151928.53108507255 0 151928.53108507255 -2601072.8173161549 0 0 0 0 46767158.230788231 149456391.29554844 0 149456391.29554844 156203529.41049004 0 0 0 0 26865918.981285095 145225633.8568182 0 145225633.8568182 159276787.92399406 0 0 0 0 105408160.95773983 32449433.526765823 0 32449433.526765823 32502981.812259674 0 0 0 0 84183277.556539536 100822589.4618578 0 100822589.4618578 -43188383.599890709 0 0 0 0 -34589223.886509895 -6886474.3248062134 0 -6886474.3248062134 4708017.6771507263 0 0 0 0 -32963283.312638283 203438161.44087791 0 203438161.44087791 -75592331.810159683 0 0 0 0 118433941.95820236 104235637.25896263 0 104235637.25896263 -19718322.803628922 0 0 0 0 -3284065.89764472 768043.6160108014 0 768043.6160108014 -6068394.7545755012 0 0 0 0 97708182.901896477 76412087.912985802 0 76412087.912985802 -44157841.35863781 0 0 0 0 56424393.864528656 73347918.791246414 0 73347918.791246414 -21339346.301618934 0 0 0 0 67637269.081027985 40688944.936965942 0 40688944.936965942 -79547029.494972229 0 0 0 0 65618363.408884048 56212182.970988274 0 56212182.970988274 -28361840.125043869 0 0 0 0 86641120.855329514 20822695.188337326 0 20822695.188337326 -104641878.51350212 0 0 0 0 71998872.173805237 24996860.908947945 0 24996860.908947945 -102499273.19636822 0 0 0 0 58494743.657901764 -31201051.600269318 0 -31201051.600269318 -220718370.47519684 0 0 0 0 43625209.879185677 75679946.09886837 0 75679946.09886837 -138630554.66884899 0 0 0 0 77844772.948870301 40876306.224340379 0 40876306.224340379 -104854480.43220711 0 0 0 0 30195058.922021866 176541076.13297367 0 176541076.13297367 -316072.20989608765 0 0 0 0 30726702.706746534 78045827.970864937 0 78045827.970864937 -55070354.141067505 0 0 0 0 -115211527.13817024 166984034.55705929 0 166984034.55705929 -109257809.48704338 0 0 0 0 -112579576.74628735 165679836.55454254 0 165679836.55454254 -275713700.89369965 0 0 0 0 -62273203.705392838 101736903.28524113 0 101736903.28524113 -324998105.2379427 0 0 0 0 -43331696.970658302 -78439521.751651764 0 -78439521.751651764 -264547984.4241538 0 0 0 0 13208440.514024258 7584656.5801067352 0 7584656.5801067352 -212540731.80664444 0 0 0 0 -201076987.96157694 63849099.861296654 0 63849099.861296654 -234169875.68877983 0 0 0 0 -147514130.84834433 -130790914.0448103 0 -130790914.0448103 -58026396.210595131 0 0 0 0 -24362142.102386951 -100093551.5917654 0 -100093551.5917654 -302962097.58625126 0 0 0 0 9038087.70383358 -56774021.647936821 0 -56774021.647936821 -139437199.76667595 0 0 0 0 -17382013.768733978 -61791956.215683937 0 -61791956.215683937 -134129895.76526356 0 0 0 0 -55166941.935511589 -94048308.786886692 0 -94048308.786886692 -114652162.73879623 0 0 0 0 -92226217.683207273 -69046827.477138519 0 -69046827.477138519 -66393693.900575638 0 0 0 0 -97469679.127459049 -76576866.050502777 0 -76576866.050502777 -56104341.274510145 0 0 0 0 -64442521.861849785 -66420731.959578991 0 -66420731.959578991 -66380858.826056361 0 0 0 0 -64721263.253851056 -64304259.9508214 0 -64304259.9508214 -63947422.998495102 0 0 0 0 -11465064.850484848 -50933775.876110077 0 -50933775.876110077 -81679692.1410532 0 0 0 0 262066369.00762939 175810559.27805567 0 175810559.27805567 27383203.33093071 0 0 0 0 235567050.89263344 304912729.00048542 0 304912729.00048542 152632993.01817322 0 0 0 0 -6143330.4159488529 4087858.7996648243 0 4087858.7996648243 -7532569.0154109858 0 0 0 0 -2147185.733921051 -33164736.032285213 0 -33164736.032285213 -55856297.873921707 0 0 0 0 -1199034.603272438 -35752877.824958801 0 -35752877.824958801 -60363157.862808228 0 0 0 0 -31811932.324394703 -37450971.742342234 0 -37450971.742342234 -57429726.426008224 0 0 0 0 -28010797.498400688 -45621774.552981853 0 -45621774.552981853 -59722310.634215355 0 0 0 0 17542579.689724922 -28734798.366916656 0 -28734798.366916656 -77507015.748551607 0 0 0 0 7598333.320775032 -43006520.800215721 0 -43006520.800215721 -82698710.460342407 0 0 0 0 3714374.9817829132 -30196806.931785464 0 -30196806.931785464 -65872237.806209564 0 0 0 0 34119255.685455322 -16829251.78676033 0 -16829251.78676033 -71561948.508496284 0 0 0 0 16743211.237204552 -26305444.417842865 0 -26305444.417842865 -74742175.683801651 0 0 0 0 46399573.285718918 1654990.207034111 0 1654990.207034111 -75035795.595380783 0 0 0 0 36458809.354297638 -23459142.350357056 0 -23459142.350357056 -106473865.65880203 0 0 0 0 50336532.504099846 -4622070.2682390213 0 -4622070.2682390213 -85336961.877410889 0 0 0 0 32230592.625303268 -22147397.152134895 0 -22147397.152134895 -99606006.040841222 0 0 0 0 -9150277.9209814072 -53943333.630862236 0 -53943333.630862236 -95316140.757052422 0 0 0 0 54655057.8312397 -20749296.892828941 0 -20749296.892828941 -136342030.41230679 0 0 0 0 5066951.696980834 -37607185.131791472 0 -37607185.131791472 -103450254.97375298 0 0 0 0 71853263.916382313 12063352.853807449 0 12063352.853807449 -96388581.418083191 0 0 0 0 58338163.307342529 11112727.063518524 0 11112727.063518524 -88758893.909916878 0 0 0 0 56842885.262730598 19770831.277656555 0 19770831.277656555 -68784262.798540115 0 0 0 0 60348188.681474686 32204196.174880981 0 32204196.174880981 -58612791.754360199 0 0 0 0 55562950.077709198 23283438.77237463 0 23283438.77237463 -51529725.016057968 0 0 0 0 55883480.986915588 15593303.595403671 0 15593303.595403671 -66485648.947534561 0 0 0 0 51116198.124391556 23101262.588885307 0 23101262.588885307 -39476273.180952072 0 0 0 0 54318506.443800926 29521914.811353683 0 29521914.811353683 -42628481.432060242 0 0 0 0 56632468.175113678 41708133.324579239 0 41708133.324579239 -21052455.818302155 0 0 0 0 42256195.598571777 25986991.495993137 0 25986991.495993137 -20098332.614295959 0 0 0 0 51906654.240710258 11818407.50799942 0 11818407.50799942 -38130398.547542095 0 0 0 0 42837659.104766369 24377288.523934364 0 24377288.523934364 -23568165.270339966 0 0 0 0 17025727.13205719 10853333.75396347 0 10853333.75396347 -28040312.545700073 0 0 0 0 51371454.053441525 15171362.77242589 0 15171362.77242589 -48758467.847917557 0 0 0 0 48468490.024011135 9566636.5142717361 0 9566636.5142717361 -54603700.366905212 0 0 0 0 51668857.689390182 7075973.4674863815 0 7075973.4674863815 -64717049.722464085 0 0 0 0 43970464.389400959 2086866.602440834 0 2086866.602440834 -64627951.935602188 0 0 0 0 20355584.332836151 14471117.513847351 0 14471117.513847351 -22195024.346977234 0 0 0 0 12388578.944292545 9578364.9772911072 0 9578364.9772911072 -24039650.60118103 0 0 0 0 12957610.623580933 -6322034.1785316467 0 -6322034.1785316467 -62797649.255283356 0 0 0 0 23877026.770123005 8270548.4770298004 0 8270548.4770298004 -14172613.201179504 0 0 0 0 1841893.5819327484 2822084.7315432113 0 2822084.7315432113 -17793340.562211104 0 0 0 0 5862439.2561326921 -10206098.746035816 0 -10206098.746035816 -21791944.48558167 0 0 0 0 3672649.1974736387 -2593411.6331585096 0 -2593411.6331585096 -37086697.525145948 0 0 0 0 142161089.83459377 103761832.01784897 0 103761832.01784897 -18091620.539001465 0 0 0 0 -8541012.2103493214 -95232352.648838043 0 -95232352.648838043 -6969326.3936309814 0 0 0 0 452134.84172879095 -3869572.6945057469 0 -3869572.6945057469 -39406915.364321448 0 0 0 0 -43403627.402211189 13247249.142692566 0 13247249.142692566 148089948.17080688 0 0 0 0 -60521126.15296936 -126977353.52967834 0 -126977353.52967834 -196970727.40499878 0 0 0 0 -907717.48723316193 -2623012.8974761963 0 -2623012.8974761963 -8177050.7293167114 0 0 0 0 198175.14346478158 -964618.58138699085 0 -964618.58138699085 -6799832.5242506526 0 0 0 0 14250654.450694323 -136856877.21837234 0 -136856877.21837234 -167483096.49714661 0 0 0 0 988236.31003892515 -1229431.3907423653 0 -1229431.3907423653 -4318863.7929931059 0 0 0 0 8719483.6864414215 18063874.010070801 0 18063874.010070801 -41513988.077720642 0 0 0 0 -63645561.457345247 -119290008.65487862 0 -119290008.65487862 659753.92291259766 0 0 0 0 -12437961.228211902 -7285491.5724523067 0 -7285491.5724523067 -34757023.211517334 0 0 0 0 83367444.852006912 49916117.005859375 0 49916117.005859375 -9079311.6983795166 0 0 0 0 -3526165.3177533317 3185168.5397980213 0 3185168.5397980213 -27876850.129257202 0 0 0 0 670429.25270664552 541058.16315307096 0 541058.16315307096 -3143010.1459676474 0 0 0 0 47574015.586372375 5071248.9747314453 0 5071248.9747314453 -47192410.017959595 0 0 0 0 -3602278.1778359115 -1362320.6386563778 0 -1362320.6386563778 -38191538.055740356 0 0 0 0 62982486.152486801 -30237281.90020752 0 -30237281.90020752 -99559969.35736084 0 0 0 0 77109662.932386398 -14112332.213989258 0 -14112332.213989258 -82567852.443222046 0 0 0 0 226304617.67150497 -22584481.917922974 0 -22584481.917922974 -101505576.57995605 0 0 0 0 205103957.51426768 -187510229.43297005 0 -187510229.43297005 -95746556.768951416 0 0 0 0 51290598.472290039 -140711214.49066162 0 -140711214.49066162 -57351903.580291748 0 0 0 0 2476648.9386388282 -2914409.3938141218 0 -2914409.3938141218 -43985224.991081879 0 0 0 0 -14355981.754778862 -50412335.597866058 0 -50412335.597866058 -54722861.483520508 0 0 0 0 37218212.448569298 2207186.9482536316 0 2207186.9482536316 -86719075.305496216 0 0 0 0 65145617.168870926 -22216980.244895935 0 -22216980.244895935 -103534143.70629883 0 0 0 0 -8911018.4357662201 -39548768.296943665 0 -39548768.296943665 -82423623.446350098 0 0 0 0 55723059.316768169 -37120009.020626068 0 -37120009.020626068 -127029208.1645813 0 0 0 0 87415761.590494156 -5028909.9293365479 0 -5028909.9293365479 -120453144.73143578 0 0 0 0 36093580.39362812 -17419189.324744225 0 -17419189.324744225 -68367044.070599556 0 0 0 0 33409425.900802612 -11366278.94880867 0 -11366278.94880867 -55106341.448767185 0 0 0 0 38194295.258216858 -8722694.071252346 0 -8722694.071252346 -41992998.786869407 0 0 0 0 64666853.934529305 -6218680.8776528835 0 -6218680.8776528835 -62095013.294388294 0 0 0 0 26299495.929657936 -13606768.94975853 0 -13606768.94975853 -56313895.388466835 0 0 0 0 14666599.445775032 -15232375.928067446 0 -15232375.928067446 -46965218.886611938 0 0 0 0 8336477.042686224 -34045115.857796669 0 -34045115.857796669 -64783302.025713921 0 0 0 0 32432352.146536827 -20481127.654524088 0 -20481127.654524088 -70419402.800585747 0 0 0 0 8506841.6571859084 -5089380.5566943604 0 -5089380.5566943604 -28997050.851398122 0 0 0 0 -40620142.813029915 31632987.577213287 0 31632987.577213287 -34159262.102905273 0 0 0 0 12862851.396369457 17338273.363239288 0 17338273.363239288 -25497702.673751831 0 0 0 0 -40166618.576055944 -29156824.556243896 0 -29156824.556243896 5814920.4645843506 0 0 0 0 594085.1887695929 2286083.7631598748 0 2286083.7631598748 -7372795.4029217185 0 0 0 0 30874320.869608879 -16628079.522613525 0 -16628079.522613525 895362.93496704102 0 0 0 0 6299173.1508354656 -6665169.7350898609 0 -6665169.7350898609 -48601698.71988444 0 0 0 0 74975575.762096882 33584723.89516449 0 33584723.89516449 -67217930.137481689 0 0 0 0 20919696.2746782 3536306.2412838936 0 3536306.2412838936 -39197793.97064209 0 0 0 0 35564344.672263145 -11147922.928535461 0 -11147922.928535461 -66199691.914634705 0 0 0 0 35986180.637753844 15659939.120856285 0 15659939.120856285 -45896737.068649292 0 0 0 0 11542370.802143097 2743926.8779754639 0 2743926.8779754639 -47117676.376006126 0 0 0 0 11299070.465699196 -5097935.2463283539 0 -5097935.2463283539 -48849828.389404297 0 0 0 0 16526176.757916093 7811118.4247817993 0 7811118.4247817993 -51582096.241821289 0 0 0 0 19488350.933481216 -4374790.5012550354 0 -4374790.5012550354 -47462069.789381027 0 0 0 0 13052596.953287393 -2629083.5384729505 0 -2629083.5384729505 -42052116.833071187 0 0 0 0 13915258.520601273 1990900.0137557983 0 1990900.0137557983 -36864303.230558395 0 0 0 0 10438586.295188904 -3868005.4077596664 0 -3868005.4077596664 -37973080.749107361 0 0 0 0 28169194.055746078 -1530677.6725177765 0 -1530677.6725177765 -31889089.471847534 0 0 0 0 -161348.01669692993 46545515.963757634 0 46545515.963757634 -46518185.656341553 0 0 0 0 13908271.780251503 24014027.321401596 0 24014027.321401596 -26614114.191131592 0 0 0 0 4033199.3372917175 951165.56020736694 0 951165.56020736694 -12786409.121299744 0 0 0 0 -11165598.292913795 -11737445.737880707 0 -11737445.737880707 -18491316.266624451 0 0 0 0 -190093.57431779406 1477345.0979263978 0 1477345.0979263978 -98268.53983694315 0 0 0 0 8605650.2381520271 46980159.960460663 0 46980159.960460663 -127138893.65652466 0 0 0 0 211775.86214574543 1235374.9050916228 0 1235374.9050916228 -1440151.7288238481 0 0 0 0 -58513232.942608833 74580103.206176758 0 74580103.206176758 -48725674.570800781 0 0 0 0 6248574.7774576321 -3514422.6575346598 0 -3514422.6575346598 -34324058.401224241 0 0 0 0 45606997.04268074 -9858510.6938228607 0 -9858510.6938228607 -47208650.519741058 0 0 0 0 26996187.963213921 -26874347.187488556 0 -26874347.187488556 -61517406.223077774 0 0 0 0 11069553.022425175 -11941536.103557587 0 -11941536.103557587 -27609122.525336027 0 0 0 0 -7591139.25091362 -23525404.537340164 0 -23525404.537340164 -27018717.02116394 0 0 0 0 16083698.890366554 -8176782.37682724 0 -8176782.37682724 -15647649.759025574 0 0 0 0 20649300.249886513 -176458.70188713074 0 -176458.70188713074 -21848234.492424011 0 0 0 0 19685248.128320813 734997.55759859085 0 734997.55759859085 -9129235.5944299698 0 0 0 0 15528715.709193707 -5124672.2710266113 0 -5124672.2710266113 -25937437.062116623 0 0 0 0 10271179.262764035 -8980907.9138821289 0 -8980907.9138821289 -23890884.905682705 0 0 0 0 9225219.1701874733 2015868.617816925 0 2015868.617816925 -18705567.430351257 0 0 0 0 26343948.138967514 -1956643.8820877075 0 -1956643.8820877075 -7609826.0557250977 0 0 0 0 6386015.7863415647 -1856030.1921811786 0 -1856030.1921811786 -11978258.859330082 0 0 0 0 -2087443.9326508869 12184495.850799853 0 12184495.850799853 -840235.84494764358 0 0 0 0 12891763.527746437 -12542084.233538035 0 -12542084.233538035 -26033915.697349489 0 0 0 0 52885185.775409698 12897786.711553574 0 12897786.711553574 -46332921.506658554 0 0 0 0 6707384.5676051565 6854572.5585985277 0 6854572.5585985277 -29291692.221516903 0 0 0 0 70257840.052469254 19199275.880577087 0 19199275.880577087 -45393027.172232151 0 0 0 0 2002292.4530068012 12557956.725017773 0 12557956.725017773 -30625782.472470362 0 0 0 0 72216821.065907955 20062473.083272457 0 20062473.083272457 -64332027.386486053 0 0 0 0 156562068.65328979 79631193.571195602 0 79631193.571195602 -31551964.523633957 0 0 0 0 102900504.93819427 7829697.8834638596 0 7829697.8834638596 -61551386.099033356 0 0 0 0 66467042.373750687 -2962624.9743280411 0 -2962624.9743280411 -59369046.169015884 0 0 0 0 43578195.82641983 -26999444.834838867 0 -26999444.834838867 -65300616.509857178 0 0 0 0 105007810.82854354 -33436683.826969683 0 -33436683.826969683 -101957978.5438652 0 0 0 0 -58854375.51568222 -6417197.8400907516 0 -6417197.8400907516 -33367787.610614777 0 0 0 0 3218903.4506607056 -75091602.431257248 0 -75091602.431257248 -85155064.846637726 0 0 0 0 70906179.589582443 -49856810.498919487 0 -49856810.498919487 -106151875.49938583 0 0 0 0 -145168787.31377029 -177146769.57783341 0 -177146769.57783341 -146212767.88333511 0 0 0 0 68417875.840215683 -33667774.435390472 0 -33667774.435390472 -91977078.339481354 0 0 0 0 158235560.28359985 -32542582.82767868 0 -32542582.82767868 -149076411.15001678 0 0 0 0 301892687.49953651 71987917.103597641 0 71987917.103597641 -123315153.18064499 0 0 0 0 122476915.70915127 41729199.556790829 0 41729199.556790829 24628076.365896225 0 0 0 0 158921506.10500908 46666853.820086479 0 46666853.820086479 -351388400.87182713 0 0 0 0 -215545089.05044079 75589508.610157967 0 75589508.610157967 -16364926.499362946 0 0 0 0 151331452.99338913 27609609.393795967 0 27609609.393795967 -55492248.562409401 0 0 0 0 75535154.416969299 156534258.28746796 0 156534258.28746796 162988206.20438457 0 0 0 0 293993068.69305325 184660453.37932968 0 184660453.37932968 -70675629.152578354 0 0 0 0 -29535272.292667389 -42265794.564451694 0 -42265794.564451694 -55877312.801074028 0 0 0 0 320039460.8481617 135323872.21387768 0 135323872.21387768 8106965.5634117126 0 0 0 0 -4908422.4028547099 2612515.3185841232 0 2612515.3185841232 -14929306.541465433 0 0 0 0 -29305600.504018784 -34413026.090993404 0 -34413026.090993404 -56666694.512719154 0 0 0 0 7873573.3962135315 -1961157.1947383881 0 -1961157.1947383881 -20323422.893426895 0 0 0 0 -560116.87942367978 -3809493.7006846219 0 -3809493.7006846219 -18537485.625074577 0 0 0 0 -531718.4546738565 10148288.190672219 0 10148288.190672219 -19697221.17278026 0 0 0 0 -3566134.8597216606 -26247490.441877127 0 -26247490.441877127 -60795511.049815178 0 0 0 0 111091451.13559341 83827902.062574387 0 83827902.062574387 -29497212.028646469 0 0 0 0 219070372.29667282 222304690.17665958 0 222304690.17665958 147965158.93149185 0 0 0 0 738994.54749082774 1025505.2068846365 0 1025505.2068846365 -3560589.9048319394 0 0 0 0 -29499293.47148037 81686444.480453491 0 81686444.480453491 57286415.976547241 0 0 0 0 91091086.105257034 28879091.679244995 0 28879091.679244995 -139634971.00205994 0 0 0 0 -54958461.818395615 -33923963.478919983 0 -33923963.478919983 255102921.88134766 0 0 0 0 -57454909.953597069 -12645366.543670654 0 -12645366.543670654 141374436.44511414 0 0 0 0 64475363.180363655 -79788827.370384216 0 -79788827.370384216 -183124821.03352356 0 0 0 0 -43790823.653336525 -127217111.15280914 0 -127217111.15280914 -4500705.9847412109 0 0 0 0 33765472.025725365 38514372.86000061 0 38514372.86000061 -83299876.082168579 0 0 0 0 3139216.3010755763 1376639.775873594 0 1376639.775873594 -3802992.8191548847 0 0 0 0 142473414.0063076 17465838.527816772 0 17465838.527816772 -149941462.83854103 0 0 0 0 949491.9809411075 873721.3945511654 0 873721.3945511654 -1151697.5810280396 0 0 0 0 -60847770.313557625 109277675.85694122 0 109277675.85694122 -108166550.58836365 0 0 0 0 -313474852.08068085 106984831.30685425 0 106984831.30685425 54027792.091552734 0 0 0 0 33137396.845783234 -148984543.56356049 0 -148984543.56356049 -223871113.89395142 0 0 0 0 -96842177.141040802 -193387415.39660645 0 -193387415.39660645 -155995684.33666992 0 0 0 0 841170.92894303333 1643556.361762125 0 1643556.361762125 923226.35534022748 0 0 0 0 161502471.1941452 -200654487.24425507 0 -200654487.24425507 -133599373.88757324 0 0 0 0 212837173.23982048 108220609.92111206 0 108220609.92111206 -277282561.21737671 0 0 0 0 12145162.798237339 1610560.7461713478 0 1610560.7461713478 -20240124.071654301 0 0 0 0 -59338945.890403271 -1257498.0645847321 0 -1257498.0645847321 89055420.195755005 0 0 0 0 158904926.57089806 34373852.052322388 0 34373852.052322388 -14389634.12097168 0 0 0 0 -78807413.616630554 8343586.7143249512 0 8343586.7143249512 -16365235.170173645 0 0 0 0 93898415.243087769 -168001705.70147705 0 -168001705.70147705 42328799.015350342 0 0 0 0 131859432.32274723 -111635723.66307068 0 -111635723.66307068 -222371467.57276917 0 0 0 0 -59607292.596913338 -59225005.880195618 0 -59225005.880195618 -14448345.902542114 0 0 0 0 -4939952.0661096573 18162692.282852173 0 18162692.282852173 -111418369.20333099 0 0 0 0 2034465.8291807827 -20707016.856819183 0 -20707016.856819183 -472090.13286002912 0 0 0 0 -2478922.8423423767 -84049290.737487793 0 -84049290.737487793 -48731810.465515137 0 0 0 0 -2553781.0474643707 -87149764.050506592 0 -87149764.050506592 -111967455.4438324 0 0 0 0 7863998.4764337335 -19567794.174750999 0 -19567794.174750999 1281238.3336258382 0 0 0 0 29318245.753173828 -97811468.977828979 0 -97811468.977828979 -146506502.17218018 0 0 0 0 82131519.625905991 -30811591.345176697 0 -30811591.345176697 -203222835.59466553 0 0 0 0 3108409.8587932587 -69059421.043819427 0 -69059421.043819427 -119414203.22625732 0 0 0 0 12587224.222490814 -19788732.292542338 0 -19788732.292542338 -182557.79015158862 0 0 0 0 79341048.42963028 -69166042.450485229 0 -69166042.450485229 -121877865.49875641 0 0 0 0 64730764.517272949 -47020561.427154541 0 -47020561.427154541 -101277218.13476562 0 0 0 0 126605290.61107635 -92691368.103591919 0 -92691368.103591919 -100520089.03923035 0 0 0 0 96837155.562400818 -34294279.884552002 0 -34294279.884552002 -115615586.53851318 0 0 0 0 98693698.161791801 -48921104.666784286 0 -48921104.666784286 -38176875.140625 0 0 0 0 104949987.47487259 -103891286.8441925 0 -103891286.8441925 -20212409.681968689 0 0 0 0 126186714.52311707 -86456820.943450928 0 -86456820.943450928 -133906164.85407257 0 0 0 0 -107489336.61287689 112329180.24099731 0 112329180.24099731 -92831645.662353516 0 0 0 0 -102597920.67518711 50124010.857397079 0 50124010.857397079 -51200885.679138184 0 0 0 0 -76169.888819605112 2181586.8416867331 0 2181586.8416867331 -4982045.2873496264 0 0 0 0 -13917307.499065399 -34357604.617172241 0 -34357604.617172241 -92248332.889511108 0 0 0 0 -36020536.696113586 168587787.9960022 0 168587787.9960022 -270022577.49108887 0 0 0 0 4253641.6882629395 43302179.036697388 0 43302179.036697388 -171801037.02842712 0 0 0 0 71182073.997001648 -33955555.390472412 0 -33955555.390472412 -302084593.90386581 0 0 0 0 -532428.11410522461 -18611159.288421631 0 -18611159.288421631 -192431571.0506897 0 0 0 0 4849134.5218925476 -2379721.0406799316 0 -2379721.0406799316 -40223495.538627625 0 0 0 0 9428104.6862736847 -1859615.376619528 0 -1859615.376619528 -25800755.479121417 0 0 0 0 30660077.738540649 687900.09864044189 0 687900.09864044189 -10567769.851091385 0 0 0 0 124367847.92565155 24796558.483383179 0 24796558.483383179 -114929920.93041992 0 0 0 0 9023742.3886354677 -11350778.728293316 0 -11350778.728293316 -30536044.138365149 0 0 0 0 4686730.9802474976 -17300662.466461182 0 -17300662.466461182 -79000064.745494843 0 0 0 0 114082874.85987473 12924034.884857178 0 12924034.884857178 -114336899.6194458 0 0 0 0 102374674.15433502 -51529187.252227783 0 -51529187.252227783 -99372190.505950928 0 0 0 0 36369968.602128983 -8594062.7702579498 0 -8594062.7702579498 -13437296.214263916 0 0 0 0 10453291.336143024 15647631.152071718 0 15647631.152071718 -38527817.640891567 0 0 0 0 38268054.100031853 -2522147.7910385132 0 -2522147.7910385132 642773.93724441528 0 0 0 0 46695413.833374023 -15470754.406921387 0 -15470754.406921387 -97138284.059059143 0 0 0 0 88396767.250564575 45694162.733459473 0 45694162.733459473 -56913522.887145996 0 0 0 0 6268351.6080627441 62359788.705932617 0 62359788.705932617 -123537309.05828857 0 0 0 0 24768045.925964355 279656.91467285156 0 279656.91467285156 -87228293.234832764 0 0 0 0 38200711.915126801 -32240170.862556458 0 -32240170.862556458 -29661012.078186035 0 0 0 0 12474525.761985283 -948069.98477980867 0 -948069.98477980867 -41336639.492065236 0 0 0 0 11495479.74905098 3305666.0939811766 0 3305666.0939811766 -51783585.574435994 0 0 0 0 10884769.23230977 -1625271.4006707352 0 -1625271.4006707352 -28396974.835169144 0 0 0 0 8640923.239988625 7098572.877155304 0 7098572.877155304 -38010936.661773682 0 0 0 0 71077336.045365334 28347797.881088257 0 28347797.881088257 -56333715.942962646 0 0 0 0 31702683.405305386 19369330.6590271 0 19369330.6590271 -6453991.9174804688 0 0 0 0 189358.59829200222 -2136763.6097515663 0 -2136763.6097515663 487852.20077398419 0 0 0 0 -40056750.385307312 29649758.035812378 0 29649758.035812378 -33020092.141742706 0 0 0 0 254625.01028231159 641687.58534088731 0 641687.58534088731 -792158.04838811979 0 0 0 0 -146522483.89658308 -52740211.082931519 0 -52740211.082931519 -57840118.25994873 0 0 0 0 8651512.4566981345 54640.126249201596 0 54640.126249201596 -15569599.416217173 0 0 0 0 -185147181.26534271 2286240.3815307617 0 2286240.3815307617 -34554562.360580444 0 0 0 0 7982730.9627685547 -11380133.517883301 0 -11380133.517883301 -55487013.672599792 0 0 0 0 142998110.93441772 -122801604.81533813 0 -122801604.81533813 -73866052.909942627 0 0 0 0 -3620167.8756357133 -10652202.538369179 0 -10652202.538369179 -45092507.281646729 0 0 0 0 35893902.932211876 72439540.637489319 0 72439540.637489319 -78702397.996414185 0 0 0 0 13177534.668685064 -3217134.8622103333 0 -3217134.8622103333 -45827833.724243164 0 0 0 0 5376841.2714133272 -6807799.8986857403 0 -6807799.8986857403 -28911493.151579984 0 0 0 0 42344958.159008026 46378644.756362915 0 46378644.756362915 -77334425.531303406 0 0 0 0 -56699071.807987213 -65804454.456985474 0 -65804454.456985474 31202841.559936523 0 0 0 0 34738368.207698822 -11661156.494979858 0 -11661156.494979858 -84707435.981765747 0 0 0 0 18133330.241047882 -16566656.616702594 0 -16566656.616702594 -7667703.7302038949 0 0 0 0 59959818.489339828 -70037360.993621826 0 -70037360.993621826 -105449954.60140991 0 0 0 0 88920201.620269775 29701223.571914673 0 29701223.571914673 -25922069.384418488 0 0 0 0 -14877992.772712708 -85321651.39831543 0 -85321651.39831543 -52954071.246246338 0 0 0 0 5774229.4982415512 903368.86122944206 0 903368.86122944206 -7963073.5490847677 0 0 0 0 27336166.238847494 -12661880.081680298 0 -12661880.081680298 -112539484.98699951 0 0 0 0 -39495263.720983505 -13720635.828842163 0 -13720635.828842163 70434540.758178711 0 0 0 0 -3105274.3275084496 901480.37687683105 0 901480.37687683105 -77239895.172088623 0 0 0 0 6784554.4368199129 -16976721.059547424 0 -16976721.059547424 -73851036.73928833 0 0 0 0 22194680.781350419 -24393949.431991577 0 -24393949.431991577 -96105851.232589722 0 0 0 0 24571182.555572033 21536042.897354126 0 21536042.897354126 -103317897.47543335 0 0 0 0 1930640.182990551 -31641114.086166382 0 -31641114.086166382 694733.08586883545 0 0 0 0 60626716.205830373 -39231374.830596924 0 -39231374.830596924 -71553711.477844238 0 0 0 0 -276630.7699804306 -14178214.736312866 0 -14178214.736312866 -41555125.256688237 0 0 0 0 3547487.510945797 -23156339.40688324 0 -23156339.40688324 -41681578.475463867 0 0 0 0 35897093.2513659 -21157191.977722168 0 -21157191.977722168 -34290740.201278687 0 0 0 0 28841428.813101768 -5301681.4315567017 0 -5301681.4315567017 -69739813.319351196 0 0 0 0 659017.79223983083 898866.98080681264 0 898866.98080681264 -4353186.1179038174 0 0 0 0 52526967.78202939 -26591141.289176941 0 -26591141.289176941 -70612678.202148438 0 0 0 0 3740628.9140472412 -17579522.785980225 0 -17579522.785980225 -30979929.680259705 0 0 0 0 10557530.22366333 50040116.435211182 0 50040116.435211182 -58187687.949213028 0 0 0 0 3104354.4533987101 2200482.2251747418 0 2200482.2251747418 -5982240.1780566648 0 0 0 0 -1291160.8553754091 -20941202.384289742 0 -20941202.384289742 -32945516.311187744 0 0 0 0 2282240.9081401825 -13561695.063095093 0 -13561695.063095093 -28538242.948989868 0 0 0 0 2295165.6263570786 -12423278.236740112 0 -12423278.236740112 -46470637.199310303 0 0 0 0 5982220.0873413086 3841570.594543457 0 3841570.594543457 -50436821.767272949 0 0 0 0 -590476.05857181549 -16701242.74924469 0 -16701242.74924469 -27373803.105484009 0 0 0 0 1080622.7849322921 368950.06215296686 0 368950.06215296686 -14183701.315494396 0 0 0 0 4086784.9805149972 -7232627.0286916737 0 -7232627.0286916737 -28422316.132936478 0 0 0 0 24654611.094747655 -2828555.8746356964 0 -2828555.8746356964 -27988619.756958008 0 0 0 0 -61583396.418611526 15161073.434036255 0 15161073.434036255 89678420.139190674 0 0 0 0 1857009.4070122133 927258.34455916658 0 927258.34455916658 -9790135.5556538254 0 0 0 0 3236205.4999494255 -2908007.9104299545 0 -2908007.9104299545 -1534431.02734375 0 0 0 0 1324638.3047326142 -4354625.6412790436 0 -4354625.6412790436 -12441731.422966383 0 0 0 0 1255430.980641288 -5980001.2509553246 0 -5980001.2509553246 -16125664.731158152 0 0 0 0 2725558.2854220024 1193907.7634849772 0 1193907.7634849772 -23494713.895122029 0 0 0 0 55930443.807543755 -58081549.544967651 0 -58081549.544967651 77969261.160064697 0 0 0 0 6093478.3860292435 -13214077.843997955 0 -13214077.843997955 -38750396.456851959 0 0 0 0 41499650.141986847 -96513908.970184326 0 -96513908.970184326 -244630674.45492554 0 0 0 0 -123304.9849738014 -4326113.3715473805 0 -4326113.3715473805 284670.37994642556 0 0 0 0 -117010752.22034264 108959945.35510254 0 108959945.35510254 176914610.71539307 0 0 0 0 308345781.23260593 -406176742.33957672 0 -406176742.33957672 -477464726.39471436 0 0 0 0 34407376.589759827 54792948.14781189 0 54792948.14781189 -23575500.334274292 0 0 0 0 73856235.943510056 40440490.709686279 0 40440490.709686279 -12353677.656219482 0 0 0 0 60272327.964744568 -11397520.357345581 0 -11397520.357345581 -31310364.701072693 0 0 0 0 -1559728.0985076202 -9072559.1467351653 0 -9072559.1467351653 -21905212.865523636 0 0 0 0 11491310.173996473 -27377933.545000374 0 -27377933.545000374 -26566759.540489197 0 0 0 0 26570800.764347553 -15695640.955841064 0 -15695640.955841064 -31229606.561036825 0 0 0 0 24394627.435957432 5867928.0891952515 0 5867928.0891952515 -36575649.397224426 0 0 0 0 28035991.493308544 10730338.243965149 0 10730338.243965149 -31182305.872032166 0 0 0 0 24572889.866733074 8357434.7609024048 0 8357434.7609024048 -28918461.31640625 0 0 0 0 90792.700523674488 4670958.7020368576 0 4670958.7020368576 -33192921.545715332 0 0 0 0 21597573.674264431 -6250527.9021987915 0 -6250527.9021987915 -39627339.798126221 0 0 0 0 11844074.077886581 -10227409.30556488 0 -10227409.30556488 -16610506.887321472 0 0 0 0 22212931.600887865 -3954598.5779418945 0 -3954598.5779418945 -16359691.738861799 0 0 0 0 3255126.5545768738 -19192188.954040527 0 -19192188.954040527 -32797444.515731812 0 0 0 0 51683122.779348373 -3746502.4728469849 0 -3746502.4728469849 -38314190.406265259 0 0 0 0 43247505.956882477 8264425.6571807861 0 8264425.6571807861 -11620021.495147705 0 0 0 0 1817687.1370345252 312998.9535298869 0 312998.9535298869 -1793356.5392340124 0 0 0 0 -63847766.785226822 -63393093.634563446 0 -63393093.634563446 -50905250.899078369 0 0 0 0 -45115140.234186172 -80830954.987663269 0 -80830954.987663269 -80464732.622917175 0 0 0 0 22215149.003040314 -27246515.042251587 0 -27246515.042251587 -35651794.162994385 0 0 0 0 12231721.286399841 -6602357.0347442627 0 -6602357.0347442627 -9215300.0797119141 0 0 0 0 -13609158.329795837 -17456726.941864014 0 -17456726.941864014 -11441598.977737427 0 0 0 0 48337080.262451172 -11556545.414749146 0 -11556545.414749146 -29399592.561157227 0 0 0 0 10572961.888643309 -5620766.8533371594 0 -5620766.8533371594 -21274409.537812606 0 0 0 0 47227507.933273315 -15416715.275444031 0 -15416715.275444031 -33025597.899902344 0 0 0 0 -17086611.174517632 -47594295.827064514 0 -47594295.827064514 -31434033.552093506 0 0 0 0 11786878.829822989 -3447866.0861560479 0 -3447866.0861560479 -19012687.015649587 0 0 0 0 35594344.810752869 38065738.330284119 0 38065738.330284119 -36304641.889828563 0 0 0 0 26018259.700969696 15445777.329627991 0 15445777.329627991 7241726.9928894043 0 0 0 0 -457742.26977748051 -824421.83513216674 0 -824421.83513216674 -1363360.7669072039 0 0 0 0 -45282035.853775501 -41190644.030651093 0 -41190644.030651093 -120794455.63174438 0 0 0 0 -16481565.203803062 -56591624.998634338 0 -56591624.998634338 -144666537.00811672 0 0 0 0 -20345039.117910385 -12750144.406600952 0 -12750144.406600952 -21369401.650726318 0 0 0 0 19167848.190810204 5461840.7599182129 0 5461840.7599182129 -77760335.768569946 0 0 0 0 56327245.761263967 16474023.575719357 0 16474023.575719357 -77213726.18258667 0 0 0 0 4546866.3802464977 1454366.5119304433 0 1454366.5119304433 -1589464.4656967223 0 0 0 0 13872649.361929893 12460852.036026001 0 12460852.036026001 -68041896.210601807 0 0 0 0 14245011.754343033 9019680.311630249 0 9019680.311630249 5996979.4615783691 0 0 0 0 13192466.616855171 1839635.2717337608 0 1839635.2717337608 -19064166.372960754 0 0 0 0 14638365.400354385 10060219.196456909 0 10060219.196456909 5443388.3153076172 0 0 0 0 2156523.4209328778 348063.56576495245 0 348063.56576495245 -1349464.1615839154 0 0 0 0 -4264914.4791183472 -36859335.806716919 0 -36859335.806716919 -69227278.044204712 0 0 0 0 1816122.8117507091 340788.71714303643 0 340788.71714303643 -1822880.2681643218 0 0 0 0 -26743712.606469631 -66264515.016273499 0 -66264515.016273499 -63332568.050262451 0 0 0 0 41416115.096642017 23845454.3384552 0 23845454.3384552 -27017687.363723755 0 0 0 0 24136447.671505928 116362842.69493103 0 116362842.69493103 -47678592.583892822 0 0 0 0 32949183.780500412 -30738034.005378723 0 -30738034.005378723 -123574971.98246765 0 0 0 0 199115727.48795891 -99805132.753387451 0 -99805132.753387451 -97246053.075508118 0 0 0 0 77459868.740702868 94836455.161483765 0 94836455.161483765 -131709285.97357178 0 0 0 0 3084373.049776365 545530.14105271548 0 545530.14105271548 -3067590.3586353883 0 0 0 0 60108167.56810379 -88432206.807922363 0 -88432206.807922363 -69696178.618164062 0 0 0 0 -9814400.72742033 -10899163.299921989 0 -10899163.299921989 -74608217.912063599 0 0 0 0 14182343.291845798 -71724925.036209106 0 -71724925.036209106 14359427.494232178 0 0 0 0 -21882320.091928482 -12618437.040168762 0 -12618437.040168762 -78309500.920345306 0 0 0 0 1961638.9173163967 19954.94136454165 0 19954.94136454165 -3342417.9951385036 0 0 0 0 -59890717.100728989 10685362.082611084 0 10685362.082611084 -132866995.42602539 0 0 0 0 149038687.44633198 -209640494.14071274 0 -209640494.14071274 -496318229.93103027 0 0 0 0 -624045998.79605103 -297725897.49560547 0 -297725897.49560547 -274159531.07855225 0 0 0 0 -1489233404.0409079 -593032506.30887604 0 -593032506.30887604 172050116.71315002 0 0 0 0 -797687506.53711486 -1303961027.2948647 0 -1303961027.2948647 -1222957428.9011993 0 0 0 0 -86418138.460866928 -169836294.77048492 0 -169836294.77048492 -426239130.71059418 0 0 0 0 -33669830.703666687 -18288852.043136597 0 -18288852.043136597 52701938.859378815 0 0 0 0 -22139321.900977135 -136257106.13976288 0 -136257106.13976288 3688006.8420410156 0 0 0 0 -53705919.467184067 -236343471.44485474 0 -236343471.44485474 -291126560.14758301 0 0 0 0 80940666.361354828 -144953406.45983887 0 -144953406.45983887 -380579289.42523193 0 0 0 0 3999737.3340793066 -1748911.4238827005 0 -1748911.4238827005 -8936374.8061380014 0 0 0 0 -40262119.482830048 -42489836.583450317 0 -42489836.583450317 -49484076.705833435 0 0 0 0 -261968881.68966293 -34348580.809616089 0 -34348580.809616089 -123998263.01431274 0 0 0 0 82837383.82544899 -118049631.67435646 0 -118049631.67435646 -311405477.26425171 0 0 0 0 26074376.524497986 -392254718.40815735 0 -392254718.40815735 -395162645.19302368 0 0 0 0 5790901.6432952881 -32981972.266494751 0 -32981972.266494751 -66336898.615134239 0 0 0 0 4816832.7246528789 -5954479.9747846425 0 -5954479.9747846425 -16260537.598261707 0 0 0 0 4250691.7294540405 -24408138.211700439 0 -24408138.211700439 -55115710.997924805 0 0 0 0 22922987.605369568 -20646422.55859375 0 -20646422.55859375 -65586756.741485596 0 0 0 0 20757988.564860344 -12351406.94084549 0 -12351406.94084549 -52671267.328521729 0 0 0 0 -9240722.4980354309 -55780371.471282959 0 -55780371.471282959 -78532097.507137299 0 0 0 0 22542117.526859283 -18064557.721683502 0 -18064557.721683502 -62237895.887084961 0 0 0 0 -27607102.400917053 -45783569.608337402 0 -45783569.608337402 -118989494.54141235 0 0 0 0 -58736076.544769287 -109735452.61453247 0 -109735452.61453247 -157273801.15891463 0 0 0 0 -4767173.7979125977 -37891682.916900635 0 -37891682.916900635 -157362349.45465088 0 0 0 0 99658065.653892517 -160063183.91723633 0 -160063183.91723633 -309438870.93005371 0 0 0 0 -238527833.14163208 -177853832.81991577 0 -177853832.81991577 -124579810.80609131 0 0 0 0 -108794047.77940369 -96102482.522537231 0 -96102482.522537231 -103302313.56292725 0 0 0 0 -216455450.83614349 -60751673.356246948 0 -60751673.356246948 -47565057.678649902 0 0 0 0 -101470845.23455811 -117148521.47672272 0 -117148521.47672272 -115688643.60101318 0 0 0 0 -81275765.07535553 -94951740.758743286 0 -94951740.758743286 -93810501.187133789 0 0 0 0 -31361472.711090088 -82472257.749542236 0 -82472257.749542236 -131053096.85501099 0 0 0 0 -455783.0741188284 -3611196.7560302224 0 -3611196.7560302224 -1831975.7806773186 0 0 0 0 70604252.449796677 -21633690.052604675 0 -21633690.052604675 -51558776.054290771 0 0 0 0 -392631698.85363007 -339483158.35707855 0 -339483158.35707855 -111609384.84594727 0 0 0 0 53842535.253227234 -106200972.09336853 0 -106200972.09336853 -310963217.16387177 0 0 0 0 -297739483.80075645 -103890883.48723602 0 -103890883.48723602 -43825092.457061768 0 0 0 0 -8077777.0435161591 -29666054.029090881 0 -29666054.029090881 -15086170.777908325 0 0 0 0 -2259526.4781402848 -9858516.0325384736 0 -9858516.0325384736 -5087278.5458035916 0 0 0 0 -32055061.114568233 -24845785.985435486 0 -24845785.985435486 9970608.6319274902 0 0 0 0 1861155.4140340015 -4819456.7956083193 0 -4819456.7956083193 -7359357.1890644804 0 0 0 0 -59885460.865390778 -47889484.870018005 0 -47889484.870018005 -41686465.232040405 0 0 0 0 -90856395.087537408 -80307309.534821749 0 -80307309.534821749 -50902192.037841797 0 0 0 0 -46489927.593490601 -79483496.308334351 0 -79483496.308334351 -88761025.632225037 0 0 0 0 -89449319.752677917 -32263848.848373413 0 -32263848.848373413 -44373425.467536926 0 0 0 0 -47992979.282325745 -57124225.12437439 0 -57124225.12437439 -43506855.671203613 0 0 0 0 -4595459.0323202414 -6967112.5827432536 0 -6967112.5827432536 -4603640.9154828042 0 0 0 0 -43782563.10043335 -23702141.566932678 0 -23702141.566932678 -11851357.06801796 0 0 0 0 -75838337.425506592 -51380609.377182007 0 -51380609.377182007 -14673966.517776489 0 0 0 0 -29662420.691711426 -20184605.45072937 0 -20184605.45072937 -12381073.348888397 0 0 0 0 -26070422.436777115 -41024751.93813324 0 -41024751.93813324 -26895320.508178711 0 0 0 0 -2113670571.5863724 -2185965847.4736786 0 -2185965847.4736786 -1930130294.805717 0 0 0 0 -180090.99006686173 -382534.43596409261 0 -382534.43596409261 -4877576.9522236958 0 0 0 0 -2285810368.9285169 -1847872793.6737366 0 -1847872793.6737366 -1659406727.5207367 0 0 0 0 -1521978267.3356006 -1573081700.0978699 0 -1573081700.0978699 -1749114845.3777466 0 0 0 0 -36969639.420753479 8900085.2901153564 0 8900085.2901153564 -13992939.649185181 0 0 0 0 -13569823.085289001 -19751326.407421112 0 -19751326.407421112 -40079878.659545898 0 0 0 0 -72486940.191005707 -15957107.716003418 0 -15957107.716003418 -11217029.32699585 0 0 0 0 1506672.2724088514 -1541671.8855040446 0 -1541671.8855040446 -3138389.4581447989 0 0 0 0 -65364166.474235535 -52356668.909225464 0 -52356668.909225464 -48836848.471282959 0 0 0 0 15448607.236480236 -9082709.9329566956 0 -9082709.9329566956 -49291008.926475525 0 0 0 0 16279105.778853416 -5963430.16746521 0 -5963430.16746521 -39970404.506240845 0 0 0 0 23383930.197465658 -4606106.6860618591 0 -4606106.6860618591 -43363742.865097046 0 0 0 0 16067521.684039116 2224771.4832077026 0 2224771.4832077026 -35739133.796379089 0 0 0 0 3865399.9954786301 -6026432.2715644836 0 -6026432.2715644836 -32436474.726104736 0 0 0 0 8652133.2602539062 -4718778.7203292847 0 -4718778.7203292847 -41537355.005619049 0 0 0 0 10367873.409541845 -5144268.0062255859 0 -5144268.0062255859 -49015895.848648071 0 0 0 0 -615511.82817363739 -3168300.5426254272 0 -3168300.5426254272 -49344003.201061249 0 0 0 0 -3427645.7213885784 -8267750.2778549194 0 -8267750.2778549194 -43800616.049797058 0 0 0 0 7258527.30408605 -859289.28431344591 0 -859289.28431344591 -23963227.538532861 0 0 0 0 -203491.46921730042 -10918640.170341492 0 -10918640.170341492 -48759095.961746216 0 0 0 0 -95977.816503684269 -1032847.0129340775 0 -1032847.0129340775 -3676975.0283982866 0 0 0 0 -50649.847551584244 -11345556.580907822 0 -11345556.580907822 -41361309.399276733 0 0 0 0 5401789.5226302482 -5065724.5118591785 0 -5065724.5118591785 -25748025.086378664 0 0 0 0 3820145.4355855584 -4974396.6998653412 0 -4974396.6998653412 -40909742.772384644 0 0 0 0 3659674.6325454712 -16313091.685417175 0 -16313091.685417175 -44903650.416473389 0 0 0 0 12171348.255608585 -10285873.950178973 0 -10285873.950178973 -26880815.744461611 0 0 0 0 -14891936.862236023 -20575073.847320557 0 -20575073.847320557 -42841395.600616455 0 0 0 0 -13451052.229026794 -26122823.960205078 0 -26122823.960205078 -46377527.123382568 0 0 0 0 -8088322.8607940674 -15148731.570159912 0 -15148731.570159912 -41998736.826141357 0 0 0 0 6271533.1665611267 -21912010.834945679 0 -21912010.834945679 -56840122.492156982 0 0 0 0 6598366.4248867035 -3079910.9688644409 0 -3079910.9688644409 -10296328.814361572 0 0 0 0 -5336425.1830444336 -70976699.135009766 0 -70976699.135009766 -131428542.72691345 0 0 0 0 -5336425.1831359863 -70976699.13482666 0 -70976699.13482666 -131428542.72689819 0 0 0 0 -5336425.1831207275 -70976699.134796143 0 -70976699.134796143 -131428542.72677612 0 0 0 0 6640981.5625720397 -10276881.352004007 0 -10276881.352004007 -21960117.896732777 0 0 0 0 -7236097.7956314087 -39011139.752304077 0 -39011139.752304077 -75135190.864776611 0 0 0 0 12191467.328549188 -2840661.6103433035 0 -2840661.6103433035 -23879046.996680439 0 0 0 0 -15475279.35559082 -60259899.735443115 0 -60259899.735443115 -95828183.13155365 0 0 0 0 7448036.0661735535 -56478072.421958923 0 -56478072.421958923 -117698423.94641113 0 0 0 0 -34166060.694366455 -77445016.003692627 0 -77445016.003692627 -110984009.46984863 0 0 0 0 -51116701.490451813 -66189986.329452515 0 -66189986.329452515 -48061794.889266968 0 0 0 0 -26571009.245601654 -56776427.126960754 0 -56776427.126960754 -63406539.425689697 0 0 0 0 -46361823.292900085 -79989359.07371521 0 -79989359.07371521 -90175935.963653564 0 0 0 0 -36854674.409178734 -44853309.088848114 0 -44853309.088848114 -32724228.309082031 0 0 0 0 -35433160.819915771 -46596108.125183105 0 -46596108.125183105 -41043143.600013733 0 0 0 0 -33815553.874393463 -45996411.059150696 0 -45996411.059150696 -60048885.746349335 0 0 0 0 -1624751.4252853394 -13388957.027523041 0 -13388957.027523041 -51167545.598182678 0 0 0 0 11582623.570637867 -9337245.0803997535 0 -9337245.0803997535 -35081474.956320077 0 0 0 0 -26648594.359630585 -49941172.464080811 0 -49941172.464080811 -58677507.02545166 0 0 0 0 -26809835.260940552 -53018477.251182556 0 -53018477.251182556 -80282622.27047348 0 0 0 0 2920230.3946678638 -22757585.37272644 0 -22757585.37272644 -41238310.769607544 0 0 0 0 2310996.2008118629 -25376850.473140717 0 -25376850.473140717 -50245703.343505859 0 0 0 0 10880257.381000519 -11643161.02431488 0 -11643161.02431488 -64701372.538757324 0 0 0 0 11959193.645905256 -7167024.8611450195 0 -7167024.8611450195 -46370338.401489258 0 0 0 0 11925893.028988838 -9946711.6933898926 0 -9946711.6933898926 -28383591.470172882 0 0 0 0 8758566.6906404495 -10956764.457386017 0 -10956764.457386017 -27626358.899658203 0 0 0 0 8954295.1870737076 -14752235.235088348 0 -14752235.235088348 -37201619.865699768 0 0 0 0 52707887.771826744 -12735251.854278564 0 -12735251.854278564 -57558045.913276672 0 0 0 0 -5176502.5102154268 -8517539.9963786975 0 -8517539.9963786975 -16561807.051114094 0 0 0 0 -1532042.6538106166 102847862.15668917 0 102847862.15668917 96225740.694953918 0 0 0 0 8690861.1688332558 -14025879.428287506 0 -14025879.428287506 -23100685.404445648 0 0 0 0 -32360.546499878168 -40038055.92524147 0 -40038055.92524147 -29428402.780296326 0 0 0 0 2270039.1276278039 -9644405.663820304 0 -9644405.663820304 -26042762.020192102 0 0 0 0 -39918137.195579529 -41678663.942008972 0 -41678663.942008972 -38256514.740722656 0 0 0 0 8764424.3497354668 -17090293.93229226 0 -17090293.93229226 -33694095.295243487 0 0 0 0 -22241211.606206335 -23013140.5991458 0 -23013140.5991458 -18669395.546217944 0 0 0 0 -21942542.075260427 -73287444.628253937 0 -73287444.628253937 10434326.220970154 0 0 0 0 -34110518.689231873 -39539918.136230469 0 -39539918.136230469 -40329494.95954895 0 0 0 0 -30930888.402970314 -28030695.211214066 0 -28030695.211214066 -27851092.485244751 0 0 0 0 -7651988.3640445685 -9009948.0507032182 0 -9009948.0507032182 -10259553.781926863 0 0 0 0 34392703.937344551 25637178.071414948 0 25637178.071414948 21570076.293319702 0 0 0 0 -8693663.437432766 -8797786.2856712341 0 -8797786.2856712341 -13417978.653320312 0 0 0 0 -5086701.8548965454 -13141266.436187744 0 -13141266.436187744 -20714971.450286865 0 0 0 0 -16265917.804410359 -7300569.4085564017 0 -7300569.4085564017 -1205911.521096861 0 0 0 0 -852513.950527151 1289255.6035609469 0 1289255.6035609469 1167386.5543099269 0 0 0 0 216721141.54738683 -433719204.82420158 0 -433719204.82420158 -3857287959.2565918 0 0 0 0 -772202639.80873704 -25840807.599601746 0 -25840807.599601746 2102995832.4041138 0 0 0 0 -328373332.18272972 -316287897.04444122 0 -316287897.04444122 -3850653317.3763885 0 0 0 0 -1263232236.0583751 -2055585754.473877 0 -2055585754.473877 -5986407305.1868439 0 0 0 0 153028130.27280352 -1908605556.8940506 0 -1908605556.8940506 -6701756431.9220123 0 0 0 0 828744876.85887933 -2113864717.036602 0 -2113864717.036602 -8680727547.7684174 0 0 0 0 -596693067.11098599 -2223626874.8981857 0 -2223626874.8981857 -3155971029.1968002 0 0 0 0 -253723769.13301441 458775741.39774036 0 458775741.39774036 -2989303087.2972565 0 0 0 0 -10308298.201183408 -18823210.351490021 0 -18823210.351490021 -30739591.593114853 0 0 0 0 110339333.07447951 -155397745.34861755 0 -155397745.34861755 16690874.096588135 0 0 0 0 -5329854.1660051793 -2790976.3739059921 0 -2790976.3739059921 -15638255.856488824 0 0 0 0 -1026888.5809952128 -3464153.3574660122 0 -3464153.3574660122 -5260654.8694102764 0 0 0 0 145528631.99044219 -120982078.2930603 0 -120982078.2930603 23739154.76997757 0 0 0 0 129705815.04753724 -200688445.23216629 0 -200688445.23216629 -153030691.32019806 0 0 0 0 -383383670.06185454 -254789904.33343506 0 -254789904.33343506 56577575.050819397 0 0 0 0 507012161.67729765 522847461.85352707 0 522847461.85352707 -249524954.36629486 0 0 0 0 -795771599.60321081 -3062703764.6388464 0 -3062703764.6388464 -5980682873.7406082 0 0 0 0 -1906885.5159385377 -3091235.130773019 0 -3091235.130773019 -11967125.494746845 0 0 0 0 434798098.30258369 1177676588.3417511 0 1177676588.3417511 -5950586419.3477449 0 0 0 0 -590388643.86222291 -1377328477.0772324 0 -1377328477.0772324 -2462747018.2925453 0 0 0 0 -547720063.89018548 181570687.14886951 0 181570687.14886951 96016741.87612915 0 0 0 0 -1938737106.2424335 -2184100639.2170639 0 -2184100639.2170639 -2437493185.2481384 0 0 0 0 -1889098657.3205748 -2675167604.663559 0 -2675167604.663559 -2871420635.8511543 0 0 0 0 -1452226386.6700442 -2021833340.4947834 0 -2021833340.4947834 -2215232352.0713959 0 0 0 0 -2043204211.338325 -2060180557.5999641 0 -2060180557.5999641 -2131888434.296196 0 0 0 0 -1429895409.755837 -2056037070.9385395 0 -2056037070.9385395 -2675624789.0752563 0 0 0 0 -2072851942.0975609 -2100984865.9044189 0 -2100984865.9044189 -1933879549.7996476 0 0 0 0 -1572555709.0429001 -1264531168.2457829 0 -1264531168.2457829 -1350106165.1425018 0 0 0 0 -3441050.0017810324 -2211594.1707538739 0 -2211594.1707538739 -11848670.274745852 0 0 0 0 -3462542.8886013031 -17500401.891387939 0 -17500401.891387939 -21924083.319290161 0 0 0 0 -1930331.3880534717 -15275296.253056895 0 -15275296.253056895 -15924926.450996652 0 0 0 0 -4865157.0130688502 -12475111.478879193 0 -12475111.478879193 -11433802.486114442 0 0 0 0 116898.18523338647 -5396894.697655851 0 -5396894.697655851 -23481072.06891048 0 0 0 0 -32325120.46416378 -32613477.645339966 0 -32613477.645339966 351549917.96554565 0 0 0 0 -1504075226.2074275 -1265530831.4453087 0 -1265530831.4453087 -1370317865.3572998 0 0 0 0 -2967341220.4638462 -2257990040.197113 0 -2257990040.197113 -1335332570.4891682 0 0 0 0 -2783042779.9933295 -3078874379.6521912 0 -3078874379.6521912 -2622608508.4618912 0 0 0 0 -2999433158.0012288 -3811924273.3784218 0 -3811924273.3784218 -4922968274.8968658 0 0 0 0 -3403657324.8851647 -3266154301.7604065 0 -3266154301.7604065 -4704918158.6530647 0 0 0 0 -7116782213.6449633 -5479938922.5969009 0 -5479938922.5969009 -4500660378.3334198 0 0 0 0 326070839.02612877 858007669.43267822 0 858007669.43267822 -3786982697.0011749 0 0 0 0 -243545.3686664569 -1822549.569618674 0 -1822549.569618674 -8753604.3530283123 0 0 0 0 -543787642.39501953 -929655401.50740623 0 -929655401.50740623 802727300.65730286 0 0 0 0 -5034032399.4981871 -2689993299.1254959 0 -2689993299.1254959 -778229451.30418015 0 0 0 0 -3481933147.7973971 -3819242333.5536423 0 -3819242333.5536423 -8294783905.0836716 0 0 0 0 -5115789188.2149839 -3958860237.6778259 0 -3958860237.6778259 -6183489423.5371857 0 0 0 0 -5048562193.1436005 -1450803852.2981548 0 -1450803852.2981548 -6961433525.9942932 0 0 0 0 -3490645780.5926127 -2697202358.9749451 0 -2697202358.9749451 -5983658176.0794525 0 0 0 0 -1774755295.9512706 -2565351669.2324562 0 -2565351669.2324562 -6747315040.0076218 0 0 0 0 -588993653.28413939 -2542879928.8749008 0 -2542879928.8749008 -5988170292.1029892 0 0 0 0 -1743934683.6949089 -2293487156.6546822 0 -2293487156.6546822 -4816322274.917984 0 0 0 0 -1167008061.3189726 -2268121006.5517502 0 -2268121006.5517502 -3223642105.4615059 0 0 0 0 -1610079395.7439187 -3180839972.3207474 0 -3180839972.3207474 -4819929716.91745 0 0 0 0 -927679335.50324178 -2443843251.1507854 0 -2443843251.1507854 -3890793385.541687 0 0 0 0 83925593.99614507 -1501916535.7642021 0 -1501916535.7642021 -4394110350.9115524 0 0 0 0 668046713.55528891 -1667744326.4167747 0 -1667744326.4167747 -5971462710.4640179 0 0 0 0 1458739968.4053872 -302371924.47030258 0 -302371924.47030258 -3616636250.0640564 0 0 0 0 603857198.90996552 -1641222550.0020599 0 -1641222550.0020599 -3818546877.0282507 0 0 0 0 -375499907.55817056 -1805112461.6916885 0 -1805112461.6916885 -3221373439.3702087 0 0 0 0 -386886118.30951446 -1620368982.0340958 0 -1620368982.0340958 -3128868650.8674545 0 0 0 0 22855506.925236389 -1297930853.6200666 0 -1297930853.6200666 -2921829782.5005493 0 0 0 0 -861934315.42361915 -1624705306.5567398 0 -1624705306.5567398 -2372060889.3225479 0 0 0 0 -853262222.03680933 -1543612431.5008698 0 -1543612431.5008698 -2405805552.5784988 0 0 0 0 489812382.48110008 -466301801.61763 0 -466301801.61763 -3259413816.7950287 0 0 0 0 353444612.86489815 -22758629.852659345 0 -22758629.852659345 -2154291125.3077698 0 0 0 0 79026898.808248162 -1058127270.1375809 0 -1058127270.1375809 -2709188458.8110199 0 0 0 0 -243862186.50185108 -946071060.97502899 0 -946071060.97502899 -2632826250.851284 0 0 0 0 809085448.96074867 -885110055.66502094 0 -885110055.66502094 -3449609081.7216492 0 0 0 0 295627605.77630711 -795366064.94752502 0 -795366064.94752502 -3338287394.9063568 0 0 0 0 188292399.02279544 -1011889052.6283779 0 -1011889052.6283779 -3410585655.0469055 0 0 0 0 -662923137.46590614 -787560477.35183716 0 -787560477.35183716 -3277518048.9909668 0 0 0 0 5250134.0167087279 56247.498067714274 0 56247.498067714274 -9090425.7604945749 0 0 0 0 -1271842351.0020115 -3081607550.0216904 0 -3081607550.0216904 -5983015992.9572983 0 0 0 0 145815945.61871651 -1075606314.3845148 0 -1075606314.3845148 -3573132550.598175 0 0 0 0 141788113.60522938 -1018694575.7671967 0 -1018694575.7671967 -2946326428.5612793 0 0 0 0 886609470.47862339 573492071.98427391 0 573492071.98427391 -1161494533.3276672 0 0 0 0 4430846.283564711 -116299.88667446375 0 -116299.88667446375 -9913709.431294851 0 0 0 0 131081027.95262712 -1470470310.5140648 0 -1470470310.5140648 -4133133182.1235428 0 0 0 0 2228395691.0114732 -796442573.06959915 0 -796442573.06959915 -5983795458.6810226 0 0 0 0 54774635.465250611 -1514353428.7386932 0 -1514353428.7386932 -3136511268.7662201 0 0 0 0 1083919321.7878504 -945221299.42346954 0 -945221299.42346954 -3715217134.5491562 0 0 0 0 739761097.29122186 -98533953.234891891 0 -98533953.234891891 -5691314797.9193878 0 0 0 0 -140049200.067819 120740171.05409622 0 120740171.05409622 -4479407690.1733398 0 0 0 0 1191018547.6319771 1349270509.400322 0 1349270509.400322 -6272788448.9610443 0 0 0 0 2740740762.571629 -888151746.80026245 0 -888151746.80026245 -4080035110.9160233 0 0 0 0 1326031.2435265519 -1549761.9736032784 0 -1549761.9736032784 -3114707.2608713768 0 0 0 0 316976769.21083832 -64041017.299850464 0 -64041017.299850464 -3011783100.3060837 0 0 0 0 1352314667.7184677 260523284.23094177 0 260523284.23094177 -4903201415.0612488 0 0 0 0 1850683704.1141548 -65766520.67477417 0 -65766520.67477417 -4823993330.0162354 0 0 0 0 213269318.70557499 845335216.95491028 0 845335216.95491028 -3588324445.6873016 0 0 0 0 339707415.09858608 248624201.93447876 0 248624201.93447876 -2389979924.5591888 0 0 0 0 -1032331090.132087 1253710483.7994232 0 1253710483.7994232 -3597456629.419632 0 0 0 0 -840597466.43916225 -2728417878.6778107 0 -2728417878.6778107 -5271774669.5540771 0 0 0 0 604421699.58326817 -3307925001.8084946 0 -3307925001.8084946 -7056902051.588501 0 0 0 0 2696144.243180505 -51987.217711240053 0 -51987.217711240053 -4115803.7559828758 0 0 0 0 297074658.9131031 -2206650497.1367645 0 -2206650497.1367645 -5531456550.9393768 0 0 0 0 2841061385.4884205 -1237844902.1172943 0 -1237844902.1172943 -3243033654.3762207 0 0 0 0 2544128588.1285644 1366081113.0112762 0 1366081113.0112762 -2374334874.1289959 0 0 0 0 2307030850.5654469 -451542719.96342468 0 -451542719.96342468 -5214095572.8710938 0 0 0 0 2178659717.2765999 -22505293.36138916 0 -22505293.36138916 -4338863019.2252197 0 0 0 0 2124773713.8117867 -1198727395.8968506 0 -1198727395.8968506 -7116842931.912961 0 0 0 0 1880235707.2849197 -1098034498.4345093 0 -1098034498.4345093 -5926939792.7204552 0 0 0 0 2158465958.1794305 -315074894.47762489 0 -315074894.47762489 -5882440065.8508911 0 0 0 0 939010669.71781206 -1052268597.9106369 0 -1052268597.9106369 -3894562571.7789917 0 0 0 0 1096956031.793088 -1495393204.295517 0 -1495393204.295517 -5058203383.7684937 0 0 0 0 2112984905.9489822 -554502363.38952637 0 -554502363.38952637 -4938737234.2480469 0 0 0 0 1435131459.5366478 -703180298.39981079 0 -703180298.39981079 -4835781253.4473724 0 0 0 0 1420728705.9087334 -899979825.77119446 0 -899979825.77119446 -4017000670.1987305 0 0 0 0 1645428656.4611874 -217413523.29516602 0 -217413523.29516602 -4133823843.2735596 0 0 0 0 1136948780.1877289 -506736658.53660583 0 -506736658.53660583 -3862709005.9070587 0 0 0 0 1116400003.8115177 -668737910.55592346 0 -668737910.55592346 -4061011468.9596672 0 0 0 0 835930815.72316265 -808053534.2743988 0 -808053534.2743988 -2769217882.9364014 0 0 0 0 882771999.36566544 -1067153321.0643921 0 -1067153321.0643921 -3894330221.1254272 0 0 0 0 357536340.37625408 -565411491.50270844 0 -565411491.50270844 -2059124962.0841675 0 0 0 0 326500458.45585245 -1067387859.5294495 0 -1067387859.5294495 -3387991507.9228821 0 0 0 0 364804766.48565865 -1098545756.2905197 0 -1098545756.2905197 -3370908667.2284698 0 0 0 0 513806643.93926907 -1062697422.5259552 0 -1062697422.5259552 -47477417.893753052 0 0 0 0 1263698514.8838539 -827322427.16814423 0 -827322427.16814423 -2153851529.0509834 0 0 0 0 710784437.68930244 -406476672.55101013 0 -406476672.55101013 -2696101747.9599152 0 0 0 0 539610866.77824545 -709838151.2591877 0 -709838151.2591877 -1992787283.0616913 0 0 0 0 67014731.751312256 4139718.4839706421 0 4139718.4839706421 -144644440.67108154 0 0 0 0 2645319.0365818571 -2404553.2216698825 0 -2404553.2216698825 -4590266.283790119 0 0 0 0 -171555223.64954329 34081055.129831314 0 34081055.129831314 1122434727.8721924 0 0 0 0 245063189.19811392 -380470703.29974365 0 -380470703.29974365 -285295837.25584412 0 0 0 0 -273150512.48106724 -414524304.93730688 0 -414524304.93730688 -332940322.50360107 0 0 0 0 -290096333.53455752 1095513158.8614883 0 1095513158.8614883 -1657730582.0906982 0 0 0 0 -195551164.18361473 343571278.75772095 0 343571278.75772095 -691985410.01068115 0 0 0 0 -364323086.68811226 57601544.012794495 0 57601544.012794495 438187465.929245 0 0 0 0 7129138.4246771429 -10298316.921799697 0 -10298316.921799697 -14851734.879476286 0 0 0 0 235184786.1229887 31479938.564079285 0 31479938.564079285 -31995790.720153809 0 0 0 0 -5456812.8074029693 -19840802.683529492 0 -19840802.683529492 -26575710.526103564 0 0 0 0 220578961.03821039 -185009169.54501343 0 -185009169.54501343 -251533350.45800781 0 0 0 0 -16554732.86206913 -17422371.106981277 0 -17422371.106981277 -5148865.8456115723 0 0 0 0 1618052.4190427698 -7133108.0833978802 0 -7133108.0833978802 -14122319.645892449 0 0 0 0 -20070461.705450535 -39508672.936338425 0 -39508672.936338425 -22538333.83581543 0 0 0 0 -9250222.584608078 -20559931.700820923 0 -20559931.700820923 -16086911.052810669 0 0 0 0 -6819984.7397542 -32886115.009504318 0 -32886115.009504318 -50523571.771148682 0 0 0 0 -7876328.3571528783 -23826848.783305231 0 -23826848.783305231 -26820167.302250326 0 0 0 0 8814969.4948101044 -75565475.819137573 0 -75565475.819137573 -56975270.679237366 0 0 0 0 11010506.07573187 3625080.558865808 0 3625080.558865808 -15278419.819362652 0 0 0 0 -617521540.46746731 -1154448415.4279785 0 -1154448415.4279785 -2014176642.7249756 0 0 0 0 -10654306.571111679 -55259831.844970703 0 -55259831.844970703 -67142585.450805664 0 0 0 0 -338307284.35567904 -836187084.5105896 0 -836187084.5105896 -1942820602.6901703 0 0 0 0 329802.00068772212 162411.53760295361 0 162411.53760295361 -677596.26039767265 0 0 0 0 225272294.76221848 -883240798.57122803 0 -883240798.57122803 -3503818696.6530762 0 0 0 0 178324563.0456264 -101689228.25799179 0 -101689228.25799179 -48322534.270568848 0 0 0 0 -19258260.171318054 -26621820.927139282 0 -26621820.927139282 8352079.3946533203 0 0 0 0 -5550933.5081270766 -3326370.6066089422 0 -3326370.6066089422 -9795047.0354493298 0 0 0 0 -600825456.04910374 -999245218.5977478 0 -999245218.5977478 -2635975280.2746506 0 0 0 0 -528710435.9495697 -1304235322.001709 0 -1304235322.001709 -3238492625.5595703 0 0 0 0 -471608605.78387928 -1533251282.1065674 0 -1533251282.1065674 -3062078447.9953918 0 0 0 0 -878815889.66106653 -1256148383.5760422 0 -1256148383.5760422 -2373471976.7990265 0 0 0 0 302961002.89077795 -732476484.20770168 0 -732476484.20770168 1027037729.9730835 0 0 0 0 -480842318.56161976 -1987239354.8868446 0 -1987239354.8868446 -4539832699.3179932 0 0 0 0 -1030773.1115748133 -647362.85170113295 0 -647362.85170113295 -3452915.3414482921 0 0 0 0 -871535245.20706332 -1406919250.8994598 0 -1406919250.8994598 -1203898038.4533997 0 0 0 0 -560834757.61633635 -834223999.84216309 0 -834223999.84216309 -1034083114.399292 0 0 0 0 -1256842615.5991952 -1926391573.9841003 0 -1926391573.9841003 -1737340029.2460327 0 0 0 0 -505266324.85218382 -1238184737.5189362 0 -1238184737.5189362 -2272258410.7339401 0 0 0 0 -651928883.62525749 -1344750648.565567 0 -1344750648.565567 -1436621120.546608 0 0 0 0 -510066708.79373056 -865524009.93470001 0 -865524009.93470001 -748717092.91664124 0 0 0 0 -394562403.26440334 -863093420.45680237 0 -863093420.45680237 -809618823.60816956 0 0 0 0 -997134910.72612476 -1392467489.6684723 0 -1392467489.6684723 -931447156.92446518 0 0 0 0 -793630513.07353842 -1519546609.8577042 0 -1519546609.8577042 -1251309867.9142342 0 0 0 0 -770750992.42696726 -1336664919.2438488 0 -1336664919.2438488 -1205667649.3842468 0 0 0 0 -1136150948.6387248 -1160580716.5762405 0 -1160580716.5762405 -1280952635.2683067 0 0 0 0 -1158635970.0598574 -1551313782.167717 0 -1551313782.167717 -1302815916.0631523 0 0 0 0 -792617415.78167534 -1597195622.1443253 0 -1597195622.1443253 -1617558312.0240021 0 0 0 0 -500758983.56067657 -1015269825.9405975 0 -1015269825.9405975 -1741052569.6856232 0 0 0 0 -201141035.70304132 -778050763.54747772 0 -778050763.54747772 -1989349691.2072449 0 0 0 0 840584692.19679141 480465910.25568962 0 480465910.25568962 -347327945.2782135 0 0 0 0 72270145.094006538 -226102583.67677307 0 -226102583.67677307 -1354698714.5267792 0 0 0 0 82640018.113894463 -719377796.2587738 0 -719377796.2587738 -2064092800.8599129 0 0 0 0 -717692198.85399246 -1338986622.0424194 0 -1338986622.0424194 690861573.5741272 0 0 0 0 -698207281.87337923 -1432472696.4386826 0 -1432472696.4386826 -1384282862.6803207 0 0 0 0 -722314205.37946653 -1546396914.4261055 0 -1546396914.4261055 -563148954.51623535 0 0 0 0 541790664.1081897 411680760.88516998 0 411680760.88516998 -5981057135.7294617 0 0 0 0 86220.334340831469 20207506.195432663 0 20207506.195432663 -3579566094.6347504 0 0 0 0 23464265.031172838 -205646124.52175903 0 -205646124.52175903 -1531357917.7037888 0 0 0 0 -20593137.15946557 -5805020.1245476007 0 -5805020.1245476007 -740480807.48246765 0 0 0 0 -123411773.10211463 -715023635.9157505 0 -715023635.9157505 -6969458933.3016357 0 0 0 0 -350813100.39350468 2342747884.8965607 0 2342747884.8965607 -6872570680.2232208 0 0 0 0 130148.3650110662 -1471024.2772261724 0 -1471024.2772261724 -3240064.7530995756 0 0 0 0 1782898021.6989059 590724866.93120575 0 590724866.93120575 -5229350431.6531372 0 0 0 0 -982715.78377378895 -3250799.8194908127 0 -3250799.8194908127 -5494787.7659357339 0 0 0 0 716854772.38308477 75443788.423469543 0 75443788.423469543 -3226385249.0555115 0 0 0 0 -22287759.947422106 -72982220.895746827 0 -72982220.895746827 -2050504370.6357727 0 0 0 0 10307432.558975816 -32692894.664825439 0 -32692894.664825439 -2117509761.4798126 0 0 0 0 -29013572.371206164 655718203.5057373 0 655718203.5057373 -3378106175.3782043 0 0 0 0 -1333029.3649155411 -1555286.5979320556 0 -1555286.5979320556 -2314096.0540803224 0 0 0 0 398294392.77073479 -74052523.635299683 0 -74052523.635299683 -6598039608.5180359 0 0 0 0 -181638152.53482997 -3456643037.6777954 0 -3456643037.6777954 -176188098.76226807 0 0 0 0 -366397917.36927748 -1649283844.5812225 0 -1649283844.5812225 -2735059256.267395 0 0 0 0 -1377303349.3267174 -2125151075.5067139 0 -2125151075.5067139 -1628896748.8431396 0 0 0 0 -278146479.57435274 296633950.40362549 0 296633950.40362549 -1362570358.7861137 0 0 0 0 -238474296.21804047 -3035517028.7323761 0 -3035517028.7323761 -4454292726.6713104 0 0 0 0 -1515101499.6061225 409494201.474823 0 409494201.474823 -5668583010.2015991 0 0 0 0 201827264.02684593 -1289969502.1912918 0 -1289969502.1912918 -5481359659.7255859 0 0 0 0 -116901406.87708318 -248189017.57305908 0 -248189017.57305908 -1429322153.7900009 0 0 0 0 -1402101168.5257614 -796404653.50040007 0 -796404653.50040007 -7005566955.9637756 0 0 0 0 172774771.30051538 -61683353.374328613 0 -61683353.374328613 -5451633267.3629494 0 0 0 0 -1561130068.4350226 1650269513.3353577 0 1650269513.3353577 -6096252618.8814697 0 0 0 0 -113298637.2399921 436453419.0273056 0 436453419.0273056 -5985327354.0399685 0 0 0 0 -1965033.1983689463 -1479598.5236009955 0 -1479598.5236009955 -2885888.5647339635 0 0 0 0 566935263.01389027 1033005671.578331 0 1033005671.578331 -5563820787.7126846 0 0 0 0 123902066.12540436 1311689994.7583237 0 1311689994.7583237 -4230548971.9381561 0 0 0 0 -532384.91172701609 -3301460.0180385187 0 -3301460.0180385187 -5755438.1213800013 0 0 0 0 -6277728178.2517748 -717785266.15811157 0 -717785266.15811157 -3131793419.4915924 0 0 0 0 73781496.673257828 4596875010.3187027 0 4596875010.3187027 -7665556768.7746391 0 0 0 0 -2247956.568734047 -4739942.8302790225 0 -4739942.8302790225 -7753590.9706017971 0 0 0 0 -754614412.35155869 -951889826.90252304 0 -951889826.90252304 314628613.37268066 0 0 0 0 -1172636795.0910521 -2806057874.7890396 0 -2806057874.7890396 -1054466319.9320221 0 0 0 0 281640335.14523667 67666441.371238708 0 67666441.371238708 -2488516812.3174977 0 0 0 0 -412830288.28649616 724804598.46645355 0 724804598.46645355 -2493770877.853714 0 0 0 0 1009128493.6157589 -357402540.08680725 0 -357402540.08680725 -140763832.00045776 0 0 0 0 -4645224.6247116523 -13140591.622908879 0 -13140591.622908879 -20009019.746043891 0 0 0 0 338823139.23793221 921270213.20294189 0 921270213.20294189 -372382894.85967636 0 0 0 0 -958347408.58536625 180116434.4544754 0 180116434.4544754 176173970.94230652 0 0 0 0 49893826.647734642 495932104.37619019 0 495932104.37619019 -248888604.23312378 0 0 0 0 115499325.15139019 -28854510.184492111 0 -28854510.184492111 -311881156.70678711 0 0 0 0 179570247.66722298 135805233.82733154 0 135805233.82733154 -129805117.05284119 0 0 0 0 149185274.21399689 136677140.09086609 0 136677140.09086609 -115257553.13612938 0 0 0 0 -135582970.06674194 -403895225.42016602 0 -403895225.42016602 -1172741310.3179932 0 0 0 0 2875983.025850296 -87359708.665466309 0 -87359708.665466309 -130397834.65075684 0 0 0 0 11553830.104499009 8460291.3237708062 0 8460291.3237708062 -13131118.576195363 0 0 0 0 31344307.44690609 -33349117.303726196 0 -33349117.303726196 -97387079.653442383 0 0 0 0 6109883.1940896744 9389976.3456516862 0 9389976.3456516862 -2653903.2798586786 0 0 0 0 365013809.81223106 -305166818.92634583 0 -305166818.92634583 -303782856.81900024 0 0 0 0 2492915.0176256895 4441139.8629112244 0 4441139.8629112244 -4422379.8048706055 0 0 0 0 83049415.550001144 127892528.28025818 0 127892528.28025818 -423007040.80765152 0 0 0 0 -82816686.157465935 -28555102.831199646 0 -28555102.831199646 155213651.71975708 0 0 0 0 -13346679.298769951 301014056.67125702 0 301014056.67125702 428706948.12080383 0 0 0 0 1215389.3691692138 -847530.83238535374 0 -847530.83238535374 -4701812.2535436638 0 0 0 0 3110285.7341137282 2928107.5843324922 0 2928107.5843324922 665784.07497614622 0 0 0 0 -302594133.0860815 -170540093.61477661 0 -170540093.61477661 785111457.91864014 0 0 0 0 288600437.91836405 278913574.2299118 0 278913574.2299118 205088409.29678345 0 0 0 0 5159407.6798663475 10142726.483370475 0 10142726.483370475 -1677593.2596260309 0 0 0 0 138695814.52100945 33949082.68977356 0 33949082.68977356 -84787057.999526978 0 0 0 0 283939247.04669762 -168030828.47930908 0 -168030828.47930908 57284189.294845581 0 0 0 0 326404953.64807439 -129242342.94707489 0 -129242342.94707489 -474619879.93963623 0 0 0 0 6621739.246908824 6094477.8956618607 0 6094477.8956618607 -1019442.511686638 0 0 0 0 51738981.264904618 114683926.34252167 0 114683926.34252167 420605398.00769043 0 0 0 0 -377000535.87697363 203863593.50100708 0 203863593.50100708 405754578.84033203 0 0 0 0 87437576.303536832 -130030628.08700562 0 -130030628.08700562 -122002648.64904785 0 0 0 0 -531864548.14568484 -727951393.74828625 0 -727951393.74828625 -454625321.51278687 0 0 0 0 106062497.68423033 370396575.1919632 0 370396575.1919632 218680055.08343506 0 0 0 0 -606087946.12203813 152274655.62852478 0 152274655.62852478 335227510.60689545 0 0 0 0 779028181.34367728 -10974481.01742363 0 -10974481.01742363 -1581204395.4393005 0 0 0 0 1329329.0565318314 -1322421.5066049863 0 -1322421.5066049863 -573522.66591405869 0 0 0 0 -248862378.9639436 -622718480.28073883 0 -622718480.28073883 -457085734.55892944 0 0 0 0 -1145322829.69525 -1528710867.3874359 0 -1528710867.3874359 -2373468010.0557251 0 0 0 0 -1716060171.174123 -1586691278.2301788 0 -1586691278.2301788 -2286175393.0334778 0 0 0 0 52993462.546013594 -55804968.93347168 0 -55804968.93347168 -1716141054.2395782 0 0 0 0 134275905.77450264 -148297991.15481567 0 -148297991.15481567 -1423402029.5005341 0 0 0 0 -167092671.71190506 -698883406.39916992 0 -698883406.39916992 -2171759031.135498 0 0 0 0 282031566.66286755 -582441706.90625 0 -582441706.90625 -2601019512.0515594 0 0 0 0 675442173.70088291 -789093825.81954956 0 -789093825.81954956 -2508825336.568634 0 0 0 0 1143341058.1813636 -573617595.44789124 0 -573617595.44789124 -2211611658.6882935 0 0 0 0 87346315.466532111 -975339511.50720215 0 -975339511.50720215 -1903587575.4710999 0 0 0 0 370624773.66935474 497064305.93091583 0 497064305.93091583 533531623.95562744 0 0 0 0 -190375470.68992418 -573026103.6583252 0 -573026103.6583252 -1307093973.1982727 0 0 0 0 555435950.16523504 583834963.85684967 0 583834963.85684967 -403861375.06158447 0 0 0 0 -249331454.03944659 -451219152.18971252 0 -451219152.18971252 472570361.28759766 0 0 0 0 -23163510.131123543 -89966056.537246704 0 -89966056.537246704 381499652.76274109 0 0 0 0 -291033153.75199413 -412700368.94488525 0 -412700368.94488525 549057885.23681641 0 0 0 0 2262500.4968818435 1448729.24930235 0 1448729.24930235 -495630.89167440683 0 0 0 0 -491458938.7847085 -807752898.26319885 0 -807752898.26319885 -624238580.36581421 0 0 0 0 312607017.05891991 149193810.22979736 0 149193810.22979736 -1172320048.1408615 0 0 0 0 309380389.67689514 194121203.01573181 0 194121203.01573181 -125713588.26806641 0 0 0 0 1713628839.7578056 139207689.19020081 0 139207689.19020081 -1921662007.5331573 0 0 0 0 -948562648.25387788 222183279.47761536 0 222183279.47761536 371138308.82147217 0 0 0 0 478490.00146476692 -687972.19803908863 0 -687972.19803908863 -4940229.8955474347 0 0 0 0 521477468.00346601 431232571.8030777 0 431232571.8030777 388051805.90771484 0 0 0 0 182504.7201496957 -18734.030784149189 0 -18734.030784149189 -2262506.1866872907 0 0 0 0 -307081797.99075711 -825161482.75742173 0 -825161482.75742173 -630288286.62719727 0 0 0 0 248688496.50296459 -158090789.0951767 0 -158090789.0951767 -411042132.11528015 0 0 0 0 -59673184.851312339 -247019573.91314125 0 -247019573.91314125 -1279899171.3256531 0 0 0 0 -404955.49424964556 -180368014.36133194 0 -180368014.36133194 -11721470.031951904 0 0 0 0 184398961.15052146 46170229.699302673 0 46170229.699302673 -698281329.5945282 0 0 0 0 192199517.10232618 -354215285.02754211 0 -354215285.02754211 -489199309.18133545 0 0 0 0 700315972.06214118 135444643.9564209 0 135444643.9564209 -203870505.7706604 0 0 0 0 126724279.29857902 -17927622.255836487 0 -17927622.255836487 -75532601.968414307 0 0 0 0 388436256.80445445 -269133075.2104187 0 -269133075.2104187 -53501053.492710114 0 0 0 0 179173304.56916437 -419129723.19756794 0 -419129723.19756794 75725205.236480713 0 0 0 0 267557957.26024055 81799101.842666626 0 81799101.842666626 -202430918.43564606 0 0 0 0 -672127212.90494692 -644852875.17276764 0 -644852875.17276764 562707790.1663208 0 0 0 0 351976.29092540138 -1359217.7120052278 0 -1359217.7120052278 -3867045.7627524287 0 0 0 0 501464352.0070703 1294135486.6415596 0 1294135486.6415596 -813524016.94726562 0 0 0 0 347740.54191986524 -594815.01979699079 0 -594815.01979699079 -4990012.7504248917 0 0 0 0 -55814062.912296295 498824092.02941895 0 498824092.02941895 -347676142.04119873 0 0 0 0 1026254139.5013077 630154845.59810638 0 630154845.59810638 -909185031.87117004 0 0 0 0 -247062739.32449245 192726760.6786499 0 192726760.6786499 1031582779.4314423 0 0 0 0 481869377.55430698 573319741.36157227 0 573319741.36157227 -71087665.088878632 0 0 0 0 1216330199.0379241 -734217982.0379715 0 -734217982.0379715 -578674139.89266968 0 0 0 0 2229228283.5950446 -474463080.9645977 0 -474463080.9645977 -975565148.76361084 0 0 0 0 588859.76079779817 -2409345.2596156383 0 -2409345.2596156383 -10956064.640542671 0 0 0 0 81991.577148780285 -641089.20628808171 0 -641089.20628808171 -1188614.1857809424 0 0 0 0 -1244857628.7455823 -522639997.81758881 0 -522639997.81758881 361584565.76516724 0 0 0 0 -1631455.6778333187 -1217554702.4703979 0 -1217554702.4703979 70103261.40826416 0 0 0 0 -42862731.761602879 95172726.946502686 0 95172726.946502686 -1296846729.9343262 0 0 0 0 29927069.010797501 596146706.97714233 0 596146706.97714233 262992173.5887661 0 0 0 0 -1516112635.1250362 -1888955094.515976 0 -1888955094.515976 -19823369.78213501 0 0 0 0 -1511948618.6541004 -1264714289.6206665 0 -1264714289.6206665 689072596.87159729 0 0 0 0 -1101626054.4195929 -1873440517.5252686 0 -1873440517.5252686 -1157487067.1203842 0 0 0 0 -1004172425.4043632 -1620933763.5125275 0 -1620933763.5125275 -530859150.32107544 0 0 0 0 -1358867279.0602169 -2527374834.7024536 0 -2527374834.7024536 -1535670684.9379578 0 0 0 0 -1199034902.8139479 -1678903185.4247169 0 -1678903185.4247169 -1472853382.9450073 0 0 0 0 -949008343.77309227 -1246804676.0379486 0 -1246804676.0379486 -1772859919.0030518 0 0 0 0 -743741652.41325974 -1382439698.6998196 0 -1382439698.6998196 -1691256506.5682373 0 0 0 0 -1201962734.1075315 -899620907.7671814 0 -899620907.7671814 -1555462411.272583 0 0 0 0 -1966223783.3155985 -1257135492.9076233 0 -1257135492.9076233 -728376405.07726288 0 0 0 0 -1797856145.7573118 -377830175.93836975 0 -377830175.93836975 -1989012805.8910522 0 0 0 0 -819438554.58811283 -464197401.38200378 0 -464197401.38200378 -2330815286.0363159 0 0 0 0 -178200723.62602425 -1064413377.1237946 0 -1064413377.1237946 -2112840784.6268463 0 0 0 0 -423106240.54333305 801691865.50416565 0 801691865.50416565 -947419248.82148743 0 0 0 0 -1972652.8618245125 481213020.72412491 0 481213020.72412491 -753944548.99899292 0 0 0 0 105163031.88252354 207962989.51576233 0 207962989.51576233 160756457.25178528 0 0 0 0 -531449388.39656353 499768492.04753113 0 499768492.04753113 -497087281.89831543 0 0 0 0 -248170.24303731322 2597380.8775335103 0 2597380.8775335103 -813218.19066532701 0 0 0 0 -750410543.4756875 654122766.04692078 0 654122766.04692078 -539271766.43302917 0 0 0 0 -783652818.68553317 -1043345511.9266624 0 -1043345511.9266624 -1627385248.8422241 0 0 0 0 1577967.1376609455 2850427.8431402408 0 2850427.8431402408 -4084768.2874468267 0 0 0 0 -858188445.97732115 -946193698.05180359 0 -946193698.05180359 -811729469.18060303 0 0 0 0 -310314891.9201355 -875599161.20773315 0 -875599161.20773315 -1941237047.793457 0 0 0 0 -597492085.49146748 -1067272478.3790588 0 -1067272478.3790588 -1879747532.8212051 0 0 0 0 -377646856.80804813 -1118924765.2918892 0 -1118924765.2918892 -1869883756.4909668 0 0 0 0 -764700725.58398438 -435320193.3290863 0 -435320193.3290863 -139493657.118927 0 0 0 0 5320777.410819361 6570119.2227139398 0 6570119.2227139398 -4109214.574517142 0 0 0 0 -293775964.5484314 96601438.585205078 0 96601438.585205078 -116488491.59443378 0 0 0 0 -68781907.695913792 -821743333.33605957 0 -821743333.33605957 -1421114677.5715027 0 0 0 0 -398216715.66731215 -618593898.19597626 0 -618593898.19597626 -987426248.42391968 0 0 0 0 -144111691.63067436 -853319322.59634399 0 -853319322.59634399 -1233848719.9888611 0 0 0 0 189503969.74585533 -444115878.53887939 0 -444115878.53887939 -1001817332.3342896 0 0 0 0 330934453.12276459 -796645174.44732666 0 -796645174.44732666 -265145797.61206055 0 0 0 0 510622.92816647189 -275450.23260749876 0 -275450.23260749876 -753203.42448374629 0 0 0 0 -293474168.50163651 -822764538.44061279 0 -822764538.44061279 -1092942200.0918808 0 0 0 0 -197345844.88516426 -981114318.18411255 0 -981114318.18411255 -1419923701.5304565 0 0 0 0 -389068230.19537354 -935230295.09988403 0 -935230295.09988403 -1166431763.5740356 0 0 0 0 -410682400.78221893 -864045467.58163452 0 -864045467.58163452 -1327430982.114502 0 0 0 0 -275957279.35791302 -845438250.03607178 0 -845438250.03607178 -1532716905.2635498 0 0 0 0 -329852156.03593946 -1158765100.8189106 0 -1158765100.8189106 -1749320713.7094421 0 0 0 0 -411282819.35517025 -801779974.01678467 0 -801779974.01678467 -1402788331.1384659 0 0 0 0 -386277433.3569088 -999794881.72323608 0 -999794881.72323608 -1927840095.9610825 0 0 0 0 -763071450.99416256 -1186630054.9567337 0 -1186630054.9567337 -1987543226.6140442 0 0 0 0 -392448457.58055401 -987575585.24827576 0 -987575585.24827576 -2333664467.1712646 0 0 0 0 -685363894.71095514 -1224583741.948288 0 -1224583741.948288 -2419286456.0990677 0 0 0 0 -1074170140.3401852 -810101737.07014465 0 -810101737.07014465 -2194737946.0788345 0 0 0 0 -616882314.6555028 -940864801.720047 0 -940864801.720047 -2160140295.9672241 0 0 0 0 -589866095.29367638 -823570832.54354858 0 -823570832.54354858 -1947572193.6301155 0 0 0 0 -1696915270.6442862 -1480692867.0401001 0 -1480692867.0401001 -2176340489.191864 0 0 0 0 -673916752.97395134 -1078542673.7687683 0 -1078542673.7687683 -2041198035.567627 0 0 0 0 443642.32684951648 -40413.52080296725 0 -40413.52080296725 -2062248.5086956248 0 0 0 0 -416603830.78114128 46006216.220275879 0 46006216.220275879 1129085367.6325531 0 0 0 0 -158434876.00689793 -1586007203.4987564 0 -1586007203.4987564 -4169814882.3867188 0 0 0 0 -1648166.3665248705 -286500.15482316911 0 -286500.15482316911 -600156.3306806758 0 0 0 0 21627715.08369717 -70968403.229888916 0 -70968403.229888916 -468923970.45695496 0 0 0 0 -869065454.30940008 -878427090.79508972 0 -878427090.79508972 287259655.49951172 0 0 0 0 -775236462.83743668 -1438248493.0437469 0 -1438248493.0437469 -1567166138.7770691 0 0 0 0 -822413319.56592989 -1211340501.5450439 0 -1211340501.5450439 -940868694.17950439 0 0 0 0 -20192.939834176039 1574722.3397292793 0 1574722.3397292793 -1781528.7608716786 0 0 0 0 51033641.499251842 -302387197.20227051 0 -302387197.20227051 -989900236.06243896 0 0 0 0 -392991028.07900047 -206967712.00028992 0 -206967712.00028992 -380508558.21310425 0 0 0 0 -30772651.215205118 -115909028.54833031 0 -115909028.54833031 -169858465.16998291 0 0 0 0 -6267016.9528354108 25375813.498569489 0 25375813.498569489 -131993086.55648804 0 0 0 0 51533664.849780902 107349737.52646637 0 107349737.52646637 52222135.846038818 0 0 0 0 279297108.02186054 -16976104.712432861 0 -16976104.712432861 -206997926.31595612 0 0 0 0 62004128.82484901 -147712481.42575836 0 -147712481.42575836 -308263638.59275818 0 0 0 0 -292358845.53140795 74236403.144569397 0 74236403.144569397 -104623301.93166733 0 0 0 0 -103015585.78736126 -186466763.79978943 0 -186466763.79978943 9230741.1907196045 0 0 0 0 -992256186.99969292 202015313.3049469 0 202015313.3049469 91743447.369171143 0 0 0 0 -908595170.27292252 87617808.128082275 0 87617808.128082275 -423496265.50480652 0 0 0 0 -471068.8749704943 748420.00526154041 0 748420.00526154041 -778820.21323490143 0 0 0 0 -327489640.24172044 119361109.12421417 0 119361109.12421417 -340070331.45611572 0 0 0 0 -687410481.62060547 219192601.91944885 0 219192601.91944885 -1266717454.5787964 0 0 0 0 -762807924.06273746 -95399023.422637939 0 -95399023.422637939 -1028022461.0771484 0 0 0 0 -339663296.37808323 -122269742.6295166 0 -122269742.6295166 -2866390738.7329941 0 0 0 0 -351528726.97136116 -984287757.31413269 0 -984287757.31413269 -3861547678.6165161 0 0 0 0 -1159990479.8008318 -1395616123.035202 0 -1395616123.035202 -3110039961.7700195 0 0 0 0 -404762010.0644474 -1232673018.4779968 0 -1232673018.4779968 -2082081923.3094025 0 0 0 0 -483801650.00912905 -301471046.47496033 0 -301471046.47496033 -2501631029.3714294 0 0 0 0 -428179211.38268185 -859493126.26985168 0 -859493126.26985168 -750093202.30747223 0 0 0 0 129352309.81015635 -996400529.80852509 0 -996400529.80852509 -1781700615.1404724 0 0 0 0 -349701494.41229266 -1156035177.610775 0 -1156035177.610775 -1403172226.3385925 0 0 0 0 -721873405.39793491 -1651344188.07341 0 -1651344188.07341 -1742885146.5188141 0 0 0 0 -444942258.92433977 -1272917265.2095642 0 -1272917265.2095642 -1658089765.6491699 0 0 0 0 -665871751.86849976 -1798456238.5385895 0 -1798456238.5385895 -1499520210.8669739 0 0 0 0 -797467660.33059025 -1989337846.8333893 0 -1989337846.8333893 -1776028581.5875244 0 0 0 0 -767340980.95238018 -2045725706.3756104 0 -2045725706.3756104 -2169710718.9053497 0 0 0 0 -910673965.88782275 -2311045812.8403931 0 -2311045812.8403931 -2596782102.8140259 0 0 0 0 -297274056.84768248 -1482701960.6156807 0 -1482701960.6156807 -2689262070.1002808 0 0 0 0 1335632406.3317218 506160299.71328735 0 506160299.71328735 -2089447045.1799774 0 0 0 0 106684.98512474302 -1641541.7240750459 0 -1641541.7240750459 -6001198.2041245699 0 0 0 0 -1663709086.3669338 -2454781060.3341293 0 -2454781060.3341293 -1480137047.3069153 0 0 0 0 486558852.61202049 -625815336.74036789 0 -625815336.74036789 -3453666846.2998657 0 0 0 0 -903045777.16584504 -2060501513.1866517 0 -2060501513.1866517 -4370281651.3104248 0 0 0 0 218541803.01294494 192252070.19252014 0 192252070.19252014 -1323918118.532959 0 0 0 0 849097917.93770409 165861477.66345215 0 165861477.66345215 -2894004813.1882324 0 0 0 0 -687038652.27061868 -1356196108.8953152 0 -1356196108.8953152 -2009188090.1705627 0 0 0 0 441386394.05566883 -688576587.0940094 0 -688576587.0940094 -2894991352.9363708 0 0 0 0 19010425.613034248 -645301938.11349487 0 -645301938.11349487 -2650241781.1884842 0 0 0 0 -639694069.25758076 -1426679078.9512939 0 -1426679078.9512939 -3115006325.8788881 0 0 0 0 -339890836.21614647 -1640104941.3354492 0 -1640104941.3354492 -3858850178.2510376 0 0 0 0 -3606651697.0186939 -995744028.47753906 0 -995744028.47753906 -3133047938.3373413 0 0 0 0 -2974248060.7058048 -151187292.46774292 0 -151187292.46774292 -3806228124.8170929 0 0 0 0 -66216.29439696169 -386765.1388203986 0 -386765.1388203986 -2612520.6753202975 0 0 0 0 -673990235.32988167 372900540.87918568 0 372900540.87918568 -199822680.35684204 0 0 0 0 -1696508697.6471605 -1741944581.1083221 0 -1741944581.1083221 -1711852819.2275696 0 0 0 0 -200543656.16982961 358064264.08701706 0 358064264.08701706 -1237625620.1376038 0 0 0 0 -908091637.86359119 -361575146.81495667 0 -361575146.81495667 616528513.83686829 0 0 0 0 215492358.40054083 -11507159.613342285 0 -11507159.613342285 -166837617.14892578 0 0 0 0 -1255721998.7084117 -954297710.00126648 0 -954297710.00126648 -390465706.04244614 0 0 0 0 -383289882.88329601 -1283581189.6316223 0 -1283581189.6316223 -1992472361.0918579 0 0 0 0 -86941491.030817002 -884039250.05945492 0 -884039250.05945492 -1320638444.2280579 0 0 0 0 -138606939.80374777 -715406074.93102264 0 -715406074.93102264 -690696666.02249146 0 0 0 0 945660.3981745349 -368459214.95373023 0 -368459214.95373023 -1341046054.8760681 0 0 0 0 190498277.81963408 -456507322.01974487 0 -456507322.01974487 -1680586338.6741562 0 0 0 0 204854076.17929322 -521963234.3513031 0 -521963234.3513031 -2157873449.0996094 0 0 0 0 -51187752.935991764 -67917779.545654297 0 -67917779.545654297 245132883.65023041 0 0 0 0 -216326.36124608351 -857714.32230004668 0 -857714.32230004668 -426841.01779362187 0 0 0 0 -9005812.039050024 -2287665.8751837611 0 -2287665.8751837611 66452.842431232333 0 0 0 0 -639280542.35298634 -380412582.62594604 0 -380412582.62594604 -416323282.42920685 0 0 0 0 -11479208.007343292 -4531731.4128112793 0 -4531731.4128112793 -11740387.572265625 0 0 0 0 -12913709.714637756 -251073.4612121582 0 -251073.4612121582 -7221437.9480743408 0 0 0 0 -15003023.469194889 -2398133.0163993835 0 -2398133.0163993835 5389533.5694274902 0 0 0 0 -14491402.745571136 -2978678.9464035034 0 -2978678.9464035034 -6039711.8270263672 0 0 0 0 -14881029.864435196 -4096854.4304580688 0 -4096854.4304580688 -7154675.6599121094 0 0 0 0 -1844199.1995729064 -8761131.2734979577 0 -8761131.2734979577 -8318870.2777303457 0 0 0 0 29624032.692400046 -17594995.676200867 0 -17594995.676200867 -13803987.545654297 0 0 0 0 -5150901.8999602795 -5760449.2868347168 0 -5760449.2868347168 875635.53633117676 0 0 0 0 -15801711.985748768 -20238044.898040771 0 -20238044.898040771 -8969085.1141967773 0 0 0 0 -15206245.043652892 -23142931.328277588 0 -23142931.328277588 -1581317.0014038086 0 0 0 0 -6933475.5912599564 -13513655.299194336 0 -13513655.299194336 90750.9248046875 0 0 0 0 -20128879.032249928 -18447610.731414795 0 -18447610.731414795 7145861.7240905762 0 0 0 0 2699320.0670385808 -27881449.322715759 0 -27881449.322715759 -228398.45874023438 0 0 0 0 23677731.521326527 -8233227.1500396729 0 -8233227.1500396729 -8296625.0796813965 0 0 0 0 -25273368.048635006 -4011846.7429122925 0 -4011846.7429122925 6241552.9735107422 0 0 0 0 -12464186.620699883 -16880612.061737061 0 -16880612.061737061 -7367293.2387619019 0 0 0 0 -27648643.354264259 -2704369.0039978027 0 -2704369.0039978027 -13378314.962036133 0 0 0 0 45566325.984221458 15453467.614181519 0 15453467.614181519 -29276201.372344971 0 0 0 0 -37130862.087696075 66044562.011276245 0 66044562.011276245 -53613001.163452148 0 0 0 0 -122561054.08330727 52484609.703201294 0 52484609.703201294 -53831590.140249729 0 0 0 0 50588226.104646206 -67357897.13067627 0 -67357897.13067627 -6723700.9547424316 0 0 0 0 64826835.594215393 3739736.0384368896 0 3739736.0384368896 -12655469.632385254 0 0 0 0 -17074552.968289852 -34249040.74130249 0 -34249040.74130249 -2195967.9472808838 0 0 0 0 -15252748.417647362 -24029362.095306396 0 -24029362.095306396 10004623.049087524 0 0 0 0 -75056275.425701141 -22203244.633209229 0 -22203244.633209229 33878985.239593506 0 0 0 0 -53248013.24989748 14521537.541366577 0 14521537.541366577 -197530464.20864868 0 0 0 0 -92174143.599378824 67083923.978834152 0 67083923.978834152 -49220180.235717773 0 0 0 0 -81496855.784491837 -26033028.567459106 0 -26033028.567459106 156838995.76593018 0 0 0 0 29430869.601361036 175975456.69140625 0 175975456.69140625 -182400478.37371826 0 0 0 0 -160905201.2926296 -135244579.60021973 0 -135244579.60021973 -426350137.85357666 0 0 0 0 -122809371.13618338 72279527.992752075 0 72279527.992752075 -221883150.27960205 0 0 0 0 120817281.94958663 -186599272.23086548 0 -186599272.23086548 -935933827.07492065 0 0 0 0 10798306.081295967 94841004.298675537 0 94841004.298675537 -184776251.14190674 0 0 0 0 -59491174.255975246 -97840840.642425537 0 -97840840.642425537 -590510535.63990784 0 0 0 0 -128022443.96663189 -9267421.4239349365 0 -9267421.4239349365 -113729393.61772919 0 0 0 0 -176670965.13785553 -373229423.74502563 0 -373229423.74502563 -670200430.11323547 0 0 0 0 -269470958.8441515 -385617250.81080627 0 -385617250.81080627 -61659560.56463623 0 0 0 0 -344411520.006136 -399739695.58377457 0 -399739695.58377457 -408951596.6138916 0 0 0 0 -215405319.64221454 -657954887.83001709 0 -657954887.83001709 -1276011562.0748291 0 0 0 0 -437255495.79376578 -816336197.11944532 0 -816336197.11944532 -1403716084.1427917 0 0 0 0 -414258240.70462847 -420545950.69314575 0 -420545950.69314575 -791328194.31941223 0 0 0 0 -2232858.8881603419 -3093839.9016592903 0 -3093839.9016592903 933282.81443411112 0 0 0 0 -9895726.763320446 78322725.622398376 0 78322725.622398376 -424603876.70614624 0 0 0 0 -220546663.20144582 -536959250.75186157 0 -536959250.75186157 -588493413.44960785 0 0 0 0 -429674313.87587649 -885060939.81458569 0 -885060939.81458569 -1542763061.9078522 0 0 0 0 -341911804.52015734 -303772984.94412994 0 -303772984.94412994 -893562291.190979 0 0 0 0 -651332940.92332172 -618820185.84655762 0 -618820185.84655762 -1561154613.6698303 0 0 0 0 -969439960.92705035 -1201689220.27841 0 -1201689220.27841 -1528889841.9431305 0 0 0 0 -455808727.07470703 -999785015.4152832 0 -999785015.4152832 -2374243593.5949993 0 0 0 0 -537316194.02345979 -1468394483.7787256 0 -1468394483.7787256 -2011850501.6281128 0 0 0 0 377692.08217014559 -477380.75351258367 0 -477380.75351258367 -1412700.2305375338 0 0 0 0 -229332036.4254303 -1087000212.6975708 0 -1087000212.6975708 -2009481761.5075531 0 0 0 0 -749433660.19127464 -1205231671.3794098 0 -1205231671.3794098 -1722959023.1843796 0 0 0 0 -38224967.708845139 -367553775.6014061 0 -367553775.6014061 -1020759794.1114197 0 0 0 0 -473289145.38777256 -939653577.80450439 0 -939653577.80450439 -1515940151.3772278 0 0 0 0 -418785978.24132347 -974061177.97764587 0 -974061177.97764587 -2013237526.5505066 0 0 0 0 -427480583.25464249 -1163854000.2557678 0 -1163854000.2557678 -1724468667.445137 0 0 0 0 -184986051.72352076 -611032979.2609787 0 -611032979.2609787 -1543416603.5049133 0 0 0 0 -738088775.10215616 -1197276982.6621246 0 -1197276982.6621246 -1821273590.129179 0 0 0 0 -470421074.39021111 -1007933183.5500031 0 -1007933183.5500031 -1868437220.7023773 0 0 0 0 -531729116.89389467 -991472236.74731827 0 -991472236.74731827 -1922869411.3896637 0 0 0 0 -455801913.20125103 -1356432199.7956543 0 -1356432199.7956543 -2210073263.1642685 0 0 0 0 -545792105.00382233 -983492545.11613464 0 -983492545.11613464 -2229397239.3267536 0 0 0 0 536240.45160460542 -635613.15950153023 0 -635613.15950153023 -2893455.6345387399 0 0 0 0 -568977130.05052853 -1453782511.7171631 0 -1453782511.7171631 -2196968223.2553558 0 0 0 0 -558237126.97902489 -1102460939.4492493 0 -1102460939.4492493 -2244909057.6005096 0 0 0 0 -632430183.34714293 -906682521.41800308 0 -906682521.41800308 -1891401603.1596375 0 0 0 0 -514249583.74713135 -987322493.03079224 0 -987322493.03079224 -2251889908.8588867 0 0 0 0 -5124266.9725637073 -1545439.4278959632 0 -1545439.4278959632 -511581.14605074003 0 0 0 0 -163343149.33862209 -72039067.900238037 0 -72039067.900238037 430762670.36632538 0 0 0 0 -7664805.6038914612 -2047758.8396270573 0 -2047758.8396270573 -134865.14463040978 0 0 0 0 -355403401.82843828 -463068088.99767303 0 -463068088.99767303 -1081954764.8505249 0 0 0 0 -65112377.194425583 -797018671.33757019 0 -797018671.33757019 -2171720871.6084747 0 0 0 0 -4824186.0149450302 -45387348.038871765 0 -45387348.038871765 248459049.04829407 0 0 0 0 96102783.292075157 -58982853.512893677 0 -58982853.512893677 14745019.508850098 0 0 0 0 -18796560.884197235 2295374.4249191284 0 2295374.4249191284 54979484.122665405 0 0 0 0 21839345.004040718 -73918213.616973877 0 -73918213.616973877 49344677.414794922 0 0 0 0 116131747.3305645 -71217260.482265472 0 -71217260.482265472 -66483284.826751709 0 0 0 0 139070437.10365379 -111539674.49074554 0 -111539674.49074554 -295921799.599823 0 0 0 0 1061497.9529633541 703349.57537873834 0 703349.57537873834 -918745.4212339744 0 0 0 0 244658585.78203106 -104584929.13677979 0 -104584929.13677979 -99257455.446640015 0 0 0 0 38440467.823274612 -4337171.1037750244 0 -4337171.1037750244 -98015345.691230774 0 0 0 0 167346454.30257225 84741349.066108704 0 84741349.066108704 -36716082.365814209 0 0 0 0 103115887.03793728 -245204892.24459267 0 -245204892.24459267 -215037048.88981628 0 0 0 0 226167639.02032614 93334009.217094421 0 93334009.217094421 -30016937.58493042 0 0 0 0 -140041754.72565937 -139406249.08029175 0 -139406249.08029175 383693849.55989838 0 0 0 0 -92569068.701230049 -197941949.39283752 0 -197941949.39283752 190845222.05773926 0 0 0 0 -89582086.871954918 -73299333.610946655 0 -73299333.610946655 -26657885.851959229 0 0 0 0 47408055.75783062 27965146.573516846 0 27965146.573516846 -187395152.90760803 0 0 0 0 -30201156.349502563 -114860675.02700806 0 -114860675.02700806 -310927987.35588074 0 0 0 0 1347522.3225442206 1354161.0174705684 0 1354161.0174705684 -1767190.7992129251 0 0 0 0 -32140886.77021122 21430709.267318726 0 21430709.267318726 -110360724.05439758 0 0 0 0 -25090748.07712245 -27689359.108787537 0 -27689359.108787537 206193124.14074707 0 0 0 0 41432817.436075926 100417707.22948456 0 100417707.22948456 -219620871.83215332 0 0 0 0 4928897.6560427193 -1344981.9666818306 0 -1344981.9666818306 -345231.88499470055 0 0 0 0 -16373352.144709587 -916445.46854400635 0 -916445.46854400635 -91730529.893371582 0 0 0 0 -25578545.511983633 66107118.048706055 0 66107118.048706055 -54926342.814231873 0 0 0 0 862258.07936626766 -121498.76020412147 0 -121498.76020412147 -1142730.9493179023 0 0 0 0 -32089849.627825737 40444356.875999451 0 40444356.875999451 78469419.194358826 0 0 0 0 47545161.385055542 203967926.81214905 0 203967926.81214905 7214973.8466796875 0 0 0 0 203277435.51858211 -191210973.06322479 0 -191210973.06322479 -284816382.4120636 0 0 0 0 -48744976.512752533 36069815.50050354 0 36069815.50050354 348358057.14720154 0 0 0 0 8154979.0164563227 -2879650.1558154523 0 -2879650.1558154523 -1006333.8619333133 0 0 0 0 32029639.678203583 -80922378.440856934 0 -80922378.440856934 -179241829.05454254 0 0 0 0 -57910669.585710526 5615734.2300109863 0 5615734.2300109863 276130447.26491547 0 0 0 0 10903214.391753273 -4810598.5982412547 0 -4810598.5982412547 -2658279.0874961019 0 0 0 0 14046684.764827728 -28278678.455726624 0 -28278678.455726624 171593902.86514282 0 0 0 0 15485524.676632881 -39346502.255073547 0 -39346502.255073547 -85810338.90637207 0 0 0 0 10730117.691983223 -33485666.702823639 0 -33485666.702823639 -71775978.978973389 0 0 0 0 -13705924.057563782 -52885446.208633423 0 -52885446.208633423 -30720373.749053955 0 0 0 0 13541841.166552544 -31578541.225837708 0 -31578541.225837708 -71484840.311859131 0 0 0 0 9646522.0184555054 -29268936.688262939 0 -29268936.688262939 -35779075.327758789 0 0 0 0 -81895080.747577429 -110715499.23609352 0 -110715499.23609352 -18922209.015655518 0 0 0 0 -14900610.025299072 12301780.471450806 0 12301780.471450806 51829787.03729248 0 0 0 0 1896089.3087445116 -1291321.5931121707 0 -1291321.5931121707 -3079596.2801187336 0 0 0 0 41539544.050586641 -39931170.781227589 0 -39931170.781227589 -57230994.513671875 0 0 0 0 -8966485.1335878372 -24706806.8334198 0 -24706806.8334198 -26596054.177978516 0 0 0 0 -15848305.454360962 -7995607.225692749 0 -7995607.225692749 24809944.939254761 0 0 0 0 1768806.1155887954 -4118440.9986935854 0 -4118440.9986935854 -4990687.0388147682 0 0 0 0 3028209.057220459 -3101811.9422912598 0 -3101811.9422912598 -29348742.874084473 0 0 0 0 -12253123.591474533 -13792030.65763092 0 -13792030.65763092 -9139243.3170471191 0 0 0 0 -17565701.368717194 -12622122.857070923 0 -12622122.857070923 -1313015.3456268311 0 0 0 0 -18049825.495035648 -11728117.699192047 0 -11728117.699192047 11212228.295349121 0 0 0 0 -11704652.314105988 -26265575.069553375 0 -26265575.069553375 -3501063.8282165527 0 0 0 0 -7173180.3763942719 -23925800.469406128 0 -23925800.469406128 -30122562.487533569 0 0 0 0 -8245792.1431536674 4415016.6217956543 0 4415016.6217956543 10173542.378494263 0 0 0 0 2355132.6795915714 -1829066.5269928873 0 -1829066.5269928873 -11595173.133318409 0 0 0 0 -13984595.316444136 -3325499.3352394104 0 -3325499.3352394104 3036363.9370727539 0 0 0 0 -758516.26281120768 -1178654.5189808048 0 -1178654.5189808048 645720.61918465793 0 0 0 0 10387576.025288582 -10538364.270065308 0 -10538364.270065308 -6005387.0458679199 0 0 0 0 -770671.50272858737 -8126870.4899258874 0 -8126870.4899258874 -7490954.4406307936 0 0 0 0 -1958301.1195171922 -19983328.175842285 0 -19983328.175842285 -7837811.9094161987 0 0 0 0 7756585.7992612375 -4192368.9280439839 0 -4192368.9280439839 -11351262.511539504 0 0 0 0 -7104018.2462893082 -8042569.6546449363 0 -8042569.6546449363 -8349835.3790241629 0 0 0 0 5738533.6299238205 -8353961.3247146606 0 -8353961.3247146606 -44060267.836303711 0 0 0 0 -27323877.755624771 -3237024.6081390381 0 -3237024.6081390381 -18962998.664169312 0 0 0 0 -5157767.9727020264 -5444372.1619415283 0 -5444372.1619415283 -29782372.138671875 0 0 0 0 -2028656.832151264 -3742389.7224271931 0 -3742389.7224271931 1052059.3265814632 0 0 0 0 -222458.25081514195 -1616387.8437556028 0 -1616387.8437556028 -2508193.4647859484 0 0 0 0 10358397.072190471 436579.492142912 0 436579.492142912 -18193103.149413913 0 0 0 0 4271249.8662214279 -575597.73136901855 0 -575597.73136901855 -7002958.3923950195 0 0 0 0 -68926056.668813229 -35847851.868717194 0 -35847851.868717194 -31745893.653274536 0 0 0 0 12680722.927120801 -21169719.185824662 0 -21169719.185824662 -22973695.210076988 0 0 0 0 -23493887.892145157 -4690943.9039764404 0 -4690943.9039764404 -36729317.556653976 0 0 0 0 -71383539.246894836 -20466938.563873291 0 -20466938.563873291 -69457885.505081177 0 0 0 0 7463749.6350851059 -54868880.604190826 0 -54868880.604190826 34124190.885223389 0 0 0 0 12965365.804269301 -8612037.4174129069 0 -8612037.4174129069 -6186056.2759939544 0 0 0 0 -56208137.685962677 -32146840.423095703 0 -32146840.423095703 192671011.83300781 0 0 0 0 12445823.791316032 -22092876.042701721 0 -22092876.042701721 -84603795.738952637 0 0 0 0 30018756.444320679 -240615130.75488281 0 -240615130.75488281 -203012815.53387451 0 0 0 0 1429137.5246696472 -58321471.884262085 0 -58321471.884262085 105756778.07619858 0 0 0 0 2565876.6480111871 -5936202.5547655169 0 -5936202.5547655169 3280856.367076084 0 0 0 0 75608059.304961681 -115799424.63996506 0 -115799424.63996506 135940151.38742065 0 0 0 0 -109244244.84987259 -74680428.142921448 0 -74680428.142921448 -13765118.797058105 0 0 0 0 -40519938.337825775 -100406516.73736572 0 -100406516.73736572 153904787.32468414 0 0 0 0 -58726039.737242699 -87442967.419029236 0 -87442967.419029236 93346576.840667725 0 0 0 0 -41186062.02612114 -64022268.283752441 0 -64022268.283752441 124092587.54985809 0 0 0 0 384566462.38970947 -433396357.97264099 0 -433396357.97264099 142318327.2144165 0 0 0 0 -505479635.78562117 -243595421.26382637 0 -243595421.26382637 228189648.05133057 0 0 0 0 -298266744.37969017 161529659.17727661 0 161529659.17727661 -78374807.754241943 0 0 0 0 -272413707.31716824 77320937.054321289 0 77320937.054321289 87550620.689941406 0 0 0 0 -256961101.07958794 139934213.39103699 0 139934213.39103699 -108957657.41387177 0 0 0 0 -276562050.01559448 -352724492.442276 0 -352724492.442276 194547862.98419189 0 0 0 0 -800775205.21682358 -16512109.054428101 0 -16512109.054428101 160620127.62025547 0 0 0 0 31902825.84505558 170489270.34033203 0 170489270.34033203 -315649273.46611023 0 0 0 0 -329702131.94450378 246209018.220047 0 246209018.220047 -172982524.04292297 0 0 0 0 -118646631.74332905 380938355.36378479 0 380938355.36378479 -553176037.17628479 0 0 0 0 -172423743.61117697 165146876.60809326 0 165146876.60809326 -93304375.237670898 0 0 0 0 -125615080.31164742 106642747.63198853 0 106642747.63198853 -144191502.70895004 0 0 0 0 32821824.489147961 163217145.29316187 0 163217145.29316187 -416961952.17248535 0 0 0 0 -70462224.462630272 -10315052.378547668 0 -10315052.378547668 72369164.312255859 0 0 0 0 -23438321.665165901 77916294.051387787 0 77916294.051387787 -118950293.09951782 0 0 0 0 -80606954.709367752 51450602.309967041 0 51450602.309967041 -76158265.609077454 0 0 0 0 -138953683.62212753 -41010400.871437073 0 -41010400.871437073 121972588.24771118 0 0 0 0 -76958110.121590614 -55128519.656066895 0 -55128519.656066895 170570722.30737305 0 0 0 0 -36731390.482795656 -50764452.787804127 0 -50764452.787804127 117531024.83670044 0 0 0 0 -27620481.923270226 19204330.503219604 0 19204330.503219604 82690946.65045166 0 0 0 0 -9579056.0862932205 -51545211.142105103 0 -51545211.142105103 186183705.60752869 0 0 0 0 30132229.256213069 61194003.786123276 0 61194003.786123276 136357160.13861084 0 0 0 0 48666194.255856752 -30653494.406921387 0 -30653494.406921387 98311794.613128662 0 0 0 0 15202452.122973084 77599736.013151169 0 77599736.013151169 1299900.2016448975 0 0 0 0 -8891948.5185985565 -41576459.857620239 0 -41576459.857620239 -75524612.790283203 0 0 0 0 -21981923.05893898 -33682078.801971436 0 -33682078.801971436 96538781.786529541 0 0 0 0 55668758.698389411 -89306100.771850586 0 -89306100.771850586 -29170800.211166382 0 0 0 0 -31037475.227702618 47020719.548324585 0 47020719.548324585 342627769.40450287 0 0 0 0 87244097.538287282 197765889.87054443 0 197765889.87054443 -497946460.82719421 0 0 0 0 -8252152.2517085075 -5057438.4576797485 0 -5057438.4576797485 -40854112.509672165 0 0 0 0 92689180.668124199 13160859.346984863 0 13160859.346984863 -244274964.43772888 0 0 0 0 24591650.967535496 -37910952.693237305 0 -37910952.693237305 -221797355.3759346 0 0 0 0 -81151000.046057701 181774509.89096832 0 181774509.89096832 -1277026818.8250732 0 0 0 0 578184.95039805654 -446575.7215802893 0 -446575.7215802893 -998050.95109377801 0 0 0 0 -20225443.145360947 372617238.32479095 0 372617238.32479095 -1197979531.2546539 0 0 0 0 23140736.130053163 86404592.761185646 0 86404592.761185646 -277955468.28491211 0 0 0 0 13418261.461791039 -6449507.9085845947 0 -6449507.9085845947 -192107828.83540344 0 0 0 0 77277882.580598354 -99865061.356544495 0 -99865061.356544495 -516799258.56143188 0 0 0 0 125967977.17531109 186020190.54885864 0 186020190.54885864 -803123205.56626892 0 0 0 0 126924840.49148464 113370588.68718719 0 113370588.68718719 -536942240.83670044 0 0 0 0 45287546.143438816 173554394.78420258 0 173554394.78420258 -523870130.40678406 0 0 0 0 -41043620.890480042 306487350.01626587 0 306487350.01626587 -631956218.16615295 0 0 0 0 3462038.23735274 360969.76679661125 0 360969.76679661125 -634950.24850223958 0 0 0 0 195913319.28706837 386830556.03338623 0 386830556.03338623 -392775224.34248352 0 0 0 0 64098173.302797556 146473645.93279648 0 146473645.93279648 -641136073.20188904 0 0 0 0 -98177388.010044098 -13411565.069519043 0 -13411565.069519043 156802370.82419586 0 0 0 0 183730795.86596441 274534227.53364563 0 274534227.53364563 -85344120.993164062 0 0 0 0 1040224.0806613041 1187914.9207142889 0 1187914.9207142889 -1029549.9750286471 0 0 0 0 107134741.77771842 234101055.96443176 0 234101055.96443176 -1566319963.517868 0 0 0 0 -414365433.59294653 -78480574.217803955 0 -78480574.217803955 527693377.72439957 0 0 0 0 341398.46406489331 132958.73571573943 0 132958.73571573943 -468031.44479864277 0 0 0 0 81306534.872328997 332405670.03956604 0 332405670.03956604 -1588537708.8602448 0 0 0 0 11543374.531103134 -148101382.72067261 0 -148101382.72067261 -223163662.26966858 0 0 0 0 3140936.0150052859 317083.63203821331 0 317083.63203821331 -510478.52277116477 0 0 0 0 49807737.201626778 10302053.543807983 0 10302053.543807983 -340641191.38653564 0 0 0 0 -35130462.55271101 -79406488.648361206 0 -79406488.648361206 27289923.375579834 0 0 0 0 -10680666.18065834 -173986386.90925598 0 -173986386.90925598 3592693.6578063965 0 0 0 0 -36265106.083684921 9576063.9604873657 0 9576063.9604873657 133772690.1756897 0 0 0 0 63538.837035316508 -961987.24743920565 0 -961987.24743920565 146155.36285735667 0 0 0 0 293233206.25599194 42518323.607704163 0 42518323.607704163 -17015687.19303894 0 0 0 0 857666.98053851724 -18065922.070983887 0 -18065922.070983887 9075332.5808105469 0 0 0 0 -21620652.566299438 -32957909.824478149 0 -32957909.824478149 7177844.2017288208 0 0 0 0 -16323833.607594013 -27038379.557094574 0 -27038379.557094574 4440042.7186279297 0 0 0 0 -137267514.28392065 271140068.75975466 0 271140068.75975466 -65759193.548294067 0 0 0 0 1539185.3694363553 61044.360959984362 0 61044.360959984362 -368432.778467305 0 0 0 0 -96122560.294246674 3840308.6701965332 0 3840308.6701965332 89393616.95854187 0 0 0 0 300810701.35904789 274582938.50395203 0 274582938.50395203 -466217190.46585846 0 0 0 0 81618677.389472008 91778799.217746735 0 91778799.217746735 -124028904.73677063 0 0 0 0 263888219.28213692 -101086071.34841156 0 -101086071.34841156 -6669015.4160003662 0 0 0 0 91120515.997060776 134732166.04112244 0 134732166.04112244 734988.01741790771 0 0 0 0 167108966.94385242 -267494248.17092896 0 -267494248.17092896 -374086105.24014282 0 0 0 0 187676940.9685241 136420954.37596989 0 136420954.37596989 -178656595.22073364 0 0 0 0 -126307134.20699883 157858547.13658142 0 157858547.13658142 -285708703.25774956 0 0 0 0 -197524726.3903656 -370215419.02444458 0 -370215419.02444458 -247851484.77032471 0 0 0 0 -420118921.14401054 -241177857.27468872 0 -241177857.27468872 -187486535.88049316 0 0 0 0 -435981089.37768173 -384532301.37438965 0 -384532301.37438965 -196684557.07259846 0 0 0 0 193341530.69701862 16393673.8891716 0 16393673.8891716 -248827818.20200348 0 0 0 0 -436035597.64284515 -378182405.43984985 0 -378182405.43984985 -257460225.07418823 0 0 0 0 -9827218.5981239974 9471438.1711330637 0 9471438.1711330637 -7451720.6379164159 0 0 0 0 4329702.7903467081 -501204.42453282699 0 -501204.42453282699 -4499616.1497417092 0 0 0 0 -426844202.97292137 -240918729.85297394 0 -240918729.85297394 326631744.18753052 0 0 0 0 -1927027678.8461142 333090260.6319046 0 333090260.6319046 175078608.79048157 0 0 0 0 -961634880.42583561 -418886528.6372757 0 -418886528.6372757 -37702503.076370239 0 0 0 0 -4646353.6758172894 3557305.3037940189 0 3557305.3037940189 -1656497.8737879395 0 0 0 0 -640516620.23092175 -730687511.75684357 0 -730687511.75684357 -1054655426.4313126 0 0 0 0 -419799250.7488308 -239100785.72662354 0 -239100785.72662354 -346558300.80866241 0 0 0 0 -142879744.32183647 -6866327.553817749 0 -6866327.553817749 -1774473544.5007706 0 0 0 0 -814569958.25734425 998540689.28037262 0 998540689.28037262 -1418628959.7205963 0 0 0 0 -2235931484.2825575 437360227.91125488 0 437360227.91125488 -196346994.16960144 0 0 0 0 -669204851.80763912 -85003846.176143646 0 -85003846.176143646 -101509192.1590271 0 0 0 0 -940322767.38922977 579877820.37570381 0 579877820.37570381 -355417565.66357422 0 0 0 0 -105355921.62168694 304908770.78082275 0 304908770.78082275 -794267118.47267151 0 0 0 0 -89059522.460068703 414254994.43102264 0 414254994.43102264 -707238830.55133057 0 0 0 0 148908068.33244133 194255649.30352783 0 194255649.30352783 -615114311.14137268 0 0 0 0 155182326.42242718 266458501.2893219 0 266458501.2893219 -622694575.92923355 0 0 0 0 352698972.59307009 284450887.92480493 0 284450887.92480493 -812663788.97947693 0 0 0 0 345327793.23160648 -52166039.870132446 0 -52166039.870132446 -503555348.30537415 0 0 0 0 -685217.00119538361 -356568945.49534452 0 -356568945.49534452 -773856322.71957397 0 0 0 0 -129029.25228217203 -1067598.5448982567 0 -1067598.5448982567 -3162839.0813843012 0 0 0 0 -63484656.300072685 -38388406.270935059 0 -38388406.270935059 234295609.01459503 0 0 0 0 176115762.69886059 -205793690.66844642 0 -205793690.66844642 -1446064133.0469055 0 0 0 0 172875257.63875932 -24095319.741668701 0 -24095319.741668701 -1875356653.9101658 0 0 0 0 -163510442.72182155 -529648440.46406555 0 -529648440.46406555 -809792737.01341248 0 0 0 0 -210888277.43070915 -366061158.16587162 0 -366061158.16587162 21257327.082275391 0 0 0 0 545324947.27341044 402498684.91927338 0 402498684.91927338 -524692884.92332458 0 0 0 0 64482.90795406152 -241417.02805778384 0 -241417.02805778384 -2223038.9228261858 0 0 0 0 -151434355.28231108 -708311060.42950439 0 -708311060.42950439 -693430603.05436707 0 0 0 0 -198279377.30409884 -311487028.91677094 0 -311487028.91677094 39897036.114105225 0 0 0 0 135974.20762282459 -579210.39963600039 0 -579210.39963600039 -4820637.512243554 0 0 0 0 -471605419.3533709 -126335816.26435852 0 -126335816.26435852 -20054407.002044678 0 0 0 0 -612784873.92709517 -347470052.32804108 0 -347470052.32804108 -242306350.60601807 0 0 0 0 -476990145.8959043 -57557738.724746704 0 -57557738.724746704 -68385946.679634094 0 0 0 0 -140068175.41659355 -7586279.1436767578 0 -7586279.1436767578 -986471629.00946045 0 0 0 0 -54887165.746930122 1250873.4147644043 0 1250873.4147644043 -1238434393.6288452 0 0 0 0 -131646806.93484879 -60231059.403259277 0 -60231059.403259277 -1095000734.93396 0 0 0 0 -133183327.62893783 -148419992.18741512 0 -148419992.18741512 -1362910126.2824707 0 0 0 0 105288902.12984657 -161163213.87289429 0 -161163213.87289429 -1951029148.5013123 0 0 0 0 -821311806.56456637 -768733534.63323975 0 -768733534.63323975 -1073958635.7443237 0 0 0 0 -261766496.84014893 -189289602.61581421 0 -189289602.61581421 -1343009976.5330353 0 0 0 0 -842680.88607367815 -1387628.6049692854 0 -1387628.6049692854 -3783141.4276348818 0 0 0 0 -11303099.279940605 -22543918.500366211 0 -22543918.500366211 153888638.07232666 0 0 0 0 87402767.169586658 345306651.19802094 0 345306651.19802094 -1595137889.8129883 0 0 0 0 4631078.3136897087 -26525020.151123047 0 -26525020.151123047 153660286.48907471 0 0 0 0 4766243.0603155047 -31066341.508027554 0 -31066341.508027554 51315193.330566406 0 0 0 0 -142559087.43114996 150309370.13684082 0 150309370.13684082 -879950029.37664795 0 0 0 0 -848575.68314278848 -1254193.8485080451 0 -1254193.8485080451 -5218380.5185529776 0 0 0 0 13897151.444334745 -38624891.304931641 0 -38624891.304931641 35627756.052246094 0 0 0 0 14586339.816957474 84247329.849975586 0 84247329.849975586 -1049215914.5028992 0 0 0 0 208284711.95297623 34684283.009765625 0 34684283.009765625 -1136136520.4864502 0 0 0 0 -49768007.501000404 130279390.02090454 0 130279390.02090454 -1038528576.8074951 0 0 0 0 -43906576.039528847 183430358.36306763 0 183430358.36306763 -1093976450.7290039 0 0 0 0 4932060.833509922 170987953.65975952 0 170987953.65975952 -1180806547.4198608 0 0 0 0 29006524.449084282 151978779.18243408 0 151978779.18243408 -1111973605.237915 0 0 0 0 -43362137.245965958 142333099.76287842 0 142333099.76287842 -1455886644.5504913 0 0 0 0 -85132471.5820117 367727444.77090454 0 367727444.77090454 -1008177635.4083252 0 0 0 0 5071529.3370687962 231400020.25561523 0 231400020.25561523 -1184930581.4988251 0 0 0 0 565987.8855427138 2400090.7137373537 0 2400090.7137373537 -2663581.9492817 0 0 0 0 -10920958.558194637 217694717.96447754 0 217694717.96447754 -1061321317.6758423 0 0 0 0 -18011887.957906723 156936260.17178345 0 156936260.17178345 -1040915368.3638458 0 0 0 0 -13486038.903906822 179508763.21994019 0 179508763.21994019 -1085536365.4111023 0 0 0 0 -37889485.745511055 182071760.71051025 0 182071760.71051025 -1054689351.4535522 0 0 0 0 -38068836.53899765 134016219.38040161 0 134016219.38040161 -1116464218.982605 0 0 0 0 -31393980.57469523 167367358.07878113 0 167367358.07878113 -1079546372.7530518 0 0 0 0 -43887075.874849319 190847853.49499512 0 190847853.49499512 -1100289945.0111694 0 0 0 0 -39291362.202329636 167214327.19775391 0 167214327.19775391 -1089296065.5892944 0 0 0 0 -46713066.057460308 181581551.35473633 0 181581551.35473633 -1151842139.5900879 0 0 0 0 -17108803.035646439 160672687.77856445 0 160672687.77856445 -1112518750.8492432 0 0 0 0 136601028.26462364 131704686.37988281 0 131704686.37988281 -1166162971.2581177 0 0 0 0 -14966063.044233322 190831736.45117188 0 190831736.45117188 -1131911160.7268066 0 0 0 0 -156173767.57138443 257183103.98461914 0 257183103.98461914 -1191772707.223938 0 0 0 0 24936988.78903389 284639959.78314209 0 284639959.78314209 -1269045362.0932617 0 0 0 0 -85671973.165092468 166392773.65124512 0 166392773.65124512 -1139938238.0905762 0 0 0 0 16382.410398066277 48779.961181372404 0 48779.961181372404 -69362.579069420695 0 0 0 0 -221925948.93239594 436183782.70861816 0 436183782.70861816 -1332829564.8598633 0 0 0 0 -1000548.4956560135 186712792.35772705 0 186712792.35772705 -1152231112.5872803 0 0 0 0 -49826224.248944998 270862494.72143555 0 270862494.72143555 -1131889849.5506363 0 0 0 0 9106773.8395366669 218216768.56286621 0 218216768.56286621 -1122202032.3838882 0 0 0 0 -139253187.74705791 100668189.54504395 0 100668189.54504395 -1107507509.5911255 0 0 0 0 -105709845.43028951 258666254.48085022 0 258666254.48085022 -1076074537.4342957 0 0 0 0 -89600499.727246404 178787553.13228607 0 178787553.13228607 -779343949.80523682 0 0 0 0 -58887898.821221828 219100975.04737854 0 219100975.04737854 -936391327.90319824 0 0 0 0 -70084222.376392841 215272786.61233521 0 215272786.61233521 -1036181328.9570312 0 0 0 0 7619544.9518718719 221746306.88653564 0 221746306.88653564 -1036394467.5451508 0 0 0 0 33425690.619227141 157919706.15929604 0 157919706.15929604 -923341049.24807739 0 0 0 0 10629504.96689719 25965952.948005676 0 25965952.948005676 -775819545.34179688 0 0 0 0 -86499166.390351057 160575587.25210571 0 160575587.25210571 -770831355.89505005 0 0 0 0 -198270775.3516264 -133659484.6309967 0 -133659484.6309967 -623306873.74650574 0 0 0 0 -57851896.683423519 45276705.126937866 0 45276705.126937866 -1098124976.4569702 0 0 0 0 -91037316.022531033 88375728.63885498 0 88375728.63885498 -1010711932.8463745 0 0 0 0 -193837711.97999668 -170704443.83692932 0 -170704443.83692932 -997319751.25884438 0 0 0 0 -458332205.36953533 -156947308.16852474 0 -156947308.16852474 -71593025.510894775 0 0 0 0 -506090573.61609411 -68293945.621124268 0 -68293945.621124268 196727009.69960785 0 0 0 0 -420430128.83559692 -71664153.867149353 0 -71664153.867149353 -1611039.4237213135 0 0 0 0 -130596970.34427166 124424116.37559509 0 124424116.37559509 -331665059.33059692 0 0 0 0 209755710.02163902 496844197.33416748 0 496844197.33416748 -550488858.10704041 0 0 0 0 8598556.2089952528 -207704502.08013344 0 -207704502.08013344 -204835238.53170776 0 0 0 0 232883.91836362053 -112834.09358657151 0 -112834.09358657151 -458963.98543833196 0 0 0 0 -100459370.57338619 -244672905.59408569 0 -244672905.59408569 371416427.71118164 0 0 0 0 1599374.5352927842 -290343.21322385967 0 -290343.21322385967 -71513.178696021438 0 0 0 0 -46258166.836304098 67522109.954795837 0 67522109.954795837 517872139.07785034 0 0 0 0 53979896.833177269 -279419433.0813446 0 -279419433.0813446 -46827632.369598389 0 0 0 0 -25073194.630800486 -45012873.932785034 0 -45012873.932785034 -470832289.60958862 0 0 0 0 751196.67931085115 -537789.10296414793 0 -537789.10296414793 -1342742.4484051764 0 0 0 0 -152160231.92708492 237196334.01521301 0 237196334.01521301 -334190254.75387955 0 0 0 0 101587525.73208559 282011439.54401398 0 282011439.54401398 -811337319.90596008 0 0 0 0 -42039380.730465472 137081503.80770493 0 137081503.80770493 -889986682.10855103 0 0 0 0 -27965030.937496662 274329575.84866333 0 274329575.84866333 -981330354.09399414 0 0 0 0 36220320.28559351 200276444.68608856 0 200276444.68608856 -1173066227.6975098 0 0 0 0 -15454494.374280214 63858728.589782715 0 63858728.589782715 -1256690217.0176849 0 0 0 0 -149540047.77608752 347880132.87268066 0 347880132.87268066 -760631062.46987915 0 0 0 0 -71860137.645185709 57579653.193222046 0 57579653.193222046 -1161945053.6253052 0 0 0 0 -88756364.045675278 357971576.00212097 0 357971576.00212097 -1163736401.9632874 0 0 0 0 1239102.3036679362 -10641.084525436163 0 -10641.084525436163 -254887.04652130604 0 0 0 0 -181447275.18358946 -69924996.266479492 0 -69924996.266479492 131617858.01867676 0 0 0 0 187912099.18083286 -107598013.70629883 0 -107598013.70629883 -23890171.352630615 0 0 0 0 99426691.070202351 250249880.08114624 0 250249880.08114624 -1412264364.6841736 0 0 0 0 1405293.2948827103 2222937.4251942635 0 2222937.4251942635 -1550240.9512597881 0 0 0 0 698845110.22670746 160307638.96520996 0 160307638.96520996 119728477.59610367 0 0 0 0 445404079.58442068 34899324.603088379 0 34899324.603088379 -111524798.01400757 0 0 0 0 219680778.1443727 513334016.40918732 0 513334016.40918732 178995652.56402588 0 0 0 0 110588493.85420609 28896047.423431396 0 28896047.423431396 -109988796.91048813 0 0 0 0 64913741.629944086 12900931.681877136 0 12900931.681877136 -79045670.841018677 0 0 0 0 151623727.47494555 -32999083.913414001 0 -32999083.913414001 -103058621.33511353 0 0 0 0 20656938.285538673 -73997382.997360229 0 -73997382.997360229 -28856228.558525085 0 0 0 0 -31375211.76260376 12362721.857513428 0 12362721.857513428 -117204784.45544434 0 0 0 0 -3315618.8142318726 -99282454.933502197 0 -99282454.933502197 -106821293.61611938 0 0 0 0 29097197.697760105 -50776986.167030334 0 -50776986.167030334 -34740042.216491699 0 0 0 0 8993770.7379570007 -43844522.76953125 0 -43844522.76953125 -35423460.603021622 0 0 0 0 48712701.840099335 -52059548.880722046 0 -52059548.880722046 -104068778.33948135 0 0 0 0 31943388.952235222 -19883796.735900879 0 -19883796.735900879 -12660165.883682251 0 0 0 0 540565.94706916809 -24612119.041610718 0 -24612119.041610718 3856806.2559661865 0 0 0 0 34579991.311962605 -22543405.373252869 0 -22543405.373252869 -40819451.166110516 0 0 0 0 20956654.522920251 -7315445.0998802185 0 -7315445.0998802185 -12725039.194274902 0 0 0 0 2878592.9054000415 -2214197.0744212829 0 -2214197.0744212829 -12123394.433284447 0 0 0 0 72309506.717128873 -9541334.3152732849 0 -9541334.3152732849 -40112835.219818115 0 0 0 0 20391653.41848135 -2659028.2857513428 0 -2659028.2857513428 -44759912.63331604 0 0 0 0 -3608329.6066526175 -8538166.7804794312 0 -8538166.7804794312 -19927494.755981445 0 0 0 0 -8052944.1515071392 -9660121.8890533447 0 -9660121.8890533447 -1682522.7777709961 0 0 0 0 8124520.1187653542 -14954094.243713379 0 -14954094.243713379 -4731875.9287071228 0 0 0 0 1947131.4184944096 -2981880.0457716137 0 -2981880.0457716137 -3610483.8305211663 0 0 0 0 69460672.956299543 -683463.31820678711 0 -683463.31820678711 -19426093.008453369 0 0 0 0 37875304.065493584 -11515484.236312866 0 -11515484.236312866 -14808892.971694946 0 0 0 0 18737210.955634117 149853809.19459534 0 149853809.19459534 -10025192.944763184 0 0 0 0 3030816.1382634197 -1978126.1061051153 0 -1978126.1061051153 -12201858.227096334 0 0 0 0 -29726118.414586067 25335858.96446228 0 25335858.96446228 -21900246.428955078 0 0 0 0 1437771.1339788483 -864677.7207236439 0 -864677.7207236439 -2570429.8414613307 0 0 0 0 -267531724.88248253 -107850424.06259155 0 -107850424.06259155 -61326978.90222168 0 0 0 0 -271046333.62860966 -37970730.186843872 0 -37970730.186843872 -5221076.4809150696 0 0 0 0 -264763156.90795994 95860136.092147827 0 95860136.092147827 15519748.379295349 0 0 0 0 93440961.289060593 278972375.40176392 0 278972375.40176392 30465505.279052734 0 0 0 0 -218025803.82142067 255672816.63473511 0 255672816.63473511 363059697.94924927 0 0 0 0 -427671746.58717346 26325921.738830566 0 26325921.738830566 235197409.42269897 0 0 0 0 1583590.3029590354 -3123768.3030120581 0 -3123768.3030120581 -9537846.9310099632 0 0 0 0 3231578.9720580578 -5260985.6131362915 0 -5260985.6131362915 -24785741.534637451 0 0 0 0 13910906.324564219 -6531030.4203796387 0 -6531030.4203796387 -1173311.6563720703 0 0 0 0 16805172.75809139 -24926447.153953552 0 -24926447.153953552 16231007.578613281 0 0 0 0 32001082.833477497 -43294127.746795654 0 -43294127.746795654 -2867167.5701599121 0 0 0 0 50065396.821418285 -54285344.319763184 0 -54285344.319763184 -11713621.588813782 0 0 0 0 49354581.193039894 -48085686.994628906 0 -48085686.994628906 -7916046.9966583252 0 0 0 0 47795495.970715523 -30038146.812408447 0 -30038146.812408447 -10465472.157634735 0 0 0 0 27941511.437152386 -27841882.613189697 0 -27841882.613189697 -10672112.790687561 0 0 0 0 16473140.688269138 -27000145.476470947 0 -27000145.476470947 23255254.673950195 0 0 0 0 17532779.668542385 -38580967.507080078 0 -38580967.507080078 35540866.901702881 0 0 0 0 33055812.094203949 -39210532.053649902 0 -39210532.053649902 12935148.561035156 0 0 0 0 16119352.816633463 -47535332.071105957 0 -47535332.071105957 19946763.824829102 0 0 0 0 35602131.099929333 -55798567.772125244 0 -55798567.772125244 20238919.703918457 0 0 0 0 25161560.921979785 -88100936.727813721 0 -88100936.727813721 62005679.663818359 0 0 0 0 22104749.84038353 -69448354.304748535 0 -69448354.304748535 52601474.514636993 0 0 0 0 19598355.854050532 -63234009.366577148 0 -63234009.366577148 -2516185.2463989258 0 0 0 0 31744401.67523706 -73003257.511154175 0 -73003257.511154175 13576872.414428711 0 0 0 0 30764094.904575825 -61682032.486633301 0 -61682032.486633301 4551275.0108337402 0 0 0 0 35057452.00858736 -65874283.94329834 0 -65874283.94329834 -8102735.5112304688 0 0 0 0 21261855.21962297 -77965616.865692139 0 -77965616.865692139 -9878645.7205810547 0 0 0 0 43669500.941689253 -68950929.624938965 0 -68950929.624938965 -38000520.725494385 0 0 0 0 8354683.198284626 -75686548.225410461 0 -75686548.225410461 -30490770.151229858 0 0 0 0 63217452.238102674 -50384002.634414673 0 -50384002.634414673 -37261520.834228516 0 0 0 0 62139907.400421858 -17947028.61289978 0 -17947028.61289978 -51533554.376602173 0 0 0 0 63434405.433791667 -35461343.769182324 0 -35461343.769182324 -28391134.702331543 0 0 0 0 46313329.944626093 -34770581.059356689 0 -34770581.059356689 -24283020.051513672 0 0 0 0 178293662.03377938 68825777.501052856 0 68825777.501052856 -5924100.8230285645 0 0 0 0 -220165.39566347399 -1072475.3996748701 0 -1072475.3996748701 -728432.49462786317 0 0 0 0 8317796.8372972012 -56671378.531791687 0 -56671378.531791687 -283066392.9680481 0 0 0 0 -52895465.99021244 -24933561.364303589 0 -24933561.364303589 -25189176.112121582 0 0 0 0 -387776.64241459244 -183311.19073078036 0 -183311.19073078036 -4591.0895695388317 0 0 0 0 44648798.467002034 361535233.40344238 0 361535233.40344238 -4748985.2358875275 0 0 0 0 1935412.9869168997 -6684928.2794036865 0 -6684928.2794036865 36045871.365842819 0 0 0 0 150382597.16443276 -46208177.729309082 0 -46208177.729309082 -121228181.94595337 0 0 0 0 -129576909.28011189 -50397082.26651001 0 -50397082.26651001 -118464325.63685608 0 0 0 0 10625689.465348646 49453468.800536156 0 49453468.800536156 -331554661.94778442 0 0 0 0 -287639636.26406193 231526373.39884949 0 231526373.39884949 -218742708.36256409 0 0 0 0 -321743180.6813466 551326690.86045837 0 551326690.86045837 -662520430.9315834 0 0 0 0 246634.482070447 291425.18688181043 0 291425.18688181043 -1746837.0733990967 0 0 0 0 -54284458.916331664 110220813.0164566 0 110220813.0164566 -542823249.28244019 0 0 0 0 -2087350.8579097397 -72764572.706451416 0 -72764572.706451416 -190765711.5586853 0 0 0 0 -78722802.362679511 59835559.032089233 0 59835559.032089233 -195223600.66007471 0 0 0 0 -76667.61914335411 -66907739.351547241 0 -66907739.351547241 -64981162.112594604 0 0 0 0 -150048.12762758427 -85575.217125624418 0 -85575.217125624418 115951.71430124342 0 0 0 0 -47760627.466759205 -73155247.392593384 0 -73155247.392593384 -17425515.583465576 0 0 0 0 6331192.9951311257 -33704533.332602262 0 -33704533.332602262 -125664987.4642334 0 0 0 0 -118507.67912336971 -59344.211002275348 0 -59344.211002275348 134311.71625259519 0 0 0 0 7232440.6535079405 -48041475.056060791 0 -48041475.056060791 -13168631.028198242 0 0 0 0 -20016698.417997807 -91724881.756118774 0 -91724881.756118774 114154056.39216614 0 0 0 0 -41424116.36173486 21660716.681745529 0 21660716.681745529 108303787.2076416 0 0 0 0 80652.211407695111 -58907658.596496582 0 -58907658.596496582 97162305.062652588 0 0 0 0 15427301.883043615 14189413.85509491 0 14189413.85509491 -32712354.425811768 0 0 0 0 -1561278.0019699186 74806917.781494141 0 74806917.781494141 -86378506.750999451 0 0 0 0 -206475.33834304492 463869.84232661873 0 463869.84232661873 -1214093.6429198906 0 0 0 0 -30792004.277250379 33203903.435089111 0 33203903.435089111 -80057855.760192871 0 0 0 0 -2115392.0542972088 9138816.9678039551 0 9138816.9678039551 -22915259.011993408 0 0 0 0 6588826.1861543059 5651600.3675842285 0 5651600.3675842285 -24379359.3465271 0 0 0 0 41842.299470664722 -529.75854577869177 0 -529.75854577869177 -86500.595180213451 0 0 0 0 3354519.2271675989 -1017916.1779174805 0 -1017916.1779174805 -12479235.370544434 0 0 0 0 6498144.7567364872 4105007.3907699585 0 4105007.3907699585 -4186887.0229492188 0 0 0 0 -7180131.6214086115 30012225.26360321 0 30012225.26360321 -43459280.80241394 0 0 0 0 65005.747871372208 7967.3179675489664 0 7967.3179675489664 -120957.46028983593 0 0 0 0 -112208.7411144517 -28294336.025253296 0 -28294336.025253296 -36126167.076263428 0 0 0 0 10035593.238469593 -5352057.4432830811 0 -5352057.4432830811 14971703.389900208 0 0 0 0 -47804.144856138781 -29228969.559924129 0 -29228969.559924129 -22622052.800201416 0 0 0 0 36128.268138764353 -23222662.330803193 0 -23222662.330803193 23554737.344055176 0 0 0 0 11381326.454409197 -35790579.874431849 0 -35790579.874431849 17115680.194946289 0 0 0 0 128087.65437194663 -276386.31504815072 0 -276386.31504815072 -2859660.4291035831 0 0 0 0 -175566535.94262099 209444058.80492043 0 209444058.80492043 -372394228.95980835 0 0 0 0 -170707554.3305316 452193834.02877808 0 452193834.02877808 -494602212.51821899 0 0 0 0 3958972.1102231741 204232929.82846069 0 204232929.82846069 -464994930.21392822 0 0 0 0 -119265392.47799492 238580848.14277649 0 238580848.14277649 -358431897.61364365 0 0 0 0 -119963074.48408175 184566733.58553314 0 184566733.58553314 -361360941.51216888 0 0 0 0 -427477.65394449001 -925132.16972244531 0 -925132.16972244531 -4297358.9859364927 0 0 0 0 20499370.519008368 -2404208.0577697754 0 -2404208.0577697754 -11845731.752380371 0 0 0 0 19850233.692408681 -25913594.009033203 0 -25913594.009033203 5593493.9791564941 0 0 0 0 -1266675.4487386644 1870636.1225509644 0 1870636.1225509644 -9039927.8356323242 0 0 0 0 11636707.433577627 4201475.742980957 0 4201475.742980957 -27029524.701049805 0 0 0 0 160839.8679561615 -6492823.6675415039 0 -6492823.6675415039 -34267457.207275391 0 0 0 0 -2503041.7633375525 -1999488.8896636963 0 -1999488.8896636963 -311269.32123947144 0 0 0 0 17171263.738981724 -11747804.745677948 0 -11747804.745677948 -17979908.570037842 0 0 0 0 -19602477.234754086 113012663.92002869 0 113012663.92002869 -256856163.20068359 0 0 0 0 -1367605.7722384282 -1168711.6170005575 0 -1168711.6170005575 -5989441.6309895217 0 0 0 0 -38240894.278522253 134254100.32596588 0 134254100.32596588 -215331635.22781372 0 0 0 0 -89836307.554823875 146481163.08489227 0 146481163.08489227 -263576934.72155762 0 0 0 0 15227.868035749067 -453066.45971815288 0 -453066.45971815288 -882090.62664553151 0 0 0 0 -97761904.34409374 269252306.26840401 0 269252306.26840401 -570751873.54830933 0 0 0 0 -41172718.761164904 52282045.161476135 0 52282045.161476135 76321604.750686646 0 0 0 0 18769864.664375305 9018023.6628646851 0 9018023.6628646851 -78853725.211845398 0 0 0 0 19312632.393256009 15838451.49324131 0 15838451.49324131 -16204476.968261719 0 0 0 0 -123751.86479820171 -859241.5452503413 0 -859241.5452503413 -2670001.8337786179 0 0 0 0 7493952.1347837448 14799731.01499176 0 14799731.01499176 -2685699.753112793 0 0 0 0 -18851587.563937187 207425718.91996765 0 207425718.91996765 -376383757.31262207 0 0 0 0 4862347.727930069 1098536.4902954102 0 1098536.4902954102 -13653370.334594727 0 0 0 0 -179520146.42782784 78322617.850448608 0 78322617.850448608 -49408599.944684982 0 0 0 0 -489072.34964109631 -1177866.9709482789 0 -1177866.9709482789 -5169740.9964489741 0 0 0 0 -247761.71058654785 3854669.6228866577 0 3854669.6228866577 -15139680.417724609 0 0 0 0 6592164.6750087738 2706437.7643585205 0 2706437.7643585205 -17947615.412399292 0 0 0 0 6711827.5659456253 -20639987.480979919 0 -20639987.480979919 5304513.440372467 0 0 0 0 5437961.1794900894 81264.417697906494 0 81264.417697906494 -15347473.280456543 0 0 0 0 2890821.5959097152 -2716182.1662068814 0 -2716182.1662068814 -11701684.432536304 0 0 0 0 5965484.4286149144 -15329361.946820259 0 -15329361.946820259 8100506.8544311523 0 0 0 0 -19011504.957892418 4768325.6759719849 0 4768325.6759719849 -4929962.1932067871 0 0 0 0 162003655.86410904 -86126873.451263428 0 -86126873.451263428 668622695.37536621 0 0 0 0 6315583.144901963 -1183412.9427078664 0 -1183412.9427078664 -13236030.871280685 0 0 0 0 249091915.30405116 -202402167.62400818 0 -202402167.62400818 -254596889.53979492 0 0 0 0 482455.8132799631 -968932.01572200656 0 -968932.01572200656 -1642143.6436246783 0 0 0 0 119490249.14381963 310437231.90600681 0 310437231.90600681 -116865535.00073242 0 0 0 0 -557682324.90883672 -406300507.24776363 0 -406300507.24776363 -215624416.85235596 0 0 0 0 -137352805.3464013 -379987087.77258849 0 -379987087.77258849 -243918434.87512207 0 0 0 0 69333989.857947469 191372779.41406822 0 191372779.41406822 -901358475.27716064 0 0 0 0 -697154593.81617355 474013755.3196106 0 474013755.3196106 -203111341.8333168 0 0 0 0 -110036121.61576524 457364554.06502867 0 457364554.06502867 -210441999.32336426 0 0 0 0 -18862774.026855469 193382417.90394592 0 193382417.90394592 -335966530.52648926 0 0 0 0 46040868.472962379 153496073.53329468 0 153496073.53329468 -338294803.48105049 0 0 0 0 66098302.79795599 196084683.33939934 0 196084683.33939934 -478099446.05810547 0 0 0 0 -16932455.190048218 -164990206.37835693 0 -164990206.37835693 -335698993.21977234 0 0 0 0 -1853627.7997291607 856247.67782289907 0 856247.67782289907 -153840.1369805783 0 0 0 0 -493342286.38042545 312518346.91360474 0 312518346.91360474 -106520284.91921997 0 0 0 0 -12869286.317831039 -167292246.30856323 0 -167292246.30856323 -716931226.02069092 0 0 0 0 -105054789.72843742 -55121905.724014282 0 -55121905.724014282 34065388.953216553 0 0 0 0 -20561480.15835762 3234735.7512054443 0 3234735.7512054443 -64848985.372680664 0 0 0 0 -51943472.121299744 -32489152.137588501 0 -32489152.137588501 -97442633.380844116 0 0 0 0 -15905227.868975163 30874883.729354858 0 30874883.729354858 -49527929.903213501 0 0 0 0 -18815447.052215099 17404993.080299377 0 17404993.080299377 -8810831.706451416 0 0 0 0 -4739514.9407068174 2065135.9329058528 0 2065135.9329058528 -915465.78250846267 0 0 0 0 -2818594.4738485273 5880878.7833203673 0 5880878.7833203673 -11744754.394835532 0 0 0 0 -1766816.9002075195 5121087.5167388916 0 5121087.5167388916 -18109919.293334961 0 0 0 0 -37972886.134960175 36458313.523294449 0 36458313.523294449 55880889.683624268 0 0 0 0 -47154357.750155449 2981934.8367614746 0 2981934.8367614746 -10399933.781425476 0 0 0 0 1600611.8246302009 6037976.6279907227 0 6037976.6279907227 -28693818.316772461 0 0 0 0 835675.10167384148 6382196.5842819214 0 6382196.5842819214 -28736754.2605896 0 0 0 0 810474.12748028629 -4070977.9233498424 0 -4070977.9233498424 -26112067.472726792 0 0 0 0 909868.21879458427 1453801.9017791748 0 1453801.9017791748 -51518864.545768738 0 0 0 0 5110224.9079796076 226294.07618713379 0 226294.07618713379 -43985970.884246826 0 0 0 0 -1185761.2102665305 -1575464.9836425781 0 -1575464.9836425781 -30818643.31590271 0 0 0 0 -3155770.2047820091 9559740.1372489929 0 9559740.1372489929 -20996480.639144897 0 0 0 0 -5181983.1565389633 7107122.5725326538 0 7107122.5725326538 -18144149.537322998 0 0 0 0 1098868.7087175224 -2509911.7369271815 0 -2509911.7369271815 -17997310.417278737 0 0 0 0 3384879.8244554996 -9163998.7380828857 0 -9163998.7380828857 -41081668.63381958 0 0 0 0 -1301643.1107221097 -21436359.9544487 0 -21436359.9544487 -61616953.712646484 0 0 0 0 5493875.4064109027 13368754.210403442 0 13368754.210403442 -50865470.369415283 0 0 0 0 777412.94674523373 1124481.2920219451 0 1124481.2920219451 -7723382.5873681307 0 0 0 0 7591993.8971751928 -5057033.9201202393 0 -5057033.9201202393 -21457339.668563843 0 0 0 0 -6158049.6623142958 14304521.537704468 0 14304521.537704468 -27989562.65447998 0 0 0 0 1993887.9279346822 -1660590.9693318009 0 -1660590.9693318009 -3373504.3430092335 0 0 0 0 2555092.5330227762 7728725.6512985229 0 7728725.6512985229 -21869835.346405029 0 0 0 0 -2836976.1701250672 7547715.9853515625 0 7547715.9853515625 -20425482.48928833 0 0 0 0 -1770030.9088988379 5017334.9400840141 0 5017334.9400840141 -13050805.210088223 0 0 0 0 -1145902.8105903864 7747337.6025485992 0 7747337.6025485992 -20336625.59085083 0 0 0 0 1167302.303294301 5065746.7577896118 0 5065746.7577896118 -18443617.838745117 0 0 0 0 -29353056.378135204 -30060669.260055542 0 -30060669.260055542 -85111870.683052063 0 0 0 0 -2042996.5485490295 -571703.54722892493 0 -571703.54722892493 -9143898.7997729629 0 0 0 0 7554397.1442343593 -1871881.9185791016 0 -1871881.9185791016 -16584676.057922363 0 0 0 0 7189924.393057121 5358038.9372420311 0 5358038.9372420311 -24570752.560058594 0 0 0 0 -2312650.7966105938 4809779.3091583252 0 4809779.3091583252 -17617466.243782043 0 0 0 0 6747293.324055016 1178512.3973083496 0 1178512.3973083496 -33264257.19229126 0 0 0 0 -11001375.073573209 30819468.324966431 0 30819468.324966431 -63163469.184112549 0 0 0 0 10297435.514863126 3379744.0260076523 0 3379744.0260076523 -35606831.80758667 0 0 0 0 -245858.46993303284 905042.27360338718 0 905042.27360338718 -3490858.7719927579 0 0 0 0 -2691547.1903350353 18826231.006011963 0 18826231.006011963 -39120804.439208984 0 0 0 0 6408477.0281636864 -12464692.859680176 0 -12464692.859680176 -10202114.890914917 0 0 0 0 5560688.2704157196 8961064.7683019638 0 8961064.7683019638 -40116131.404815674 0 0 0 0 10995398.730157733 3674055.8820037842 0 3674055.8820037842 -60404343.906188965 0 0 0 0 7094054.6808182523 4321611.2638778687 0 4321611.2638778687 -41858683.701782227 0 0 0 0 -13463.462751223444 -119110.59664054215 0 -119110.59664054215 -128731.27514509857 0 0 0 0 11399790.212836653 7911389.8496818542 0 7911389.8496818542 -70241012.094345093 0 0 0 0 -2418787.7902443185 -1963440.3991928101 0 -1963440.3991928101 -37841638.250839233 0 0 0 0 5638758.8400694057 19166686.12197113 0 19166686.12197113 -98136958.762550354 0 0 0 0 -8796.0642684530303 260969.98086547852 0 260969.98086547852 -26435255.783905029 0 0 0 0 -8368930.9735388067 -4663047.0840759277 0 -4663047.0840759277 -8077452.4846954346 0 0 0 0 667.00828140014073 -44553.211565971375 0 -44553.211565971375 -56164.705204308033 0 0 0 0 11977462.525492633 -8460574.6859741211 0 -8460574.6859741211 -56032929.089355469 0 0 0 0 -8844.4040021800665 11459775.512176514 0 11459775.512176514 -81378827.553909302 0 0 0 0 -3682446.7947443817 -15129365.813694 0 -15129365.813694 -34841512.025146484 0 0 0 0 3106247.1836797334 5320431.7699356079 0 5320431.7699356079 -17392466.229644775 0 0 0 0 -203988.5703086555 -18078211.19443512 0 -18078211.19443512 8729455.9370422363 0 0 0 0 -3794440.047231257 24012333.839782715 0 24012333.839782715 -83239570.296813965 0 0 0 0 -286210.67380920198 586599.46529190987 0 586599.46529190987 -1846683.259625189 0 0 0 0 -7295.4458000400336 -13773024.122457718 0 -13773024.122457718 16966232.290985107 0 0 0 0 143550137.41007233 45978529.315994263 0 45978529.315994263 -111975200.55182266 0 0 0 0 -40509530.231313705 3065924.4290313721 0 3065924.4290313721 22693772.694107056 0 0 0 0 148057588.038831 178837914.03866708 0 178837914.03866708 -9663612.5745849609 0 0 0 0 -14121169.441019231 19796939.04008767 0 19796939.04008767 -20987077.955282785 0 0 0 0 -14133176.434932709 -18899432.901260376 0 -18899432.901260376 15772003.292612076 0 0 0 0 66935873.055521011 -59709854.110927582 0 -59709854.110927582 -197227749.50793457 0 0 0 0 71423882.108661652 -39476936.703399658 0 -39476936.703399658 -231789789.45825958 0 0 0 0 3674982.9832878113 -32325608.026672363 0 -32325608.026672363 -71974035.68724823 0 0 0 0 -16318841.378451347 19065723.940437317 0 19065723.940437317 -156099098.32843018 0 0 0 0 -1737589.1477692565 -3075386.2685056999 0 -3075386.2685056999 -179671.51982263476 0 0 0 0 -26248023.415559769 -52204058.518330097 0 -52204058.518330097 -307357856.99961853 0 0 0 0 -238958203.10431004 43045026.357753754 0 43045026.357753754 -14011452.485549927 0 0 0 0 -99407517.446872234 114127997.40910339 0 114127997.40910339 -184785714.68394852 0 0 0 0 -92152840.805504799 -55575981.856395721 0 -55575981.856395721 28780864.204421997 0 0 0 0 -249545293.91900682 115846476.54032898 0 115846476.54032898 -19061208.994644165 0 0 0 0 -368487701.66220474 399883423.91050434 0 399883423.91050434 -240101344.97010803 0 0 0 0 -232565763.08399582 103594833.42930603 0 103594833.42930603 -80026687.747940063 0 0 0 0 -404601378.92067885 201119495.23709297 0 201119495.23709297 112182438.56971741 0 0 0 0 -273974013.02245903 -110612334.2775116 0 -110612334.2775116 -163942597.87191772 0 0 0 0 -337979018.67224979 -319477021.48166656 0 -319477021.48166656 -243070812.70028687 0 0 0 0 -12291637.579123711 14487402.379771747 0 14487402.379771747 -14295739.694118127 0 0 0 0 118960159.02894783 173973919.33691025 0 173973919.33691025 25192638.41267395 0 0 0 0 -270158662.64895773 3432860.776720047 0 3432860.776720047 -49976059.249755859 0 0 0 0 57525025.689474106 -64214858.801185608 0 -64214858.801185608 -254596751.47618103 0 0 0 0 73245418.542483807 17746802.194452286 0 17746802.194452286 -60609745.513870239 0 0 0 0 411673503.00792027 28132019.188430786 0 28132019.188430786 -120799684.25884247 0 0 0 0 -122982693.56643295 -148436387.47227478 0 -148436387.47227478 309471332.68363953 0 0 0 0 -47214413.42980957 -135791247.05822754 0 -135791247.05822754 -230931301.72049713 0 0 0 0 2235062.2372863516 -3703374.9785575569 0 -3703374.9785575569 -2354835.1133091003 0 0 0 0 53008143.649255753 -9222455.2969970703 0 -9222455.2969970703 -9707120.1703491211 0 0 0 0 56884753.29208374 -14214702.155395508 0 -14214702.155395508 -26277717.347473145 0 0 0 0 47224568.271713257 -25263752.563819885 0 -25263752.563819885 -19139994.967590332 0 0 0 0 223857962.91929531 -181721976.7861824 0 -181721976.7861824 91846558.061035156 0 0 0 0 957583.38213749044 139965.63416856527 0 139965.63416856527 -969420.63907908089 0 0 0 0 3075690.6033106931 -997799.21972179413 0 -997799.21972179413 -3741889.9639720954 0 0 0 0 48746233.138519287 -18442317.484130859 0 -18442317.484130859 -5423341.0208816528 0 0 0 0 43294186.785028458 5437239.8417434692 0 5437239.8417434692 -12535221.958679199 0 0 0 0 -124078.50315015018 -3900219.9675108157 0 -3900219.9675108157 -7240971.73868604 0 0 0 0 38536955.269809723 86238339.788589478 0 86238339.788589478 113618036.03139877 0 0 0 0 1521986.1809425354 26196903.971557617 0 26196903.971557617 38132093.365585327 0 0 0 0 4458322.2355966568 32140192.105979919 0 32140192.105979919 34514098.683776855 0 0 0 0 -35219328.57583046 -130422858.16520691 0 -130422858.16520691 -102200294.39694214 0 0 0 0 203161584.02947235 -75945333.193252563 0 -75945333.193252563 -222873441.72143555 0 0 0 0 -4116800.5440168381 -221773595.40621185 0 -221773595.40621185 -212055823.17648315 0 0 0 0 -23163369.002174377 -304854974.83227539 0 -304854974.83227539 -435835808.90222168 0 0 0 0 -38545.481815518811 -1298408.3680686057 0 -1298408.3680686057 -2860055.0683243126 0 0 0 0 -40704075.409044266 498878576.55250549 0 498878576.55250549 -530948735.58044815 0 0 0 0 -83351876.201106548 604501049.87035751 0 604501049.87035751 -753887128.9367981 0 0 0 0 -422824487.68109512 -337655286.13787842 0 -337655286.13787842 -33187367.864334106 0 0 0 0 667948271.26306152 -34703838.85043335 0 -34703838.85043335 -166176093.02416992 0 0 0 0 119769862.00143433 -112532500.92828369 0 -112532500.92828369 -150256379.31428146 0 0 0 0 104664916.23217487 -166750752.40531921 0 -166750752.40531921 -301675631.73896503 0 0 0 0 237395339.99624252 -105216231.52709961 0 -105216231.52709961 -576287783.80953979 0 0 0 0 -16384404.916254494 26549161.31474451 0 26549161.31474451 -25982372.399469085 0 0 0 0 210980487.20538235 -89592398.180541992 0 -89592398.180541992 -309334120.77807617 0 0 0 0 9795981.3472400177 1928011.3824696802 0 1928011.3824696802 -15389442.235642839 0 0 0 0 81978305.534818649 56091846.269561768 0 56091846.269561768 -5557563.4541931152 0 0 0 0 94697583.494783401 54595356.20904541 0 54595356.20904541 -100486508.01037598 0 0 0 0 -8549417.343132725 17728629.321564585 0 17728629.321564585 -13057362.033157259 0 0 0 0 177452690.73589897 -54298758.477825165 0 -54298758.477825165 -277229975.08343506 0 0 0 0 118733467.2289753 64133897.659820557 0 64133897.659820557 -52527143.391723633 0 0 0 0 -1202626.2556929588 5432731.2420578003 0 5432731.2420578003 -1341211.6237640381 0 0 0 0 -21174210.541503906 11320716.267391205 0 11320716.267391205 -23808711.918365479 0 0 0 0 134044.13050221093 5976279.7129667699 0 5976279.7129667699 -17601491.345304202 0 0 0 0 -6896437.6646232605 25368401.965553284 0 25368401.965553284 -41992203.473495483 0 0 0 0 -6366325.7314624377 7988510.6564607937 0 7988510.6564607937 -14723919.706720524 0 0 0 0 25476261.31678009 52738635.116043091 0 52738635.116043091 -39371189.099395752 0 0 0 0 92448744.168453217 -44540172.159267426 0 -44540172.159267426 -57233350.961547852 0 0 0 0 400578344.58657837 17258830.470199585 0 17258830.470199585 -1056511232.2454529 0 0 0 0 106701104.73840332 -25759732.775817871 0 -25759732.775817871 -117634474.81923676 0 0 0 0 -176376983.16925907 142186616.98342896 0 142186616.98342896 -162552708.8821106 0 0 0 0 -333517955.21663666 201796315.92019653 0 201796315.92019653 872173688.19674683 0 0 0 0 -274149232.32280731 738300591.15441895 0 738300591.15441895 81225759.253387451 0 0 0 0 -540474268.84900665 -898589874.75671387 0 -898589874.75671387 -107819854.06347466 0 0 0 0 1176867261.9622154 80913072.458404541 0 80913072.458404541 -194090586.0657959 0 0 0 0 276337256.01517105 -338334458.18359375 0 -338334458.18359375 2001985833.9353333 0 0 0 0 273627.67094059847 355049.60723650455 0 355049.60723650455 -1290300.4112718701 0 0 0 0 1762537.740196228 -923238077.00592041 0 -923238077.00592041 -107948652.97963643 0 0 0 0 -2037355872.6388359 312522342.45831299 0 312522342.45831299 -205859281.78503418 0 0 0 0 272655415.92847824 62054091.025085449 0 62054091.025085449 -1922077985.3748169 0 0 0 0 258536860.37942123 129569107.25119019 0 129569107.25119019 -310128360.50720215 0 0 0 0 91066899.321617126 308814405.53813171 0 308814405.53813171 740095988.99931335 0 0 0 0 3145708.5227951873 2757495.1673024595 0 2757495.1673024595 -21915381.125476964 0 0 0 0 4860152.7768707275 6612753.5846252441 0 6612753.5846252441 -52517809.450439453 0 0 0 0 10150502.464870453 47160782.866699219 0 47160782.866699219 -59058515.871559143 0 0 0 0 -8572715.2357826233 48931682.545318604 0 48931682.545318604 -53809123.796844482 0 0 0 0 -10261865.077233041 21023685.854787104 0 21023685.854787104 -36113098.82702627 0 0 0 0 15097172.430547714 50945954.202926636 0 50945954.202926636 -112843581.68304443 0 0 0 0 3196049.6705789566 -2670523.580619812 0 -2670523.580619812 -99958943.49987793 0 0 0 0 -17524099.768636703 73253402.860656738 0 73253402.860656738 -46416169.701629639 0 0 0 0 28407574.989155769 11738110.194580078 0 11738110.194580078 -202504605.47113037 0 0 0 0 2823260.9136988968 4213337.2365779728 0 4213337.2365779728 -9252146.4006535895 0 0 0 0 -6515586.7462329865 81885182.093566895 0 81885182.093566895 -135447540.35635376 0 0 0 0 -10707745.080926895 37766361.732223511 0 37766361.732223511 -69634868.501922607 0 0 0 0 -4455829.1633071229 7806168.4295491204 0 7806168.4295491204 -15778708.120796502 0 0 0 0 -13842123.017730713 26707805.860290527 0 26707805.860290527 -27976028.361083984 0 0 0 0 -19350546.079170227 34384621.748580933 0 34384621.748580933 -23437683.231460571 0 0 0 0 1166735.9763298035 5249228.2757568359 0 5249228.2757568359 -28109638.916717529 0 0 0 0 -17975924.64540863 55091715.11680603 0 55091715.11680603 -65614065.518302917 0 0 0 0 -10461317.460845947 33782725.688613892 0 33782725.688613892 -42167398.341773987 0 0 0 0 1744233.0520555342 11757805.098000541 0 11757805.098000541 -27088747.179744348 0 0 0 0 1948784.2445392609 17279969.43875885 0 17279969.43875885 -38126846.881652832 0 0 0 0 -4482046.8178561023 6915713.986338675 0 6915713.986338675 -28196282.455708191 0 0 0 0 19879700.910842896 23907171.734649658 0 23907171.734649658 -40178447.600830078 0 0 0 0 739935.69351161364 4304807.6445575133 0 4304807.6445575133 -3557899.5903062373 0 0 0 0 95785.226115650963 12847619.216936536 0 12847619.216936536 -29349329.368808202 0 0 0 0 4311856.2736172676 12796967.207508087 0 12796967.207508087 -20828597.28553772 0 0 0 0 10155488.306882858 4258599.8071517944 0 4258599.8071517944 -23117575.565155029 0 0 0 0 -157711.36402368546 5586915.5103302002 0 5586915.5103302002 -27981328.292541504 0 0 0 0 273795.98377227783 12208978.911277771 0 12208978.911277771 -40836438.427558899 0 0 0 0 -2408059.6138788313 1170455.2864647508 0 1170455.2864647508 -28622297.703832641 0 0 0 0 651783.64627857599 2660714.5804436132 0 2660714.5804436132 -8936928.3535225019 0 0 0 0 -13123020.037846565 35840699.96931839 0 35840699.96931839 -59072806.832000732 0 0 0 0 -18015675.764875412 32750559.914569855 0 32750559.914569855 -44771147.330047607 0 0 0 0 -8682449.7019958496 21186839.947059631 0 21186839.947059631 -39659073.248500824 0 0 0 0 -3906710.5924196243 24881115.500648499 0 24881115.500648499 -40154345.814712524 0 0 0 0 -8358216.2332725525 23008616.932258606 0 23008616.932258606 -38810787.328903198 0 0 0 0 -1578984.8059921265 13823623.659347534 0 13823623.659347534 -30403318.458618164 0 0 0 0 9262743.2437763214 8262528.6197814941 0 8262528.6197814941 -36108763.250427246 0 0 0 0 -7303867.0691223145 22757521.346515656 0 22757521.346515656 -36754093.238311768 0 0 0 0 -16758471.550440788 28550463.105587006 0 28550463.105587006 -41252858.695968628 0 0 0 0 -8181509.5184745789 19808786.159496307 0 19808786.159496307 -44265727.01222229 0 0 0 0 -7354033.4200019836 50144191.032714844 0 50144191.032714844 -65407895.736465454 0 0 0 0 -21045161.701194763 23015232.38583374 0 23015232.38583374 -47379068.299163818 0 0 0 0 116616458.78528404 17784306.020645142 0 17784306.020645142 -64445292.323574066 0 0 0 0 558418.64671358559 593669.21445123851 0 593669.21445123851 -3000009.4699575268 0 0 0 0 75934877.907526493 -93207464.205741882 0 -93207464.205741882 20562176.723686218 0 0 0 0 72305092.467643738 -54202330.516059875 0 -54202330.516059875 -49318673.944595337 0 0 0 0 68860974.086985111 -61389990.887720108 0 -61389990.887720108 -56237255.070373535 0 0 0 0 80247553.147894859 -56052743.874145508 0 -56052743.874145508 -67763420.979736328 0 0 0 0 38732216.063537598 -28370659.851079941 0 -28370659.851079941 -36815893.825302124 0 0 0 0 -161617949.61266947 -15089140.812999725 0 -15089140.812999725 35415659.82649231 0 0 0 0 445401.1755539747 -4200481.6049393564 0 -4200481.6049393564 -4215055.3767059091 0 0 0 0 1837596.7075468807 1341946.1808089372 0 1341946.1808089372 -5587183.4836304635 0 0 0 0 -2709688826.8829193 876256968.16833496 0 876256968.16833496 -239827354.03100586 0 0 0 0 -41889582.82749176 -173300081.88951302 0 -173300081.88951302 54819500.677017212 0 0 0 0 268897852.96544266 -55449759.277183533 0 -55449759.277183533 -68316465.321424484 0 0 0 0 -178538198.00916004 39489621.635692596 0 39489621.635692596 -49839079.365112305 0 0 0 0 -247304968.08923018 9061254.9268112183 0 9061254.9268112183 353142449.15240479 0 0 0 0 -536422355.81579542 472838985.53413391 0 472838985.53413391 -172313258.59661102 0 0 0 0 3228942673.1668015 250044303.58149719 0 250044303.58149719 -1646855420.6693344 0 0 0 0 -143126130.59584022 20109677.011348724 0 20109677.011348724 -133185788.42431641 0 0 0 0 -134713929.03581142 51499741.235931396 0 51499741.235931396 -46584674.12638855 0 0 0 0 -86799316.030004501 68603684.944801331 0 68603684.944801331 -138714714.31970215 0 0 0 0 -172130746.68092537 95918484.832195282 0 95918484.832195282 -30658261.581924438 0 0 0 0 -15157679.913858414 28168024.215118408 0 28168024.215118408 25276979.589782715 0 0 0 0 -198916614.14123744 164242411.80582809 0 164242411.80582809 -140090918.65062809 0 0 0 0 3220692.42736194 613058.67899871431 0 613058.67899871431 -14371615.689554319 0 0 0 0 27806769.493038654 -51992626.175357819 0 -51992626.175357819 -4132835.7543487549 0 0 0 0 -73018866.210960388 79660552.596427917 0 79660552.596427917 -75784550.980068937 0 0 0 0 31335990.909982681 149210636.54338074 0 149210636.54338074 -75598499.185752869 0 0 0 0 -18151296.304897308 153422766.04917908 0 153422766.04917908 -8150068.1897087097 0 0 0 0 -33459567.037149429 221560400.91936874 0 221560400.91936874 16130468.693466187 0 0 0 0 37721.411018371582 175782206.62759399 0 175782206.62759399 34110674.474220276 0 0 0 0 -16434078.985135078 173263588.14621115 0 173263588.14621115 44609932.350799561 0 0 0 0 31874328.549217224 120682827.41537476 0 120682827.41537476 -22242771.365203857 0 0 0 0 -31491820.079229355 132972540.79167938 0 132972540.79167938 -2311108.2159576416 0 0 0 0 -41180574.358449936 173888367.50531387 0 173888367.50531387 -25332421.008415222 0 0 0 0 -26971186.635299683 92994783.42029953 0 92994783.42029953 -64567479.896335602 0 0 0 0 4356272.6893844604 152503427.31185532 0 152503427.31185532 104156753.57078552 0 0 0 0 137815418.23761368 98928096.953037262 0 98928096.953037262 20380930.493522644 0 0 0 0 42985513.420718193 159826117.31840611 0 159826117.31840611 -11924017.251937866 0 0 0 0 158505928.9298172 149110024.51514435 0 149110024.51514435 -25269665.44757843 0 0 0 0 162956345.80739021 190393869.18211174 0 190393869.18211174 872979.79133605957 0 0 0 0 148419088.71630096 189436516.99176788 0 189436516.99176788 -69295665.975738049 0 0 0 0 89343215.445724487 183311597.37337685 0 183311597.37337685 -42178816.525680542 0 0 0 0 67785040.079502106 120614737.02740479 0 120614737.02740479 -27854793.753456116 0 0 0 0 35828138.56687355 153276878.66493225 0 153276878.66493225 -51927448.926315308 0 0 0 0 -28172399.416633606 108597955.41241455 0 108597955.41241455 -55399657.328720093 0 0 0 0 161024672.79437256 207626724.29064941 0 207626724.29064941 -71012588.596374512 0 0 0 0 29930353.81778717 221843896.97471809 0 221843896.97471809 22128177.34161377 0 0 0 0 -126972504.06960678 85549747.578746796 0 85549747.578746796 -67940536.98462677 0 0 0 0 -80228732.502915859 113793803.87287855 0 113793803.87287855 -46923308.582977295 0 0 0 0 -58484722.492580414 129605171.18557739 0 129605171.18557739 -27206239.980354309 0 0 0 0 -51878832.293735504 66337837.453559875 0 66337837.453559875 -76371195.831039429 0 0 0 0 -121170322.68036652 42380093.835121155 0 42380093.835121155 -96256873.785770416 0 0 0 0 -232900855.30548668 43337406.082674026 0 43337406.082674026 -77815838.224395752 0 0 0 0 -116642750.56166267 84722284.800430298 0 84722284.800430298 -91222907.937400818 0 0 0 0 -119574806.57732773 93766834.976867676 0 93766834.976867676 -118637685.65359879 0 0 0 0 -94812648.736280441 107041120.90085793 0 107041120.90085793 -43827361.123123169 0 0 0 0 -51997026.343273163 67953508.947425842 0 67953508.947425842 -112555197.02458191 0 0 0 0 4605215.1235932298 -358243.09186804295 0 -358243.09186804295 -4460681.6969338506 0 0 0 0 -87593264.691578865 128359141.67335892 0 128359141.67335892 26491605.567581177 0 0 0 0 126827840.74594879 211769298.581707 0 211769298.581707 -352550523.83781052 0 0 0 0 7988506.8384909481 -548216.28685154393 0 -548216.28685154393 -7798466.3964187503 0 0 0 0 -178357875.87855721 352081025.90012646 0 352081025.90012646 -380905503.25816345 0 0 0 0 119827543.17120361 193084020.95449829 0 193084020.95449829 -343770137.12023926 0 0 0 0 -141525276.27856827 146103965.73979187 0 146103965.73979187 -247790981.27552032 0 0 0 0 113377827.30313492 59692985.158035278 0 59692985.158035278 -262216099.34450531 0 0 0 0 -12144904.177532196 307144824.75302887 0 307144824.75302887 -520430372.58605957 0 0 0 0 -196740614.36526299 260380250.2485199 0 260380250.2485199 -352615007.03858948 0 0 0 0 -252597890.40061188 434848001.62512207 0 434848001.62512207 -138520066.19490814 0 0 0 0 7658601.631052969 -680927.60973098874 0 -680927.60973098874 -7789417.1869739816 0 0 0 0 -248823398.11346006 151000496.43175697 0 151000496.43175697 -115376715.08760071 0 0 0 0 368604147.11292648 92968593.62669754 0 92968593.62669754 -152478765.52398682 0 0 0 0 450932109.44025421 -92928713.020584106 0 -92928713.020584106 -67503524.873731613 0 0 0 0 -2109957.3762056008 7427862.4457470253 0 7427862.4457470253 -9851979.850323014 0 0 0 0 -103068541.48312378 94612873.054351807 0 94612873.054351807 -95164437.315429688 0 0 0 0 6412299.1765556335 13408017.792709351 0 13408017.792709351 -26946585.937438965 0 0 0 0 -10363578.556583218 34506412.650690407 0 34506412.650690407 -38781490.424303874 0 0 0 0 17438213.259292603 12881300.733673096 0 12881300.733673096 -10260343.262695312 0 0 0 0 24958250.310067326 18232023.175031126 0 18232023.175031126 -33362403.191207886 0 0 0 0 -49586564.418487549 135925649.18223572 0 135925649.18223572 -169695171.52124023 0 0 0 0 -7299771.4829887999 38058473.840229437 0 38058473.840229437 -32829472.438357934 0 0 0 0 4683722.8816519119 -2047575.6631820276 0 -2047575.6631820276 -3837738.0779371411 0 0 0 0 62856404.382301331 117983067.83276367 0 117983067.83276367 -49250366.135848999 0 0 0 0 31882589.735843658 24330444.125228882 0 24330444.125228882 -3747564.3687591553 0 0 0 0 -167092416.38619232 112478976.59819794 0 112478976.59819794 18309928.254104614 0 0 0 0 30899040.988422394 32293990.571628571 0 32293990.571628571 -23755651.893043518 0 0 0 0 2533707.9920257349 8135074.9801264554 0 8135074.9801264554 -19176598.854621977 0 0 0 0 -5044624.1976691484 26831713.812544581 0 26831713.812544581 -17581064.236534834 0 0 0 0 258528888.90413666 -9391673.4300308228 0 -9391673.4300308228 -36104149.973731995 0 0 0 0 276613674.02674103 -30132934.178939819 0 -30132934.178939819 -208069180.46001816 0 0 0 0 218879465.71541977 71721119.183670044 0 71721119.183670044 -246579909.89228821 0 0 0 0 232433103.05173492 108289180.25978088 0 108289180.25978088 -151023109.60351562 0 0 0 0 265393650.1255455 53512847.805854797 0 53512847.805854797 -93550999.550842285 0 0 0 0 256926248.89150238 136276764.52747345 0 136276764.52747345 -183511709.06986237 0 0 0 0 157852209.28818703 168996836.79445648 0 168996836.79445648 -102425940.43730164 0 0 0 0 136817198.40068054 281009636.50163651 0 281009636.50163651 -215308295.03519154 0 0 0 0 164995274.38840866 207839472.54960251 0 207839472.54960251 -78521944.33996582 0 0 0 0 123215681.75351715 174232117.54610443 0 174232117.54610443 -76470932.670944214 0 0 0 0 118291646.24931335 75680106.124595642 0 75680106.124595642 -41250112.250595093 0 0 0 0 245627097.56653595 22515245.91242218 0 22515245.91242218 -63462364.738268852 0 0 0 0 196126664.75411224 64330390.075546265 0 64330390.075546265 -91635804.747131348 0 0 0 0 16396902.927692413 8800589.7541027069 0 8800589.7541027069 -26131287.524414062 0 0 0 0 2559229.7433667541 17552130.624712706 0 17552130.624712706 -31825487.468982801 0 0 0 0 14634999.118411064 21303353.340002537 0 21303353.340002537 -32063339.173843384 0 0 0 0 -6858783.3937301636 15599296.834568024 0 15599296.834568024 -22598250.084014893 0 0 0 0 -70710.494710270315 -177564.05038549751 0 -177564.05038549751 159145.2407229403 0 0 0 0 5565536.6596679688 6552912.1718635559 0 6552912.1718635559 -19026715.210754395 0 0 0 0 21041189.324255437 17005230.971988469 0 17005230.971988469 -17689958.065872192 0 0 0 0 -34438869.879867554 143497109.77822113 0 143497109.77822113 -44023972.091262817 0 0 0 0 -8341004.8053782806 27608711.366421334 0 27608711.366421334 -26381812.429035567 0 0 0 0 56899833.127971649 169999960.26011276 0 169999960.26011276 -66431053.567932129 0 0 0 0 58257684.827203751 170809470.46188164 0 170809470.46188164 -92986220.073623657 0 0 0 0 31396965.164474487 119565043.43885803 0 119565043.43885803 -89529616.793852568 0 0 0 0 755395363.61052239 109789689.67079693 0 109789689.67079693 911996643.42445374 0 0 0 0 -1818796.4427153131 5081910.1792579265 0 5081910.1792579265 176486.25351376832 0 0 0 0 -250747460.79142761 -172549802.61614799 0 -172549802.61614799 853269659.42948341 0 0 0 0 177552047.01446813 564141280.88883042 0 564141280.88883042 412386752.95005035 0 0 0 0 -2061417.7778578126 15732561.181078838 0 15732561.181078838 -32224615.182298496 0 0 0 0 27509588.004277229 65880212.414737701 0 65880212.414737701 262792078.13442612 0 0 0 0 146469440.91643524 187951918.59844208 0 187951918.59844208 -81697197.100920677 0 0 0 0 126307417.74063873 195721385.89432526 0 195721385.89432526 -75705545.828735352 0 0 0 0 118594064.67701721 163885990.8945694 0 163885990.8945694 -87292869.836853027 0 0 0 0 125930620.78489685 178430249.73303223 0 178430249.73303223 -80833389.830587387 0 0 0 0 110574438.28035736 194369863.77663803 0 194369863.77663803 -72862415.221931458 0 0 0 0 142410032.65097809 196542005.13400269 0 196542005.13400269 -68118068.725601196 0 0 0 0 192036451.80735016 191484642.24717712 0 191484642.24717712 -69073176.986336708 0 0 0 0 95494057.412185669 214069514.31446838 0 214069514.31446838 -2409300.2256164551 0 0 0 0 25834538.426803589 166933009.35303879 0 166933009.35303879 -30063468.30096817 0 0 0 0 210470580.16285515 216934867.92159939 0 216934867.92159939 -2549206.6261672974 0 0 0 0 -23517084.068658248 25616328.246551938 0 25616328.246551938 -22435750.778915972 0 0 0 0 962967514.17626476 821544982.4702549 0 821544982.4702549 -777705521.00819206 0 0 0 0 160810435.82172394 130193723.71027756 0 130193723.71027756 104770769.3343792 0 0 0 0 -2043671838.2554944 -148492743.54261494 0 -148492743.54261494 263576293.44754267 0 0 0 0 72034174.967113495 449038037.24829102 0 449038037.24829102 397686164.96887779 0 0 0 0 375168137.18218136 -161675438.82219887 0 -161675438.82219887 528764718.78263474 0 0 0 0 -647430571.36407566 -8838012.5453853607 0 -8838012.5453853607 589081819.09575653 0 0 0 0 581787048.15107787 443736572.61296034 0 443736572.61296034 288586400.24006271 0 0 0 0 -31164802.776827291 34260544.468226463 0 34260544.468226463 -26182850.970937878 0 0 0 0 -1477832712.9559715 1281218844.7147493 0 1281218844.7147493 964169876.59633255 0 0 0 0 -449492994.31201172 1457977475.2336273 0 1457977475.2336273 816285975.91106033 0 0 0 0 857803360.68984306 -571944094.91088748 0 -571944094.91088748 -2302758725.094595 0 0 0 0 25179122.493818283 -279125658.42601347 0 -279125658.42601347 -1758430184.0981703 0 0 0 0 -69420982.593361855 98357296.053915024 0 98357296.053915024 -283542611.13248062 0 0 0 0 231153424.89825439 -75056159.762336731 0 -75056159.762336731 -405786260.6214819 0 0 0 0 -428251940.16257739 -576894751.40287614 0 -576894751.40287614 270790710.2662468 0 0 0 0 -14569294.76473999 -90363538.275393486 0 -90363538.275393486 -67145738.477941513 0 0 0 0 -17949011.513952732 -158418097.66066694 0 -158418097.66066694 253595206.05404282 0 0 0 0 -29073858.330084801 -81711236.999326229 0 -81711236.999326229 39849617.147792816 0 0 0 0 -65439778.065979004 -27227427.441176414 0 -27227427.441176414 -85761094.857170105 0 0 0 0 84453927.721780777 -12975108.891756535 0 -12975108.891756535 -285244733.8805809 0 0 0 0 -13997704.148975372 -107195137.38064671 0 -107195137.38064671 -116456006.79819107 0 0 0 0 55573204.675720215 -33509947.678453445 0 -33509947.678453445 -57990171.345701218 0 0 0 0 46546938.588798523 -60086810.508573532 0 -60086810.508573532 -80531449.605428696 0 0 0 0 25799601.940750122 -32982252.140074968 0 -32982252.140074968 -20310978.781817436 0 0 0 0 119183233.56007004 13368199.78472805 0 13368199.78472805 -139521580.56915283 0 0 0 0 -66231319.62289238 34458481.00743103 0 34458481.00743103 52163767.301136017 0 0 0 0 33116.097832311876 1646360.6497181947 0 1646360.6497181947 -2912419.6827151747 0 0 0 0 -2503803.8741779327 -34844949.791185379 0 -34844949.791185379 -15862075.13965416 0 0 0 0 26261109.185302734 -62903647.265750885 0 -62903647.265750885 -51937028.751799345 0 0 0 0 2135074.438419342 -93512115.710456848 0 -93512115.710456848 -76391656.573678493 0 0 0 0 -49796958.634670258 33891735.694936752 0 33891735.694936752 -22252388.291236877 0 0 0 0 -9686967.5168571472 -6610337.0081782341 0 -6610337.0081782341 47843225.789527893 0 0 0 0 501349.90436935425 12298608.775331497 0 12298608.775331497 -40516128.083823204 0 0 0 0 876242.44214383105 2503828.3944587978 0 2503828.3944587978 -23301429.209832378 0 0 0 0 34307595.364248276 -34571227.431529999 0 -34571227.431529999 -23175888.349770546 0 0 0 0 2947459.1157722883 -1765197.9538584659 0 -1765197.9538584659 -4863653.1027710894 0 0 0 0 -3453253.6436653137 11610483.518280029 0 11610483.518280029 -11696430.223562241 0 0 0 0 1058369.0962409973 17769450.072315216 0 17769450.072315216 -17643305.939926147 0 0 0 0 -8323766.8645515442 13679658.36523056 0 13679658.36523056 -18263123.497383118 0 0 0 0 -2888062.7949421406 16278828.193361282 0 16278828.193361282 -18901483.366134644 0 0 0 0 -24464529.444550514 6235495.0654273033 0 6235495.0654273033 11407643.148658752 0 0 0 0 -9828095.6088179741 8155536.2614090014 0 8155536.2614090014 7824806.9513277858 0 0 0 0 -6972409.9832117558 18452286.78668189 0 18452286.78668189 -21964478.642467499 0 0 0 0 -84348693.260848999 24155903.259296417 0 24155903.259296417 37021968.560813904 0 0 0 0 -1640192.108901666 5527691.6472400278 0 5527691.6472400278 -8623698.2668729592 0 0 0 0 -18020229.681850433 18951613.614473343 0 18951613.614473343 15340852.561206818 0 0 0 0 8800164.6148681641 2544302.8866348267 0 2544302.8866348267 395230.56742095947 0 0 0 0 4761456.5536346436 17939710.900053263 0 17939710.900053263 -26043788.680923462 0 0 0 0 -11263728.743462157 17170442.9348737 0 17170442.9348737 -22839870.759383518 0 0 0 0 -31589073.939460754 67481698.899671555 0 67481698.899671555 33198979.102090836 0 0 0 0 -72042824.607179642 54065366.457643509 0 54065366.457643509 36609082.043446541 0 0 0 0 -54944644.73486042 -197924996.9364996 0 -197924996.9364996 251769100.59011269 0 0 0 0 -2864564.4352012491 2268653.7781757968 0 2268653.7781757968 2347322.8624881469 0 0 0 0 31096891.641654253 74856793.465362072 0 74856793.465362072 12140661.819278717 0 0 0 0 -151040925.04861355 -198475314.36266899 0 -198475314.36266899 387056121.60091162 0 0 0 0 10849926.747302055 77037318.84815979 0 77037318.84815979 104107370.88344479 0 0 0 0 -17607582.847810745 26228007.891115189 0 26228007.891115189 52209064.76260376 0 0 0 0 -24218894.019735336 -2538318.463394165 0 -2538318.463394165 98062134.132236481 0 0 0 0 512014.75234031677 24122616.054365158 0 24122616.054365158 16769443.094415665 0 0 0 0 -17026861.052985907 26119132.911412954 0 26119132.911412954 17153070.13155365 0 0 0 0 -206344730.43778753 -28305422.749746323 0 -28305422.749746323 -43449018.133281469 0 0 0 0 -360755841.79856944 -423525262.09411263 0 -423525262.09411263 -324455566.16511536 0 0 0 0 -808396586.31873703 -367106426.01532936 0 -367106426.01532936 -89777435.44315815 0 0 0 0 -548421124.45046139 -500469978.87634468 0 -500469978.87634468 -161517874.86932373 0 0 0 0 -566188260.39399147 -251204312.2595768 0 -251204312.2595768 36303663.578090668 0 0 0 0 -73637804.930854797 39482918.982993126 0 39482918.982993126 206749908.06009102 0 0 0 0 -69020908.845260262 -82471120.154153645 0 -82471120.154153645 42263082.911777496 0 0 0 0 270676.2159058773 556181.23821755592 0 556181.23821755592 -2155072.6770498762 0 0 0 0 -464624502.90071964 -461355584.82003641 0 -461355584.82003641 -406343300.45904255 0 0 0 0 -601315904.89579177 -855100312.55065596 0 -855100312.55065596 -740383495.87933731 0 0 0 0 19311048.078552246 -28158088.454236984 0 -28158088.454236984 72644513.459690094 0 0 0 0 78984325.514291763 -64293958.148684502 0 -64293958.148684502 -2461577.7006206512 0 0 0 0 104768.86318163201 1109473.5010374191 0 1109473.5010374191 -5919236.8457651371 0 0 0 0 -1555324.4589092485 937549.2187627973 0 937549.2187627973 -15282708.719735045 0 0 0 0 23242078.531484604 -109466663.36838722 0 -109466663.36838722 -27806429.258628845 0 0 0 0 82559393.224458694 4114756.2551116943 0 4114756.2551116943 -17684087.164713979 0 0 0 0 208991731.57292747 -17416825.560847759 0 -17416825.560847759 -138038208.67290878 0 0 0 0 99835763.885697365 -17140126.635403633 0 -17140126.635403633 -18490557.106132507 0 0 0 0 74284.274480342865 -92917043.750283718 0 -92917043.750283718 -297587065.75001907 0 0 0 0 74917783.266214371 47497454.011457443 0 47497454.011457443 -165831972.54575729 0 0 0 0 -8269060.2224588394 -127526762.67160034 0 -127526762.67160034 -137452679.5177269 0 0 0 0 -52229766.630269527 -66797273.074807167 0 -66797273.074807167 -185670173.70662308 0 0 0 0 -265938906.06603909 -139216113.06899834 0 -139216113.06899834 -147724580.75179291 0 0 0 0 -217879998.4069308 -303418862.56903481 0 -303418862.56903481 -483635524.2178421 0 0 0 0 -630184460.11997986 -514949408.73123169 0 -514949408.73123169 -155007330.11060333 0 0 0 0 -60210659.227365494 118408853.73246384 0 118408853.73246384 -124153562.7115345 0 0 0 0 -510626098.23303699 -577764799.22035789 0 -577764799.22035789 -704039487.44016457 0 0 0 0 -42724179.843414307 29190822.4057827 0 29190822.4057827 -471492679.78189182 0 0 0 0 -1145919063.8134637 -256686369.21141624 0 -256686369.21141624 -306548316.83702087 0 0 0 0 -668936805.16192222 -306735193.39944267 0 -306735193.39944267 -105532960.10960579 0 0 0 0 -775808802.23287773 -51680492.038330078 0 -51680492.038330078 -835598488.46032715 0 0 0 0 -533135668.9991622 -344016896.44279861 0 -344016896.44279861 -329184938.79281235 0 0 0 0 -17047992.533448696 -14287338.160358429 0 -14287338.160358429 17225935.623092651 0 0 0 0 1545403.785076563 -948381.40643920004 0 -948381.40643920004 -3669102.7518010288 0 0 0 0 -71483224.950490475 35500657.021370888 0 35500657.021370888 -100706729.79991913 0 0 0 0 -94647498.826412201 -52324490.29574585 0 -52324490.29574585 -484616.21797943115 0 0 0 0 -99862491.559591383 62110652.033223271 0 62110652.033223271 6312592.4479064941 0 0 0 0 -136689185.50706005 -48800377.167100906 0 -48800377.167100906 -86807009.048690796 0 0 0 0 -45622723.75983429 14338626.252990723 0 14338626.252990723 61369087.302585602 0 0 0 0 20015749.219161034 16758792.896741867 0 16758792.896741867 18506992.988414764 0 0 0 0 23392692.632644832 39887962.262167692 0 39887962.262167692 -5323240.4175653458 0 0 0 0 70247508.764520645 167059614.58041 0 167059614.58041 75364416.983038902 0 0 0 0 3933502.6525833793 4266636.7089861054 0 4266636.7089861054 -21657671.839849778 0 0 0 0 50371347.819461823 3018178.3058891296 0 3018178.3058891296 -4019976.751411438 0 0 0 0 5878866.0659382427 2333135.1119814119 0 2333135.1119814119 -25452724.985465921 0 0 0 0 176322831.41651344 158316640.242939 0 158316640.242939 -42892334.737923861 0 0 0 0 12186646.961161613 23087808.734887123 0 23087808.734887123 2459906.5005197525 0 0 0 0 5076094.7677202225 468194.9039773941 0 468194.9039773941 -7525956.328576088 0 0 0 0 27722383.261657715 18302487.106784582 0 18302487.106784582 -17856199.992976665 0 0 0 0 -6674451.0212926865 10640548.26488173 0 10640548.26488173 -11378507.341320515 0 0 0 0 -9871931.9827075005 18352862.004046559 0 18352862.004046559 -13372982.498930931 0 0 0 0 -4802315.9830861092 3112934.2565242648 0 3112934.2565242648 -36367663.692562103 0 0 0 0 162700.84345816355 1078091.7585619618 0 1078091.7585619618 -3138269.9059594362 0 0 0 0 -4686986.6033687592 -532612.89441609383 0 -532612.89441609383 -47068492.323850155 0 0 0 0 6990403.0581314219 -3216729.9124363558 0 -3216729.9124363558 -15350202.266987216 0 0 0 0 2119139.1416349411 -11537905.675866902 0 -11537905.675866902 -34974956.87424469 0 0 0 0 29306406.529500961 -24887540.94086051 0 -24887540.94086051 -42240641.977359772 0 0 0 0 17726015.003239155 3458336.761779964 0 3458336.761779964 -25098702.714005947 0 0 0 0 13622723.544064522 8639012.6861671209 0 8639012.6861671209 -5430286.162045002 0 0 0 0 15156452.679546356 16346698.489898682 0 16346698.489898682 -48781835.844598532 0 0 0 0 3663414.2531812093 4867848.0355600007 0 4867848.0355600007 -20426615.900798362 0 0 0 0 46090982.871472836 77256156.994405746 0 77256156.994405746 60502872.515014648 0 0 0 0 34070992.60631156 18200583.511644334 0 18200583.511644334 -25531468.366408557 0 0 0 0 6990518.1620014906 9607475.7172172442 0 9607475.7172172442 -18850886.077284813 0 0 0 0 21263843.785758018 7211252.7190744877 0 7211252.7190744877 -23918572.952731371 0 0 0 0 -4775187.5917806625 15324497.847732544 0 15324497.847732544 24798201.78149128 0 0 0 0 14625249.924151421 42982439.94474268 0 42982439.94474268 21599474.862571716 0 0 0 0 -2058128.3045153404 2721612.4627634231 0 2721612.4627634231 1430273.0482220538 0 0 0 0 -19412886.743347168 -17033195.616636276 0 -17033195.616636276 -33300222.146408081 0 0 0 0 -16968617.98324585 -6036927.115814209 0 -6036927.115814209 -24150886.554039001 0 0 0 0 8433792.8974647522 -8777551.9157447815 0 -8777551.9157447815 -44321368.844444275 0 0 0 0 2800259.7260570526 15924457.855199814 0 15924457.855199814 -41325843.046665192 0 0 0 0 12101140.588420868 4662446.2561073303 0 4662446.2561073303 -30727286.0284729 0 0 0 0 -6370803.5519135054 12638490.910366334 0 12638490.910366334 -27765843.0408893 0 0 0 0 -6805392.4428611174 15558526.838221531 0 15558526.838221531 -23064665.492540706 0 0 0 0 -3184308.8525047302 3070959.116771698 0 3070959.116771698 -28085012.939481735 0 0 0 0 -9994901.1536369324 26798985.19998455 0 26798985.19998455 -23835483.784133911 0 0 0 0 -6878450.3240814209 14471778.872741699 0 14471778.872741699 -15088194.705169678 0 0 0 0 -9824645.5440820232 21048161.930645578 0 21048161.930645578 -13928176.749074504 0 0 0 0 -1871532.5324001918 10509011.324795635 0 10509011.324795635 -9220135.5459875949 0 0 0 0 -441841.59730577096 1449453.4659280255 0 1449453.4659280255 -11693345.139116835 0 0 0 0 -4107022.7914800644 9447945.1854305267 0 9447945.1854305267 -6201566.2776031494 0 0 0 0 9463729.7919178009 7942696.2955951691 0 7942696.2955951691 -3110922.4763412476 0 0 0 0 -7620001.9322776794 10032162.574888229 0 10032162.574888229 -20945382.825328588 0 0 0 0 -3816489.3211040497 14279885.299180031 0 14279885.299180031 -16450156.272022247 0 0 0 0 1639121.1155090332 10631397.8384552 0 10631397.8384552 -19670267.320693493 0 0 0 0 -456329.03788688313 8767354.9051250182 0 8767354.9051250182 -8289105.0198237151 0 0 0 0 13098500.111240387 9600347.062256813 0 9600347.062256813 -15100853.622657776 0 0 0 0 982018.30605506897 6063300.1044845581 0 6063300.1044845581 -12876277.960660934 0 0 0 0 1190476.7671031952 6732565.0931797028 0 6732565.0931797028 -10723700.844749451 0 0 0 0 13092254.840633392 8197742.8696155548 0 8197742.8696155548 -11334804.505487442 0 0 0 0 1253079.2688941956 8569249.2154750824 0 8569249.2154750824 -15728004.823861837 0 0 0 0 -2909010.3211096153 6981904.5938243456 0 6981904.5938243456 -15569247.528297357 0 0 0 0 -86947142.601097107 48797383.033706665 0 48797383.033706665 20024153.723114014 0 0 0 0 62522715.732361794 -8042409.4617547989 0 -8042409.4617547989 -20352373.098403931 0 0 0 0 278944709.19593048 221031362.74195099 0 221031362.74195099 -283567616.58093262 0 0 0 0 18495580.237499237 6567485.3272705078 0 6567485.3272705078 -24452730.687263489 0 0 0 0 -272124.68022644706 4255051.5861766376 0 4255051.5861766376 -14415299.058686454 0 0 0 0 13342065.857258797 9689782.5627202988 0 9689782.5627202988 -6044483.3787231445 0 0 0 0 -177424.25671633676 7914166.784515122 0 7914166.784515122 -13727556.09174031 0 0 0 0 5684272.3874959033 3406009.1717070192 0 3406009.1717070192 -32428399.529876254 0 0 0 0 821261.69854736328 10555538.667785645 0 10555538.667785645 -20895743.611381531 0 0 0 0 21019671.628823161 -9089454.1648014747 0 -9089454.1648014747 -50942176.346725613 0 0 0 0 712183.93382062868 -2512623.8079033932 0 -2512623.8079033932 -23918163.943999335 0 0 0 0 19680718.697257996 4067018.0914573669 0 4067018.0914573669 -22941757.751834869 0 0 0 0 21619659.253564835 4927301.205165863 0 4927301.205165863 -25076387.343551636 0 0 0 0 15737337.216709137 6929100.9195022583 0 6929100.9195022583 -23664162.675088882 0 0 0 0 3152531.9832628747 9820474.2990037501 0 9820474.2990037501 -26893091.34046232 0 0 0 0 18136142.97539711 8536865.0330138206 0 8536865.0330138206 -25420961.302444458 0 0 0 0 -15905701.081760406 6306195.2775878906 0 6306195.2775878906 -27623151.118461609 0 0 0 0 3871659.971244812 3795741.2361106873 0 3795741.2361106873 -43609565.727378845 0 0 0 0 -4464228.0998595059 11176916.996368997 0 11176916.996368997 -19413050.896252349 0 0 0 0 -2916447.3783531189 -18256368.164676666 0 -18256368.164676666 -50734908.823852539 0 0 0 0 -313208923.86199951 86398390.609527588 0 86398390.609527588 -77619129.433685303 0 0 0 0 19911384.574829102 9601979.9601135254 0 9601979.9601135254 -43425598.260555267 0 0 0 0 803744.38991547376 12678949.255917991 0 12678949.255917991 -20020940.877512343 0 0 0 0 -1139771.5497360229 17370022.468572617 0 17370022.468572617 -30270578.385696411 0 0 0 0 27932617.264400482 9678371.0096893311 0 9678371.0096893311 -33202913.52772522 0 0 0 0 61127713.642150879 36201109.251766205 0 36201109.251766205 -31725330.022491455 0 0 0 0 -2512916.4075370152 10781159.014344156 0 10781159.014344156 -16086490.242322795 0 0 0 0 10096037.339660645 20611625.909549713 0 20611625.909549713 -10409593.83290863 0 0 0 0 28455227.854675293 21081682.260353088 0 21081682.260353088 -13956155.363296509 0 0 0 0 12812614.642299652 15020391.863227844 0 15020391.863227844 -15048402.573364258 0 0 0 0 59925765.478528976 -11341893.894008636 0 -11341893.894008636 -164122116.84408569 0 0 0 0 20129098.342384338 63028449.031066895 0 63028449.031066895 -5415463.1788253784 0 0 0 0 26020116.737892151 37755034.731971741 0 37755034.731971741 10008123.557941437 0 0 0 0 14195841.683600426 5653674.8554754257 0 5653674.8554754257 -40625674.466934204 0 0 0 0 20429833.752210617 5698056.3382263184 0 5698056.3382263184 -23110635.693367004 0 0 0 0 3030928.9587380858 7184642.2738561425 0 7184642.2738561425 -29278826.704543561 0 0 0 0 -46220768.286762238 -5127688.6275596619 0 -5127688.6275596619 -29795591.509895325 0 0 0 0 23496484.909667969 5947591.614818573 0 5947591.614818573 -27493063.474555969 0 0 0 0 21697491.025102615 3219807.0373926163 0 3219807.0373926163 -20747682.481826782 0 0 0 0 1755725.0784972387 -743867.08788451646 0 -743867.08788451646 -27964867.436912239 0 0 0 0 41565651.648456573 2630078.4462356567 0 2630078.4462356567 -32224272.393634796 0 0 0 0 100783403.32213974 -108075370.53484881 0 -108075370.53484881 -168609407.41854477 0 0 0 0 30952120.387042999 -2165808.5553855896 0 -2165808.5553855896 -23210509.753314972 0 0 0 0 27832117.185320854 8104278.097837925 0 8104278.097837925 -31151320.920417786 0 0 0 0 306403680.35040283 545740779.51071167 0 545740779.51071167 -321373078.08109283 0 0 0 0 25649687.504272461 89568446.679611206 0 89568446.679611206 339131768.13922119 0 0 0 0 4487506.1670561396 6218608.5855580661 0 6218608.5855580661 -32535157.136721835 0 0 0 0 25399024.640838623 -46005145.873264313 0 -46005145.873264313 -594834.04919433594 0 0 0 0 22886247.950016022 2355047.0974750519 0 2355047.0974750519 -26966614.515300751 0 0 0 0 29390578.738117218 233618.01675796509 0 233618.01675796509 -32660330.032559872 0 0 0 0 31458987.463896751 5773186.5295467377 0 5773186.5295467377 -23952197.543861389 0 0 0 0 32294567.210868835 -3176776.3496627808 0 -3176776.3496627808 -25537362.995793343 0 0 0 0 89143672.435444832 59808229.674276829 0 59808229.674276829 -56402221.769505501 0 0 0 0 4085768.6879736017 1921933.8134855535 0 1921933.8134855535 -31567402.077112917 0 0 0 0 34948335.820804596 -4561223.3967380524 0 -4561223.3967380524 -33649646.141540527 0 0 0 0 37827176.996235847 -8345059.3388643265 0 -8345059.3388643265 -28768502.515213013 0 0 0 0 50048196.821670532 -86137295.922058105 0 -86137295.922058105 -11868091.633300781 0 0 0 0 92072526.396194458 -100313992.50158691 0 -100313992.50158691 -45748813.78430748 0 0 0 0 30695131.438977718 2602292.1071977615 0 2602292.1071977615 -38821807.456703186 0 0 0 0 42617261.623027802 2078287.8644218445 0 2078287.8644218445 -39203154.048950195 0 0 0 0 30824424.910987854 -4247780.2843704224 0 -4247780.2843704224 -38919719.801428318 0 0 0 0 21227265.131774902 -44537941.45425415 0 -44537941.45425415 -66202354.120891571 0 0 0 0 9990066.7023658752 -17998646.09122467 0 -17998646.09122467 22751667.801712036 0 0 0 0 6016314.2247924805 -37721090.357002258 0 -37721090.357002258 21719004.826087952 0 0 0 0 86032935.028860092 -45950220.003147125 0 -45950220.003147125 -67706400.985412598 0 0 0 0 8870366.6638336182 44351403.688201904 0 44351403.688201904 -51066960.672576904 0 0 0 0 138435292.9875946 95420909.820831299 0 95420909.820831299 -58425653.467407227 0 0 0 0 139630726.63437843 -25878655.646343231 0 -25878655.646343231 -40037425.790588379 0 0 0 0 3258952.9018258825 -2663725.4649609551 0 -2663725.4649609551 -3832210.1893807054 0 0 0 0 -2808726.690322876 16888703.775741577 0 16888703.775741577 -14114052.13659668 0 0 0 0 6255218.5754609052 2042608.7022898719 0 2042608.7022898719 -27945504.593074195 0 0 0 0 10364652.701422572 14782445.322514296 0 14782445.322514296 -24576132.255722046 0 0 0 0 9824794.4605617523 9884934.6635169983 0 9884934.6635169983 -21284885.403778076 0 0 0 0 10138233.70610857 9435157.8708417416 0 9435157.8708417416 -22824796.496002197 0 0 0 0 -3095902.2534476481 11926372.909004498 0 11926372.909004498 -16000696.282257438 0 0 0 0 41219415.612628937 -12924207.27107811 0 -12924207.27107811 -14126164.124176025 0 0 0 0 12371797.157402039 62623903.724601746 0 62623903.724601746 190599745.20168304 0 0 0 0 2335588.5876582153 1205873.5514230542 0 1205873.5514230542 -4958523.8652113229 0 0 0 0 80403474.77038002 -15039202.266864777 0 -15039202.266864777 -15544785.731567383 0 0 0 0 -1396289.9966796637 1269639.9348123963 0 1269639.9348123963 -8988165.0596575439 0 0 0 0 -3057997.631052494 10408277.875508308 0 10408277.875508308 -33773424.3781147 0 0 0 0 -248969.56983142882 2566251.4298780118 0 2566251.4298780118 -7780346.3759584576 0 0 0 0 20240143.053657532 -13185394.913060188 0 -13185394.913060188 -46181687.944999456 0 0 0 0 1385074.8377182484 16394973.632205009 0 16394973.632205009 -39392360.551825523 0 0 0 0 3175590.6921301186 4980370.113773765 0 4980370.113773765 -19513009.095557153 0 0 0 0 16408150.568672657 -749715.43225264549 0 -749715.43225264549 -27594077.472846985 0 0 0 0 35550127.762321949 -12242360.444802284 0 -12242360.444802284 -22711733.561197519 0 0 0 0 36900365.257130146 19505533.966319561 0 19505533.966319561 -50068197.552560806 0 0 0 0 -1705282.401184082 18766252.365508556 0 18766252.365508556 -29223901.244833469 0 0 0 0 -3657042.9034891129 51151837.920359612 0 51151837.920359612 -63110190.364511967 0 0 0 0 -82111784.518259048 -48395864.697626591 0 -48395864.697626591 42212510.327167988 0 0 0 0 -2120036.3445607997 2028770.9690084308 0 2028770.9690084308 -3003482.2281538574 0 0 0 0 5577690.8245697021 6190561.2915289402 0 6190561.2915289402 30952128.713464737 0 0 0 0 34254453.651432037 -22274337.382680416 0 -22274337.382680416 -66935111.248151779 0 0 0 0 -4784086.3852272034 -83203945.491681576 0 -83203945.491681576 -50640896.984571457 0 0 0 0 -1748571.9427471161 601724.15523910522 0 601724.15523910522 -24558620.525771558 0 0 0 0 1784617.4026036072 -930377.93634011631 0 -930377.93634011631 -4195690.7848407095 0 0 0 0 -24557311.182393074 -16138213.151422739 0 -16138213.151422739 -6136760.4904108047 0 0 0 0 53483700.302183151 7727626.8686189651 0 7727626.8686189651 -12985736.15534234 0 0 0 0 63689540.932566643 -7297324.2442035675 0 -7297324.2442035675 6028227.7370815277 0 0 0 0 34503232.463531494 -20723378.790675163 0 -20723378.790675163 49845743.887346745 0 0 0 0 12649685.211196899 7780656.2108507156 0 7780656.2108507156 -207148046.15026188 0 0 0 0 -34860716.379049301 -19913707.060446262 0 -19913707.060446262 -60193336.568792343 0 0 0 0 -1086637.9796340438 1086894.2878528242 0 1086894.2878528242 -468426.15894031548 0 0 0 0 -130636484.41584396 2026176.2103681564 0 2026176.2103681564 182602464.3248148 0 0 0 0 -20657613.601589203 -50215904.599038124 0 -50215904.599038124 -160677570.47989273 0 0 0 0 9505129.1838922501 31554407.029211044 0 31554407.029211044 -57833815.794815063 0 0 0 0 22610634.568037987 10298747.080302238 0 10298747.080302238 -24523971.241153717 0 0 0 0 14195740.427229881 -26995077.429053307 0 -26995077.429053307 -125901714.92948341 0 0 0 0 -40947652.670383453 17674940.982771873 0 17674940.982771873 -21088366.554138184 0 0 0 0 -24420418.841031551 -28240193.924105167 0 -28240193.924105167 -81478781.46099472 0 0 0 0 -14290664.113229752 -285915.6563243866 0 -285915.6563243866 -34265538.157962799 0 0 0 0 -3924491.7990954369 -36435979.496092737 0 -36435979.496092737 -27063964.149979591 0 0 0 0 -8180248.8824014664 18395164.76347208 0 18395164.76347208 -141129365.98431015 0 0 0 0 -1214098.8310023916 1146190.9984175423 0 1146190.9984175423 -1037850.8839092641 0 0 0 0 9659086.8121099472 26772127.925788879 0 26772127.925788879 -148062695.00755501 0 0 0 0 -15580493.122718811 62645230.253118515 0 62645230.253118515 -126939698.49170685 0 0 0 0 -10537584.497380257 10196147.1082654 0 10196147.1082654 -70016592.405490875 0 0 0 0 -8183228.9384841919 5792577.8245162964 0 5792577.8245162964 -85990125.673764229 0 0 0 0 10960300.566150188 -29130495.116672039 0 -29130495.116672039 -64525283.751220703 0 0 0 0 -2186416.5159541368 -14228723.774539471 0 -14228723.774539471 -64820582.535037994 0 0 0 0 6687586.695728302 7671716.8205223083 0 7671716.8205223083 -76415203.209497452 0 0 0 0 4150632.2070064545 2037052.694480896 0 2037052.694480896 -63528771.619416237 0 0 0 0 -1749905.0946338177 4891759.8992605209 0 4891759.8992605209 -42973633.845742226 0 0 0 0 11333155.116811752 6954545.83689785 0 6954545.83689785 -60781163.230132103 0 0 0 0 10941930.315424919 1815897.9632668495 0 1815897.9632668495 -66216144.391407013 0 0 0 0 3167729.5271315575 14694709.238342285 0 14694709.238342285 -74042755.456052303 0 0 0 0 -32765855.934841633 32706725.249735832 0 32706725.249735832 -38177302.487985611 0 0 0 0 -1428328.1126918793 12474540.667309761 0 12474540.667309761 -48538375.468114853 0 0 0 0 105457.89982247353 6612752.0339708328 0 6612752.0339708328 -42378931.412698746 0 0 0 0 145304999.15145683 145924285.57120514 0 145924285.57120514 -121377276.81471634 0 0 0 0 230706244.31092548 -77779662.765802383 0 -77779662.765802383 -70025646.793575287 0 0 0 0 -898953.13264334202 16104286.539975882 0 16104286.539975882 -59773499.738296509 0 0 0 0 -2088729.4411487579 5548720.3456001282 0 5548720.3456001282 -49007435.275051117 0 0 0 0 5667811.283155283 -474876.42815687694 0 -474876.42815687694 -17033381.48746207 0 0 0 0 5877511.0794261564 1795883.7047847155 0 1795883.7047847155 -14203060.24223076 0 0 0 0 -9381716.6986942291 -14906642.988935471 0 -14906642.988935471 -33916376.370078087 0 0 0 0 22168699.442680359 -12375160.928535461 0 -12375160.928535461 -58307956.667497635 0 0 0 0 55270544.46733284 -72768607.551074982 0 -72768607.551074982 70738376.394317627 0 0 0 0 7311646.540805053 -1443028.0536392422 0 -1443028.0536392422 -20703784.454579804 0 0 0 0 31076858.825444221 -30088307.27280426 0 -30088307.27280426 -4437849.3982391357 0 0 0 0 4607933.9782386273 635178.51173686981 0 635178.51173686981 -20141214.997942686 0 0 0 0 3197408.5893010432 10120961.473558506 0 10120961.473558506 -17534967.594016444 0 0 0 0 -19299643.092633247 23476612.840379715 0 23476612.840379715 24129306.099168777 0 0 0 0 2338152.3562654257 4252816.6759513617 0 4252816.6759513617 -19874789.21816206 0 0 0 0 11377611.206504801 -4091712.2566336691 0 -4091712.2566336691 -18493230.684266645 0 0 0 0 30898447.887191772 24499984.906797409 0 24499984.906797409 -30484626.509513855 0 0 0 0 11016188.210172653 10696347.486738205 0 10696347.486738205 -20320450.075367451 0 0 0 0 2519106.629874358 3926190.0346775954 0 3926190.0346775954 -22829702.314920995 0 0 0 0 1288235.3894424438 5873495.2007350922 0 5873495.2007350922 -17667373.650617599 0 0 0 0 11096639.834869623 3611208.7986450195 0 3611208.7986450195 -24451060.265546799 0 0 0 0 5268061.7565527745 3631363.6650169007 0 3631363.6650169007 -29085190.770244088 0 0 0 0 2934829.503852101 10423020.97846215 0 10423020.97846215 -19483701.580399159 0 0 0 0 8615591.2443203926 28632591.694388151 0 28632591.694388151 -3023005.6733913422 0 0 0 0 4783952.4285192043 -42556.485155105591 0 -42556.485155105591 -17988018.691707611 0 0 0 0 11608482.288811684 1525158.5102686882 0 1525158.5102686882 -13031577.137233734 0 0 0 0 11004386.680597782 -3398683.9477829933 0 -3398683.9477829933 -16347194.292704582 0 0 0 0 6366938.3951815479 1868511.385224903 0 1868511.385224903 -23952234.812104497 0 0 0 0 69187414.250360489 -26851851.312875748 0 -26851851.312875748 -39883905.344009399 0 0 0 0 67727115.429711342 -22134710.483543873 0 -22134710.483543873 -52428418.265285492 0 0 0 0 58932790.958885193 -37093246.005570412 0 -37093246.005570412 -4848659.4229202271 0 0 0 0 58806681.400213242 -27633581.186100006 0 -27633581.186100006 -38995599.106620789 0 0 0 0 73962846.398757696 -15044152.001042724 0 -15044152.001042724 -58023677.382919312 0 0 0 0 69984161.32983017 -52029632.374883652 0 -52029632.374883652 -43195434.846996307 0 0 0 0 62556345.570254326 -31275767.771250725 0 -31275767.771250725 -67394826.680206299 0 0 0 0 18062286.564317703 13238212.470258713 0 13238212.470258713 -27405233.718748093 0 0 0 0 2342046.525387764 -16227429.147663116 0 -16227429.147663116 -47683028.435281754 0 0 0 0 55708435.756677628 -8546703.5570068359 0 -8546703.5570068359 -58648215.170656681 0 0 0 0 96644849.055397034 61918219.073354721 0 61918219.073354721 -49677662.678390503 0 0 0 0 9650161.1424797587 2816484.5664947741 0 2816484.5664947741 -42782013.975725561 0 0 0 0 10419572.038835306 -998520.97595316544 0 -998520.97595316544 -28071879.309733577 0 0 0 0 11414885.4470644 3174084.4978485107 0 3174084.4978485107 -19491842.886738777 0 0 0 0 24737026.819461823 1814601.8448867798 0 1814601.8448867798 -39819525.246948242 0 0 0 0 -15452983.978788614 20709069.421206951 0 20709069.421206951 -46987482.221084595 0 0 0 0 4668476.1862901803 16095021.783417631 0 16095021.783417631 -35400855.38222079 0 0 0 0 -29209873.960380554 17924568.087295532 0 17924568.087295532 -34011589.70891571 0 0 0 0 125718.29587443545 -14700.972908783704 0 -14700.972908783704 -2651409.1421301607 0 0 0 0 17565773.67855987 -87536192.370179057 0 -87536192.370179057 -35273747.193893433 0 0 0 0 2416883.0134140924 -1042253.9716867842 0 -1042253.9716867842 -3452569.549085699 0 0 0 0 20464099.976392269 34100031.603109717 0 34100031.603109717 -104320280.83108521 0 0 0 0 2442959.9879264832 -15257657.139091492 0 -15257657.139091492 -151820433.0947876 0 0 0 0 16665428.79233551 -13032121.882095337 0 -13032121.882095337 27663349.825439453 0 0 0 0 46886004.772392273 -6166285.3220825195 0 -6166285.3220825195 -156544614.01956177 0 0 0 0 12675139.822357178 37411463.432700157 0 37411463.432700157 -157476169.47727966 0 0 0 0 314255.63591269962 -1555219.0430146456 0 -1555219.0430146456 2666821.7182927206 0 0 0 0 14732534.906543732 12543312.864561081 0 12543312.864561081 -23120209.981666565 0 0 0 0 10370874.24130249 29332791.847122192 0 29332791.847122192 -129527737.55392456 0 0 0 0 8102468.8398391586 2606622.3426419133 0 2606622.3426419133 -36601871.915762447 0 0 0 0 7525264.3684921265 2730257.6474075317 0 2730257.6474075317 -23143950.359104156 0 0 0 0 6559439.159015595 10645038.934625506 0 10645038.934625506 -44943411.928049155 0 0 0 0 29589530.688405991 15077794.026422501 0 15077794.026422501 -40190410.623218536 0 0 0 0 -10780773.822792053 16965686.296005249 0 16965686.296005249 -17494420.484680176 0 0 0 0 1226973.6514169034 2449792.4078297094 0 2449792.4078297094 -3957380.378724521 0 0 0 0 2999106.1986397607 18004123.85550813 0 18004123.85550813 -16003405.382322604 0 0 0 0 6553593.3884275667 1107172.6231790008 0 1107172.6231790008 -20199622.254897714 0 0 0 0 20827429.130233288 7005625.8944568634 0 7005625.8944568634 -25633227.481582642 0 0 0 0 16767274.117835999 -729276.85851716995 0 -729276.85851716995 -21922301.507084846 0 0 0 0 13862469.533290863 2096708.6164665222 0 2096708.6164665222 -26486288.280766487 0 0 0 0 5641265.7199044228 5649748.7288475037 0 5649748.7288475037 -19557084.523159027 0 0 0 0 2995226.2800215743 2251988.5132535677 0 2251988.5132535677 -17895320.036337487 0 0 0 0 10664773.381311893 8566310.4171352386 0 8566310.4171352386 -20261433.031383514 0 0 0 0 23835193.316612244 -1079073.1783695221 0 -1079073.1783695221 -18940405.521438599 0 0 0 0 4696628.6238396084 -247714.17514859277 0 -247714.17514859277 -14728650.740870742 0 0 0 0 30397665.471384138 -2536639.7497870922 0 -2536639.7497870922 -27238347.90058136 0 0 0 0 4572661.8060229113 1000191.7659500991 0 1000191.7659500991 -28880548.25176806 0 0 0 0 16966756.843301296 -9806095.6280097961 0 -9806095.6280097961 -23502359.116210461 0 0 0 0 32535965.856911927 -4053619.2362334728 0 -4053619.2362334728 -25571922.560722351 0 0 0 0 9472442.6601395886 -7248078.7864391562 0 -7248078.7864391562 -26576405.340861052 0 0 0 0 20603646.477294207 1632159.940942049 0 1632159.940942049 -40653733.185089111 0 0 0 0 24436309.279483795 5859327.5946960449 0 5859327.5946960449 -39759099.070220947 0 0 0 0 20599865.540060043 5438288.4386367798 0 5438288.4386367798 -38191427.358718872 0 0 0 0 18353324.944843292 723765.2484664917 0 723765.2484664917 -39317063.572040558 0 0 0 0 20236481.672151566 1117406.6130332947 0 1117406.6130332947 -50848615.153335571 0 0 0 0 12048115.742311478 -4845860.8378753662 0 -4845860.8378753662 -39458218.420021057 0 0 0 0 62369671.985507965 -24427510.443313599 0 -24427510.443313599 -16884289.684688568 0 0 0 0 10339851.104375839 -7021788.2849388123 0 -7021788.2849388123 -41533647.248580933 0 0 0 0 9553007.427596733 -11684865.520544257 0 -11684865.520544257 -28237845.671135142 0 0 0 0 57519432.831796646 -12532227.823532104 0 -12532227.823532104 -9058472.7526245117 0 0 0 0 7392340.3993449342 2093198.0316240904 0 2093198.0316240904 -27960282.733410075 0 0 0 0 -773433.04273276031 8301085.4629295841 0 8301085.4629295841 -18300526.148492008 0 0 0 0 34896122.982681274 12186227.747039795 0 12186227.747039795 -50659421.961975098 0 0 0 0 -8630424.0991172791 65397456.854202271 0 65397456.854202271 -70490140.564808846 0 0 0 0 14991783.513656616 54625589.613937378 0 54625589.613937378 -102987557.0017395 0 0 0 0 -15988468.532524109 20963224.449462891 0 20963224.449462891 -49907284.185058594 0 0 0 0 -55399087.97057724 34436171.339279175 0 34436171.339279175 -53826755.225006104 0 0 0 0 1767461.2704458432 -10518817.560122384 0 -10518817.560122384 2556926.4821905196 0 0 0 0 9553413.9406085182 3207292.7743233163 0 3207292.7743233163 -45570552.432316527 0 0 0 0 134562606.24585724 -14978394.82421875 0 -14978394.82421875 -53552748.55947876 0 0 0 0 40529631.670635223 35944841.470024109 0 35944841.470024109 -48133967.166976929 0 0 0 0 -83822322.27072525 68334575.675453186 0 68334575.675453186 -79671582.146331787 0 0 0 0 8861125.3133311383 21469901.990153942 0 21469901.990153942 -73793345.029063135 0 0 0 0 2938902.6805826006 15908713.115418535 0 15908713.115418535 -42943277.364682779 0 0 0 0 71715774.050827026 -104054475.74975586 0 -104054475.74975586 904998959.56005859 0 0 0 0 94658040.4298172 -9158649.6018753052 0 -9158649.6018753052 -72240652.442430496 0 0 0 0 -18205176.114974737 52745231.676029682 0 52745231.676029682 -47240141.705291748 0 0 0 0 52242276.02665329 175270566.26992798 0 175270566.26992798 -1458246872.2891846 0 0 0 0 28935871.397453308 26167158.709777832 0 26167158.709777832 -105634136.55487061 0 0 0 0 -15241775.174751282 71588897.015716553 0 71588897.015716553 -152333383.25253296 0 0 0 0 34237941.104431152 -83734448.075836182 0 -83734448.075836182 -171595587.65385437 0 0 0 0 4851595.8946039677 -24385565.456969738 0 -24385565.456969738 -39087057.426467896 0 0 0 0 4924185.7457165867 2559148.6687124595 0 2559148.6687124595 -12953802.980676666 0 0 0 0 12269208.625267982 55957210.936473846 0 55957210.936473846 -89572704.472244263 0 0 0 0 9624728.2019022834 4618655.1866913512 0 4618655.1866913512 -47667043.506944537 0 0 0 0 36305367.032855988 62573450.069915771 0 62573450.069915771 25353574.602050781 0 0 0 0 4994012.2456380129 -26833735.964223623 0 -26833735.964223623 -73295838.354751587 0 0 0 0 18913644.543476105 -15903921.428665161 0 -15903921.428665161 -64714368.998031616 0 0 0 0 63382609.191505432 52328557.327194214 0 52328557.327194214 -107936074.79988098 0 0 0 0 104495457.43613243 32168845.959395409 0 32168845.959395409 -108068354.86968994 0 0 0 0 103309659.33741713 41165753.702249527 0 41165753.702249527 -99225852.011077881 0 0 0 0 149119930.67939758 46988194.567520142 0 46988194.567520142 -107579170.23080444 0 0 0 0 52795523.855545044 44570021.942092896 0 44570021.942092896 -90064515.781295776 0 0 0 0 96172152.557647705 27349691.525543213 0 27349691.525543213 -83235598.494735718 0 0 0 0 58456113.905128479 36012628.543212891 0 36012628.543212891 -96097892.59173584 0 0 0 0 41381185.306137085 32839266.212768555 0 32839266.212768555 -57596840.61227417 0 0 0 0 75143466.622749329 -13927630.286483765 0 -13927630.286483765 5076822.6429138184 0 0 0 0 97518514.46745491 27098564.210998535 0 27098564.210998535 -100594837.2588501 0 0 0 0 89018235.448677063 -3649346.8858795166 0 -3649346.8858795166 -85046836.360519409 0 0 0 0 109359521.87317657 3170838.080291748 0 3170838.080291748 -85651775.483291626 0 0 0 0 117038627.4322443 -18913716.301269531 0 -18913716.301269531 -122247118.53411865 0 0 0 0 120894314.81903458 -20977111.973739624 0 -20977111.973739624 -128542768.7444458 0 0 0 0 132647287.3159256 -74170480.925476074 0 -74170480.925476074 -156186826.95179749 0 0 0 0 45946868.134593964 -84699918.279815674 0 -84699918.279815674 -124374900.41604614 0 0 0 0 47500636.15017128 -123273784.60834265 0 -123273784.60834265 -87874205.432525635 0 0 0 0 306523031.15938568 -161362008.18011475 0 -161362008.18011475 -189442313.18869019 0 0 0 0 194805965.0725069 -58767117.046840668 0 -58767117.046840668 -157085246.80966187 0 0 0 0 142662953.86241722 -181455194.81884766 0 -181455194.81884766 -185287563.33569336 0 0 0 0 168356288.23109436 -33098870.130020142 0 -33098870.130020142 -180824052.17200565 0 0 0 0 187720516.67711067 -6187974.7114944458 0 -6187974.7114944458 -143535292.17855835 0 0 0 0 -26609610.109323502 -150327769.32226562 0 -150327769.32226562 -26885182.401908875 0 0 0 0 -62829180.567047119 -106394344.26404572 0 -106394344.26404572 -51473471.436096191 0 0 0 0 -28796317.718467712 -163859888.19932556 0 -163859888.19932556 -109463323.92080688 0 0 0 0 -546906415.2326889 -215763557.02170563 0 -215763557.02170563 43121708.290336609 0 0 0 0 1483295.132212949 -218232.06752083637 0 -218232.06752083637 80831.05714315176 0 0 0 0 -344163643.17729568 -541477692.73628235 0 -541477692.73628235 417533164.21841431 0 0 0 0 51579892.286094666 -421896133.14076233 0 -421896133.14076233 24155946.28767395 0 0 0 0 324598586.53573227 -589861341.88642883 0 -589861341.88642883 -8420355.7694511414 0 0 0 0 304521548.49211884 -169294196.93968201 0 -169294196.93968201 291125589.05244064 0 0 0 0 345320488.6017704 -478247055.77722168 0 -478247055.77722168 -483149796.60247803 0 0 0 0 182419897.08626175 89675352.286727905 0 89675352.286727905 -83819980.396499634 0 0 0 0 347093979.77799988 3661615.0997467041 0 3661615.0997467041 -180087020.21831918 0 0 0 0 255948847.25748444 -102930452.02176666 0 -102930452.02176666 -252739752.45603943 0 0 0 0 836861799.79742432 -5019994.8333435059 0 -5019994.8333435059 -237743238.8756485 0 0 0 0 946487013.08968735 406019679.99433899 0 406019679.99433899 -49099214.984176636 0 0 0 0 1388216967.3576317 -210971519.3528595 0 -210971519.3528595 -449836146.39962578 0 0 0 0 253637135.28794861 149399874.91838074 0 149399874.91838074 -140540981.56207275 0 0 0 0 189478756.92822647 85569985.273696899 0 85569985.273696899 -84040082.924926758 0 0 0 0 509574232.66452026 -1034730090.567688 0 -1034730090.567688 1207472028.8534164 0 0 0 0 164204161.93093395 272735436.38965607 0 272735436.38965607 187550258.13162231 0 0 0 0 5382384.7656407654 -1522242.7442584112 0 -1522242.7442584112 -2659882.5468252897 0 0 0 0 1299597252.6690164 -1643676695.7843084 0 -1643676695.7843084 -1405992584.4455261 0 0 0 0 662971371.57245255 -161391561.20296478 0 -161391561.20296478 116028812.41582489 0 0 0 0 4822675.8789836057 4628105.8149361219 0 4628105.8149361219 -4491921.1132576615 0 0 0 0 1323737294.4345932 -138214401.14528656 0 -138214401.14528656 -603864717.48953247 0 0 0 0 700932454.22795868 -209391937.90673447 0 -209391937.90673447 -23249980.86100769 0 0 0 0 244476081.78157806 -214312734.19235229 0 -214312734.19235229 224639545.12760925 0 0 0 0 -544884116.49503613 -788657788.08989334 0 -788657788.08989334 34213931.754394531 0 0 0 0 217919824.5401268 -263456090.73472595 0 -263456090.73472595 -383580480.9443512 0 0 0 0 2371465.818714112 2189165.3362691831 0 2189165.3362691831 -1881246.5499030054 0 0 0 0 947888779.55589104 -860105074.53248596 0 -860105074.53248596 -158937235.63803101 0 0 0 0 938434460.41877747 423577323.5696106 0 423577323.5696106 2509315325.0778198 0 0 0 0 95474864.641685486 -608120623.86221313 0 -608120623.86221313 470698988.36231995 0 0 0 0 215869599.58421707 10784271.234146118 0 10784271.234146118 -235630507.59577942 0 0 0 0 972647012.97838974 320663283.53481293 0 320663283.53481293 -295989022.93035889 0 0 0 0 -1030392057.3219452 -913047828.04562759 0 -913047828.04562759 -703323028.38450623 0 0 0 0 212143042.30862427 275183158.79962158 0 275183158.79962158 -1849963611.2484131 0 0 0 0 -974574635.29442406 1367606028.2544632 0 1367606028.2544632 -988908901.15539551 0 0 0 0 -16277567.15596962 632554919.55871582 0 632554919.55871582 -425147910.72162628 0 0 0 0 -74652965.853509903 560234856.94467735 0 560234856.94467735 -231947919.16213989 0 0 0 0 914615011.89751816 -229347483.89100647 0 -229347483.89100647 -449694630.19534302 0 0 0 0 -523773529.15363359 644433666.03097486 0 644433666.03097486 -252309175.79959106 0 0 0 0 596432846.46644592 -337460604.24310684 0 -337460604.24310684 20894744.007522583 0 0 0 0 3004993.8640767997 3030947.8103517732 0 3030947.8103517732 -3127781.3789099157 0 0 0 0 143080900.69552803 490355937.56785965 0 490355937.56785965 -484220575.30480957 0 0 0 0 262196704.67304993 43462712.878112793 0 43462712.878112793 -326841685.87104797 0 0 0 0 452124634.93706894 -138043529.66495514 0 -138043529.66495514 -211588479.7950058 0 0 0 0 261205957.56510544 -219489969.59535217 0 -219489969.59535217 39780747.643630981 0 0 0 0 315400428.03774452 -112208476.21065331 0 -112208476.21065331 -107638818.5634613 0 0 0 0 168658647.31555176 -104343506.72581482 0 -104343506.72581482 -87579335.015411377 0 0 0 0 181338719.90667057 -21000792.950492859 0 -21000792.950492859 -69705212.660949707 0 0 0 0 252544636.40747452 -25040441.630336761 0 -25040441.630336761 -73126003.009490967 0 0 0 0 25962554.84563446 13401646.92276001 0 13401646.92276001 -17022228.476242065 0 0 0 0 2692463.3367092111 20417304.547420513 0 20417304.547420513 -23094094.015488669 0 0 0 0 22843571.435451508 16297301.327217102 0 16297301.327217102 -18159816.598464966 0 0 0 0 62474717.274780273 -8330444.0531768799 0 -8330444.0531768799 -10720947.86416626 0 0 0 0 19151139.011643328 5088869.607048586 0 5088869.607048586 -14506014.710687093 0 0 0 0 102397545.14438629 -9392217.9538192749 0 -9392217.9538192749 -25723936.878463745 0 0 0 0 26675010.17276001 -2839947.3106079102 0 -2839947.3106079102 -24125111.501464844 0 0 0 0 25004378.843727112 9615481.7645797729 0 9615481.7645797729 -23082416.954772949 0 0 0 0 29204259.4008255 19500569.65537262 0 19500569.65537262 -30855720.401367188 0 0 0 0 -92674.382404636592 359849.23435055465 0 359849.23435055465 -1323669.4164737873 0 0 0 0 10014338.586304927 -2240797.1170959417 0 -2240797.1170959417 -28591676.08085379 0 0 0 0 9892672.0528833084 4171673.8737673797 0 4171673.8737673797 -36242443.497580037 0 0 0 0 21171505.638008118 1137237.532989502 0 1137237.532989502 -26572768.064102173 0 0 0 0 7902263.6973648071 -4173978.4669647217 0 -4173978.4669647217 -59273833.143585205 0 0 0 0 16665033.630439758 4804514.9324569702 0 4804514.9324569702 -50695427.275701523 0 0 0 0 -165428.08331298828 10289364.573364258 0 10289364.573364258 -75917727.204086304 0 0 0 0 50782792.367858887 9828517.8996887207 0 9828517.8996887207 -163274003.93128967 0 0 0 0 13778958.865297627 -713277.56601242721 0 -713277.56601242721 -7603932.8654535413 0 0 0 0 -40150836.030714035 -66299310.071842194 0 -66299310.071842194 -56631017.235321045 0 0 0 0 272324259.70541763 -164302588.94009209 0 -164302588.94009209 91040870.48109436 0 0 0 0 58489976.079269409 -84111462.260040283 0 -84111462.260040283 90002366.139762878 0 0 0 0 
</DataArray>
<DataArray type="Float64" Name="cross_section_updated" format="ascii">
1 1 0.048669932008176708 1 1 1 1 0.048672748283952946 1 1 1 1 1 1 1 1 1 1 1 1 0.044994391982699486 1 1 1 1 0.044984913923457062 1 1 1 1 1 1 1 0.044750741368097452 1 1 1 1 1 1 1 1 0.038715142313591716 1 1 1 1 1 1 1 1 1 1 1 0.037463613850163058 0.051694763687803819 1 1 1 1 1 1 1 1 0.026890161220098394 1 1 1 1 1 1 1 1 1 1 1 1 1 1 1 1 1 1 1 1 1 1 0.033001147049752808 1 1 1 1 1 1 1 1 1 1 1 0.044930896471371926 1 1 1 0.047913203772980625 1 1 1 1 1 1 1 1 1 1 1 1 1 1 1 1 1 1 1 1 1 1 1 1 1 1 1 1 1 1 1 1 1 1 1 1 1 1 1 1 1 1 1 1 1 0.050243053250225579 1 0.044981236820030052 1 1 1 1 1 1 1 1 1 1 1 1 1 1 1 1 1 1 1 1 1 1 1 1 1 1 0.047020179844911823 1 1 0.049426818745568056 1 0.048332947947148944 1 1 1 1 1 1 1 1 1 1 1 1 1 1 0.055863962089283015 1 0.038413173379471907 1 1 1 1 1 1 1 0.042899917749771151 1 0.037163824996334298 1 1 1 1 1 1 0.05176261473202054 1 1 0.035499621447736357 1 1 1 1 1 1 0.030001319936521886 0.017551748709236471 1 1 0.050529724316090666 1 0.032859691534688762 1 0.049914635003292969 0.04283285113766442 1 1 1 0.030107404504812869 1 1 1 1 1 1 1 1 1 1 1 1 1 0.011107483622544961 1 1 1 1 1 1 1 0.004888508296769456 1 1 1 1 1 1 1 0.00073138334377670366 1 1 1 1 0.047759192963246308 1 1 1 1 1 1 0.050120939492277389 1 1 1 0.043768922209891759 1 1 1 1 1 1 1 0.040773591974031548 1 1 1 1 1 1 0.051931374998799462 1 1 1 1 1 1 0.047271289651934223 1 1 1 1 1 1 1 0.046806491789452065 1 1 1 1 1 1 1 1 1 1 1 1 1 1 1 1 1 1 1 1 1 0.041698014605113548 0.049837106769072638 1 1 1 1 1 0.058839065319453543 1 1 1 1 1 1 1 0.034488294244053835 1 0.064654473485277766 1 1 1 0.045837517392550223 1 1 1 0.049229841073626823 1 0.049968751800807176 1 1 1 1 1 1 1 0.014907895385537231 1 1 1 1 1 1 1 -1.3877787807814457e-17 1 1 1 0.04954953661501843 1 1 1 1 1 1 1 1 1 1 1 1 1 1 1 1 1 1 1 1 1 1 1 1 1 1 1 1 1 1 1 1 0.0091436984540485267 1 1 1 1 1 1 1 1 1 1 1 1 1 1 1 1 1 1 1 1 1 1 1 1 1 1 1 1 1 1 1 1 0.050460222970628799 1 1 1 1 1 1 1 1 1 1 1 1 1 1 1 1 1 1 1 1 0.050295199766054441 1 1 1 1 1 1 1 0.049506001711653647 1 1 1 1 1 0.048730594150568241 1 1 0.049986488122219577 1 0.04861158857528719 1 1 1 1 0.046206558095320191 1 1 0.043803282875156842 1 1 1 1 1 1 0.043589790819939342 1 1 1 1 1 1 1 1 1 1 1 1 1 1 1 1 1 1 1 0.043678476849325333 1 1 1 1 1 1 1 1 1 1 1 0.048433932040466261 0.045355714045819784 1 1 1 1 1 1 1 1 1 1 1 1 1 1 1 1 1 1 1 1 1 0.05028890775200736 1 0.049930960370847099 0.051478991746930304 1 1 0.04928390473793362 1 1 1 1 1 1 1 1 1 1 1 1 1 0.053504852386924637 1 1 1 1 1 1 1 0.053338864860924234 0.053028195706939799 1 1 1 1 1 1 1 1 0.048824704782601203 0.04956862524701601 1 1 1 0.051475918684972033 1 1 1 1 1 1 1 1 1 1 1 1 1 1 1 1 1 1 1 1 1 1 1 1 1 1 1 1 1 1 1 1 1 1 1 0.050391031627903524 1 1 0.050032285602570031 1 1 1 1 0.049850443665056685 1 1 1 0.050111483615997029 1 1 1 0.050055119222691853 1 1 0.05005641091856719 1 1 1 1 1 1 1 1 1 1 1 1 1 1 1 1 1 1 1 1 1 0.049790185329138717 1 1 1 0.049798703393725705 1 1 1 1 1 0.049578493489875336 1 1 1 1 1 1 0.049939514095465029 1 1 1 1 1 1 1 1 1 1 1 1 1 1 1 1 1 1 0.04993099168443256 1 1 1 1 1 1 1 1 1 1 1 1 1 1 1 1 1 1 1 1 1 0.04981815806248667 1 1 1 1 1 1 1 1 1 1 1 1 1 1 1 0.049824555802899795 1 1 1 1 1 1 1 1 1 1 1 1 1 1 1 1 1 1 0.038360375553290083 1 1 1 1 1 1 1 0.049754030245422076 1 1 1 1 1 1 1 1 1 1 1 1 1 1 1 1 1 1 1 1 1 0.047343788908075807 1 1 1 1 1 1 1 1 1 0.042522537754991208 1 1 1 1 1 1 1 1 0.004134901013622988 1 1 1 1 1 1 1 1 1 1 1 1 1 1 1 1 1 1 1 0.0038424522359258168 1 1 1 1 1 5.5511151231257827e-17 1 1 1 0.050173686457583938 1 1 1 1 1 1 0.046945673191033259 1 1 1 1 1 1 1 1 1 1 0.047807164666449492 1 1 1 1 1 1 1 1 1 1 1 1 0.048583772394417357 1 0.043034599099988607 1 1 1 1 1 1 1 0.0029935983320146693 1 0.047270692094429398 1 1 1 1 1 1 1 1 1 1 1 1 1 1 1 1 1 1 1 1 1 1 1 1 1 1 1 1 1 1 1 1 1 1 1 1 1 1 1 1 1 1 1 1 1 0.043474590154272033 0.044169100652355034 1 1 0.04981823098678799 1 1 1 1 1 1 1 1 1 1 1 1 1 1 1 1 0.051085663229020035 1 1 1 1 3.4694469519536142e-17 1 1 0.049290566544126571 1 1 1 1 1 1 0.0066600850835338288 1 0.01121331318077215 1 1 0.050226254082740028 1 1 1 1 1 1 1 1 1 1 0.049829742591378748 1 1 1 1 1 0.044708356009173521 0.049946330334498572 1 1 1 1 0.031963489032638639 1 1 0.02999678527138791 1 0.03767069675497791 1 1 1 1 1 0.046208809556295298 1 1 0.049985880335800453 1 1 1 1 1 1 1 1 1 1 1 1 0.047897960067056544 1 1 1 1 1 1 1 1 1 1 1 1 1 1 1 0.048041799221880475 1 0.049996859655948099 1 0.046216387018472666 0.046317221302977274 1 0.046583012152194792 1 1 0.04995612947856324 1 1 1 1 1 1 0.060772614294511446 1 0.050175125946853458 1 1 0.061893692865076691 1 1 1 0.029369284612037 1 1 0.049949277948457493 1 1 1 1 1 0.043127233763080988 1 1 0.046096433889767544 1 1 1 1 1 0.049357459623707946 1 0.032969200761840622 1 1 0.030914617138074071 1 1 0.042772000387495165 1 1 1 1 1 1 1 1 0.045150281361139646 1 1 1 1 1 1 1 1 1 1 0.047397234282763434 1 1 1 1 0.052101719374239464 1 1 0.056898892517622965 1 1 1 1 1 0.033738909588793872 1 1 1 1 1 0.050007722317756353 1 0.050306697898181041 1 1 1 1 1 1 0.049254992332521175 1 1 1 1 1 1 1 1 0.037256390646571526 0.040835714522439726 0.04949025455794203 1 1 1 1 0.038462842516191698 1 0.049953354221869771 1 1 1 0.027088992001401184 0.049961016377702464 1 1 1 0.047277873428865733 1 1 1 0.040716489270974543 1 0.050075163740319312 1 0.047566715099691334 0.032411039804352754 1 0.050001077608667011 1 1 1 1 0.039979768230690244 1 1 1 0.049422270917964251 1 0.047218559303858418 1 0.034158853726890773 1 1 1 1 1 1 1 0.049707405548552228 1 1 1 1 0.033348253957030199 1 1 1 1 1 1 1 1 0.05001455143154189 1 0.049041308459577299 0.048519416499150383 1 1 1 0.048419794232624339 1 1 1 1 0.048727481039613191 0.046178665060383386 1 1 0.033364477020557892 0.049852554638559976 1 1 1 1 1 0.049942269123634683 1 1 1 1 1 1 1 1 0.049942750458036707 1 0.049891052591638507 1 1 1 1 1 1 1 1 1 1 1 1 1 1 1 1 1 0.049949305050276255 1 1 1 1 1 1 1 1 1 1 1 1 1 1 1 1 1 1 1 1 1 1 1 1 1 0.050047216640669724 1 0.049837825402976474 1 1 1 1 1 0.05000333854871937 0.049988271960070801 1 1 1 1 0.047966532303714074 0.050560794425185566 1 0.051789253560197694 1 1 0.048143600706316701 1 1 0.049601135042062913 1 1 1 1 0.048789324516034904 0.050120738770324497 1 1 1 1 1 1 1 1 0.0500041088381179 1 1 0.050017025017052283 1 1 1 0.050002375535816046 1 1 0.050006259254545674 1 1 1 1 1 1 0.050103780606578094 1 1 1 1 1 1 0.048855924656998409 1 1 1 1 1 0.050370834036226837 1 1 0.049123349616557926 0.048343005270091846 1 1 0.048364710453970249 1 1 0.049991687779022714 1 1 1 1 1 1 1 1 1 1 1 1 0.04953915004048625 1 0.046390950010081297 1 1 0.04823843750981098 1 1 1 1 1 1 0.050014146424547462 1 1 1 0.049562261153257417 0.048832952535833779 0.049996154792302752 1 1 1 0.038384033736158132 0.051307038643789965 1 0.047044934006290826 0.045034022648937307 1 1 0.049221994639262599 1 1 0.049537643266302653 1 0.049446957599629963 1 0.051182391624911013 1 1 1 0.047418605631195279 0.049598309603320193 1 1 0.046632237631377277 0.05156285009272718 0.050413292694900191 0.050101241945960898 1 1 1 0.050899484416689053 0.047861877100215014 1 1 0.049772675719490331 0.049266833802198498 0.048043614568447725 1 0.053297225958531411 0.047637145830783531 1 1 0.04226751060944102 1 0.048805265192201699 0.046386662407059284 1 0.043612082524992185 1 1 0.050570004265610029 1 0.046530963886124349 0.049920156629356463 1 1 1 1 0.049434388213474789 0.048605255947074898 1 1 0.050037796637241685 1 1 1 0.049605971010839606 1 1 1 1 1 1 1 1 1 1 1 1 1 1 1 1 1 1 1 1 1 1 1 1 1 1 1 1 1 1 1 1 1 1 1 1 1 1 1 1 1 1 1 1 1 1 1 1 1 1 1 1 1 1 1 1 1 1 0.040417622143754418 1 0.047723202395784661 1 1 1 1 1 1 1 1 1 1 1 1 1 1 0.043183020491257891 1 1 1 1 1 1 1 1 1 1 0.046494817154192486 1 1 1 1 1 1 1 1 1 1 1 1 1 1 1 1 1 1 1 1 1 1 1 1 1 1 1 1 1 1 1 1 1 1 1 1 1 1 1 1 1 1 1 1 1 1 0.050308465549148529 1 1 1 0.051242470550571607 1 0.048435700627556699 1 1 1 1 1 0.045913754165655803 1 0.045431462559507925 1 1 1 1 1 1 1 1 1 1 1 1 1 1 1 1 1 1 1 1 1 1 1 1 1 0.048178667759421832 1 1 1 1 1 1 0.037333761633857612 1 0.045522059261212264 1 1 1 0.026564915281402313 1 1 0.030643781755721782 1 1 1 1 1 1 1 1 1 1 1 1 1 1 1 1 1 1 1 1 1 1 1 1 1 1 1 1 1 1 1 1 1 1 1 1 1 0.053780803276663638 1 0.042237931119962019 1 1 1 1 1 1 1 1 1 1 0.050073084999668262 1 1 1 1 1 1 1 1 1 1 1 1 1 1 1 1 1 0.040527546676225087 1 1 1 0.050010988791883502 0.048638953595306685 1 0.051788917210188003 1 1 1 1 1 1 1 1 0.045648294668207315 1 1 1 1 0.046460176777114379 1 1 1 1 1 1 1 0.049980081834993306 1 1 0.025503545443807014 1 0.034602540924646784 1 1 0.049697112653670106 1 1 0.064228324434117356 0.050034110917004944 1 1 1 1 1 1 1 1 1 1 1 1 1 1 1 0.024939296912825714 1 0.056721570397261854 1 1 1 0.037720214494662084 1 0.053525292649703855 1 1 1 1 1 1 1 1 1 1 1 1 0.050102620962773466 1 0.046553417553555805 1 1 1 1 1 1 1 1 0.049591825977592922 1 1 0.049977833188301964 1 1 1 0.038314425851598492 0.042471640204091637 1 1 1 1 1 1 1 1 1 1 1 1 1 1 1 1 1 1 1 1 1 0.049526385215643107 1 1 1 1 1 0.050005455692364614 1 0.050441758870248696 1 1 1 1 0.048474830968093623 1 1 0.041161740368430913 1 1 1 1 1 0.036352575893112582 1 1 1 1 0.032370964451618155 1 1 1 1 1 1 1 0.047337344221392706 1 1 1 0.042890394784703238 1 1 1 1 1 1 1 1 1 1 1 0.044905048975682496 1 1 1 1 1 1 1 1 0.049286754419045009 1 1 1 1 1 1 0.048257611596608914 1 1 1 1 1 1 0.048000670568739148 1 1 1 1 1 1 1 1 1 1 1 0.048687130430422915 1 1 1 0.050328598389671644 1 1 1 0.040454641855595087 1 0.041730853213420988 1 1 1 1 1 1 0.049029813391175257 1 1 1 1 1 1 1 1 1 1 1 1 1 1 1 0.041845908495234715 1 1 1 1 1 0.035942132965331629 1 1 1 1 1 1 1 1 0.044317542229449426 1 1 1 1 1 1 1 1 1 1 1 1 1 1 1 1 0.05136741955674641 1 1 1 1 0.047466926066847416 1 1 1 1 1 1 1 1 1 1 1 1 1 1 1 1 1 1 1 1 1 1 1 1 1 1 0.040259502293453091 1 1 1 0.050060751229271783 1 0.048234989680636109 1 1 1 1 0.044873280263605202 1 0.048082352741348214 1 1 1 1 1 0.049209857111682707 1 1 1 1 1 1 1 1 1 0.038138272064168165 1 1 1 1 1 1 1 1 1 1 1 1 1 1 1 1 1 1 1 1 1 1 1 1 0.052983198566923698 0.047527122551215523 1 1 1 1 1 0.049586485667777111 1 1 1 0.051596792448007245 1 1 1 0.05434302882379384 1 1 0.043175096226463407 1 0.050596536714444411 1 1 1 1 0.050722682858414393 1 1 1 1 0.050923848802597614 0.050076055193010054 1 1 1 1 1 1 1 1 1 1 1 1 0.050612076070003079 1 1 1 1 0.050010413295163099 1 1 1 1 1 0.047309850515655782 1 1 0.049058183214305863 1 1 1 1 1 1 1 1 1 1 1 1 1 1 1 1 0.05004058726211498 1 1 0.049445846818193487 1 1 1 0.048914351018602836 1 1 1 1 1 1 1 1 1 1 1 0.049468504200409359 1 1 1 1 1 1 1 1 1 1 1 1 1 1 1 1 0.04984079778183987 1 1 0.031686357178231518 1 0.043402324936073662 1 1 0.04699510018289671 1 0.049498536952085358 1 0.048383174003720102 1 1 1 1 1 1 1 1 1 1 1 1 1 0.049965601593427764 1 0.047116715511397379 0.050002519293387448 1 1 0.051185211498307508 0.049601017739044108 1 1 0.050000353158524434 0.048836853398521549 1 1 1 0.052336012615716118 1 0.047284284304271611 1 1 0.047990884415504767 1 1 1 1 0.051071087747806165 0.056181841458477377 1 0.041386860010844503 1 1 0.049661695130227931 0.049959889322323002 1 1 0.047707451276887039 1 1 1 0.046592824144484409 1 1 1 0.047727337353159739 0.041714635287582895 0.046929556995532209 1 1 0.047976728235781932 1 0.026405527507810049 0.049972078768405294 1 1 1 1 1 1 1 1 1 1 1 0.048598299303759009 0.047590993432384557 1 0.043670440781447738 1 0.053038857428297892 1 0.049347759357000087 1 1 1 0.049941953818546582 1 1 1 1 1 0.049083305683148892 1 1 1 1 1 1 1 1 1 1 1 1 1 1 1 1 1 1 1 1 1 1 1 1 0.047078943383966017 1 1 1 1 1 1 1 1 1 1 1 1 1 1 1 1 1 1 0.047527948878099899 1 1 1 1 1 1 1 1 1 1 1 0.049526634178856492 1 1 1 1 1 0.050080403314081652 1 1 1 1 1 1 1 1 1 1 1 1 1 1 0.049034656989211084 1 1 1 1 1 1 1 1 1 1 1 1 1 1 0.048881331093643329 1 0.046378945716244166 1 1 1 1 0.047440563829223119 1 1 1 1 1 1 1 1 1 1 1 1 0.045440557645557329 1 0.050125435413570944 1 1 1 1 0.051423862075657474 1 1 1 1 1 1 1 0.048125623482206809 1 1 1 1 1 1 1 0.049999041821510389 1 1 1 0.045213900353715926 1 0.049997555955139328 1 1 1 1 1 1 1 1 1 0.046752040563916963 1 1 1 1 1 1 1 1 1 1 1 1 1 1 1 1 1 1 1 1 1 1 1 1 1 1 1 1 1 1 1 1 1 1 1 1 1 1 1 1 1 1 1 0.049673131717745969 1 1 0.052841504725704092 1 1 1 1 1 1 1 1 1 1 0.049895472504458499 1 1 1 1 1 0.049750131973008184 1 1 0.050920301833715861 1 1 1 1 1 1 0.048138292816763642 1 1 1 1 0.049991310979184841 1 1 0.047363426898724345 1 0.04900896486598541 1 1 1 1 1 1 1 1 1 1 1 0.049271658289899031 1 0.048507784030425161 1 1 1 1 0.049727022324072112 1 1 1 1 1 1 1 1 1 1 1 1 1 1 1 1 1 1 1 1 1 0.047525802962772173 1 1 1 1 0.04901419117153348 1 1 1 1 1 1 1 0.049368225181433148 1 1 1 1 1 0.046889814109317314 1 1 1 0.044268061618825821 1 1 1 0.048240851416363376 1 1 0.049084660754960152 1 1 1 0.04701826578263521 1 1 0.04893312524839985 1 1 1 1 1 1 1 1 1 1 1 1 1 1 1 1 1 1 1 1 1 1 1 1 1 1 1 1 1 1 1 0.048716428927566974 1 1 1 1 1 1 1 1 1 1 1 0.046819730009746402 1 1 1 1 1 1 1 1 1 1 1 1 1 1 1 0.040697095596320912 0.047081740619375395 1 1 1 0.048029402657929619 1 1 1 1 0.044912618679623012 1 1 0.047768983997283528 1 1 1 1 1 1 1 1 1 1 1 1 1 0.044002377212325167 0.047763683938410489 1 1 1 1 1 1 1 1 1 1 1 0.035053769260285063 1 1 0.042601569733611393 1 1 1 1 1 1 1 1 1 1 1 1 1 1 1 1 1 1 1 0.038533448191157643 1 1 1 0.049816415861972392 1 1 1 1 1 0.052987018755834857 1 1 1 1 1 1 1 1 1 1 1 1 1 1 1 1 1 1 1 1 0.045384045883829466 1 1 0.047645204412736432 1 1 1 1 1 1 1 1 1 1 1 1 1 1 1 1 1 1 1 0.044178794596710119 1 1 1 1 1 1 1 1 1 1 1 1 1 1 1 1 1 1 1 1 1 1 1 1 1 1 1 1 1 1 1 1 0.049437157115515953 1 1 1 1 1 1 0.027748583556288398 1 1 1 1 1 0.029661672025320537 1 1 1 1 0.03245262882298626 1 1 1 1 1 1 1 1 1 1 1 1 1 1 1 1 1 1 1 1 1 1 0.036395352447821647 1 1 1 1 1 1 1 0.044341382859774466 1 1 0.043976718066993783 1 1 0.050543908030371149 1 1 1 1 1 1 0.047133049959152233 1 1 1 1 1 1 1 1 1 1 0.060596995654230719 1 0.03605005140469713 1 1 1 1 1 1 1 1 0.050130237998518026 1 1 0.06243461897158209 1 1 1 0.0369444963383301 1 1 1 0.039918090570660938 1 1 1 0.049798373414146016 0.048602099777848913 1 1 0.054658800349892359 1 1 0.054440213108632576 1 1 0.049720606124975766 1 1 1 1 1 1 1 1 1 0.04972067880493166 1 1 1 0.053896079776064365 1 1 1 0.053949594930478365 1 1 1 0.049973500140438165 1 0.049935074633253772 1 1 0.052665985749790971 1 1 1 1 1 1 1 1 0.052059749964630517 1 1 0.052146511993380731 1 1 1 1 1 1 1 1 1 1 1 1 1 0.052457932842165073 1 0.050024010764421235 1 1 1 0.053206681520865565 0.047066658781703651 1 0.050988572878447241 1 1 1 1 0.049960147723558113 1 0.046698531467069981 1 1 1 1 1 1 1 1 1 0.048995361129736549 1 1 1 1 1 1 1 1 1 1 1 1 1 1 1 1 1 1 1 1 1 1 1 1 1 1 1 1 0.050773933428406158 1 1 1 1 1 1 0.048804279072110802 1 1 1 1 1 1 0.049093455392127602 1 1 1 1 1 1 0.049678512833915833 1 1 1 0.049981242023830405 1 1 1 0.05004586516817093 1 1 0.054425296510580409 1 1 1 1 1 1 0.050609162292497435 1 1 1 0.058638446193453965 0.043938037383573977 1 1 1 1 1 1 1 1 1 1 1 1 1 1 1 1 1 0.046127402950150165 1 1 1 1 1 1 1 0.049874238185466616 1 1 1 1 1 0.053003647162226858 1 1 1 1 1 0.050200986440443816 1 1 0.035080308296728202 1 1 1 1 0.049938090383067436 1 1 1 1 1 1 0.011835984669519212 1 0.053156191754871941 1 0.011404131834101111 0.055403953595824749 1 0.051516744069254466 1 1 1 0.045826298384527127 1 1 1 1 1 0.039936270207023117 1 1 1 0.047820962489437568 1 1 1 1 0.044087832370510338 0.051117145907638571 0.040467980010202416 1 1 1 1 0.049754270219020118 0.04787702073635261 1 0.045981834916612556 1 1 1 1 1 1 0.049984242277648708 1 0.057535549784083324 1 1 0.050094006246021103 1 1 1 0.055137488780779002 1 1 0.044472355036406681 1 1 1 1 1 1 1 1 1 1 1 1 0.049418652104915764 1 1 1 1 0.057463115010807433 1 1 1 1 0.058147064626080831 1 1 1 1 1 1 1 1 1 0.048263256130848295 0.05221116661965345 0.036720417715692497 1 1 1 0.049998812600155172 0.049964970676487537 1 1 0.049481004348252665 1 0.052626933233993867 1 1 1 1 1 1 1 0.023476248769395809 1 1 1 1 1 1 1 1 1 1 1 1 1 1 1 1 0.049758917498429492 1 1 1 1 1 1 1 1 1 0.049288308470825645 1 1 0.059477565425831894 1 0.045697205225885294 1 0.049743049745634371 1 1 0.025473802749680689 1 1 1 0.049995130104440129 0.047117597394102158 1 1 0.051025027985950072 1 1 1 0.02425046488381815 1 1 1 1 0.050362545824996517 1 1 1 1 1 1 1 1 1 1 1 0.046327036731799429 0.049936689738006607 1 1 1 1 1 1 1 1 1 1 1 1 1 1 1 1 1 1 1 1 1 1 1 1 1 1 1 1 1 1 1 1 0.049848239093821578 1 1 1 1 1 1 1 1 1 1 1 1 1 1 1 1 1 1 1 0.035436041587540615 1 1 1 1 1 1 0.04994490215480224 0.044324707588230254 1 1 0.04602689830178669 0.046081811483352358 1 1 1 0.045256887976857146 1 1 1 1 1 1 1 1 1 1 1 1 1 1 1 1 1 1 1 1 1 1 1 0.040865569903457376 1 0.044745806346183116 1 0.046939065550321582 1 1 1 1 1 1 0.058355160062255614 1 0.047397032756789109 0.04501490768821767 1 1 0.016050145841502626 1 1 1 1 1 1 0.050048143213286149 0.0086584692724250636 1 1 0.047977482807124154 0.051508904694188361 1 1 0.056896674105447062 0.050017111470298053 1 1 1 1 1 1 1 1 0.057951786532845884 1 1 1 1 1 0.054646255767196804 1 1 0.0085949575885958841 1 1 1 0.050112858548864443 1 1 1 1 1 1 1 1 1 1 1 1 1 1 1 1 1 1 1 1 1 1 1 1 1 1 1 1 1 1 1 1 1 1 0.049102347792109369 1 1 0.0693017982045913 1 0.020053264559201762 0.059060938870869592 1 1 1 1 1 1 1 1 1 0.023066399673373726 1 1 1 1 1 0.026219406954609878 1 1 1 1 1 1 1 0.049152211059518829 1 1 1 1 1 1 1 1 0.047443988361684113 1 1 1 1 1 0.045834561309125964 1 1 1 1 1 1 1 1 1 1 1 1 1 1 1 1 1 1 1 1 1 1 1 1 1 1 1 1 1 1 0.049616587653814381 0.049701871903796033 1 1 1 1 1 1 1 0.048392475992268376 1 1 1 0.048964789195822464 1 0.049171114664911579 1 1 1 1 1 1 1 1 1 1 1 1 1 1 1 1 1 1 1 1 1 0.049846792341971584 1 1 1 1 1 1 0.048258809209527791 1 1 1 1 1 1 1 0.054172303953155573 1 1 0.049962072289884391 1 1 1 1 1 1 0.049284526611090264 1 1 1 0.050052741386659452 1 1 0.046274066594246835 0.051108919919341918 1 1 1 1 1 1 1 1 1 1 1 1 1 1 1 1 1 1 1 1 1 1 1 1 1 1 1 1 0.049389336513899026 1 1 1 1 1 1 1 1 1 1 1 1 1 1 1 1 1 1 1 0.066133551224848389 1 1 1 0.058664066514368202 0.049956116064882608 1 1 1 1 1 0.049974532295329804 1 1 1 0.049685434890785071 1 1 1 1 1 0.049510802470954726 1 1 1 1 1 1 1 1 1 1 1 1 1 1 1 1 1 1 1 1 1 0.049873456109336869 1 1 1 1 1 1 0.050243902754427049 1 1 1 1 1 1 1 1 1 1 1 1 0.049898298484477133 1 1 1 1 0.045869423391505348 1 0.049898143152962982 1 1 1 1 1 1 1 1 1 1 1 1 1 0.051179101017398101 1 1 1 1 1 0.053848922312010473 1 1 1 1 1 1 0.045880751546536508 1 1 1 1 1 1 1 1 1 1 1 1 0.0457008270575366 1 1 0.038645435653341137 1 1 0.0517480706419109 1 1 0.050463423660497289 1 1 1 1 1 1 1 1 1 1 0.03195763033447642 1 1 1 1 1 1 1 1 0.049933884851118146 1 1 1 0.050026753266192325 1 1 1 0.048453751226853622 1 1 0.025720239420032362 1 1 1 0.043804017825838065 1 1 1 1 1 0.02592525752378988 1 0.050003149104258494 1 1 1 1 0.050043531011092102 0.032299249767793303 1 1 1 0.050902238601005012 1 1 1 1 0.050191252610177747 1 1 1 1 1 1 1 1 1 1 1 1 1 1 1 0.049521029175821032 1 1 0.027556047062261571 0.032004633365989091 1 1 1 1 0.034323092272206646 1 1 1 1 1 1 0.046840895330462193 1 1 1 1 1 1 0.048965229621487659 1 1 1 1 1 1 1 1 0.050680652825406278 1 1 1 1 1 1 1 1 1 1 0.049284396531538377 1 1 0.050167610724667078 1 1 0.046025128078039747 1 1 1 1 1 0.040675189994126115 0.05006323553369936 1 1 0.050000147447827312 0.047992306150703927 1 0.04633645304286349 1 0.051686165637703077 1 0.049482094916106376 0.051660581001725082 1 1 0.049617356735653262 1 0.043870241391945786 1 0.051908687799782138 1 0.048426255565010998 1 0.045689993675097892 1 1 0.04996371497024775 1 0.039541165153338595 1 0.039707202572384331 1 1 1 1 1 1 0.031087154002612485 1 1 1 0.049957134248843051 1 1 1 1 1 1 1 1 1 0.047226118192964822 1 1 0.03325069371195094 1 0.049141388476713607 1 0.052780050231617776 1 1 1 0.055960022978960057 0.048346134991307591 1 1 1 1 1 1 1 1 1 1 1 0.049797974977249408 1 1 1 1 1 0.050070609639366839 1 1 1 1 1 1 1 1 1 1 1 1 1 1 1 1 1 0.050046881328264875 1 1 1 1 1 1 0.043289140176311164 1 1 1 0.043506727394661944 1 1 0.048801250187131412 1 1 1 0.054690913514240824 1 0.04481271855966338 0.048592491676981417 1 1 1 1 1 1 1 1 1 0.053624601427104013 1 1 1 1 1 1 1 0.049856140540513794 1 0.049927490726757562 1 0.049962271913003883 1 1 1 1 1 1 1 1 1 1 1 1 1 1 1 1 1 1 1 1 1 1 1 1 1 1 1 1 1 1 1 1 1 1 1 1 1 0.039382423981452586 1 1 0.039339349193957977 0.05504390988208166 1 1 1 1 0.056154134057325625 1 1 1 1 1 0.03891513148768562 1 1 0.050023709103330746 0.020188126455978065 1 1 1 1 1 1 0.037304086195706902 1 0.04998814843068948 1 1 0.056251853227469423 0.050471921964905998 1 0.039990029386129666 1 1 1 0.048743338998161592 1 1 1 1 0.048476428990851736 1 1 1 0.05327703999003458 1 1 0.038158646199512411 0.050132359791635939 1 1 1 0.046654750441953691 1 1 1 1 0.049585742547938322 1 1 0.048987761450194081 1 1 1 0.043814550956356696 1 1 0.045321278780395151 1 1 1 0.034400591350146587 1 0.034293523401351264 1 1 0.051191227711416688 1 1 0.041990222676238559 0.050037615049269242 1 1 0.039940395618727309 1 0.050073530156031942 0.042645714219386441 1 1 1 1 0.022862444604371659 1 1 1 1 0.018500767492280232 1 1 1 1 1 1 1 1 1 1 1 1 0.050906899663923429 1 1 1 1 0.050001884320791827 1 0.038270838504220674 1 1 1 1 1 0.036469313124840232 0.050002703982919658 0.04996417128774519 1 1 1 1 1 1 1 1 0.040769593168638332 1 1 1 1 1 1 0.052558728973668561 1 1 1 1 0.055756507456048945 1 1 1 1 1 1 1 1 1 1 1 1 1 1 1 1 1 1 0.047775553925204342 1 0.014372842026014604 1 1 0.053367274554448604 0.025139456243131922 1 0.034967471434562469 1 1 0.048660737434136861 1 0.050413993346171873 1 0.051271826833731882 1 0.049413426584817788 1 1 1 1 0.04982417098350933 1 1 1 0.04842301943817022 1 1 1 1 1 1 1 1 1 1 1 1 1 1 1 1 1 1 1 1 1 1 1 1 1 0.049735003438389658 1 1 1 1 1 0.036990712729986566 1 1 1 1 1 1 1 1 1 1 1 0.049407151376715919 1 1 1 1 1 0.049898441992432055 1 1 0.054957223465710983 0.031888902368297764 1 1 1 0.044333349545391282 1 1 0.049974600876721093 0.043912760072886102 1 0.034597095770339738 1 1 1 1 1 1 1 1 1 1 1 1 1 1 1 1 0.04938147090265467 1 1 1 1 0.049954609363058754 1 1 1 1 1 1 1 1 0.049711859659109528 0.049734287826252985 1 1 0.049981679999972217 1 1 1 1 1 1 1 1 1 0.049791661308845728 0.049814022226965279 1 1 0.050000307219482988 1 1 1 0.050016313462177206 1 1 1 1 1 1 1 1 1 1 1 1 1 1 1 1 1 1 1 1 1 1 1 1 1 1 0.049825184193284425 1 1 1 1 1 1 1 1 1 1 1 1 1 1 1 1 1 1 1 1 0.054232882747032203 1 1 1 0.041025319030020845 0.049999759626143656 1 1 1 0.06051025466116991 1 1 0.050443668603129176 1 1 1 1 1 0.048618018336897245 1 0.043104714485444992 1 1 1 1 1 1 1 1 0.051727298702168134 1 1 1 0.052965035712859043 1 1 0.050930986019978759 1 0.049998961508530101 1 1 1 0.044548010725915771 1 1 1 0.034737923724563816 1 1 1 1 1 1 1 1 1 1 1 1 1 1 1 1 1 0.029020938437143096 1 1 1 1 1 1 1 1 1 0.04665073141608482 1 1 1 1 1 1 1 1 0.027426215867908672 1 1 1 1 1 1 1 1 1 1 1 1 1 0.050022091317344891 1 1 1 0.05158380340381824 1 1 1 1 1 1 1 1 1 1 1 1 1 1 1 1 1 1 1 0.040962958768893824 1 1 1 0.047172047771001105 1 0.049954461976277481 1 1 1 0.053106039772022412 1 1 1 0.050029273327841059 0.036375570263611059 1 1 1 1 1 1 1 1 1 1 1 1 1 1 1 1 1 1 1 1 1 1 0.048636225186787022 1 1 1 1 0.047062677583268028 1 1 1 1 0.048426452396481023 1 1 1 1 1 1 1 0.045101269531218208 1 1 1 1 0.046765837312288713 1 1 1 1 1 1 0.048846071929834277 1 1 1 1 1 1 0.04945437662853619 1 1 1 0.049745670221392854 1 1 1 1 1 1 1 1 1 0.048850817808667922 1 1 1 1 1 1 0.047101023246740752 1 1 1 1 1 1 1 1 1 1 1 0.050006509115771786 1 1 0.057001446214184293 1 1 1 1 1 0.049561320392001049 1 1 0.045558327515251087 1 1 1 1 1 1 1 0.055187460978428096 0.031492375575551596 1 1 1 1 0.026766643764231671 1 1 1 1 1 1 0.05000465312109692 1 1 1 1 1 1 1 1 1 1 0.053700337191286591 1 1 1 1 1 1 1 1 1 1 1 1 0.05296771053226218 1 0.049860280299346922 1 1 1 0.074241283694357466 1 1 0.0077406247082446311 1 1 1 1 0.072420233729424369 1 1 1 1 1 0.0064113458480419688 1 1 1 1 1 1 1 1 0.0094488550781462455 1 1 1 1 0.051990766037183542 1 1 1 1 1 1 1 0.050684839013468402 1 1 1 1 1 1 1 1 1 1 0.051682633732408771 1 1 1 0.048806357291234254 1 0.048833032299381351 1 1 1 1 1 1 0.051487850980795488 1 0.046118646562228208 1 0.049854652490378522 1 1 1 1 0.051985877635056257 1 1 1 1 1 1 1 1 1 1 1 1 1 1 0.048546318729420709 1 0.076155281771854905 1 1 1 1 1 1 1 0.050445168811659974 1 1 1 1 1 1 1 1 1 1 1 1 1 0.069441920786560724 1 1 1 1 0.062244133501521137 1 1 1 1 1 1 1 1 1 1 1 1 1 1 1 1 1 1 1 1 1 1 1 1 0.050545425015722928 1 1 1 1 0.019032854798366083 1 1 1 0.049979030938726202 1 1 0.049983187051146113 1 1 0.050010638525795681 1 1 1 1 1 1 1 1 1 1 1 1 1 1 1 0.049999400576527867 1 1 0.050036229971801169 1 1 1 1 1 1 1 0.052924561339966494 1 1 1 1 1 0.053571139383618308 1 1 1 0.041305007544248207 1 1 1 0.038598500169618702 1 1 1 1 1 1 1 0.039588812713226049 1 1 1 0.050715578176763094 1 0.047518144751759042 0.04986647963917655 1 1 1 1 1 0.049735163797497053 1 1 1 1 1 1 1 1 1 1 0.04004195018108099 1 1 1 1 1 1 1 1 1 1 1 1 1 1 1 1 1 1 1 1 1 1 1 1 1 1 1 1 1 1 1 1 1 1 1 1 1 0.050000317105356865 1 1 1 1 1 1 1 1 1 1 1 1 1 1 1 1 0.050014135354498584 1 1 1 1 1 1 1 1 1 0.050000327714189295 1 1 1 1 1 1 1 0.050003496828702886 1 1 1 1 1 1 1 1 1 1 1 1 1 1 1 1 1 1 1 1 1 0.044752956248014023 1 1 1 1 1 1 1 1 1 1 1 1 1 1 1 1 1 0.044003588473537893 1 1 1 1 1 1 1 1 1 1 1 1 1 1 1 1 1 1 1 1 1 1 1 1 1 1 1 1 1 1 1 1 1 1 1 1 1 1 1 1 1 1 1 1 1 1 0.045479647899602182 1 1 1 1 1 1 1 1 1 1 1 1 1 0.04359258167610941 1 0.050057039544797122 1 1 1 1 1 0.049965410342596314 1 1 1 1 1 0.049132098063751656 0.048957001728667494 1 1 1 1 1 1 1 1 1 1 1 1 1 1 1 1 1 0.050880101436551105 0.043877381032905907 1 1 1 1 1 1 0.04971948929726084 1 0.044051434229823799 1 1 1 1 1 1 1 1 1 0.045643073297314991 1 1 1 1 1 1 1 1 1 1 1 1 1 1 1 1 1 1 1 0.048079108960424402 1 1 1 1 1 0.050664648779217829 1 0.051487878235182749 1 1 1 1 1 1 1 0.051862415246365617 1 1 1 0.050823229455964909 1 1 1 0.056265004489458752 1 1 0.05662449054502415 1 1 1 0.020242304225794143 1 1 0.028457460215904451 1 0.015505088023934521 1 0.013716499722744767 1 1 0.032750942736314737 1 1 1 1 1 1 1 1 1 1 1 1 1 1 1 1 1 1 1 1 1 0.049858662685682169 1 0.01490308322620932 1 1 1 1 1 1 1 0.014944223583154982 1 1 1 1 1 1 1 1 1 1 1 1 1 1 1 1 1 1 1 0.049604332907075034 1 1 1 0.049256251380297336 1 1 1 1 1 1 1 1 1 1 0.04620510780748549 1 1 1 1 0.041906698343370685 1 1 0.048608815431101127 1 1 1 1 1 0.040336043741554452 1 1 1 1 0.051980217878524554 1 0.046960186408499818 1 1 0.018466456060783738 1 1 1 1 1 1 1 0.021610257767434631 1 1 0.047037941632359692 1 0.027216182329719667 1 1 1 1 1 1 1 1 1 1 1 1 1 1 1 1 1 1 0.046696962747203564 1 1 1 1 1 1 1 0.050017509961742576 1 1 1 1 0.046260087095552238 1 1 1 1 1 1 1 1 1 0.049352564050803779 1 1 1 1 0.042398553283088766 1 1 1 1 1 1 1 1 1 1 1 1 0.051082530218616522 1 1 1 1 1 1 1 1 1 0.03266903013526521 1 1 1 1 1 1 1 1 1 1 1 1 0.041564475342249357 1 1 0.047981224622933666 1 1 1 1 1 1 1 1 1 0.049422555751735001 0.01232480334972734 0.033103060711643692 1 1 1 0.049994877717886951 1 1 1 1 1 1 0.031929129311941785 1 1 1 0.050613848771772232 0.050299026552496642 1 1 1 1 1 1 1 1 1 1 1 1 0.024329177921115296 1 1 1 0.049767700537449139 0.059259465896374916 1 1 1 1 1 0.056578021820410343 1 1 1 1 0.044644563781844851 1 1 1 1 0.049864581274619041 1 1 1 1 1 0.018548114085085221 0.042114103627998126 0.048335908175502519 1 1 1 0.050651141611243483 0.052789148702180766 1 1 1 1 1 1 1 1 1 0.022540034556061669 0.049912582437056215 1 1 1 0.049542227796483075 0.049720179417106783 1 1 1 1 1 1 1 1 1 1 1 1 1 1 1 1 1 0.021637770520306195 1 0.020849292152848163 1 1 1 1 0.031548459703691842 1 1 1 1 1 1 1 0.031597961603118604 1 1 1 1 1 1 1 0.019974472595133547 1 1 0.04630733767410667 1 0.033427629406300001 0.047957340703297255 1 1 1 0.044960782145515014 0.04998232834888354 1 1 1 0.050196040993759308 0.044969104280438363 1 1 1 1 1 1 1 1 1 1 0.047329741185948272 1 1 1 1 1 1 1 0.040459972183673337 1 1 1 1 0.04215219474622775 1 1 1 1 1 1 0.030234719059304156 1 1 1 1 0.04806092570608745 1 0.03580182683563287 1 1 1 1 1 1 1 1 1 1 1 1 1 1 0.0349654271667433 1 1 1 1 1 1 1 0.027757825157028675 1 1 1 1 0.049903537622748281 1 1 1 0.055106824459262384 1 1 1 1 1 1 1 1 1 1 1 1 1 1 1 1 1 1 1 1 1 1 0.052669970024474128 1 0.050723187961089364 1 1 0.050246720645073288 1 1 1 0.050975948801668225 1 1 0.05118970405123232 1 1 1 1 1 1 1 1 1 1 1 1 1 1 1 1 1 1 1 1 0.049708389233180508 0.052898154999188013 0.052100813311260388 1 1 1 1 1 1 1 1 1 1 1 1 1 0.043458643664934418 1 1 1 0.046941186398345332 1 1 0.045706565013848115 1 1 1 1 0.046765969038262072 1 1 0.038113825846175522 0.052494564390976661 1 1 1 1 0.049848072424074651 1 1 0.049983549671406467 1 0.049984833190226785 1 1 1 1 1 1 1 1 1 1 1 1 0.045101968084423988 1 1 1 1 1 1 1 0.048662978184766677 1 0.050768864855369876 1 1 1 1 0.04563350503155876 1 1 1 1 1 1 1 1 1 1 1 1 1 1 1 1 1 1 1 1 1 1 1 0.047579797337362048 1 1 1 0.050946314756556407 1 0.044823799604243555 1 1 1 0.051153894301679118 1 1 1 1 1 0.050080870594864053 1 1 0.042526116827128285 1 1 1 1 1 1 1 1 0.048309659884805609 1 1 1 1 1 0.048941631109659538 1 1 1 1 1 1 1 1 1 1 1 1 1 1 0.045854737384233207 1 1 1 1 0.045891235980035881 1 1 1 1 1 1 1 1 1 1 1 1 0.049880487569351505 1 1 1 1 0.049409568473989099 1 1 1 1 1 1 1 1 1 1 1 1 1 0.049959409166328392 1 1 0.049392087300927902 1 1 1 0.048273161289002942 1 1 1 1 1 1 1 1 1 1 1 1 1 0.048167551910479958 0.04302108841830312 1 0.053934968045087156 0.046241337122979842 1 1 1 0.052930925001335824 0.033367899836374434 1 0.056335479979044867 1 0.047986892822256835 1 0.04105356998069911 1 1 1 0.056144237891980739 1 0.049631490499305111 1 1 1 1 0.043071813258777618 1 1 1 1 1 1 0.050621323846922375 1 1 1 1 1 0.03156052428668249 1 1 0.049996890460736923 1 1 0.04786884479846798 1 1 0.049940620723718257 1 1 1 1 1 0.042370423589255149 1 0.040413650223669897 1 1 1 1 1 1 1 1 1 1 1 1 1 0.049488692791807599 1 1 0.049916466355738334 1 1 1 1 1 1 1 1 1 0.04738693289626681 1 1 1 1 1 1 1 1 1 0.050068865991312578 1 1 0.049253557591056332 1 0.05340996321318147 1 1 1 1 1 1 1 0.038659772009951798 1 1 1 1 1 1 1 0.046716827889889095 1 0.036311151828688937 1 1 0.037177757834655392 1 1 1 0.049696341367906974 1 1 1 1 0.049229348827025524 1 1 1 1 1 0.050003755766695718 1 1 1 1 1 1 1 1 1 1 1 1 1 1 1 1 1 1 1 1 1 0.048056319579401929 1 1 0.047958730761583371 1 1 1 0.049141212681574654 1 1 1 1 0.049311979656170554 1 1 1 1 1 1 1 1 1 1 1 1 1 1 1 1 1 1 1 1 1 1 1 0.046181123442261177 1 1 1 1 1 1 0.039547504972107558 1 1 1 1 1 1 1 1 1 1 1 1 1 0.050068643756591161 1 0.026758667082592134 1 1 0.05364062170907738 1 1 1 1 0.048302699755853634 0.046596806277955649 1 0.04819869061608642 1 0.048099198557596159 1 1 1 1 1 0.051767463627900606 1 1 0.0020868973585465717 0.00069639830850001805 1 1 1 1 1 0.069358309336561619 1 1 0.049998634551447596 1 1 1 1 1 1 1 1 0.028758279074368689 0.069650554490630179 1 1 1 0.043666706807447081 1 0.050031751251996576 1 1 1 1 1 0.052557333699423697 1 0.068334848717279545 1 1 1 1 1 0.051573692682205227 0.052205914076768403 1 1 1 1 0.049928975892385208 1 1 1 1 0.050564205617679339 1 1 1 1 1 1 1 1 1 1 1 1 1 1 1 1 1 0.04878903114737837 1 1 0.049550182975951346 1 1 1 0.049822492792770463 1 1 1 1 1 1 1 1 1 1 1 1 1 1 1 1 1 1 1 0.049160958236977984 1 1 1 1 1 1 1 1 1 1 1 1 1 1 0.049980174076238691 0.050288148115915379 1 1 1 0.049883671045372877 1 1 1 1 1 0.048817503293870662 1 1 1 1 1 1 1 1 1 1 1 0.049701907064447791 1 1 0.049879414271677365 1 1 1 1 1 1 1 1 1 1 0.029786961783452595 1 1 1 0.042487514849957331 1 0.044493086076023633 1 0.046681869332172173 1 1 1 0.049989783661997356 0.042430126979301264 1 0.027894584189430818 1 1 0.04894500909528389 1 1 0.047668510977915537 0.02745418774718944 1 1 1 0.04063705709743385 1 1 0.046234991165411223 1 0.039738101999267847 1 1 1 0.043676110239402939 1 1 0.043189143454709436 0.045042613399718046 1 0.044614170445888737 1 1 0.036737787459885214 1 0.047488935132376037 1 1 1 1 1 1 1 1 1 0.049300441505702189 1 1 1 1 1 0.051021440802935768 1 1 1 1 1 1 1 1 1 1 0.039969197742238283 1 1 1 1 0.045443954295386509 0.043268954179595379 1 1 0.047980878456058279 1 0.045824362023325085 1 1 1 1 1 0.052095325376421447 1 1 0.037514266034834917 1 0.049962278424671012 1 1 1 1 1 1 1 0.037097497381380351 1 1 1 1 1 1 1 1 1 0.049720759431419126 1 0.049986922938630357 1 0.050016898087957909 1 0.037737240401111836 1 1 1 1 0.04989174671611718 1 1 1 1 1 0.04970019562443305 0.046103139265835383 1 1 1 1 1 1 0.050432416257061657 1 1 1 1 1 0.034911212396394373 1 1 1 1 0.050390592689081984 1 1 0.042497272558210168 1 0.020965556861941348 1 1 1 0.04359898872376352 1 0.049180291869405472 1 1 0.04722192059556022 0.049997099387382435 0.050215595805581541 1 1 1 1 1 1 0.049994148973089458 0.047937160360065692 0.051408490057419869 1 1 1 1 0.048861029109614561 1 0.049813039859958892 1 0.048178142061062454 1 1 1 1 1 1 0.049972836764852063 1 1 1 1 1 1 1 1 1 1 1 1 1 1 1 1 1 1 1 1 1 1 1 1 1 1 1 1 1 1 1 1 1 1 1 1 1 1 1 1 1 1 1 1 1 1 1 1 1 0.046840790062996032 1 1 1 0.040345729863542526 0.050064466254537282 1 1 1 1 1 1 1 1 1 1 1 1 1 1 1 1 1 1 1 0.051761416466454435 1 1 1 1 1 1 1 0.050011791897828742 1 1 0.047486150049022735 1 1 0.045275675582196889 1 1 0.050093607336859539 1 0.043208589839941261 1 1 0.040769534123995144 1 1 1 0.049957705456741108 1 0.040284886688729607 1 0.049601546373920967 0.038007545898699993 1 1 1 0.037336328768248772 0.050095366950062246 1 1 0.038842416057884681 1 1 0.037088156746949985 1 1 1 1 1 1 1 1 1 1 1 1 0.035608720298423394 1 1 1 1 0.035840785650328097 1 1 1 1 0.038758339718273041 1 1 1 1 1 1 1 1 1 0.049855272995663093 1 0.049996283630996556 1 1 1 1 0.05216039208698986 1 1 1 0.052153901920685322 1 1 1 1 1 1 0.054959867349324273 1 1 0.049620510540597115 1 1 1 0.03753024258448602 1 1 1 1 1 1 1 0.054718263008642028 1 1 1 1 1 0.052305877253578006 1 1 1 1 1 1 1 1 1 1 1 1 1 1 1 0.057976444201938156 1 1 1 1 1 0.051486768251663456 1 1 0.047323861708019735 1 0.052036616437372479 1 1 1 1 0.051118700517441822 0.049709948222854683 1 1 0.041535886143906645 1 1 1 1 1 1 1 1 1 1 1 0.049767978166212104 1 0.047841954595125157 1 1 1 1 1 0.049345484325264907 1 1 1 0.0489081428710927 1 1 1 0.048429092244486119 1 1 1 1 1 1 1 1 1 1 1 1 1 0.023637598222653128 1 1 1 1 1 1 1 0.045167998038787752 1 0.044859296407654459 1 1 1 1 1 1 1 0.050343424854337529 0.043228485261142216 1 1 1 1 1 1 1 1 1 0.048947827176435643 1 1 1 1 1 1 0.03763519590414309 0.045128418033543727 0.05007450645185807 1 0.042918528094957664 1 1 1 1 1 1 0.035629720189449925 1 0.04971419157562823 1 0.048286534216241503 1 0.046639618250246873 1 1 1 1 1 1 0.047436037582187729 1 1 0.049918584777252167 1 1 1 1 0.049508945447347054 1 1 1 1 1 1 1 1 1 1 1 1 1 1 1 1 1 1 1 1 1 1.3877787807814457e-17 1 0.050711982816940095 1 1 1 1 1 1 1 1 1 1 1 1 1 1 1 1 1 1 1 1 1 1 1 1 1 1 1 1 1 1 1 1 1 1 1 1 1 1 1 1 1 1 1 1 1 1 1 1 1 1 1 1 1 1 1 1 1 1 0.050334167733352142 1 1 1 1 1 1 1 1 1 1 1 1 1 1 1 1 1 1 1 1 1 1 1 0.049854179906322099 1 1 1 0.052339765442637687 1 0.04950457737201247 1 1 1 1 1 1 1 1 1 1 1 1 1 1 1 1 1 1 1 1 1 1 1 1 1 1 1 1 1 1 1 1 1 1 1 1 1 1 1 0.051152876866962613 1 0.050124451793483391 1 1 1 1 1 1 1 1 1 1 1 1 1 1 1 1 1 1 1 1 1 1 1 1 1 0.043496116533423501 1 1 1 1 1 1 1 1 1 1 1 1 1 1 1 1 1 1 1 1 1 1 1 1 1 1 1 1 1 1 1 1 1 1 1 1 1 1 1 1 1 1 1 1 1 1 1 1 1 1 1 1 1 1 1 1 1 1 1 1 1 1 1 1 1 1 1 1 1 0.03702175425326848 1 1 1 1 1 1 1 0.039953597280138684 1 1 0.05000896735153855 1 1 1 1 1 1 1 1 1 1 1 1 1 1 1 1 1 1 1 1 0.033112725302675727 1 1 1 1 1 1 1 1 1 1 1 1 1 1 1 1 1 1 1 1 1 1 1 1 1 1 1 1 1 1 1 1 0.050004183741554992 1 1 1 1 0.048191409940600963 1 0.050396961044822691 1 1 1 1 1 1 0.049808493348503624 1 1 0.049381833033907724 1 1 0.05040360863784793 0.050002344555604351 1 0.049995155106536605 1 1 1 0.049981461730170602 1 1 1 1 1 1 1 1 1 1 1 1 1 1 1 0.050487896889831116 1 1 1 1 1 1 1 1 0.050570177862302217 1 1 1 1 1 1 1 1 1 1 1 1 1 1 1 1 1 1 1 1 1 1 1 1 1 1 1 1 1 1 1 1 1 1 1 1 0.03642860474333541 1 1 1 1 1 1 1 0.058383219694373448 1 1 0.051830147872293522 1 0.035435132058287716 1 1 1 1 1 1 1 1 1 1 1 0.050000351405696267 0.05002006589539839 1 1 0.050805108954442187 1 1 0.050183882157200196 0.049937839611467173 1 1 1 1 0.048871906808896096 1 0.051659911893836674 1 1 0.048435121657174326 1 0.049782735665985553 0.051142981878803742 1 0.045319310846484939 1 0.037002553596214252 1 1 1 1 1 1 1 0.050106824683223382 1 0.049995306541787139 1 1 1 1 1 0.050062056708723469 1 1 1 0.036782349469357337 1 1 0.050623956745962623 1 0.054623037567639199 1 0.052653327733743913 0.045820239628196549 1 1 0.05004870218254228 1 1 1 1 1 1 0.047644419399616042 1 1 1 1 1 1 1 1 0.059724410497380337 0.050130698799491925 1 1 1 0.052147554250259222 1 1 1 1 0.038284940670174586 0.061961562565038396 1 0.056951723365170584 1 1 1 0.052256804260540468 1 1 1 1 1 1 1 1 1 1 1 1 1 1 1 1 0.062595636114543024 1 1 1 1 1 1 0.047319457964809838 1 0.042155130774567104 1 1 1 0.047709008921046257 0.038320398658770377 1 1 0.050042916575199096 1 0.049732117322755766 1 1 1 1 1 1 1 1 1 1 1 1 0.049914058299291589 0.050011348997325775 1 1 1 1 1 0.054379656036898774 1 1 1 1 1 1 1 0.051167070905107671 1 1 1 0.049997126699158838 1 0.043501834526255806 1 1 0.050018950260569475 1 1 1 1 1 1 1 1 1 0.058337894124554972 1 1 0.053055534409134755 1 1 1 1 1 1 1 1 1 1 1 0.048506923654536328 1 1 1 1 1 1 1 1 1 1 1 1 1 1 1 1 1 1 1 1 1 1 0.043869492561603982 1 1 1 1 1 1 1 1 1 1 1 0.032312819357238592 1 1 1 1 0.021612532396335066 1 1 1 1 1 1 1 1 1 1 1 0.049161796406870857 1 1 1 1 1 0.047314562657209909 1 0.050203708884713219 1 1 1 1 1 1 1 1 1 0.011423961820719884 1 1 0.0021152531432300226 1 1 0.070796338309281712 1 1 1 1 0.044203319881031322 1 1 1 1 1 1 1 1 1 1 1 1 1 1 1 1 1 1 1 1 1 0.067514975006853592 1 1 0.033091058192060555 1 0.056160597412483901 1 1 1 1 1 1 1 1 1 0.036904209333948307 1 1 0.056325451235637876 0.041672484397494734 0.046879936713080453 1 1 1 0.046560175883354413 1 1 1 1 1 1 0.048539863330926775 0.049555287957736296 1 0.059875727206571437 1 1 0.059136445363652652 1 1 0.037027296891037148 1 1 1 1 0.037464102482971329 1 1 1 1 0.043289340346869959 1 1 1 1 1 1 1 1 1 1 1 0.046230869849219827 1 1 0.050505152788710816 1 0.042202893922154809 0.050260908892887576 1 1 0.050012789758445197 0.045463436088339498 0.0533101784794692 1 1 1 1 1 1 1 1 1 1 0.047951902246837486 1 1 1 1 1 1 1 1 1 0.034463542653805843 1 1 1 1 1 0.044389836834877308 1 1 1 1 1 1 1 1 1 1 0.049025841723511279 1 1 1 1 1 1 1 1 1 1 1 1 1 1 1 1 1 1 1 1 1 1 1 1 0.036692750207080974 0.050988270339056077 1 1 1 1 1 1 1 1 0.044574341487342697 1 1 1 1 1 1 1 1 1 1 1 1 1 1 1 1 0.049040986592040522 1 1 1 1 0.049461910198153103 1 1 1 0.047557296831247611 0.048867310412140014 1 1 1 1 1 1 0.048854984327999812 1 0.048183972122187224 1 1 1 0.046057339562667762 1 1 1 1 1 1 1 1 0.050981459366703757 1 0.05029590978064382 0.044617028584633428 1 1 1 1 1 1 1 1 1 1 1 1 0.048694469472779264 1 1 0.0478284936608602 1 0.049448078314250507 1 1 1 1 1 1 1 1 1 1 1 1 1 1 1 1 1 1 1 1 1 1 1 0.049245857016490105 1 1 1 1 1 0.0088084112752811576 1 1 1 1 1 1 1 1 1 1 0.047998278991819701 1 1 1 0.049463764798866522 1 1 1 1 1 1 1 1 1 1 1 0.050369573297311392 0.018450570112455322 1 1 1 1 1 0.027788515660170071 1 1 1 0.051585113319167486 1 1 1 1 1 1 1 1 1 1 0.047003210540278381 1 1 1 1 1 1 1 0.049547874992830157 0.060172627012210905 1 0.01553173775795496 1 1 1 1 0.047521290152176626 1 1 1 1 1 0.043717772202828228 1 1 1 1 1 1 1 1 1 1 0.050027407138240249 1 1 1 1 1 1 1 1 1 1 0.036757421443115779 1 1 1 1 1 1 1 0.045772074867759333 1 1 1 1 1 1 1 1 1 1 1 1 1 1 1 1 1 1 1 1 0.049374813617500915 1 1 1 0.048635475834296345 1 1 1 1 1 1 1 1 1 1 1 1 1 0.05031006214082271 1 0.049703143793756489 0.042107142756834401 1 0.052250396148729138 0.03276831829453751 1 1 1 1 1 0.050008278523400083 1 1 1 1 1 1 1 0.045218050598015973 1 1 0.033784946428953376 1 1 0.051123651560542285 1 1 0.03817694698224728 1 1 0.050065926229597345 0.042568302365231403 0.051693199634525566 0.050399550305895886 1 1 0.046635430891367097 0.043421782240324114 1 1 0.030620250906052388 1 1 0.052092471543525851 1 1 1 1 0.042371615672408894 0.031091033720955744 0.050217924497479076 0.023067129068003199 1 1 1 0.050064386621879058 1 0.046469455088087669 1 0.034631858061627566 1 0.050375492405658008 0.030479903544623876 1 1 1 1 1 1 1 0.04579120726708584 1 1 1.7347234759768071e-18 1 0.050341457281756735 1 1 0.029026905101373603 0.068864337112590324 1 1 1 1 1 1 1 1 1 1 1 1 1 1 1 1 1 0.051018229215002549 1 1 1 1 1 1 1 1 1 1 1 1 1 1 1 1 1 0.052852083877112932 1 1 1 1 1 1 1 1 1 1 1 1 1 1 0.047967859350291825 0.052580835066543284 1 1 1 1 0.05001012700662328 1 0.05088852277080174 1 1 1 0.048466498696703192 0.046781561148707809 1 0.049149902210865876 1 1 1 1 1 1 1 1 1 1 1 1 1 1 1 1 1 1 1 0.049862858943976504 1 0.05027243419140158 1 1 1 1 0.049705561423469713 1 1 1 1 1 1 1 1 1 1 1 1 1 1 1 1 1 1 1 1 0.05029807584294331 1 1 1 1 1 1 1 1 1 1 1 1 1 1 0.049511234288624799 1 1 1 1 1 1 1 1 1 1 1 1 1 1 1 1 1 1 1 1 1 1 1 1 1 1 1 1 1 1 1 1 1 1 1 1 1 1 1 1 1 1 1 1 1 1 1 1 1 1 1 1 1 1 1 1 1 1 1 1 1 1 0.043367402750652942 1 1 1 0.045361558089821785 1 1 0.047309578997226688 1 1 1 1 1 1 1 1 1 1 1 0.048051979092595093 1 1 1 1 0.053068210285418554 1 1 1 1 1 1 1 1 1 1 1 1 1 1 1 1 1 1 1 1 1 1 1 1 1 1 1 1 1 0.046438567516064531 1 1 1 1 0.046429222486274499 1 1 1 1 1 1 1 1 1 1 0.041087114499617702 1 1 0.028309895797878383 1 1 1 1 1 1 1 1 1 1 1 1 0.050096595482498944 1 1 1 1 1 1 1 1 0.022682984186285615 1 1 1 1 1 1 1 1 1 1 0.0428491612032081 1 0.047824520836815043 1 1 1 0.037001362693398793 1 1 1 0.050700342239533708 1 0.033120224124220513 1 0.04222333205207883 0.0501230014153956 1 1 1 1 1 0.042678850208036495 1 1 1 1 1 1 1 1 1 1 1 1 1 1 1 1 1 1 1 1 1 1 1 0.048380733521589614 1 1 0.017985846790042326 1 1 1 0.049146417005828391 1 0.019976332505527168 1 1 1 1 1 1 1 1 1 1 1 1 0.049747654805408048 1 1 1 1 1 1 1 1 1 1 1 1 1 1 1 1 1 1 1 0.040031074517450596 1 1 1 1 1 1 1 1 1 1 1 1 1 1 1 1 1 1 1 1 1 1 1 1 1 1 1 0.045731964962047171 1 1 1 1 1 1 1 1 1 1 1 1 1 1 1 1 1 1 0.038769050932423263 1 1 1 0.040151852092081164 1 1 1 0.047528120987798558 0.048019423605296395 1 1 1 1 1 0.046357551711489975 1 1 1 1 1 1 1 0.042427938099952281 0.042569458255326459 1 1 1 0.046607004542589453 1 0.047625928900875275 1 1 1 1 1 1 0.040592748064720456 0.047106325351175468 1 1 0.034920886118277567 0.038449242376833309 1 1 1 1 1 1 1 1 1 1 0.050036719824188947 1 1 1 1 1 1 0.049346120582973996 1 1 1 1 1 1 1 1 1 1 1 1 1 1 1 1 1 0.049920965134469912 1 1 1 1 0.044390573766538946 1 1 0.049758333705510471 1 1 1 1 1 1 1 1 1 1 1 0.036118000938882788 1 0.03757209464226819 1 0.038239337622561528 1 1 1 1 1 1 1 1 1 1 1 1 1 1 1 1 1 1 1 0.049408901290875551 1 1 0.048414439854040016 1 1 1 0.049993320313884683 1 1 0.048214670565537299 1 1 1 1 0.047935515532471613 1 1 1 1 1 1 1 0.0460104231900735 1 1 1 1 1 1 1 1 1 1 1 1 1 1 1 1 1 1 1 1 1 1 1 1 1 1 1 1 1 0.041285037071297631 1 1 1 1 1 1 1 1 1 1 1 1 1 1 1 1 1 1 1 1 1 1 1 1 1 1 1 1 1 1 1 1 1 1 1 1 1 0.035896389754570109 0.055651395005562196 0.043215114693880126 1 1 0.018565391157118923 1 1 1 0.049194831790139462 1 0.049899703811878117 1 1 1 1 1 0.050260031320122051 1 1 1 1 1 1 1 0.014983545504985124 1 1 1 1 1 1 1 1 1 1 1 1 1 1 0.057092932646028785 1 1 1 0.050163047116544901 1 0.011142484060323782 1 1 1 1 1 1 1 1 0.059274214201747999 1 1 1 1 1 1 1 0.050003706583181255 1 0.049945503332252651 1 0.022617324999683053 1 1 1 1 1 1 1 1 0.048744879061306125 1 1 0.040408445475378127 0.057070557470521199 0.051305288648607263 1 0.037378947967599968 1 0.026197869555719629 1 1 1 1 1 1 1 1 1 1 1 1 1 1 1 1 1 1 1 1 1 0.039272086872426976 1 1 0.050167437506283309 0.032511684261992878 1 1 1 0.050099131019218424 1 1 1 1 1 1 1 0.05229604016186791 1 0.050639928416160891 1 1 1 1 0.049642263666848943 1 1 0.055775458511354681 1 1 1 1 1 1 1 0.057235126617718152 1 1 0.061449399476244185 1 1 1 0.065107212553050756 1 1 1 1 1 1 1 1 1 0.049845304687002136 1 1 1 1 1 1 0.029507999697420531 1 1 0.023845852208854115 1 1 1 1 0.023779580306320824 1 1 1 1 1 1 0.058310997524101391 0.055807742635348212 0.027449623813677868 1 1 1 0.04989783712782643 1 0.050000394614490927 1 0.056750684345937906 1 1 1 1 1 1 0.026996470235545911 1 1 1 0.068305890302187186 1 1 1 0.054413146657010046 1 1 1 1 1 1 1 1 1 1 1 1 0.050109497449762244 1 1 1 0.049830269889959082 1 1 1 1 1 0.050304232487128175 0.027381001021818882 1 1 0.050859075746956181 1 0.04108848725783721 0.037150695172967214 0.051045567961716311 1 1 1 0.050188615403650411 1 1 1 1 1 0.031989463718632774 1 1 1 1 1 1 1 1 1 1 1 1 0.050042114830951633 1 1 1 1 1 1 0.042294268017070563 1 1 0.042485465494834652 1 1 0.049974238585420688 1 1 1 1 1 0.049810479351203238 1 1 0.056501329256913466 1 0.049923231000433221 1 0.050010275200391634 1 1 1 1 1 1 0.05005239003134325 1 1 1 1 0.050651702207700149 1 1 1 1 1 1 1 1 1 1 0.05213291648268422 1 1 1 1 1 0.054140142536125702 1 1 1 1 1 1 1 1 1 1 1 1 1 1 1 0.049562068393879957 1 1 1 1 1 0.048713827867767352 1 0.051530930515464181 1 1 1 1 1 0.051876399368996726 1 1 1 1 1 0.048648249215658912 1 1 1 1 1 0.050519834809647529 1 1 1 1 1 1 1 1 1 1 0.036934208308929045 1 0.049991477846371715 1 0.035463294477314833 1 1 0.042143496672184408 1 1 1 1 1 1 1 1 0.03361649285403033 1 0.055451022726737728 1 1 1 1 1 1 1 1 1 1 0.036327901182259564 1 1 1 1 1 1 1 1 1 1 0.044398946823039041 1 1 1 0.041707054724275647 1 0.04178008879005915 0.018693829738663272 1 1 1 0.050008498293200865 1 1 1 0.034801567549776757 0.0504139687673551 1 1 1 1 1 1 1 1 1 1 0.044637369508471754 0.050202295625839936 1 1 1 1 1 0.047667495321666767 1 1 1 1 1 1 1 1 1 1 0.046294823858312982 1 0.041855601322946911 0.053749081801715802 0.033401061024135315 1 1 1 1 1 1 1 1 0.043753558383493714 1 1 1 1 1 1 1 1 1 1 1 1 1 1 1 1 1 1 1 1 1 1 1 1 1 1 1 1 1 0.050646384478038181 1 1 1 1 0.050121365862155598 1 1 1 1 1 1 1 1 0.050383542394092415 1 1 1 1 1 1 1 1 0.050525122946099649 1 1 1 1 1 1 1 1 1 1 1 1 1 1 1 1 1 1 1 1 1 1 1 1 1 1 0.052654476897507088 1 1 1 1 1 1 0.058431315335745984 1 0.019987236339378364 1 1 0.053182399168505999 1 1 1 0.016067538324285757 1 0.055701321084332185 1 1 1 0.049890819672209485 1 1 1 0.046725120093675174 1 1 1 1 1 1 0.049308765053927631 1 1 1 1 1 1 1 1 1 1 1 1 1 1 1 1 1 1 1 1 1 1 1 1 1 1 1 0.048558534310243866 1 0.046312931850115716 1 1 1 1 0.047754397539871887 1 1 1 1 1 1 1 1 1 1 1 1 1 0.04792048969802986 1 1 0.048304032092122189 1 1 0.041853844901594564 1 1 1 1 1 0.028626233226017705 1 1 1 1 1 1 1 1 0.054222500179769345 1 0.059405201689286105 1 1 1 1 1 0.051012128083410602 0.050019916678648635 1 1 0.046889885292382166 1 1 1 0.057907695424632047 1 1 1 1 1 1 1 0.049806457756639111 1 1 1 1 1 1 1 1 1 1 1 1 1 1 1 1 0.052279193846285127 1 1 1 1 1 0.04608732923324188 1 0.048204677932389972 1 1 1 1 1 1 1 1 1 1 1 1 0.046946740379349025 1 0.04598777659843313 1 1 1 1 1 1 0.041005735350738634 0.049064089078497145 1 1 1 1 1 1 1 1 1 1 1 1 1 1 1 1 1 1 1 1 1 0.048693707518950233 1 1 0.046298053200538994 1 1 1 1 1 0.050949618979380468 1 1 1 1 1 1 0.050034303253764345 1 1 1 1 1 1 1 1 1 1 1 1 1 1 1 1 0.04994713167285509 1 1 0.048821989137754436 1 1 1 1 0.048930370986821847 1 1 1 1 1 1 1 1 1 1 1 0.04918321991287454 1 1 1 1 1 1 1 1 1 1 1 1 1 1 1 1 1 1 1 0.045017958752305534 1 1 1 1 1 1 1 1 1 1 1 1 0.048150117976961906 1 1 1 1 1 1 1 1 1 1 1 1 1 0.050100484436124859 0.043915667112527076 1 1 1 1 1 1 0.041206912699578421 1 1 1 1 1 1 1 1 1 1 1 1 1 1 1 1 1 1 1 1 1 1 1 1 1 1 1 1 1 1 1 1 1 1 1 0.049840763694266405 1 1 1 1 1 1 1 1 0.050303830931841889 1 1 1 1 1 1 1 1 1 1 1 1 0.050250962604697004 1 1 1 1 0.046598258501853888 1 0.044847783124940754 1 1 1 1 1 1 1 1 0.05024147604561735 1 1 1 1 1 1 1 1 1 1 0.049988627119564595 1 1 1 0.054151811030615435 1 1 0.050558498675779801 1 1 1 1 0.057038168503700859 1 1 0.059641465158186691 1 1 1 1 1 1 1 1 0.051699797140617745 1 1 1 0.052880227586217937 1 1 1 1 1 1 1 0.051497743447690453 1 0.049985133005509483 1 0.042039137579670594 1 0.040331505592576658 0.048366538568040802 1 1 1 0.049763731665625005 0.050114884714589178 0.045553517047479924 1 1 0.025366976734639723 1 1 1 0.062184381313925792 1 1 1 1 0.050268705048090126 1 1 1 1 1 1 1 1 1 1 1 1 1 1 1 1 1 1 1 1 1 1 1 1 1 1 1 1 1 1 1 1 1 1 1 1 1 1 0.049859180652991039 1 1 1 1 1 1 1 1 0.052566511773029873 1 1 1 1 0.051040561960237346 1 1 0.05028728947803246 1 1 0.052329060114145051 1 1 1 1 0.050836188823271442 1 1 1 1 1 0.051083851994824639 1 1 1 1 1 1 1 1 1 1 1 1 1 0.036305892604332951 0.050014217905769431 1 1 1 0.04519307765205148 1 1 1 1 1 1 1 1 1 1 1 1 1 1 0.049638954324455559 1 1 1 1 1 1 0.048401035779278748 1 1 0.04655115375624061 1 1 1 1 1 1 1 1 1 1 0.049008438690430561 1 1 1 1 1 0.049011907983165279 1 1 1 1 1 1 1 1 1 1 0.050896292975522901 1 1 1 1 1 1 1 1 1 1 1 1 1 1 1 0.049997774388103169 1 1 1 1 1 1 1 1 1 1 1 1 1 1 1 1 1 1 1 1 1 1 1 0.049977837887896052 1 0.051308124134647221 1 1 1 0.049837018540887082 1 1 1 1 1 1 1 1 1 0.050846400335939804 1 1 1 0.051529884441384163 1 1 1 1 1 1 1 1 1 1 1 1 1 1 1 1 0.042039632066193489 1 1 1 1 1 0.051150255886755952 1 1 1 0.042193412293622015 1 0.049861721272679238 1 1 1 1 1 1 0.042616479507291513 1 1 1 1 1 1 1 1 1 1 1 1 1 1 1 1 1 1 1 1 1 1 1 1 1 1 1 0.050407630098074682 1 1 0.050020238510055173 1 1 1 1 1 1 1 0.049702630932569561 1 1 1 1 0.050042426849387242 1 1 0.050042107793133228 1 1 1 1 1 1 0.049956710182193359 1 1 1 0.04997676368343254 1 1 1 0.049976703954632759 1 1 1 1 1 0.048798659967974015 1 1 1 1 1 0.047524553506637895 1 1 1 1 1 1 1 1 0.046312876314082992 1 1 0.049912496927683354 1 1 1 1 0.049702579981099185 1 1 1 1 0.049499929167758298 1 1 1 1 0.041932317441553471 1 1 1 0.042860991187681691 1 0.050111816761259739 1 1 1 1 1 1 1 1 1 1 0.048797211297206711 1 1 1 1 1 1 1 0.046738726937061714 0.04917349219793473 1 1 1 1 1 0.042617454474784155 1 1 1 1 1 0.045437395212526585 1 1 1 0.049729084505456357 1 1 0.049957680045234432 1 1 0.038840208394236228 1 1 1 0.045349129574458497 1 1 1 1 1 1 0.049790955391758235 1 1 1 1 1 0.049922871671870053 1 1 1 1 1 0.049974569538268288 1 1 1 1 1 1 0.04986956370664343 1 1 1 1 0.020297934661746855 1 1 1 1 1 0.049802433707861915 1 1 1 1 1 1 1 1 1 1 0.028286354606605904 1 1 1 1 1 1 1 0.052436845117019584 1 1 1 1 0.050763779356306708 0.052162452705120377 1 1 0.043031468381123386 1 1 1 1 1 1 1 0.047420553467302437 1 1 1 1 1 1 1 0.011989967324061726 1 0.055976158939058787 1 1 0.03659936700177812 1 1 1 1 0.050664408003879058 1 0.034568826587547424 1 1 1 1 1 1 1 1 1 1 0.050147639393485974 1 1 1 1 1 0.049357843548908188 1 1 1 0.012529778572662645 1 1 1 1 0.050187693219868115 1 1 0.048526612923959211 1 1 1 1 1 0.038110455201418092 1 0.028858857450921559 1 0.050007341722044268 0.049547856953697136 1 1 1 1 0.033527905689833437 0.050425129223812273 1 1 1 1 1 1 1 1 1 1 1 1 1 0.050137097573943801 1 1 1 1 1 1 0.051670594336588285 0.046965372897759317 1 1 1 1 1 1 1 1 1 1 1 1 1 0.040586234157904383 1 1 1 1 1 1 1 1 1 1 1 1 1 1 1 1 1 1 1 1 1 1 1 1 1 1 1 1 1 1 1 1 1 0.050264156230611083 1 1 0.050494983419516172 1 1 1 1 1 1 1 0.050245045094674562 1 1 1 0.050218059334688689 1 1 0.054294883596925955 1 1 1 0.024273637911331108 0.049978906751285482 1 1 1 1 0.03341548484263715 0.036278436914810502 1 1 1 1 1 1 1 1 1 1 1 1 1 1 0.024893833358227063 1 1 0.050000117402924649 1 1 1 0.029300545074884637 1 1 1 1 0.050183842841313858 1 1 0.024329463137546581 1 1 1 1 1 1 1 1 1 1 1 0.011431645462219543 1 1 1 1 1 1 1 -5.2041704279304213e-17 1 1 1 1 1 1 1 1 1 1 1 1 1 1 1 1 1 1 0.04983854869034253 1 1 1 1 1 1 0.031668784443645036 1 0.04997188211077936 1 1 1 1 1 0.051004950930210853 1 1 0.0495032085691198 1 1 1 0.02300641596175685 1 1 1 0.050391692530200448 1 1 1 1 1 1 1 1 1 1 1 1 1 1 0.049450544555452683 1 1 1 1 0.048360897481617274 0.037936037658730118 1 1 1 1 1 1 1 1 1 1 1 1 1 1 1 1 1 1 1 0.048391545756540193 1 1 1 1 1 1 1 1 0.037560754757848577 1 0.037859031201019994 1 1 1 1 1 1 1 0.049985581890264669 1 0.049540486555938602 1 1 1 1 1 0.037597906124761896 1 1 1 1 1 1 0.049583952752407665 1 1 1 1 1 0.044103544904231226 0.048542138377835262 1 1 1 0.056373781894297877 0.038303323389550288 0.044189107249925849 1 1 1 1 1 0.043914279457698664 1 1 1 1 1 0.037303127833903799 1 1 1 1 0.040990643466517665 1 0.039556341975916863 0.052830386992081813 1 0.046322588885917115 0.030902037761603551 1 1 1 0.029159593524261208 1 1 1 0.042521860508054565 1 1 1 0.046507256131175637 1 1 1 0.032510349137368222 1 1 1 1 1 1 1 1 0.027138861900935313 1 1 1 0.027793207309517419 1 1 1 1 1 1 0.024510753103495649 1 1 1 1 1 1 0.025087366620500193 1 1 1 1 1 1 1 1 1 1 1 1 1 1 0.050127710664868499 1 0.045212513015769472 1 1 1 0.031672172795223996 1 1 0.050376872101935741 1 0.048840810881990861 1 0.04982951785092176 1 1 0.037794058037604245 1 1 1 1 1 1 0.049265055791872847 1 1 1 1 0.049863207050083479 1 1 1 1 1 1 0.049745141531693716 1 1 1 1 1 1 1 1 1 1 0.04992202189062863 1 1 1 1 1 1 1 1 1 1 1 1 1 1 1 1 1 1 1 0.053850953091363285 0.053419701000182916 1 1 1 0.037415708231978394 1 1 0.054753893446734099 1 1 0.037758960360658386 1 1 0.049898379276309912 1 1 0.054358495340725468 0.048253808707630061 1 1 1 1 0.037392208664738809 1 1 1 1 1 1 1 1 1 1 1 0.057530965658424062 0.040590562251758278 1 1 1 0.051570465455408096 1 0.049976934149996724 1 0.049913218665550083 1 1 1 1 1 0.049891416191158632 1 1 0.021112228112953026 1 0.056855382392129873 1 1 0.050018754073223148 0.038313965410684769 0.03405570619675452 1 1 1 1 0.035923357012459273 1 1 0.038315657149406018 1 0.027153145057915357 1 1 0.045861242631740032 1 1 1 1 1 1 1 1 0.027489138377324737 1 0.02886834488754346 0.049451009444592367 1 1 1 1 1 0.049631600384119776 0.013861842410743147 1 1 1 0.043338300696057971 0.047891258414600742 1 1 1 1 1 1 1 1 0.049978081083976014 1 0.012210181506448356 1 1 1 1 1 1 1 1 1 1 1 1 1 1 1 1 1 1 1 1 1 1 1 1 1 1 1 1 1 0.050050395961208874 1 1 1 1 1 1 1 1 1 1 1 1 1 1 1 0.05331288108201275 1 1 0.049734323274652784 1 1 1 1 1 0.050052801231915953 1 1 1 1 1 1 1 1 1 1 1 1 1 0.049681522042736861 1 1 1 1 1 1 1 1 1 0.03184801559776923 1 1 0.065512681964315034 1 1 1 1 0.05000349524535172 0.027289775532948563 0.045805320981378489 1 1 1 1 1 0.059644954237706202 1 1 1 
</DataArray>
</CellData>
</Piece>
</UnstructuredGrid>
</VTKFile>
