<?xml version="1.0"?>
<VTKFile type="UnstructuredGrid" version="0.1" byte_order="LittleEndian">
<UnstructuredGrid>
<Piece NumberOfPoints="31048" NumberOfCells="10933">
<Points>
<DataArray type="Float64" NumberOfComponents="3" format="ascii">
-0.5 -0.5 0 -0.45966401123466488 -0.49658733248650311 0 -0.40896344978824928 -0.5 0 -0.5 -0.5 0 -0.49999999999999772 -0.47600230024017931 0 -0.47846481948080899 -0.47835377823494579 0 -0.5 -0.5 0 -0.47846481948080899 -0.47835377823494579 0 -0.45966401123466488 -0.49658733248650311 0 -0.49999999999999772 -0.47600230024017931 0 -0.47846481948080899 -0.47835377823494579 0 -0.48663031278447982 -0.45896074991701058 0 -0.49999999999999772 -0.47600230024017931 0 -0.47846481948080899 -0.47835377823494579 0 -0.47846481948080899 -0.47835377823494579 0 -0.45966401123466488 -0.49658733248650311 0 -0.45692963896162048 -0.48070525622971388 0 -0.45966401123466488 -0.49658733248650311 0 -0.45692963896162048 -0.48070525622971388 0 -0.47846481948080899 -0.47835377823494579 0 -0.45692963896162048 -0.48070525622971388 0 -0.46588888375070592 -0.46675240324930273 0 -0.45692963896162048 -0.48070525622971388 0 -0.45291178277604027 -0.45736831013892187 0 -0.47846481948080899 -0.47835377823494579 0 -0.45692963896162048 -0.48070525622971388 0 -0.45692963896162048 -0.48070525622971388 0 -0.44630962018671372 -0.46961798428304857 0 -0.45291178277604027 -0.45736831013892187 0 -0.45692963896162048 -0.48070525622971388 0 -0.44630962018671372 -0.46961798428304857 0 -0.43000179547083378 -0.48364557202407898 0 -0.45692963896162048 -0.48070525622971388 0 -0.43000179547083378 -0.48364557202407898 0 -0.45966401123466488 -0.49658733248650311 0 -0.45692963896162048 -0.48070525622971388 0 -0.43000179547083378 -0.48364557202407898 0 -0.45291178277604027 -0.45736831013892187 0 -0.44889392659046018 -0.43403136404812981 0 -0.44576964967754928 -0.44775750114313551 0 -0.45291178277604027 -0.45736831013892187 0 -0.44889392659046018 -0.43403136404812981 0 -0.44576964967754928 -0.44775750114313551 0 -0.4420236995768253 -0.43889794657762188 0 -0.44889392659046018 -0.43403136404812981 0 -0.4420236995768253 -0.43889794657762188 0 -0.43795457363143991 -0.44704478416018989 0 -0.4353432285932719 -0.4354544262594332 0 -0.44576964967754928 -0.44775750114313551 0 -0.4420236995768253 -0.43889794657762188 0 -0.43795457363143991 -0.44704478416018989 0 -0.44576964967754928 -0.44775750114313551 0 -0.43795457363143991 -0.44704478416018989 0 -0.44144336127146788 -0.45782316793564931 0 -0.44630962018671372 -0.46961798428304857 0 -0.44144336127146788 -0.45782316793564931 0 -0.4342616214588958 -0.46725457514822838 0 -0.44630962018671372 -0.46961798428304857 0 -0.44144336127146788 -0.45782316793564931 0 -0.45291178277604027 -0.45736831013892187 0 -0.44576964967754928 -0.44775750114313551 0 -0.44144336127146788 -0.45782316793564931 0 -0.45291178277604027 -0.45736831013892187 0 -0.45692963896162048 -0.48070525622971388 0 -0.45291178277604027 -0.45736831013892187 0 -0.46588888375070592 -0.46675240324930273 0 -0.45291178277604027 -0.45736831013892187 0 -0.45966933447960318 -0.45572426184337628 0 -0.46575185313353917 -0.45925153041176398 0 -0.45291178277604027 -0.45736831013892187 0 -0.46588888375070592 -0.46675240324930273 0 -0.46575185313353917 -0.45925153041176398 0 -0.46588888375070592 -0.46675240324930273 0 -0.46575185313353917 -0.45925153041176398 0 -0.47444295785175589 -0.4593023255142048 0 -0.45966933447960318 -0.45572426184337628 0 -0.46575185313353917 -0.45925153041176398 0 -0.46790989392199378 -0.45216716007609492 0 -0.45966933447960318 -0.45572426184337628 0 -0.46599162139971789 -0.43886018175947239 0 -0.46397647541351938 -0.44185953462894217 0 -0.46599162139971789 -0.43886018175947239 0 -0.46790989392199378 -0.45216716007609492 0 -0.47105949878466319 -0.43114296985480949 0 -0.45966933447960318 -0.45572426184337628 0 -0.46599162139971789 -0.43886018175947239 0 -0.46790989392199378 -0.45216716007609492 0 -0.45966933447960318 -0.45572426184337628 0 -0.46599162139971789 -0.43886018175947239 0 -0.45291178277604027 -0.45736831013892187 0 -0.46397647541351938 -0.44185953462894217 0 -0.44889392659046018 -0.43403136404812981 0 -0.45291178277604027 -0.45736831013892187 0 -0.45966933447960318 -0.45572426184337628 0 -0.46397647541351938 -0.44185953462894217 0 -0.46790989392199378 -0.45216716007609492 0 -0.47710204910637383 -0.42416254534193581 0 -0.46790989392199378 -0.45216716007609492 0 -0.48005421812543569 -0.43942908164429162 0 -0.47710204910637383 -0.42416254534193581 0 -0.46790989392199378 -0.45216716007609492 0 -0.47962785556108539 -0.45003824052489749 0 -0.48005421812543569 -0.43942908164429162 0 -0.47962785556108539 -0.45003824052489749 0 -0.48005421812543569 -0.43942908164429162 0 -0.48868798392767793 -0.44201763362024438 0 -0.47846481948080899 -0.47835377823494579 0 -0.46588888375070592 -0.46675240324930273 0 -0.47444295785175589 -0.4593023255142048 0 -0.47846481948080899 -0.47835377823494579 0 -0.47444295785175589 -0.4593023255142048 0 -0.48663031278447982 -0.45896074991701058 0 -0.46790989392199378 -0.45216716007609492 0 -0.47962785556108539 -0.45003824052489749 0 -0.47444295785175589 -0.4593023255142048 0 -0.46575185313353917 -0.45925153041176398 0 -0.46790989392199378 -0.45216716007609492 0 -0.47444295785175589 -0.4593023255142048 0 -0.47962785556108539 -0.45003824052489749 0 -0.47444295785175589 -0.4593023255142048 0 -0.48663031278447982 -0.45896074991701058 0 -0.49999999999999772 -0.47600230024017931 0 -0.48663031278447982 -0.45896074991701058 0 -0.5 -0.45043107386881692 0 -0.5 -0.45043107386881692 0 -0.48868798392767793 -0.44201763362024438 0 -0.5 -0.42485984749745448 0 -0.47962785556108539 -0.45003824052489749 0 -0.48663031278447982 -0.45896074991701058 0 -0.48868798392767793 -0.44201763362024438 0 -0.48663031278447982 -0.45896074991701058 0 -0.5 -0.45043107386881692 0 -0.48868798392767793 -0.44201763362024438 0 -0.48868798392767793 -0.44201763362024438 0 -0.48879895941858131 -0.42945493301215171 0 -0.5 -0.42485984749745448 0 -0.48005421812543569 -0.43942908164429162 0 -0.48868798392767793 -0.44201763362024438 0 -0.48879895941858131 -0.42945493301215171 0 -0.48879895941858131 -0.42945493301215171 0 -0.48637954663565369 -0.42293705884680671 0 -0.49075502247517022 -0.42076817690049412 0 -0.48879895941858131 -0.42945493301215171 0 -0.5 -0.42485984749745448 0 -0.49075502247517022 -0.42076817690049412 0 -0.5 -0.42485984749745448 0 -0.49178400022208502 -0.41002789218281499 0 -0.5 -0.39928862112609209 0 -0.5 -0.42485984749745448 0 -0.49178400022208502 -0.41002789218281499 0 -0.49075502247517022 -0.42076817690049412 0 -0.49178400022208502 -0.41002789218281499 0 -0.48508458381982911 -0.41298753957730511 0 -0.48463967985132689 -0.40119856782122698 0 -0.49178400022208502 -0.41002789218281499 0 -0.48508458381982911 -0.41298753957730511 0 -0.4868126060995307 -0.41656115296324231 0 -0.49178400022208502 -0.41002789218281499 0 -0.49075502247517022 -0.42076817690049412 0 -0.4868126060995307 -0.41656115296324231 0 -0.48637954663565369 -0.42293705884680671 0 -0.49075502247517022 -0.42076817690049412 0 -0.4868126060995307 -0.41656115296324231 0 -0.47710204910637383 -0.42416254534193581 0 -0.48463967985132689 -0.40119856782122698 0 -0.47231390831983278 -0.42199610167556861 0 -0.48154260554655492 -0.39737945724483481 0 -0.48508458381982911 -0.41298753957730511 0 -0.47710204910637383 -0.42416254534193581 0 -0.48463967985132689 -0.40119856782122698 0 -0.48637954663565369 -0.42293705884680671 0 -0.4868126060995307 -0.41656115296324231 0 -0.47710204910637383 -0.42416254534193581 0 -0.47553249120311331 -0.40762552545486341 0 -0.47231390831983278 -0.42199610167556861 0 -0.48154260554655492 -0.39737945724483481 0 -0.47231390831983278 -0.42199610167556861 0 -0.48463967985132689 -0.40119856782122698 0 -0.48154260554655492 -0.39737945724483481 0 -0.47231390831983278 -0.42199610167556861 0 -0.47710204910637383 -0.42416254534193581 0 -0.48463967985132689 -0.40119856782122698 0 -0.48508458381982911 -0.41298753957730511 0 -0.4868126060995307 -0.41656115296324231 0 -0.47710204910637383 -0.42416254534193581 0 -0.47553249120311331 -0.40762552545486341 0 -0.47148754737094928 -0.41024777641391352 0 -0.47188226019967122 -0.41422254246750029 0 -0.46925429150769538 -0.41284899187400492 0 -0.47148754737094928 -0.41024777641391352 0 -0.47188226019967122 -0.41422254246750029 0 -0.46925429150769538 -0.41284899187400492 0 -0.47148754737094928 -0.41024777641391352 0 -0.46865892537956277 -0.40941828865034202 0 -0.47553249120311331 -0.40762552545486341 0 -0.47148754737094928 -0.41024777641391352 0 -0.47091700398815578 -0.40664614660913562 0 -0.47148754737094928 -0.41024777641391352 0 -0.47091700398815578 -0.40664614660913562 0 -0.46865892537956277 -0.40941828865034202 0 -0.47091700398815578 -0.40664614660913562 0 -0.46760452559658178 -0.40599474626548587 0 -0.46865892537956277 -0.40941828865034202 0 -0.47553249120311331 -0.40762552545486341 0 -0.47188226019967122 -0.41422254246750029 0 -0.47231390831983278 -0.42199610167556861 0 -0.46925429150769538 -0.41284899187400492 0 -0.47188226019967122 -0.41422254246750029 0 -0.46871474998237039 -0.41726916442086359 0 -0.47188226019967122 -0.41422254246750029 0 -0.47231390831983278 -0.42199610167556861 0 -0.46871474998237039 -0.41726916442086359 0 -0.46599162139971789 -0.43886018175947239 0 -0.47231390831983278 -0.42199610167556861 0 -0.46790989392199378 -0.45216716007609492 0 -0.47105949878466319 -0.43114296985480949 0 -0.47710204910637383 -0.42416254534193581 0 -0.47231390831983278 -0.42199610167556861 0 -0.47105949878466319 -0.43114296985480949 0 -0.47710204910637383 -0.42416254534193581 0 -0.46599162139971789 -0.43886018175947239 0 -0.47231390831983278 -0.42199610167556861 0 -0.47105949878466319 -0.43114296985480949 0 -0.47231390831983278 -0.42199610167556861 0 -0.47710204910637383 -0.42416254534193581 0 -0.48005421812543569 -0.43942908164429162 0 -0.48879895941858131 -0.42945493301215171 0 -0.47710204910637383 -0.42416254534193581 0 -0.48879895941858131 -0.42945493301215171 0 -0.48637954663565369 -0.42293705884680671 0 -0.47710204910637383 -0.42416254534193581 0 -0.48879895941858131 -0.42945493301215171 0 -0.47710204910637383 -0.42416254534193581 0 -0.49217731059628372 -0.37823459030051942 0 -0.49378365375220928 -0.39018500709506238 0 -0.5 -0.37371739475472959 0 -0.48154260554655492 -0.39737945724483481 0 -0.49077130277327702 -0.37276281281410101 0 -0.49378365375220928 -0.39018500709506238 0 -0.5 -0.39928862112609209 0 -0.5 -0.37371739475472959 0 -0.49217731059628372 -0.37823459030051942 0 -0.48463967985132689 -0.40119856782122698 0 -0.49217731059628372 -0.37823459030051942 0 -0.48154260554655492 -0.39737945724483481 0 -0.49077130277327702 -0.37276281281410101 0 -0.49217731059628372 -0.37823459030051942 0 -0.49378365375220928 -0.39018500709506238 0 -0.48463967985132689 -0.40119856782122698 0 -0.49217731059628372 -0.37823459030051942 0 -0.48463967985132689 -0.40119856782122698 0 -0.48154260554655492 -0.39737945724483481 0 -0.49378365375220928 -0.39018500709506238 0 -0.4925518334564053 -0.40017502205629912 0 -0.48463967985132689 -0.40119856782122698 0 -0.49378365375220928 -0.39018500709506238 0 -0.4925518334564053 -0.40017502205629912 0 -0.5 -0.39928862112609209 0 -0.49178400022208502 -0.41002789218281499 0 -0.4925518334564053 -0.40017502205629912 0 -0.5 -0.39928862112609209 0 -0.49178400022208502 -0.41002789218281499 0 -0.4925518334564053 -0.40017502205629912 0 -0.48463967985132689 -0.40119856782122698 0 -0.47553249120311331 -0.40762552545486341 0 -0.4757368639821522 -0.40089389757604332 0 -0.48154260554655492 -0.39737945724483481 0 -0.47553249120311331 -0.40762552545486341 0 -0.47288570591939733 -0.4035570862188968 0 -0.4757368639821522 -0.40089389757604332 0 -0.47553249120311331 -0.40762552545486341 0 -0.47091700398815578 -0.40664614660913562 0 -0.47288570591939733 -0.4035570862188968 0 -0.47091700398815578 -0.40664614660913562 0 -0.47288570591939733 -0.4035570862188968 0 -0.46933282845933061 -0.40303345665131168 0 -0.47091700398815578 -0.40664614660913562 0 -0.46933282845933061 -0.40303345665131168 0 -0.46760452559658178 -0.40599474626548587 0 -0.46933282845933061 -0.40303345665131168 0 -0.47171657738768652 -0.39910901778940833 0 -0.46544009644847001 -0.39930566231227721 0 -0.47288570591939733 -0.4035570862188968 0 -0.46933282845933061 -0.40303345665131168 0 -0.47171657738768652 -0.39910901778940833 0 -0.47288570591939733 -0.4035570862188968 0 -0.47171657738768652 -0.39910901778940833 0 -0.4757368639821522 -0.40089389757604332 0 -0.47171657738768652 -0.39910901778940833 0 -0.4757368639821522 -0.40089389757604332 0 -0.47624084322076132 -0.3959818830145222 0 -0.47171657738768652 -0.39910901778940833 0 -0.47624084322076132 -0.3959818830145222 0 -0.47227292177095609 -0.39392263011158701 0 -0.47171657738768652 -0.39910901778940833 0 -0.47227292177095609 -0.39392263011158701 0 -0.46806858697703663 -0.39520944228166471 0 -0.47227292177095609 -0.39392263011158701 0 -0.46839294697461792 -0.38891290295235459 0 -0.46806858697703663 -0.39520944228166471 0 -0.47227292177095609 -0.39392263011158701 0 -0.475786416275706 -0.39051696191708829 0 -0.46839294697461792 -0.38891290295235459 0 -0.47624084322076132 -0.3959818830145222 0 -0.47227292177095609 -0.39392263011158701 0 -0.475786416275706 -0.39051696191708829 0 -0.47844147526905118 -0.39298212553100381 0 -0.48154260554655492 -0.39737945724483481 0 -0.48035260079689712 -0.38638239377038708 0 -0.47624084322076132 -0.3959818830145222 0 -0.47844147526905118 -0.39298212553100381 0 -0.475786416275706 -0.39051696191708829 0 -0.4757368639821522 -0.40089389757604332 0 -0.47624084322076132 -0.3959818830145222 0 -0.48154260554655492 -0.39737945724483481 0 -0.47624084322076132 -0.3959818830145222 0 -0.47844147526905118 -0.39298212553100381 0 -0.48154260554655492 -0.39737945724483481 0 -0.48154260554655492 -0.39737945724483481 0 -0.48035260079689712 -0.38638239377038708 0 -0.49077130277327702 -0.37276281281410101 0 -0.48035260079689712 -0.38638239377038708 0 -0.47509609930583929 -0.38469199763262929 0 -0.47994373849828909 -0.37959026784392652 0 -0.47844147526905118 -0.39298212553100381 0 -0.48035260079689712 -0.38638239377038708 0 -0.475786416275706 -0.39051696191708829 0 -0.48035260079689712 -0.38638239377038708 0 -0.475786416275706 -0.39051696191708829 0 -0.47509609930583929 -0.38469199763262929 0 -0.475786416275706 -0.39051696191708829 0 -0.47509609930583929 -0.38469199763262929 0 -0.46839294697461792 -0.38891290295235459 0 -0.47509609930583929 -0.38469199763262929 0 -0.47100479398368639 -0.37805746167938997 0 -0.46839294697461792 -0.38891290295235459 0 -0.47509609930583929 -0.38469199763262929 0 -0.47100479398368639 -0.37805746167938997 0 -0.47994373849828909 -0.37959026784392652 0 -0.48035260079689712 -0.38638239377038708 0 -0.47994373849828909 -0.37959026784392652 0 -0.49077130277327702 -0.37276281281410101 0 -0.47100479398368639 -0.37805746167938997 0 -0.47994373849828909 -0.37959026784392652 0 -0.48049096145974451 -0.3725438070269953 0 -0.4582149991379656 -0.38680779802656828 0 -0.44616179505902981 -0.38185194220403518 0 -0.45635759651788949 -0.37088045004578329 0 -0.47100479398368639 -0.37805746167938997 0 -0.4582149991379656 -0.38680779802656828 0 -0.45635759651788949 -0.37088045004578329 0 -0.46839294697461792 -0.38891290295235459 0 -0.4582149991379656 -0.38680779802656828 0 -0.46252039230345232 -0.39479699824269632 0 -0.47100479398368639 -0.37805746167938997 0 -0.46839294697461792 -0.38891290295235459 0 -0.4582149991379656 -0.38680779802656828 0 -0.4582149991379656 -0.38680779802656828 0 -0.45538046555554962 -0.39540536838626511 0 -0.46252039230345232 -0.39479699824269632 0 -0.4582149991379656 -0.38680779802656828 0 -0.45538046555554962 -0.39540536838626511 0 -0.44930244564643979 -0.39050233645106519 0 -0.45538046555554962 -0.39540536838626511 0 -0.46252039230345232 -0.39479699824269632 0 -0.45982811269789492 -0.40072842380118417 0 -0.46839294697461792 -0.38891290295235459 0 -0.46806858697703663 -0.39520944228166471 0 -0.46252039230345232 -0.39479699824269632 0 -0.47171657738768652 -0.39910901778940833 0 -0.46806858697703663 -0.39520944228166471 0 -0.46544009644847001 -0.39930566231227721 0 -0.46806858697703663 -0.39520944228166471 0 -0.46252039230345232 -0.39479699824269632 0 -0.46544009644847001 -0.39930566231227721 0 -0.46252039230345232 -0.39479699824269632 0 -0.46544009644847001 -0.39930566231227721 0 -0.45982811269789492 -0.40072842380118417 0 -0.46544009644847001 -0.39930566231227721 0 -0.46326591963120012 -0.40236665711281883 0 -0.45982811269789492 -0.40072842380118417 0 -0.46544009644847001 -0.39930566231227721 0 -0.46598300249544128 -0.40300907788625512 0 -0.46326591963120012 -0.40236665711281883 0 -0.46933282845933061 -0.40303345665131168 0 -0.46544009644847001 -0.39930566231227721 0 -0.46598300249544128 -0.40300907788625512 0 -0.46933282845933061 -0.40303345665131168 0 -0.46760452559658178 -0.40599474626548587 0 -0.46598300249544128 -0.40300907788625512 0 -0.46760452559658178 -0.40599474626548587 0 -0.46598300249544128 -0.40300907788625512 0 -0.46398603183118331 -0.40483578278605598 0 -0.46598300249544128 -0.40300907788625512 0 -0.46398603183118331 -0.40483578278605598 0 -0.46326591963120012 -0.40236665711281883 0 -0.46398603183118331 -0.40483578278605598 0 -0.46326591963120012 -0.40236665711281883 0 -0.46109235468301019 -0.40395433877832121 0 -0.46326591963120012 -0.40236665711281883 0 -0.46109235468301019 -0.40395433877832121 0 -0.45982811269789492 -0.40072842380118417 0 -0.46398603183118331 -0.40483578278605598 0 -0.46109235468301019 -0.40395433877832121 0 -0.46076751545053451 -0.40670356482569181 0 -0.46109235468301019 -0.40395433877832121 0 -0.45732858329379711 -0.40562818106252968 0 -0.45982811269789492 -0.40072842380118417 0 -0.46109235468301019 -0.40395433877832121 0 -0.45732858329379711 -0.40562818106252968 0 -0.46076751545053451 -0.40670356482569181 0 -0.45538046555554962 -0.39540536838626511 0 -0.45982811269789492 -0.40072842380118417 0 -0.45316682962481608 -0.40265837419557188 0 -0.45732858329379711 -0.40562818106252968 0 -0.45982811269789492 -0.40072842380118417 0 -0.45316682962481608 -0.40265837419557188 0 -0.45732858329379711 -0.40562818106252968 0 -0.45316682962481608 -0.40265837419557188 0 -0.45355623364871811 -0.40626925522489882 0 -0.44769427973163201 -0.40262064781065859 0 -0.44200230341023322 -0.39271698243239728 0 -0.44559859644893829 -0.40990848337486541 0 -0.44559859644893829 -0.40990848337486541 0 -0.43188535853137372 -0.38606719198275591 0 -0.44200230341023322 -0.39271698243239728 0 -0.44559859644893829 -0.40990848337486541 0 -0.43188535853137372 -0.38606719198275591 0 -0.45316682962481608 -0.40265837419557188 0 -0.45084600708240502 -0.40571533409987148 0 -0.44769427973163201 -0.40262064781065859 0 -0.45316682962481608 -0.40265837419557188 0 -0.45084600708240502 -0.40571533409987148 0 -0.45355623364871811 -0.40626925522489882 0 -0.45316682962481608 -0.40265837419557188 0 -0.44769427973163201 -0.40262064781065859 0 -0.44925001392272929 -0.39693827960050448 0 -0.45084600708240502 -0.40571533409987148 0 -0.44769427973163201 -0.40262064781065859 0 -0.44890577556851752 -0.40676364005183169 0 -0.44769427973163201 -0.40262064781065859 0 -0.44200230341023322 -0.39271698243239728 0 -0.44925001392272929 -0.39693827960050448 0 -0.44200230341023322 -0.39271698243239728 0 -0.44925001392272929 -0.39693827960050448 0 -0.44930244564643979 -0.39050233645106519 0 -0.45538046555554962 -0.39540536838626511 0 -0.45316682962481608 -0.40265837419557188 0 -0.44925001392272929 -0.39693827960050448 0 -0.45538046555554962 -0.39540536838626511 0 -0.44925001392272929 -0.39693827960050448 0 -0.44930244564643979 -0.39050233645106519 0 -0.44616179505902981 -0.38185194220403518 0 -0.43188535853137372 -0.38606719198275591 0 -0.44091665549700731 -0.36524421336338447 0 -0.44200230341023322 -0.39271698243239728 0 -0.44930244564643979 -0.39050233645106519 0 -0.44616179505902981 -0.38185194220403518 0 -0.4582149991379656 -0.38680779802656828 0 -0.44930244564643979 -0.39050233645106519 0 -0.44616179505902981 -0.38185194220403518 0 -0.44200230341023322 -0.39271698243239728 0 -0.44616179505902981 -0.38185194220403518 0 -0.43188535853137372 -0.38606719198275591 0 -0.46599162139971789 -0.43886018175947239 0 -0.47231390831983278 -0.42199610167556861 0 -0.45478753593122911 -0.42588400900190371 0 -0.46397647541351938 -0.44185953462894217 0 -0.45478753593122911 -0.42588400900190371 0 -0.46599162139971789 -0.43886018175947239 0 -0.46397647541351938 -0.44185953462894217 0 -0.45478753593122911 -0.42588400900190371 0 -0.46397647541351938 -0.44185953462894217 0 -0.45478753593122911 -0.42588400900190371 0 -0.44889392659046018 -0.43403136404812981 0 -0.47231390831983278 -0.42199610167556861 0 -0.45478753593122911 -0.42588400900190371 0 -0.44559859644893829 -0.40990848337486541 0 -0.47231390831983278 -0.42199610167556861 0 -0.46871474998237039 -0.41726916442086359 0 -0.46098374456215391 -0.41336833076097201 0 -0.47231390831983278 -0.42199610167556861 0 -0.4562049677185695 -0.41249269478868122 0 -0.44559859644893829 -0.40990848337486541 0 -0.47231390831983278 -0.42199610167556861 0 -0.44559859644893829 -0.40990848337486541 0 -0.47231390831983278 -0.42199610167556861 0 -0.46098374456215391 -0.41336833076097201 0 -0.4562049677185695 -0.41249269478868122 0 -0.46871474998237039 -0.41726916442086359 0 -0.46670777263350027 -0.41398115551761627 0 -0.46420038920005058 -0.41328079472579871 0 -0.46925429150769538 -0.41284899187400492 0 -0.46871474998237039 -0.41726916442086359 0 -0.46670777263350027 -0.41398115551761627 0 -0.46871474998237039 -0.41726916442086359 0 -0.46420038920005058 -0.41328079472579871 0 -0.46098374456215391 -0.41336833076097201 0 -0.46760452559658178 -0.40599474626548587 0 -0.46398603183118331 -0.40483578278605598 0 -0.46521607517600833 -0.40855620312327978 0 -0.46760452559658178 -0.40599474626548587 0 -0.46865892537956277 -0.40941828865034202 0 -0.46521607517600833 -0.40855620312327978 0 -0.46865892537956277 -0.40941828865034202 0 -0.46521607517600833 -0.40855620312327978 0 -0.46603220874983448 -0.41135010552126089 0 -0.46925429150769538 -0.41284899187400492 0 -0.46865892537956277 -0.40941828865034202 0 -0.46603220874983448 -0.41135010552126089 0 -0.46925429150769538 -0.41284899187400492 0 -0.46603220874983448 -0.41135010552126089 0 -0.46670777263350027 -0.41398115551761627 0 -0.46603220874983448 -0.41135010552126089 0 -0.46670777263350027 -0.41398115551761627 0 -0.46420038920005058 -0.41328079472579871 0 -0.46420038920005058 -0.41328079472579871 0 -0.46098374456215391 -0.41336833076097201 0 -0.4621557986021898 -0.41001519923652402 0 -0.46603220874983448 -0.41135010552126089 0 -0.46420038920005058 -0.41328079472579871 0 -0.4621557986021898 -0.41001519923652402 0 -0.46521607517600833 -0.40855620312327978 0 -0.4621557986021898 -0.41001519923652402 0 -0.46303135526497902 -0.40752768749288792 0 -0.46521607517600833 -0.40855620312327978 0 -0.46603220874983448 -0.41135010552126089 0 -0.4621557986021898 -0.41001519923652402 0 -0.4621557986021898 -0.41001519923652402 0 -0.46303135526497902 -0.40752768749288792 0 -0.46076751545053451 -0.40670356482569181 0 -0.46398603183118331 -0.40483578278605598 0 -0.46303135526497902 -0.40752768749288792 0 -0.46076751545053451 -0.40670356482569181 0 -0.46398603183118331 -0.40483578278605598 0 -0.46521607517600833 -0.40855620312327978 0 -0.46303135526497902 -0.40752768749288792 0 -0.45732858329379711 -0.40562818106252968 0 -0.46076751545053451 -0.40670356482569181 0 -0.45848810350682218 -0.40951346505415381 0 -0.45732858329379711 -0.40562818106252968 0 -0.45848810350682218 -0.40951346505415381 0 -0.45542485111622011 -0.40850393391340761 0 -0.4621557986021898 -0.41001519923652402 0 -0.46076751545053451 -0.40670356482569181 0 -0.45848810350682218 -0.40951346505415381 0 -0.46098374456215391 -0.41336833076097201 0 -0.45848810350682218 -0.40951346505415381 0 -0.4562049677185695 -0.41249269478868122 0 -0.46098374456215391 -0.41336833076097201 0 -0.4621557986021898 -0.41001519923652402 0 -0.45848810350682218 -0.40951346505415381 0 -0.45848810350682218 -0.40951346505415381 0 -0.4562049677185695 -0.41249269478868122 0 -0.45542485111622011 -0.40850393391340761 0 -0.4562049677185695 -0.41249269478868122 0 -0.45542485111622011 -0.40850393391340761 0 -0.45148421901109459 -0.4088100949219316 0 -0.45542485111622011 -0.40850393391340761 0 -0.45355623364871811 -0.40626925522489882 0 -0.45148421901109459 -0.4088100949219316 0 -0.45732858329379711 -0.40562818106252968 0 -0.45542485111622011 -0.40850393391340761 0 -0.45355623364871811 -0.40626925522489882 0 -0.45478753593122911 -0.42588400900190371 0 -0.44559859644893829 -0.40990848337486541 0 -0.4562049677185695 -0.41249269478868122 0 -0.45148421901109459 -0.4088100949219316 0 -0.44559859644893829 -0.40990848337486541 0 -0.45084600708240502 -0.40571533409987148 0 -0.45148421901109459 -0.4088100949219316 0 -0.44890577556851752 -0.40676364005183169 0 -0.45084600708240502 -0.40571533409987148 0 -0.45355623364871811 -0.40626925522489882 0 -0.45148421901109459 -0.4088100949219316 0 -0.44769427973163201 -0.40262064781065859 0 -0.44559859644893829 -0.40990848337486541 0 -0.44890577556851752 -0.40676364005183169 0 -0.45148421901109459 -0.4088100949219316 0 -0.44559859644893829 -0.40990848337486541 0 -0.44890577556851752 -0.40676364005183169 0 -0.44586651269008992 -0.42339786226678289 0 -0.43200855771365332 -0.41044360894392329 0 -0.44559859644893829 -0.40990848337486541 0 -0.44586651269008992 -0.42339786226678289 0 -0.43200855771365332 -0.41044360894392329 0 -0.45478753593122911 -0.42588400900190371 0 -0.44559859644893829 -0.40990848337486541 0 -0.44889392659046018 -0.43403136404812981 0 -0.44559859644893829 -0.40990848337486541 0 -0.44889392659046018 -0.43403136404812981 0 -0.44559859644893829 -0.40990848337486541 0 -0.44586651269008992 -0.42339786226678289 0 -0.44889392659046018 -0.43403136404812981 0 -0.44586651269008992 -0.42339786226678289 0 -0.44180617367271308 -0.43055262432490221 0 -0.43384325424592518 -0.42404195512831822 0 -0.44586651269008992 -0.42339786226678289 0 -0.44889392659046018 -0.43403136404812981 0 -0.44180617367271308 -0.43055262432490221 0 -0.4420236995768253 -0.43889794657762188 0 -0.44889392659046018 -0.43403136404812981 0 -0.44180617367271308 -0.43055262432490221 0 -0.4420236995768253 -0.43889794657762188 0 -0.44180617367271308 -0.43055262432490221 0 -0.4353432285932719 -0.4354544262594332 0 -0.44180617367271308 -0.43055262432490221 0 -0.4353432285932719 -0.4354544262594332 0 -0.43384325424592518 -0.42404195512831822 0 -0.4353432285932719 -0.4354544262594332 0 -0.42652070429886302 -0.43048521210487478 0 -0.43384325424592518 -0.42404195512831822 0 -0.4353432285932719 -0.4354544262594332 0 -0.42652070429886302 -0.43048521210487478 0 -0.42708408049008079 -0.44222887119709459 0 -0.42652070429886302 -0.43048521210487478 0 -0.4153734498284104 -0.43690532000970961 0 -0.42708408049008079 -0.44222887119709459 0 -0.42652070429886302 -0.43048521210487478 0 -0.43384325424592518 -0.42404195512831822 0 -0.41999830031718888 -0.41952708055269622 0 -0.43200855771365332 -0.41044360894392329 0 -0.41999830031718888 -0.41952708055269622 0 -0.41815060273721738 -0.39748935562106308 0 -0.44586651269008992 -0.42339786226678289 0 -0.43384325424592518 -0.42404195512831822 0 -0.43200855771365332 -0.41044360894392329 0 -0.43384325424592518 -0.42404195512831822 0 -0.43200855771365332 -0.41044360894392329 0 -0.41999830031718888 -0.41952708055269622 0 -0.41999830031718888 -0.41952708055269622 0 -0.40762547487354728 -0.41267488957585402 0 -0.41815060273721738 -0.39748935562106308 0 -0.41999830031718888 -0.41952708055269622 0 -0.40762547487354728 -0.41267488957585402 0 -0.40539426624422809 -0.42670693672781179 0 -0.4153734498284104 -0.43690532000970961 0 -0.40539426624422809 -0.42670693672781179 0 -0.40336093209443202 -0.44256797957160871 0 -0.42652070429886302 -0.43048521210487478 0 -0.41999830031718888 -0.41952708055269622 0 -0.4153734498284104 -0.43690532000970961 0 -0.41999830031718888 -0.41952708055269622 0 -0.4153734498284104 -0.43690532000970961 0 -0.40539426624422809 -0.42670693672781179 0 -0.43188535853137372 -0.38606719198275591 0 -0.41815060273721738 -0.39748935562106308 0 -0.41727822103040141 -0.37877151101651668 0 -0.43188535853137372 -0.38606719198275591 0 -0.41727822103040141 -0.37877151101651668 0 -0.41817212061380848 -0.36222590059064652 0 -0.44559859644893829 -0.40990848337486541 0 -0.43188535853137372 -0.38606719198275591 0 -0.41815060273721738 -0.39748935562106308 0 -0.44559859644893829 -0.40990848337486541 0 -0.43200855771365332 -0.41044360894392329 0 -0.41815060273721738 -0.39748935562106308 0 -0.44559859644893829 -0.40990848337486541 0 -0.41815060273721738 -0.39748935562106308 0 -0.43200855771365332 -0.41044360894392329 0 -0.41815060273721738 -0.39748935562106308 0 -0.41815060273721738 -0.39748935562106308 0 -0.40105596197332227 -0.38975470915538868 0 -0.40442842339398172 -0.40135381216396238 0 -0.41815060273721738 -0.39748935562106308 0 -0.40105596197332227 -0.38975470915538868 0 -0.40762547487354728 -0.41267488957585402 0 -0.41815060273721738 -0.39748935562106308 0 -0.40442842339398172 -0.40135381216396238 0 -0.41815060273721738 -0.39748935562106308 0 -0.40137425648189712 -0.38180702445510539 0 -0.41815060273721738 -0.39748935562106308 0 -0.40137425648189712 -0.38180702445510539 0 -0.40105596197332227 -0.38975470915538868 0 -0.41815060273721738 -0.39748935562106308 0 -0.41042904848230249 -0.38162800184648971 0 -0.40137425648189712 -0.38180702445510539 0 -0.41815060273721738 -0.39748935562106308 0 -0.41042904848230249 -0.38162800184648971 0 -0.41727822103040141 -0.37877151101651668 0 -0.41042904848230249 -0.38162800184648971 0 -0.41156998819073592 -0.37699513358398312 0 -0.41727822103040141 -0.37877151101651668 0 -0.41042904848230249 -0.38162800184648971 0 -0.41156998819073592 -0.37699513358398312 0 -0.40377217397126081 -0.3730769845557802 0 -0.40105596197332227 -0.38975470915538868 0 -0.38396132120942678 -0.38202006268971478 0 -0.40137425648189712 -0.38180702445510539 0 -0.40105596197332227 -0.38975470915538868 0 -0.38396132120942678 -0.38202006268971478 0 -0.41042904848230249 -0.38162800184648971 0 -0.40137425648189712 -0.38180702445510539 0 -0.40377217397126081 -0.3730769845557802 0 -0.40105596197332227 -0.38975470915538868 0 -0.39568273807421028 -0.39959875092602098 0 -0.3859689890887506 -0.39397747093738872 0 -0.40105596197332227 -0.38975470915538868 0 -0.40442842339398172 -0.40135381216396238 0 -0.39568273807421028 -0.39959875092602098 0 -0.40442842339398172 -0.40135381216396238 0 -0.39568273807421028 -0.39959875092602098 0 -0.39765525426452208 -0.40825046079734673 0 -0.39568273807421028 -0.39959875092602098 0 -0.39765525426452208 -0.40825046079734673 0 -0.38810561350056882 -0.40702837271868397 0 -0.37682871575927379 -0.4031209564268845 0 -0.3859689890887506 -0.39397747093738872 0 -0.37098705112042651 -0.38640796132580352 0 -0.39568273807421028 -0.39959875092602098 0 -0.3859689890887506 -0.39397747093738872 0 -0.38810561350056882 -0.40702837271868397 0 -0.37682871575927379 -0.4031209564268845 0 -0.3859689890887506 -0.39397747093738872 0 -0.38810561350056882 -0.40702837271868397 0 -0.40137425648189712 -0.38180702445510539 0 -0.38396132120942678 -0.38202006268971478 0 -0.38459791022657719 -0.36612469328914687 0 -0.40105596197332227 -0.38975470915538868 0 -0.3859689890887506 -0.39397747093738872 0 -0.38396132120942678 -0.38202006268971478 0 -0.3859689890887506 -0.39397747093738872 0 -0.38396132120942678 -0.38202006268971478 0 -0.37098705112042651 -0.38640796132580352 0 -0.38396132120942678 -0.38202006268971478 0 -0.37554122506897858 -0.37413195453287218 0 -0.37098705112042651 -0.38640796132580352 0 -0.40539426624422809 -0.42670693672781179 0 -0.39386331478719461 -0.41878454231592599 0 -0.38703114723878018 -0.43361022622180928 0 -0.40539426624422809 -0.42670693672781179 0 -0.38703114723878018 -0.43361022622180928 0 -0.40336093209443202 -0.44256797957160871 0 -0.40762547487354728 -0.41267488957585402 0 -0.40539426624422809 -0.42670693672781179 0 -0.39386331478719461 -0.41878454231592599 0 -0.40762547487354728 -0.41267488957585402 0 -0.40442842339398172 -0.40135381216396238 0 -0.39765525426452208 -0.40825046079734673 0 -0.40762547487354728 -0.41267488957585402 0 -0.39765525426452208 -0.40825046079734673 0 -0.39386331478719461 -0.41878454231592599 0 -0.39765525426452208 -0.40825046079734673 0 -0.39386331478719461 -0.41878454231592599 0 -0.38810561350056882 -0.40702837271868397 0 -0.39386331478719461 -0.41878454231592599 0 -0.38810561350056882 -0.40702837271868397 0 -0.37863466902946158 -0.41843805490853758 0 -0.37682871575927379 -0.4031209564268845 0 -0.38810561350056882 -0.40702837271868397 0 -0.37863466902946158 -0.41843805490853758 0 -0.37863466902946158 -0.41843805490853758 0 -0.38703114723878018 -0.43361022622180928 0 -0.36653449971058388 -0.43022957819680357 0 -0.39386331478719461 -0.41878454231592599 0 -0.37863466902946158 -0.41843805490853758 0 -0.38703114723878018 -0.43361022622180928 0 -0.38703114723878018 -0.43361022622180928 0 -0.38534190817324843 -0.45313121890198949 0 -0.36356953271933062 -0.44579178748675952 0 -0.37614610848926072 -0.48952620361281218 0 -0.40896344978824928 -0.5 0 -0.34336967304326432 -0.5 0 -0.40336093209443202 -0.44256797957160871 0 -0.38534190817324843 -0.45313121890198949 0 -0.40717542119774142 -0.4543169168844064 0 -0.38703114723878018 -0.43361022622180928 0 -0.40336093209443202 -0.44256797957160871 0 -0.38534190817324843 -0.45313121890198949 0 -0.40220053696631131 -0.46538311376708119 0 -0.38534190817324843 -0.45313121890198949 0 -0.40717542119774142 -0.4543169168844064 0 -0.40220053696631131 -0.46538311376708119 0 -0.38534190817324843 -0.45313121890198949 0 -0.39024971310017448 -0.47398248516347141 0 -0.38534190817324843 -0.45313121890198949 0 -0.39024971310017448 -0.47398248516347141 0 -0.36963097928822641 -0.46898421185555289 0 -0.39024971310017448 -0.47398248516347141 0 -0.37614610848926072 -0.48952620361281218 0 -0.40307395198004731 -0.48658588781844558 0 -0.37614610848926072 -0.48952620361281218 0 -0.40307395198004731 -0.48658588781844558 0 -0.40896344978824928 -0.5 0 -0.39024971310017448 -0.47398248516347141 0 -0.37614610848926072 -0.48952620361281218 0 -0.36963097928822641 -0.46898421185555289 0 -0.37614610848926072 -0.48952620361281218 0 -0.40307395198004731 -0.48658588781844558 0 -0.39024971310017448 -0.47398248516347141 0 -0.40307395198004731 -0.48658588781844558 0 -0.4089044347356483 -0.47489958746587752 0 -0.40220053696631131 -0.46538311376708119 0 -0.39024971310017448 -0.47398248516347141 0 -0.4089044347356483 -0.47489958746587752 0 -0.40307395198004731 -0.48658588781844558 0 -0.4089044347356483 -0.47489958746587752 0 -0.43000179547083378 -0.48364557202407898 0 -0.45966401123466488 -0.49658733248650311 0 -0.40896344978824928 -0.5 0 -0.43000179547083378 -0.48364557202407898 0 -0.4089044347356483 -0.47489958746587752 0 -0.43000179547083378 -0.48364557202407898 0 -0.41899617616087481 -0.46490087855631013 0 -0.40307395198004731 -0.48658588781844558 0 -0.40896344978824928 -0.5 0 -0.43000179547083378 -0.48364557202407898 0 -0.40307395198004731 -0.48658588781844558 0 -0.43000179547083378 -0.48364557202407898 0 -0.44630962018671372 -0.46961798428304857 0 -0.43000179547083378 -0.48364557202407898 0 -0.4342616214588958 -0.46725457514822838 0 -0.43000179547083378 -0.48364557202407898 0 -0.4342616214588958 -0.46725457514822838 0 -0.41899617616087481 -0.46490087855631013 0 -0.4342616214588958 -0.46725457514822838 0 -0.4297481664670314 -0.45605751049559551 0 -0.41899617616087481 -0.46490087855631013 0 -0.4297481664670314 -0.45605751049559551 0 -0.41938542708666282 -0.45112610370655498 0 -0.41899617616087481 -0.46490087855631013 0 -0.43795457363143991 -0.44704478416018989 0 -0.44144336127146788 -0.45782316793564931 0 -0.4297481664670314 -0.45605751049559551 0 -0.44144336127146788 -0.45782316793564931 0 -0.4342616214588958 -0.46725457514822838 0 -0.4297481664670314 -0.45605751049559551 0 -0.43795457363143991 -0.44704478416018989 0 -0.4297481664670314 -0.45605751049559551 0 -0.42708408049008079 -0.44222887119709459 0 -0.43795457363143991 -0.44704478416018989 0 -0.4353432285932719 -0.4354544262594332 0 -0.42708408049008079 -0.44222887119709459 0 -0.4297481664670314 -0.45605751049559551 0 -0.42708408049008079 -0.44222887119709459 0 -0.41938542708666282 -0.45112610370655498 0 -0.4153734498284104 -0.43690532000970961 0 -0.40336093209443202 -0.44256797957160871 0 -0.41938542708666282 -0.45112610370655498 0 -0.40336093209443202 -0.44256797957160871 0 -0.41938542708666282 -0.45112610370655498 0 -0.40717542119774142 -0.4543169168844064 0 -0.4153734498284104 -0.43690532000970961 0 -0.42708408049008079 -0.44222887119709459 0 -0.41938542708666282 -0.45112610370655498 0 -0.40220053696631131 -0.46538311376708119 0 -0.40717542119774142 -0.4543169168844064 0 -0.41899617616087481 -0.46490087855631013 0 -0.40220053696631131 -0.46538311376708119 0 -0.4089044347356483 -0.47489958746587752 0 -0.41899617616087481 -0.46490087855631013 0 -0.41938542708666282 -0.45112610370655498 0 -0.40717542119774142 -0.4543169168844064 0 -0.41899617616087481 -0.46490087855631013 0 -0.43927174221576148 -0.25208391209016778 0 -0.44428534831845679 -0.27073198434761653 0 -0.43002805456726612 -0.258643427362864 0 -0.43927174221576148 -0.25208391209016778 0 -0.44428534831845679 -0.27073198434761653 0 -0.45680584449248979 -0.26276110639121381 0 -0.43927174221576148 -0.25208391209016778 0 -0.45680584449248979 -0.26276110639121381 0 -0.46123398647280539 -0.25011284716588772 0 -0.44428534831845679 -0.27073198434761653 0 -0.46454742062320742 -0.27933794580138338 0 -0.4681175245435748 -0.2767546838030383 0 -0.44428534831845679 -0.27073198434761653 0 -0.4681175245435748 -0.2767546838030383 0 -0.44428534831845679 -0.27073198434761653 0 -0.4681175245435748 -0.2767546838030383 0 -0.45680584449248979 -0.26276110639121381 0 -0.44428534831845679 -0.27073198434761653 0 -0.46454742062320742 -0.27933794580138338 0 -0.45167648167409802 -0.28675256000087002 0 -0.4681175245435748 -0.2767546838030383 0 -0.45680584449248979 -0.26276110639121381 0 -0.47055246872178252 -0.26112414317264759 0 -0.46454742062320742 -0.27933794580138338 0 -0.4681175245435748 -0.2767546838030383 0 -0.47144665532026608 -0.28324491885298059 0 -0.46454742062320742 -0.27933794580138338 0 -0.4681175245435748 -0.2767546838030383 0 -0.45680584449248979 -0.26276110639121381 0 -0.46123398647280539 -0.25011284716588772 0 -0.47055246872178252 -0.26112414317264759 0 -0.48405876227178818 -0.26521989530713641 0 -0.47055246872178252 -0.26112414317264759 0 -0.48140992144811862 -0.2447762604425387 0 -0.46123398647280539 -0.25011284716588772 0 -0.47055246872178252 -0.26112414317264759 0 -0.48140992144811862 -0.2447762604425387 0 -0.48405876227178818 -0.26521989530713641 0 -0.50000000000000033 -0.25368510681123269 0 -0.5 -0.26924845245095219 0 -0.48405876227178818 -0.26521989530713641 0 -0.50000000000000033 -0.25368510681123269 0 -0.48140992144811862 -0.2447762604425387 0 -0.48405876227178818 -0.26521989530713641 0 -0.50000000000000033 -0.25368510681123269 0 -0.48405876227178818 -0.26521989530713641 0 -0.5 -0.26924845245095219 0 -0.48405876227178568 -0.28078324094685481 0 -0.5 -0.26924845245095219 0 -0.48405876227178568 -0.28078324094685481 0 -0.49999999999999661 -0.2848117980906717 0 -0.4681175245435748 -0.2767546838030383 0 -0.48405876227178818 -0.26521989530713641 0 -0.4681175245435748 -0.2767546838030383 0 -0.48405876227178568 -0.28078324094685481 0 -0.4681175245435748 -0.2767546838030383 0 -0.48405876227178818 -0.26521989530713641 0 -0.47055246872178252 -0.26112414317264759 0 -0.4681175245435748 -0.2767546838030383 0 -0.48405876227178568 -0.28078324094685481 0 -0.47144665532026608 -0.28324491885298059 0 -0.4681175245435748 -0.2767546838030383 0 -0.48405876227178818 -0.26521989530713641 0 -0.48405876227178568 -0.28078324094685481 0 -0.47144665532026608 -0.28324491885298059 0 -0.47549579403278591 -0.2900826270571874 0 -0.46501377512997588 -0.28926609665644071 0 -0.47549579403278591 -0.2900826270571874 0 -0.47044388724915409 -0.29926252672970671 0 -0.46501377512997588 -0.28926609665644071 0 -0.47549579403278591 -0.2900826270571874 0 -0.49004704901271251 -0.29064172440496111 0 -0.48455517906382423 -0.29997296389237921 0 -0.47549579403278591 -0.2900826270571874 0 -0.48455517906382423 -0.29997296389237921 0 -0.47044388724915409 -0.29926252672970671 0 -0.48405876227178568 -0.28078324094685481 0 -0.47144665532026608 -0.28324491885298059 0 -0.47549579403278591 -0.2900826270571874 0 -0.48405876227178568 -0.28078324094685481 0 -0.47549579403278591 -0.2900826270571874 0 -0.49004704901271251 -0.29064172440496111 0 -0.49999999999999661 -0.2848117980906717 0 -0.49004704901271251 -0.29064172440496111 0 -0.5 -0.30076911437698989 0 -0.48405876227178568 -0.28078324094685481 0 -0.49999999999999661 -0.2848117980906717 0 -0.48405876227178568 -0.28078324094685481 0 -0.49999999999999661 -0.2848117980906717 0 -0.49004704901271251 -0.29064172440496111 0 -0.5 -0.30076911437698989 0 -0.49036563043098541 -0.30962017751191723 0 -0.50000000000000022 -0.31672643066330819 0 -0.49004704901271251 -0.29064172440496111 0 -0.5 -0.30076911437698989 0 -0.48455517906382423 -0.29997296389237921 0 -0.5 -0.30076911437698989 0 -0.48455517906382423 -0.29997296389237921 0 -0.49036563043098541 -0.30962017751191723 0 -0.48455517906382423 -0.29997296389237921 0 -0.49036563043098541 -0.30962017751191723 0 -0.47997587760821692 -0.3093836940399276 0 -0.48455517906382423 -0.29997296389237921 0 -0.47997587760821692 -0.3093836940399276 0 -0.47044388724915409 -0.29926252672970671 0 -0.47997587760821692 -0.3093836940399276 0 -0.47039295331868158 -0.309482056689592 0 -0.47357295747851541 -0.31661365832026073 0 -0.47997587760821692 -0.3093836940399276 0 -0.47044388724915409 -0.29926252672970671 0 -0.47039295331868158 -0.309482056689592 0 -0.47039295331868158 -0.309482056689592 0 -0.46330213042851232 -0.3056651337645514 0 -0.46392691601789737 -0.31592365859699312 0 -0.47044388724915409 -0.29926252672970671 0 -0.47039295331868158 -0.309482056689592 0 -0.46330213042851232 -0.3056651337645514 0 -0.46330213042851232 -0.3056651337645514 0 -0.45426320303615592 -0.30946149092930042 0 -0.46392691601789737 -0.31592365859699312 0 -0.46330213042851232 -0.3056651337645514 0 -0.45426320303615592 -0.30946149092930042 0 -0.45815614967825752 -0.2973110890670666 0 -0.47044388724915409 -0.29926252672970671 0 -0.46330213042851232 -0.3056651337645514 0 -0.45815614967825752 -0.2973110890670666 0 -0.47044388724915409 -0.29926252672970671 0 -0.45815614967825752 -0.2973110890670666 0 -0.46501377512997588 -0.28926609665644071 0 -0.46454742062320742 -0.27933794580138338 0 -0.47144665532026608 -0.28324491885298059 0 -0.46501377512997588 -0.28926609665644071 0 -0.46454742062320742 -0.27933794580138338 0 -0.46501377512997588 -0.28926609665644071 0 -0.45167648167409802 -0.28675256000087002 0 -0.45815614967825752 -0.2973110890670666 0 -0.46501377512997588 -0.28926609665644071 0 -0.45167648167409802 -0.28675256000087002 0 -0.44428534831845679 -0.27073198434761653 0 -0.45167648167409802 -0.28675256000087002 0 -0.4379846197515338 -0.28704114327097818 0 -0.45815614967825752 -0.2973110890670666 0 -0.45167648167409802 -0.28675256000087002 0 -0.44427317514716491 -0.29860291094961899 0 -0.45167648167409802 -0.28675256000087002 0 -0.4379846197515338 -0.28704114327097818 0 -0.44427317514716491 -0.29860291094961899 0 -0.4379846197515338 -0.28704114327097818 0 -0.44427317514716491 -0.29860291094961899 0 -0.43083860054267159 -0.29841165411753362 0 -0.45426320303615592 -0.30946149092930042 0 -0.44427317514716491 -0.29860291094961899 0 -0.43520328509292328 -0.31417841590625267 0 -0.45426320303615592 -0.30946149092930042 0 -0.45815614967825752 -0.2973110890670666 0 -0.44427317514716491 -0.29860291094961899 0 -0.45426320303615592 -0.30946149092930042 0 -0.45176521795929658 -0.32355296000222028 0 -0.43520328509292328 -0.31417841590625267 0 -0.45176521795929658 -0.32355296000222028 0 -0.43835950870904522 -0.33438298789989179 0 -0.43520328509292328 -0.31417841590625267 0 -0.45176521795929658 -0.32355296000222028 0 -0.43835950870904522 -0.33438298789989179 0 -0.4558116106991742 -0.340080214030266 0 -0.43835950870904522 -0.33438298789989179 0 -0.4558116106991742 -0.340080214030266 0 -0.44248124368755209 -0.34890656822596378 0 -0.4558116106991742 -0.340080214030266 0 -0.46945594530438778 -0.32853215846191369 0 -0.47090506434525981 -0.352829110251625 0 -0.45176521795929658 -0.32355296000222028 0 -0.4558116106991742 -0.340080214030266 0 -0.46945594530438778 -0.32853215846191369 0 -0.45176521795929658 -0.32355296000222028 0 -0.46392691601789737 -0.31592365859699312 0 -0.46945594530438778 -0.32853215846191369 0 -0.45426320303615592 -0.30946149092930042 0 -0.45176521795929658 -0.32355296000222028 0 -0.46392691601789737 -0.31592365859699312 0 -0.48343562652919769 -0.31957723339837679 0 -0.48545253217263001 -0.33477777045746659 0 -0.46945594530438778 -0.32853215846191369 0 -0.47039295331868158 -0.309482056689592 0 -0.46392691601789737 -0.31592365859699312 0 -0.47357295747851541 -0.31661365832026073 0 -0.46392691601789737 -0.31592365859699312 0 -0.47357295747851541 -0.31661365832026073 0 -0.46945594530438778 -0.32853215846191369 0 -0.47357295747851541 -0.31661365832026073 0 -0.48343562652919769 -0.31957723339837679 0 -0.46945594530438778 -0.32853215846191369 0 -0.47997587760821692 -0.3093836940399276 0 -0.47357295747851541 -0.31661365832026073 0 -0.48343562652919769 -0.31957723339837679 0 -0.48343562652919769 -0.31957723339837679 0 -0.50000000000000022 -0.31672643066330819 0 -0.48545253217263001 -0.33477777045746659 0 -0.50000000000000022 -0.31672643066330819 0 -0.5 -0.33243629952333759 0 -0.48545253217263001 -0.33477777045746659 0 -0.49036563043098541 -0.30962017751191723 0 -0.47997587760821692 -0.3093836940399276 0 -0.48343562652919769 -0.31957723339837679 0 -0.49036563043098541 -0.30962017751191723 0 -0.48343562652919769 -0.31957723339837679 0 -0.50000000000000022 -0.31672643066330819 0 -0.50000000000000022 -0.31672643066330819 0 -0.48545253217263001 -0.33477777045746659 0 -0.5 -0.33243629952333759 0 -0.48863278319448472 -0.34591649052316059 0 -0.49999999999999961 -0.3481461683833672 0 -0.5 -0.33243629952333759 0 -0.48545253217263001 -0.33477777045746659 0 -0.48863278319448472 -0.34591649052316059 0 -0.48545253217263001 -0.33477777045746659 0 -0.46945594530438778 -0.32853215846191369 0 -0.47090506434525981 -0.352829110251625 0 -0.47090506434525981 -0.352829110251625 0 -0.48863278319448472 -0.34591649052316059 0 -0.48730071178086037 -0.35742347392511692 0 -0.48545253217263001 -0.33477777045746659 0 -0.47090506434525981 -0.352829110251625 0 -0.48545253217263001 -0.33477777045746659 0 -0.47090506434525981 -0.352829110251625 0 -0.48863278319448472 -0.34591649052316059 0 -0.47090506434525981 -0.352829110251625 0 -0.48730071178086037 -0.35742347392511692 0 -0.47547032759525448 -0.36653064411409209 0 -0.49999999999999972 -0.35527061277981192 0 -0.49999999999999961 -0.3481461683833672 0 -0.49077130277327702 -0.37276281281410101 0 -0.48863278319448472 -0.34591649052316059 0 -0.48730071178086037 -0.35742347392511692 0 -0.49999999999999961 -0.3481461683833672 0 -0.49217731059628372 -0.37823459030051942 0 -0.49999999999999972 -0.35527061277981192 0 -0.5 -0.37371739475472959 0 -0.49217731059628372 -0.37823459030051942 0 -0.49999999999999972 -0.35527061277981192 0 -0.49077130277327702 -0.37276281281410101 0 -0.49217731059628372 -0.37823459030051942 0 -0.49999999999999972 -0.35527061277981192 0 -0.49999999999999961 -0.3481461683833672 0 -0.49077130277327702 -0.37276281281410101 0 -0.48730071178086037 -0.35742347392511692 0 -0.49999999999999961 -0.3481461683833672 0 -0.49077130277327702 -0.37276281281410101 0 -0.48730071178086037 -0.35742347392511692 0 -0.49077130277327702 -0.37276281281410101 0 -0.48397374869049892 -0.36693234355732168 0 -0.49077130277327702 -0.37276281281410101 0 -0.48049096145974451 -0.3725438070269953 0 -0.48397374869049892 -0.36693234355732168 0 -0.47994373849828909 -0.37959026784392652 0 -0.49077130277327702 -0.37276281281410101 0 -0.48049096145974451 -0.3725438070269953 0 -0.48049096145974451 -0.3725438070269953 0 -0.48397374869049892 -0.36693234355732168 0 -0.47547032759525448 -0.36653064411409209 0 -0.48730071178086037 -0.35742347392511692 0 -0.48397374869049892 -0.36693234355732168 0 -0.47547032759525448 -0.36653064411409209 0 -0.47100479398368639 -0.37805746167938997 0 -0.48049096145974451 -0.3725438070269953 0 -0.47547032759525448 -0.36653064411409209 0 -0.47090506434525981 -0.352829110251625 0 -0.45635759651788949 -0.37088045004578329 0 -0.45329443414937648 -0.3555881111834045 0 -0.47090506434525981 -0.352829110251625 0 -0.47547032759525448 -0.36653064411409209 0 -0.45635759651788949 -0.37088045004578329 0 -0.47100479398368639 -0.37805746167938997 0 -0.47547032759525448 -0.36653064411409209 0 -0.45635759651788949 -0.37088045004578329 0 -0.47090506434525981 -0.352829110251625 0 -0.45635759651788949 -0.37088045004578329 0 -0.4558116106991742 -0.340080214030266 0 -0.47090506434525981 -0.352829110251625 0 -0.45329443414937648 -0.3555881111834045 0 -0.45329443414937648 -0.3555881111834045 0 -0.44248124368755209 -0.34890656822596378 0 -0.44091665549700731 -0.36524421336338447 0 -0.4558116106991742 -0.340080214030266 0 -0.45329443414937648 -0.3555881111834045 0 -0.44248124368755209 -0.34890656822596378 0 -0.44616179505902981 -0.38185194220403518 0 -0.45635759651788949 -0.37088045004578329 0 -0.44091665549700731 -0.36524421336338447 0 -0.45635759651788949 -0.37088045004578329 0 -0.45329443414937648 -0.3555881111834045 0 -0.44091665549700731 -0.36524421336338447 0 -0.43188535853137372 -0.38606719198275591 0 -0.41817212061380848 -0.36222590059064652 0 -0.43188535853137372 -0.38606719198275591 0 -0.44091665549700731 -0.36524421336338447 0 -0.42836234658170502 -0.36392617835393271 0 -0.43188535853137372 -0.38606719198275591 0 -0.42836234658170502 -0.36392617835393271 0 -0.41817212061380848 -0.36222590059064652 0 -0.42836234658170502 -0.36392617835393271 0 -0.42254315825420458 -0.35778913328999179 0 -0.41817212061380848 -0.36222590059064652 0 -0.44091665549700731 -0.36524421336338447 0 -0.42836234658170502 -0.36392617835393271 0 -0.42866499742994629 -0.34995161433447852 0 -0.44248124368755209 -0.34890656822596378 0 -0.44091665549700731 -0.36524421336338447 0 -0.42866499742994629 -0.34995161433447852 0 -0.43835950870904522 -0.33438298789989179 0 -0.44248124368755209 -0.34890656822596378 0 -0.42866499742994629 -0.34995161433447852 0 -0.42866499742994629 -0.34995161433447852 0 -0.42254315825420458 -0.35778913328999179 0 -0.4149731683913585 -0.35505283988090952 0 -0.42836234658170502 -0.36392617835393271 0 -0.42866499742994629 -0.34995161433447852 0 -0.42254315825420458 -0.35778913328999179 0 -0.42866499742994629 -0.34995161433447852 0 -0.4149731683913585 -0.35505283988090952 0 -0.41623069738537888 -0.32962815490016978 0 -0.42254315825420458 -0.35778913328999179 0 -0.4149731683913585 -0.35505283988090952 0 -0.41817212061380848 -0.36222590059064652 0 -0.4149731683913585 -0.35505283988090952 0 -0.40994095545954062 -0.36060629939982669 0 -0.41817212061380848 -0.36222590059064652 0 -0.4149731683913585 -0.35505283988090952 0 -0.40235571547159438 -0.35258095134378509 0 -0.40471818741236432 -0.3400733048866601 0 -0.4149731683913585 -0.35505283988090952 0 -0.40994095545954062 -0.36060629939982669 0 -0.40235571547159438 -0.35258095134378509 0 -0.40994095545954062 -0.36060629939982669 0 -0.41192828531083431 -0.36825391572390181 0 -0.40119963281908178 -0.36368357168579413 0 -0.40994095545954062 -0.36060629939982669 0 -0.41817212061380848 -0.36222590059064652 0 -0.41192828531083431 -0.36825391572390181 0 -0.41727822103040141 -0.37877151101651668 0 -0.41817212061380848 -0.36222590059064652 0 -0.41192828531083431 -0.36825391572390181 0 -0.41156998819073592 -0.37699513358398312 0 -0.41727822103040141 -0.37877151101651668 0 -0.41192828531083431 -0.36825391572390181 0 -0.41156998819073592 -0.37699513358398312 0 -0.41192828531083431 -0.36825391572390181 0 -0.40377217397126081 -0.3730769845557802 0 -0.40119963281908178 -0.36368357168579413 0 -0.38459791022657719 -0.36612469328914687 0 -0.39254572878184041 -0.35508287432014118 0 -0.40137425648189712 -0.38180702445510539 0 -0.38459791022657719 -0.36612469328914687 0 -0.41192828531083431 -0.36825391572390181 0 -0.40377217397126081 -0.3730769845557802 0 -0.40119963281908178 -0.36368357168579413 0 -0.40377217397126081 -0.3730769845557802 0 -0.40119963281908178 -0.36368357168579413 0 -0.38459791022657719 -0.36612469328914687 0 -0.40137425648189712 -0.38180702445510539 0 -0.40377217397126081 -0.3730769845557802 0 -0.38459791022657719 -0.36612469328914687 0 -0.38396132120942678 -0.38202006268971478 0 -0.38459791022657719 -0.36612469328914687 0 -0.37554122506897858 -0.37413195453287218 0 -0.38459791022657719 -0.36612469328914687 0 -0.37554122506897858 -0.37413195453287218 0 -0.36956404656562769 -0.36525534939686233 0 -0.38264097282124182 -0.35156327211804062 0 -0.39193441257070638 -0.34146188316393927 0 -0.37616960060515481 -0.34089362858762617 0 -0.38459791022657719 -0.36612469328914687 0 -0.36782156397125731 -0.35044236212318852 0 -0.38459791022657719 -0.36612469328914687 0 -0.38264097282124182 -0.35156327211804062 0 -0.36782156397125731 -0.35044236212318852 0 -0.38264097282124182 -0.35156327211804062 0 -0.37616960060515481 -0.34089362858762617 0 -0.36782156397125731 -0.35044236212318852 0 -0.38459791022657719 -0.36612469328914687 0 -0.38264097282124182 -0.35156327211804062 0 -0.39254572878184041 -0.35508287432014118 0 -0.38264097282124182 -0.35156327211804062 0 -0.39254572878184041 -0.35508287432014118 0 -0.39193441257070638 -0.34146188316393927 0 -0.39254572878184041 -0.35508287432014118 0 -0.40235571547159438 -0.35258095134378509 0 -0.39193441257070638 -0.34146188316393927 0 -0.40994095545954062 -0.36060629939982669 0 -0.40119963281908178 -0.36368357168579413 0 -0.40235571547159438 -0.35258095134378509 0 -0.40119963281908178 -0.36368357168579413 0 -0.39254572878184041 -0.35508287432014118 0 -0.40235571547159438 -0.35258095134378509 0 -0.40235571547159438 -0.35258095134378509 0 -0.40471818741236432 -0.3400733048866601 0 -0.39193441257070638 -0.34146188316393927 0 -0.39193441257070638 -0.34146188316393927 0 -0.3836883705698077 -0.33081947646482041 0 -0.39809694324278327 -0.32164269514449673 0 -0.40471818741236432 -0.3400733048866601 0 -0.39193441257070638 -0.34146188316393927 0 -0.39809694324278327 -0.32164269514449673 0 -0.39193441257070638 -0.34146188316393927 0 -0.3836883705698077 -0.33081947646482041 0 -0.37616960060515481 -0.34089362858762617 0 -0.3836883705698077 -0.33081947646482041 0 -0.37616960060515481 -0.34089362858762617 0 -0.37056545304969202 -0.32908542843563537 0 -0.3836883705698077 -0.33081947646482041 0 -0.37672108508850533 -0.31174063430154492 0 -0.37056545304969202 -0.32908542843563537 0 -0.3836883705698077 -0.33081947646482041 0 -0.39809694324278327 -0.32164269514449673 0 -0.37672108508850533 -0.31174063430154492 0 -0.41623069738537888 -0.32962815490016978 0 -0.41748822637939931 -0.30420346991943009 0 -0.39809694324278327 -0.32164269514449673 0 -0.41623069738537888 -0.32962815490016978 0 -0.41748822637939931 -0.30420346991943009 0 -0.4149731683913585 -0.35505283988090952 0 -0.41623069738537888 -0.32962815490016978 0 -0.4149731683913585 -0.35505283988090952 0 -0.40471818741236432 -0.3400733048866601 0 -0.41623069738537888 -0.32962815490016978 0 -0.40471818741236432 -0.3400733048866601 0 -0.39809694324278327 -0.32164269514449673 0 -0.41623069738537888 -0.32962815490016978 0 -0.43835950870904522 -0.33438298789989179 0 -0.42866499742994629 -0.34995161433447852 0 -0.41623069738537888 -0.32962815490016978 0 -0.43835950870904522 -0.33438298789989179 0 -0.41623069738537888 -0.32962815490016978 0 -0.43520328509292328 -0.31417841590625267 0 -0.41623069738537888 -0.32962815490016978 0 -0.43520328509292328 -0.31417841590625267 0 -0.41748822637939931 -0.30420346991943009 0 -0.44427317514716491 -0.29860291094961899 0 -0.43520328509292328 -0.31417841590625267 0 -0.43083860054267159 -0.29841165411753362 0 -0.43520328509292328 -0.31417841590625267 0 -0.43083860054267159 -0.29841165411753362 0 -0.41748822637939931 -0.30420346991943009 0 -0.4379846197515338 -0.28704114327097818 0 -0.43083860054267159 -0.29841165411753362 0 -0.41874575537341968 -0.27877878493869052 0 -0.43083860054267159 -0.29841165411753362 0 -0.41748822637939931 -0.30420346991943009 0 -0.41874575537341968 -0.27877878493869052 0 -0.41748822637939931 -0.30420346991943009 0 -0.41874575537341968 -0.27877878493869052 0 -0.41748822637939931 -0.30420346991943009 0 -0.40248565024016231 -0.28018281953340429 0 -0.41874575537341968 -0.27877878493869052 0 -0.39809694324278327 -0.32164269514449673 0 -0.41748822637939931 -0.30420346991943009 0 -0.39241014424259729 -0.29598974864964861 0 -0.39809694324278327 -0.32164269514449673 0 -0.37672108508850533 -0.31174063430154492 0 -0.39241014424259729 -0.29598974864964861 0 -0.37672108508850533 -0.31174063430154492 0 -0.39241014424259729 -0.29598974864964861 0 -0.37044187115484278 -0.28750303277664813 0 -0.39241014424259729 -0.29598974864964861 0 -0.3892270893498912 -0.27066584022236712 0 -0.37044187115484278 -0.28750303277664813 0 -0.39241014424259729 -0.29598974864964861 0 -0.40248565024016231 -0.28018281953340429 0 -0.3892270893498912 -0.27066584022236712 0 -0.41748822637939931 -0.30420346991943009 0 -0.39241014424259729 -0.29598974864964861 0 -0.40248565024016231 -0.28018281953340429 0 -0.40248565024016231 -0.28018281953340429 0 -0.40084075364886168 -0.26264473691782381 0 -0.40989557855881648 -0.26708169508109247 0 -0.40248565024016231 -0.28018281953340429 0 -0.3892270893498912 -0.27066584022236712 0 -0.40084075364886168 -0.26264473691782381 0 -0.3892270893498912 -0.27066584022236712 0 -0.38865366959963482 -0.25001431328282347 0 -0.36983015608973419 -0.25390947188451179 0 -0.3892270893498912 -0.27066584022236712 0 -0.36983015608973419 -0.25390947188451179 0 -0.38865366959963482 -0.25001431328282347 0 -0.40084075364886168 -0.26264473691782381 0 -0.40325337519837501 -0.24785612878935209 0 -0.3892270893498912 -0.27066584022236712 0 -0.38865366959963482 -0.25001431328282347 0 -0.40084075364886168 -0.26264473691782381 0 -0.40084075364886168 -0.26264473691782381 0 -0.40879845111358259 -0.25665351572631812 0 -0.40325337519837501 -0.24785612878935209 0 -0.40879845111358259 -0.25665351572631812 0 -0.41771339199803692 -0.25615188312583598 0 -0.41228915616382261 -0.24953313471748659 0 -0.41771339199803692 -0.25615188312583598 0 -0.42000328436744028 -0.25335409995795077 0 -0.41874575537341968 -0.27877878493869052 0 -0.42000328436744028 -0.25335409995795077 0 -0.42045317209333849 -0.26470928489219592 0 -0.41874575537341968 -0.27877878493869052 0 -0.40879845111358259 -0.25665351572631812 0 -0.41228915616382261 -0.24953313471748659 0 -0.40325337519837501 -0.24785612878935209 0 -0.41771339199803692 -0.25615188312583598 0 -0.42000328436744028 -0.25335409995795077 0 -0.41228915616382261 -0.24953313471748659 0 -0.41771339199803692 -0.25615188312583598 0 -0.42000328436744028 -0.25335409995795077 0 -0.40084075364886168 -0.26264473691782381 0 -0.40879845111358259 -0.25665351572631812 0 -0.40989557855881648 -0.26708169508109247 0 -0.40879845111358259 -0.25665351572631812 0 -0.41771339199803692 -0.25615188312583598 0 -0.40989557855881648 -0.26708169508109247 0 -0.41771339199803692 -0.25615188312583598 0 -0.40989557855881648 -0.26708169508109247 0 -0.41874575537341968 -0.27877878493869052 0 -0.42000328436744028 -0.25335409995795077 0 -0.41874575537341968 -0.27877878493869052 0 -0.40248565024016231 -0.28018281953340429 0 -0.40989557855881648 -0.26708169508109247 0 -0.41874575537341968 -0.27877878493869052 0 -0.44428534831845679 -0.27073198434761653 0 -0.42045317209333849 -0.26470928489219592 0 -0.41874575537341968 -0.27877878493869052 0 -0.44428534831845679 -0.27073198434761653 0 -0.42045317209333849 -0.26470928489219592 0 -0.44428534831845679 -0.27073198434761653 0 -0.4379846197515338 -0.28704114327097818 0 -0.41874575537341968 -0.27877878493869052 0 -0.44428534831845679 -0.27073198434761653 0 -0.42045317209333849 -0.26470928489219592 0 -0.43002805456726612 -0.258643427362864 0 -0.43927174221576148 -0.25208391209016778 0 -0.42000328436744028 -0.25335409995795077 0 -0.43002805456726612 -0.258643427362864 0 -0.42000328436744028 -0.25335409995795077 0 -0.42045317209333849 -0.26470928489219592 0 -0.43002805456726612 -0.258643427362864 0 -0.31659653321669018 -0.25755681406275349 0 -0.33135634945294667 -0.26561887982722648 0 -0.3300046262548299 -0.24483365668078319 0 -0.31504856038177009 -0.27481043202551342 0 -0.33135634945294667 -0.26561887982722648 0 -0.329439857672293 -0.28230858787269908 0 -0.31659653321669018 -0.25755681406275349 0 -0.31504856038177009 -0.27481043202551342 0 -0.33135634945294667 -0.26561887982722648 0 -0.33135634945294667 -0.26561887982722648 0 -0.34598410252681239 -0.27909860881070692 0 -0.329439857672293 -0.28230858787269908 0 -0.33135634945294667 -0.26561887982722648 0 -0.34807838734227869 -0.25811203799629667 0 -0.34598410252681239 -0.27909860881070692 0 -0.33135634945294667 -0.26561887982722648 0 -0.34807838734227869 -0.25811203799629667 0 -0.3300046262548299 -0.24483365668078319 0 -0.34807838734227869 -0.25811203799629667 0 -0.36983015608973419 -0.25390947188451179 0 -0.36137220512087059 -0.27003643167855218 0 -0.3892270893498912 -0.27066584022236712 0 -0.36983015608973419 -0.25390947188451179 0 -0.36137220512087059 -0.27003643167855218 0 -0.3892270893498912 -0.27066584022236712 0 -0.36137220512087059 -0.27003643167855218 0 -0.37044187115484278 -0.28750303277664813 0 -0.34807838734227869 -0.25811203799629667 0 -0.36137220512087059 -0.27003643167855218 0 -0.34598410252681239 -0.27909860881070692 0 -0.36137220512087059 -0.27003643167855218 0 -0.34598410252681239 -0.27909860881070692 0 -0.37044187115484278 -0.28750303277664813 0 -0.34598410252681239 -0.27909860881070692 0 -0.37044187115484278 -0.28750303277664813 0 -0.35584029909675929 -0.30330002522061761 0 -0.34598410252681239 -0.27909860881070692 0 -0.35584029909675929 -0.30330002522061761 0 -0.33538839775262291 -0.30008886148303698 0 -0.37672108508850533 -0.31174063430154492 0 -0.35584029909675929 -0.30330002522061761 0 -0.36375789671781572 -0.31678638834118339 0 -0.37672108508850533 -0.31174063430154492 0 -0.37044187115484278 -0.28750303277664813 0 -0.35584029909675929 -0.30330002522061761 0 -0.35584029909675929 -0.30330002522061761 0 -0.33538839775262291 -0.30008886148303698 0 -0.34120532003023007 -0.31467066500520868 0 -0.33538839775262291 -0.30008886148303698 0 -0.32479269297843327 -0.32107911415536711 0 -0.34120532003023007 -0.31467066500520868 0 -0.33538839775262291 -0.30008886148303698 0 -0.32479269297843327 -0.32107911415536711 0 -0.34598410252681239 -0.27909860881070692 0 -0.33538839775262291 -0.30008886148303698 0 -0.329439857672293 -0.28230858787269908 0 -0.34598410252681239 -0.27909860881070692 0 -0.33538839775262291 -0.30008886148303698 0 -0.31504856038177009 -0.27481043202551342 0 -0.329439857672293 -0.28230858787269908 0 -0.31913651611782051 -0.29221350990101308 0 -0.31504856038177009 -0.27481043202551342 0 -0.31913651611782051 -0.29221350990101308 0 -0.30659232562701672 -0.28890670905104721 0 -0.33538839775262291 -0.30008886148303698 0 -0.329439857672293 -0.28230858787269908 0 -0.31913651611782051 -0.29221350990101308 0 -0.33538839775262291 -0.30008886148303698 0 -0.31903412911317502 -0.30526151359432979 0 -0.32479269297843327 -0.32107911415536711 0 -0.33538839775262291 -0.30008886148303698 0 -0.31913651611782051 -0.29221350990101308 0 -0.31903412911317502 -0.30526151359432979 0 -0.31913651611782051 -0.29221350990101308 0 -0.31903412911317502 -0.30526151359432979 0 -0.30941702470659999 -0.30022407006566248 0 -0.31903412911317502 -0.30526151359432979 0 -0.31111541730141312 -0.31204992908433432 0 -0.30941702470659999 -0.30022407006566248 0 -0.32479269297843327 -0.32107911415536711 0 -0.30697337893144871 -0.3232105209057296 0 -0.31111541730141312 -0.31204992908433432 0 -0.31903412911317502 -0.30526151359432979 0 -0.32479269297843327 -0.32107911415536711 0 -0.31111541730141312 -0.31204992908433432 0 -0.32479269297843327 -0.32107911415536711 0 -0.31419698820424258 -0.34206936682769662 0 -0.3263429452201918 -0.34054589675622698 0 -0.32479269297843327 -0.32107911415536711 0 -0.31419698820424258 -0.34206936682769662 0 -0.32479269297843327 -0.32107911415536711 0 -0.31419698820424258 -0.34206936682769662 0 -0.30697337893144871 -0.3232105209057296 0 -0.31419698820424258 -0.34206936682769662 0 -0.3263429452201918 -0.34054589675622698 0 -0.31628724582704498 -0.34752645136217569 0 -0.32479269297843327 -0.32107911415536711 0 -0.3263429452201918 -0.34054589675622698 0 -0.33810046068702848 -0.32586585876008622 0 -0.3263429452201918 -0.34054589675622698 0 -0.34461009959961952 -0.33779420503703372 0 -0.33537995651025382 -0.34880287319044739 0 -0.3263429452201918 -0.34054589675622698 0 -0.33810046068702848 -0.32586585876008622 0 -0.34461009959961952 -0.33779420503703372 0 -0.33810046068702848 -0.32586585876008622 0 -0.34120532003023007 -0.31467066500520868 0 -0.35190474963630608 -0.32301946540693582 0 -0.32479269297843327 -0.32107911415536711 0 -0.33810046068702848 -0.32586585876008622 0 -0.34120532003023007 -0.31467066500520868 0 -0.35584029909675929 -0.30330002522061761 0 -0.34120532003023007 -0.31467066500520868 0 -0.35190474963630608 -0.32301946540693582 0 -0.35584029909675929 -0.30330002522061761 0 -0.35190474963630608 -0.32301946540693582 0 -0.36375789671781572 -0.31678638834118339 0 -0.35190474963630608 -0.32301946540693582 0 -0.36375789671781572 -0.31678638834118339 0 -0.37056545304969202 -0.32908542843563537 0 -0.37672108508850533 -0.31174063430154492 0 -0.36375789671781572 -0.31678638834118339 0 -0.37056545304969202 -0.32908542843563537 0 -0.35190474963630608 -0.32301946540693582 0 -0.37056545304969202 -0.32908542843563537 0 -0.36089854726626602 -0.33863069561766879 0 -0.37616960060515481 -0.34089362858762617 0 -0.36089854726626602 -0.33863069561766879 0 -0.36782156397125731 -0.35044236212318852 0 -0.37616960060515481 -0.34089362858762617 0 -0.37056545304969202 -0.32908542843563537 0 -0.36089854726626602 -0.33863069561766879 0 -0.36089854726626602 -0.33863069561766879 0 -0.34461009959961952 -0.33779420503703372 0 -0.35447266719346249 -0.35007929501872082 0 -0.35190474963630608 -0.32301946540693582 0 -0.36089854726626602 -0.33863069561766879 0 -0.34461009959961952 -0.33779420503703372 0 -0.33810046068702848 -0.32586585876008622 0 -0.35190474963630608 -0.32301946540693582 0 -0.34461009959961952 -0.33779420503703372 0 -0.34461009959961952 -0.33779420503703372 0 -0.35447266719346249 -0.35007929501872082 0 -0.33537995651025382 -0.34880287319044739 0 -0.35447266719346249 -0.35007929501872082 0 -0.34227429308876839 -0.36644893520654559 0 -0.33537995651025382 -0.34880287319044739 0 -0.35447266719346249 -0.35007929501872082 0 -0.33537995651025382 -0.34880287319044739 0 -0.36089854726626602 -0.33863069561766879 0 -0.35447266719346249 -0.35007929501872082 0 -0.36782156397125731 -0.35044236212318852 0 -0.36782156397125731 -0.35044236212318852 0 -0.36956404656562769 -0.36525534939686233 0 -0.35843220633349338 -0.36185148715414661 0 -0.35447266719346249 -0.35007929501872082 0 -0.36782156397125731 -0.35044236212318852 0 -0.35843220633349338 -0.36185148715414661 0 -0.38459791022657719 -0.36612469328914687 0 -0.36782156397125731 -0.35044236212318852 0 -0.36956404656562769 -0.36525534939686233 0 -0.37554122506897858 -0.37413195453287218 0 -0.36956404656562769 -0.36525534939686233 0 -0.36049876906785772 -0.37409860013393709 0 -0.36956404656562769 -0.36525534939686233 0 -0.36049876906785772 -0.37409860013393709 0 -0.35843220633349338 -0.36185148715414661 0 -0.36049876906785772 -0.37409860013393709 0 -0.35843220633349338 -0.36185148715414661 0 -0.34227429308876839 -0.36644893520654559 0 -0.35447266719346249 -0.35007929501872082 0 -0.35843220633349338 -0.36185148715414661 0 -0.34227429308876839 -0.36644893520654559 0 -0.34227429308876839 -0.36644893520654559 0 -0.32367563491546059 -0.3668154918083143 0 -0.33106402400387691 -0.38610453225445268 0 -0.34227429308876839 -0.36644893520654559 0 -0.32940428258538179 -0.35739843789187081 0 -0.32367563491546059 -0.3668154918083143 0 -0.34227429308876839 -0.36644893520654559 0 -0.33537995651025382 -0.34880287319044739 0 -0.32940428258538179 -0.35739843789187081 0 -0.31628724582704498 -0.34752645136217569 0 -0.32367563491546059 -0.3668154918083143 0 -0.33537995651025382 -0.34880287319044739 0 -0.32940428258538179 -0.35739843789187081 0 -0.31628724582704498 -0.34752645136217569 0 -0.33537995651025382 -0.34880287319044739 0 -0.31628724582704498 -0.34752645136217569 0 -0.3263429452201918 -0.34054589675622698 0 -0.33537995651025382 -0.34880287319044739 0 -0.31628724582704498 -0.34752645136217569 0 -0.32940428258538179 -0.35739843789187081 0 -0.31628724582704498 -0.34752645136217569 0 -0.32367563491546059 -0.3668154918083143 0 -0.31628724582704498 -0.34752645136217569 0 -0.32367563491546059 -0.3668154918083143 0 -0.31235194476371952 -0.3602705771895256 0 -0.31419698820424258 -0.34206936682769662 0 -0.31160046353782728 -0.34721312177175601 0 -0.31419698820424258 -0.34206936682769662 0 -0.31628724582704498 -0.34752645136217569 0 -0.31628724582704498 -0.34752645136217569 0 -0.31160046353782728 -0.34721312177175601 0 -0.31419698820424258 -0.34206936682769662 0 -0.31628724582704498 -0.34752645136217569 0 -0.31160046353782728 -0.34721312177175601 0 -0.31628724582704498 -0.34752645136217569 0 -0.31235194476371952 -0.3602705771895256 0 -0.31160046353782728 -0.34721312177175601 0 -0.32367563491546059 -0.3668154918083143 0 -0.31235194476371952 -0.3602705771895256 0 -0.31174277845508108 -0.38390054271067492 0 -0.30140006231940669 -0.3674202720743332 0 -0.31235194476371952 -0.3602705771895256 0 -0.31174277845508108 -0.38390054271067492 0 -0.30140006231940669 -0.3674202720743332 0 -0.29876425976869581 -0.35459889692062618 0 -0.29239813476133403 -0.36177935425687252 0 -0.31160046353782728 -0.34721312177175601 0 -0.28784134391110411 -0.34562473239031832 0 -0.30140006231940669 -0.3674202720743332 0 -0.31160046353782728 -0.34721312177175601 0 -0.31160046353782728 -0.34721312177175601 0 -0.29876425976869581 -0.35459889692062618 0 -0.28784134391110411 -0.34562473239031832 0 -0.30140006231940669 -0.3674202720743332 0 -0.31235194476371952 -0.3602705771895256 0 -0.31160046353782728 -0.34721312177175601 0 -0.30140006231940669 -0.3674202720743332 0 -0.31160046353782728 -0.34721312177175601 0 -0.29876425976869581 -0.35459889692062618 0 -0.28784134391110411 -0.34562473239031832 0 -0.28226237556022182 -0.3649607123004126 0 -0.27700475692894239 -0.3449002644822351 0 -0.28784134391110411 -0.34562473239031832 0 -0.28226237556022182 -0.3649607123004126 0 -0.28784134391110411 -0.34562473239031832 0 -0.28226237556022182 -0.3649607123004126 0 -0.29239813476133403 -0.36177935425687252 0 -0.29876425976869581 -0.35459889692062618 0 -0.28784134391110411 -0.34562473239031832 0 -0.29239813476133403 -0.36177935425687252 0 -0.28784134391110411 -0.34562473239031832 0 -0.27700475692894239 -0.3449002644822351 0 -0.28226237556022182 -0.3649607123004126 0 -0.28680213480438271 -0.37567621007169882 0 -0.27668340720933648 -0.38429669221050589 0 -0.30140006231940669 -0.3674202720743332 0 -0.29239813476133403 -0.36177935425687252 0 -0.28680213480438271 -0.37567621007169882 0 -0.28226237556022182 -0.3649607123004126 0 -0.29239813476133403 -0.36177935425687252 0 -0.28680213480438271 -0.37567621007169882 0 -0.28226237556022182 -0.3649607123004126 0 -0.27449671319206331 -0.37090895262474077 0 -0.27668340720933648 -0.38429669221050589 0 -0.28226237556022182 -0.3649607123004126 0 -0.27449671319206331 -0.37090895262474077 0 -0.27700475692894239 -0.3449002644822351 0 -0.28226237556022182 -0.3649607123004126 0 -0.27668340720933648 -0.38429669221050589 0 -0.27449671319206331 -0.37090895262474077 0 -0.25862232839652621 -0.35903655254702782 0 -0.25372868251686681 -0.37824598268554438 0 -0.25862232839652621 -0.35903655254702782 0 -0.27700475692894239 -0.3449002644822351 0 -0.2471067327845882 -0.34290146550219369 0 -0.27700475692894239 -0.3449002644822351 0 -0.2471067327845882 -0.34290146550219369 0 -0.27449671319206331 -0.37090895262474077 0 -0.27700475692894239 -0.3449002644822351 0 -0.27449671319206331 -0.37090895262474077 0 -0.25862232839652621 -0.35903655254702782 0 -0.27700475692894239 -0.3449002644822351 0 -0.27700475692894239 -0.3449002644822351 0 -0.2794725457905165 -0.31930902380390402 0 -0.27700475692894239 -0.3449002644822351 0 -0.26173596944191041 -0.32710854533710337 0 -0.2794725457905165 -0.31930902380390402 0 -0.27700475692894239 -0.3449002644822351 0 -0.26173596944191041 -0.32710854533710337 0 -0.2471067327845882 -0.34290146550219369 0 -0.26173596944191041 -0.32710854533710337 0 -0.26531234258196801 -0.30463220097938393 0 -0.24362129897875531 -0.31279969058816581 0 -0.26173596944191041 -0.32710854533710337 0 -0.2471067327845882 -0.34290146550219369 0 -0.24362129897875531 -0.31279969058816581 0 -0.26173596944191041 -0.32710854533710337 0 -0.2794725457905165 -0.31930902380390402 0 -0.26531234258196801 -0.30463220097938393 0 -0.2794725457905165 -0.31930902380390402 0 -0.29379555678488201 -0.32498820368704062 0 -0.28726838347843558 -0.30865432144710597 0 -0.29379555678488201 -0.32498820368704062 0 -0.29974976965865657 -0.30435167498376192 0 -0.28726838347843558 -0.30865432144710597 0 -0.29379555678488201 -0.32498820368704062 0 -0.29974976965865657 -0.30435167498376192 0 -0.28784134391110411 -0.34562473239031832 0 -0.27700475692894239 -0.3449002644822351 0 -0.29379555678488201 -0.32498820368704062 0 -0.28784134391110411 -0.34562473239031832 0 -0.29379555678488201 -0.32498820368704062 0 -0.30288154627390118 -0.33662118911650818 0 -0.27700475692894239 -0.3449002644822351 0 -0.2794725457905165 -0.31930902380390402 0 -0.29379555678488201 -0.32498820368704062 0 -0.28784134391110411 -0.34562473239031832 0 -0.29379555678488201 -0.32498820368704062 0 -0.31419698820424258 -0.34206936682769662 0 -0.30288154627390118 -0.33662118911650818 0 -0.30697337893144871 -0.3232105209057296 0 -0.31160046353782728 -0.34721312177175601 0 -0.28784134391110411 -0.34562473239031832 0 -0.30288154627390118 -0.33662118911650818 0 -0.29379555678488201 -0.32498820368704062 0 -0.30288154627390118 -0.33662118911650818 0 -0.30697337893144871 -0.3232105209057296 0 -0.31419698820424258 -0.34206936682769662 0 -0.30697337893144871 -0.3232105209057296 0 -0.31419698820424258 -0.34206936682769662 0 -0.31160046353782728 -0.34721312177175601 0 -0.30288154627390118 -0.33662118911650818 0 -0.29379555678488201 -0.32498820368704062 0 -0.30697337893144871 -0.3232105209057296 0 -0.29974976965865657 -0.30435167498376192 0 -0.30697337893144871 -0.3232105209057296 0 -0.29974976965865657 -0.30435167498376192 0 -0.31111541730141312 -0.31204992908433432 0 -0.30697337893144871 -0.3232105209057296 0 -0.29974976965865657 -0.30435167498376192 0 -0.30178855477177841 -0.29728551050515128 0 -0.29974976965865657 -0.30435167498376192 0 -0.30941702470659999 -0.30022407006566248 0 -0.30178855477177841 -0.29728551050515128 0 -0.29974976965865657 -0.30435167498376192 0 -0.29159669265494598 -0.29699122300748859 0 -0.30178855477177841 -0.29728551050515128 0 -0.29974976965865657 -0.30435167498376192 0 -0.29974976965865657 -0.30435167498376192 0 -0.31111541730141312 -0.31204992908433432 0 -0.30941702470659999 -0.30022407006566248 0 -0.31913651611782051 -0.29221350990101308 0 -0.30941702470659999 -0.30022407006566248 0 -0.30659232562701672 -0.28890670905104721 0 -0.30178855477177841 -0.29728551050515128 0 -0.30941702470659999 -0.30022407006566248 0 -0.30659232562701672 -0.28890670905104721 0 -0.30659232562701672 -0.28890670905104721 0 -0.29458808973461298 -0.28693525521497421 0 -0.30120250718818059 -0.27658376315334321 0 -0.30178855477177841 -0.29728551050515128 0 -0.30659232562701672 -0.28890670905104721 0 -0.29458808973461298 -0.28693525521497421 0 -0.30178855477177841 -0.29728551050515128 0 -0.29458808973461298 -0.28693525521497421 0 -0.29159669265494598 -0.29699122300748859 0 -0.29458808973461298 -0.28693525521497421 0 -0.28194033465209112 -0.29371778312557278 0 -0.28440812351366562 -0.26812654244724188 0 -0.29458808973461298 -0.28693525521497421 0 -0.28194033465209112 -0.29371778312557278 0 -0.29159669265494598 -0.29699122300748859 0 -0.2794725457905165 -0.31930902380390402 0 -0.28194033465209112 -0.29371778312557278 0 -0.28726838347843558 -0.30865432144710597 0 -0.28194033465209112 -0.29371778312557278 0 -0.29159669265494598 -0.29699122300748859 0 -0.28726838347843558 -0.30865432144710597 0 -0.29451129293891359 -0.30337872882134342 0 -0.29159669265494598 -0.29699122300748859 0 -0.28726838347843558 -0.30865432144710597 0 -0.29974976965865657 -0.30435167498376192 0 -0.29451129293891359 -0.30337872882134342 0 -0.29159669265494598 -0.29699122300748859 0 -0.29974976965865657 -0.30435167498376192 0 -0.29451129293891359 -0.30337872882134342 0 -0.28726838347843558 -0.30865432144710597 0 -0.2794725457905165 -0.31930902380390402 0 -0.28194033465209112 -0.29371778312557278 0 -0.26531234258196801 -0.30463220097938393 0 -0.2794725457905165 -0.31930902380390402 0 -0.28194033465209112 -0.29371778312557278 0 -0.26531234258196801 -0.30463220097938393 0 -0.25452603338474811 -0.29265532270736311 0 -0.24362129897875531 -0.31279969058816581 0 -0.26531234258196801 -0.30463220097938393 0 -0.25452603338474811 -0.29265532270736311 0 -0.26694599230596933 -0.28372556483085382 0 -0.25452603338474811 -0.29265532270736311 0 -0.25375469099219139 -0.27805694384383239 0 -0.24288527000267349 -0.28711669108024679 0 -0.25452603338474811 -0.29265532270736311 0 -0.26694599230596933 -0.28372556483085382 0 -0.25375469099219139 -0.27805694384383239 0 -0.28194033465209112 -0.29371778312557278 0 -0.26531234258196801 -0.30463220097938393 0 -0.26694599230596933 -0.28372556483085382 0 -0.28194033465209112 -0.29371778312557278 0 -0.26694599230596933 -0.28372556483085382 0 -0.28440812351366562 -0.26812654244724188 0 -0.26694599230596933 -0.28372556483085382 0 -0.26173442871115171 -0.26516459588172892 0 -0.28440812351366562 -0.26812654244724188 0 -0.25375469099219139 -0.27805694384383239 0 -0.26173442871115171 -0.26516459588172892 0 -0.24004363130804821 -0.26592468619517817 0 -0.26694599230596933 -0.28372556483085382 0 -0.25375469099219139 -0.27805694384383239 0 -0.26173442871115171 -0.26516459588172892 0 -0.26173442871115171 -0.26516459588172892 0 -0.27027951111711762 -0.24829868529917781 0 -0.25072384826432742 -0.23841644955799321 0 -0.26173442871115171 -0.26516459588172892 0 -0.24004363130804821 -0.26592468619517817 0 -0.25072384826432742 -0.23841644955799321 0 -0.28440812351366562 -0.26812654244724188 0 -0.28687591237524018 -0.24253530176891069 0 -0.27027951111711762 -0.24829868529917781 0 -0.26173442871115171 -0.26516459588172892 0 -0.28440812351366562 -0.26812654244724188 0 -0.27027951111711762 -0.24829868529917781 0 -0.28440812351366562 -0.26812654244724188 0 -0.28687591237524018 -0.24253530176891069 0 -0.29458154172358941 -0.25465892743969759 0 -0.28440812351366562 -0.26812654244724188 0 -0.28687591237524018 -0.24253530176891069 0 -0.29458154172358941 -0.25465892743969759 0 -0.28440812351366562 -0.26812654244724188 0 -0.30302339509131548 -0.26250853116630418 0 -0.28440812351366562 -0.26812654244724188 0 -0.30120250718818059 -0.27658376315334321 0 -0.30302339509131548 -0.26250853116630418 0 -0.28194033465209112 -0.29371778312557278 0 -0.28440812351366562 -0.26812654244724188 0 -0.29458808973461298 -0.28693525521497421 0 -0.28440812351366562 -0.26812654244724188 0 -0.30120250718818059 -0.27658376315334321 0 -0.31504856038177009 -0.27481043202551342 0 -0.30659232562701672 -0.28890670905104721 0 -0.30120250718818059 -0.27658376315334321 0 -0.31504856038177009 -0.27481043202551342 0 -0.30120250718818059 -0.27658376315334321 0 -0.30302339509131548 -0.26250853116630418 0 -0.31659653321669018 -0.25755681406275349 0 -0.30302339509131548 -0.26250853116630418 0 -0.30401873591413647 -0.24546533437633369 0 -0.31659653321669018 -0.25755681406275349 0 -0.31504856038177009 -0.27481043202551342 0 -0.30302339509131548 -0.26250853116630418 0 -0.29458154172358941 -0.25465892743969759 0 -0.30302339509131548 -0.26250853116630418 0 -0.30401873591413647 -0.24546533437633369 0 -0.33287042612364859 -0.46665017123126562 0 -0.34179715726541282 -0.43845235607152933 0 -0.35232798539431948 -0.46069463450825032 0 -0.34179715726541282 -0.43845235607152933 0 -0.32686246794290857 -0.44615180367495899 0 -0.32002478181149491 -0.43111292465629919 0 -0.33287042612364859 -0.46665017123126562 0 -0.34179715726541282 -0.43845235607152933 0 -0.32686246794290857 -0.44615180367495899 0 -0.32002478181149491 -0.43111292465629919 0 -0.30632400891769163 -0.43537136724523789 0 -0.31196902067231808 -0.44970569656638698 0 -0.32686246794290857 -0.44615180367495899 0 -0.32002478181149491 -0.43111292465629919 0 -0.31196902067231808 -0.44970569656638698 0 -0.33287042612364859 -0.46665017123126562 0 -0.31196902067231808 -0.44970569656638698 0 -0.30714571755529008 -0.47481110910015312 0 -0.33287042612364859 -0.46665017123126562 0 -0.31196902067231808 -0.44970569656638698 0 -0.33287042612364859 -0.46665017123126562 0 -0.32686246794290857 -0.44615180367495899 0 -0.31196902067231808 -0.44970569656638698 0 -0.33287042612364859 -0.46665017123126562 0 -0.3230849070024529 -0.4795246542812544 0 -0.30714571755529008 -0.47481110910015312 0 -0.3230849070024529 -0.4795246542812544 0 -0.32229042150768739 -0.49540683520154538 0 -0.30714571755529008 -0.47481110910015312 0 -0.32229042150768739 -0.49540683520154538 0 -0.34336967304326432 -0.5 0 -0.29610683790165671 -0.5 0 -0.3230849070024529 -0.4795246542812544 0 -0.32229042150768739 -0.49540683520154538 0 -0.33720451421447761 -0.48241422245181281 0 -0.32229042150768739 -0.49540683520154538 0 -0.33720451421447761 -0.48241422245181281 0 -0.34921826499847403 -0.49246651940717878 0 -0.32229042150768739 -0.49540683520154538 0 -0.34336967304326432 -0.5 0 -0.34921826499847403 -0.49246651940717878 0 -0.32229042150768739 -0.49540683520154538 0 -0.34921826499847403 -0.49246651940717878 0 -0.33287042612364859 -0.46665017123126562 0 -0.3230849070024529 -0.4795246542812544 0 -0.33720451421447761 -0.48241422245181281 0 -0.33287042612364859 -0.46665017123126562 0 -0.33720451421447761 -0.48241422245181281 0 -0.35377183157497921 -0.48359464589614398 0 -0.33287042612364859 -0.46665017123126562 0 -0.35377183157497921 -0.48359464589614398 0 -0.33287042612364859 -0.46665017123126562 0 -0.35377183157497921 -0.48359464589614398 0 -0.35232798539431948 -0.46069463450825032 0 -0.35377183157497921 -0.48359464589614398 0 -0.36963097928822641 -0.46898421185555289 0 -0.35232798539431948 -0.46069463450825032 0 -0.37614610848926072 -0.48952620361281218 0 -0.34336967304326432 -0.5 0 -0.34921826499847403 -0.49246651940717878 0 -0.33720451421447761 -0.48241422245181281 0 -0.35377183157497921 -0.48359464589614398 0 -0.34921826499847403 -0.49246651940717878 0 -0.37614610848926072 -0.48952620361281218 0 -0.34921826499847403 -0.49246651940717878 0 -0.37614610848926072 -0.48952620361281218 0 -0.35377183157497921 -0.48359464589614398 0 -0.34921826499847403 -0.49246651940717878 0 -0.37614610848926072 -0.48952620361281218 0 -0.35377183157497921 -0.48359464589614398 0 -0.36963097928822641 -0.46898421185555289 0 -0.36963097928822641 -0.46898421185555289 0 -0.35232798539431948 -0.46069463450825032 0 -0.36356953271933062 -0.44579178748675952 0 -0.38534190817324843 -0.45313121890198949 0 -0.36963097928822641 -0.46898421185555289 0 -0.36356953271933062 -0.44579178748675952 0 -0.34179715726541282 -0.43845235607152933 0 -0.36356953271933062 -0.44579178748675952 0 -0.36653449971058388 -0.43022957819680357 0 -0.34179715726541282 -0.43845235607152933 0 -0.36356953271933062 -0.44579178748675952 0 -0.34179715726541282 -0.43845235607152933 0 -0.35232798539431948 -0.46069463450825032 0 -0.36356953271933062 -0.44579178748675952 0 -0.38534190817324843 -0.45313121890198949 0 -0.36356953271933062 -0.44579178748675952 0 -0.38703114723878018 -0.43361022622180928 0 -0.36356953271933062 -0.44579178748675952 0 -0.36653449971058388 -0.43022957819680357 0 -0.37682871575927379 -0.4031209564268845 0 -0.37863466902946158 -0.41843805490853758 0 -0.35723238684418179 -0.41656945086376213 0 -0.37863466902946158 -0.41843805490853758 0 -0.36653449971058388 -0.43022957819680357 0 -0.35723238684418179 -0.41656945086376213 0 -0.35723238684418179 -0.41656945086376213 0 -0.35265145904244832 -0.40193954718724639 0 -0.33845241309229313 -0.40539357270059118 0 -0.35723238684418179 -0.41656945086376213 0 -0.33845241309229313 -0.40539357270059118 0 -0.33641012707093421 -0.42084559612193312 0 -0.34179715726541282 -0.43845235607152933 0 -0.36653449971058388 -0.43022957819680357 0 -0.35723238684418179 -0.41656945086376213 0 -0.34179715726541282 -0.43845235607152933 0 -0.35723238684418179 -0.41656945086376213 0 -0.33641012707093421 -0.42084559612193312 0 -0.36049876906785772 -0.37409860013393709 0 -0.37098705112042651 -0.38640796132580352 0 -0.35131065669463463 -0.38802179540250781 0 -0.37554122506897858 -0.37413195453287218 0 -0.36049876906785772 -0.37409860013393709 0 -0.37098705112042651 -0.38640796132580352 0 -0.37682871575927379 -0.4031209564268845 0 -0.35723238684418179 -0.41656945086376213 0 -0.36361037953868391 -0.39777336978212491 0 -0.37098705112042651 -0.38640796132580352 0 -0.36361037953868391 -0.39777336978212491 0 -0.35131065669463463 -0.38802179540250781 0 -0.37682871575927379 -0.4031209564268845 0 -0.37098705112042651 -0.38640796132580352 0 -0.36361037953868391 -0.39777336978212491 0 -0.35265145904244832 -0.40193954718724639 0 -0.35131065669463463 -0.38802179540250781 0 -0.33845241309229313 -0.40539357270059118 0 -0.35723238684418179 -0.41656945086376213 0 -0.36361037953868391 -0.39777336978212491 0 -0.35265145904244832 -0.40193954718724639 0 -0.36361037953868391 -0.39777336978212491 0 -0.35265145904244832 -0.40193954718724639 0 -0.35131065669463463 -0.38802179540250781 0 -0.36049876906785772 -0.37409860013393709 0 -0.34227429308876839 -0.36644893520654559 0 -0.35131065669463463 -0.38802179540250781 0 -0.34227429308876839 -0.36644893520654559 0 -0.35131065669463463 -0.38802179540250781 0 -0.33106402400387691 -0.38610453225445268 0 -0.35131065669463463 -0.38802179540250781 0 -0.33106402400387691 -0.38610453225445268 0 -0.33845241309229313 -0.40539357270059118 0 -0.33106402400387691 -0.38610453225445268 0 -0.33845241309229313 -0.40539357270059118 0 -0.33106402400387691 -0.38610453225445268 0 -0.33845241309229313 -0.40539357270059118 0 -0.32506261293157279 -0.39895187777153951 0 -0.33845241309229313 -0.40539357270059118 0 -0.32506261293157279 -0.39895187777153951 0 -0.32454389634128822 -0.41269967631748339 0 -0.32506261293157279 -0.39895187777153951 0 -0.31174277845508108 -0.38390054271067492 0 -0.31172464828930851 -0.40238372391950589 0 -0.32506261293157279 -0.39895187777153951 0 -0.32454389634128822 -0.41269967631748339 0 -0.31172464828930851 -0.40238372391950589 0 -0.32367563491546059 -0.3668154918083143 0 -0.33106402400387691 -0.38610453225445268 0 -0.31174277845508108 -0.38390054271067492 0 -0.32367563491546059 -0.3668154918083143 0 -0.33106402400387691 -0.38610453225445268 0 -0.33106402400387691 -0.38610453225445268 0 -0.32506261293157279 -0.39895187777153951 0 -0.31174277845508108 -0.38390054271067492 0 -0.34179715726541282 -0.43845235607152933 0 -0.33641012707093421 -0.42084559612193312 0 -0.32002478181149491 -0.43111292465629919 0 -0.34179715726541282 -0.43845235607152933 0 -0.32002478181149491 -0.43111292465629919 0 -0.33845241309229313 -0.40539357270059118 0 -0.33641012707093421 -0.42084559612193312 0 -0.32454389634128822 -0.41269967631748339 0 -0.32454389634128822 -0.41269967631748339 0 -0.32002478181149491 -0.43111292465629919 0 -0.31039655844395858 -0.41435617954327469 0 -0.33641012707093421 -0.42084559612193312 0 -0.32454389634128822 -0.41269967631748339 0 -0.32002478181149491 -0.43111292465629919 0 -0.32454389634128822 -0.41269967631748339 0 -0.31039655844395858 -0.41435617954327469 0 -0.31172464828930851 -0.40238372391950589 0 -0.32002478181149491 -0.43111292465629919 0 -0.29825240635757733 -0.42377349324106828 0 -0.31039655844395858 -0.41435617954327469 0 -0.32002478181149491 -0.43111292465629919 0 -0.30003707315637168 -0.42559839532721983 0 -0.29825240635757733 -0.42377349324106828 0 -0.32002478181149491 -0.43111292465629919 0 -0.30632400891769163 -0.43537136724523789 0 -0.30003707315637168 -0.42559839532721983 0 -0.32002478181149491 -0.43111292465629919 0 -0.29825240635757733 -0.42377349324106828 0 -0.30632400891769163 -0.43537136724523789 0 -0.30003707315637168 -0.42559839532721983 0 -0.29106761522098751 -0.43276122190150851 0 -0.30003707315637168 -0.42559839532721983 0 -0.29825240635757733 -0.42377349324106828 0 -0.29825240635757733 -0.42377349324106828 0 -0.31039655844395858 -0.41435617954327469 0 -0.29743705942012422 -0.4018110795820159 0 -0.29825240635757733 -0.42377349324106828 0 -0.27030733563551929 -0.4143532565566343 0 -0.29825240635757733 -0.42377349324106828 0 -0.28512053790638042 -0.41034556700415731 0 -0.29743705942012422 -0.4018110795820159 0 -0.29825240635757733 -0.42377349324106828 0 -0.28512053790638042 -0.41034556700415731 0 -0.29825240635757733 -0.42377349324106828 0 -0.28512053790638042 -0.41034556700415731 0 -0.27030733563551929 -0.4143532565566343 0 -0.29825240635757733 -0.42377349324106828 0 -0.29106761522098751 -0.43276122190150851 0 -0.27016620976965727 -0.41581674723662948 0 -0.30003707315637168 -0.42559839532721983 0 -0.29825240635757733 -0.42377349324106828 0 -0.29106761522098751 -0.43276122190150851 0 -0.30140006231940669 -0.3674202720743332 0 -0.31174277845508108 -0.38390054271067492 0 -0.29119966110098638 -0.38762742237691061 0 -0.31174277845508108 -0.38390054271067492 0 -0.29743705942012422 -0.4018110795820159 0 -0.29119966110098638 -0.38762742237691061 0 -0.31174277845508108 -0.38390054271067492 0 -0.31172464828930851 -0.40238372391950589 0 -0.29743705942012422 -0.4018110795820159 0 -0.31039655844395858 -0.41435617954327469 0 -0.31172464828930851 -0.40238372391950589 0 -0.29743705942012422 -0.4018110795820159 0 -0.28512053790638042 -0.41034556700415731 0 -0.29743705942012422 -0.4018110795820159 0 -0.28448586701840212 -0.39619968038816727 0 -0.29743705942012422 -0.4018110795820159 0 -0.28448586701840212 -0.39619968038816727 0 -0.29119966110098638 -0.38762742237691061 0 -0.30140006231940669 -0.3674202720743332 0 -0.29119966110098638 -0.38762742237691061 0 -0.30140006231940669 -0.3674202720743332 0 -0.29119966110098638 -0.38762742237691061 0 -0.28680213480438271 -0.37567621007169882 0 -0.28448586701840212 -0.39619968038816727 0 -0.29119966110098638 -0.38762742237691061 0 -0.27668340720933648 -0.38429669221050589 0 -0.29119966110098638 -0.38762742237691061 0 -0.28680213480438271 -0.37567621007169882 0 -0.27668340720933648 -0.38429669221050589 0 -0.27449671319206331 -0.37090895262474077 0 -0.27198866945518352 -0.39691764076724628 0 -0.27449671319206331 -0.37090895262474077 0 -0.27198866945518352 -0.39691764076724628 0 -0.25372868251686681 -0.37824598268554438 0 -0.27449671319206331 -0.37090895262474077 0 -0.27668340720933648 -0.38429669221050589 0 -0.27198866945518352 -0.39691764076724628 0 -0.27198866945518352 -0.39691764076724628 0 -0.26697553485617631 -0.41323011207655802 0 -0.26109603604429799 -0.40846368529764882 0 -0.27198866945518352 -0.39691764076724628 0 -0.27030733563551929 -0.4143532565566343 0 -0.28448586701840212 -0.39619968038816727 0 -0.27668340720933648 -0.38429669221050589 0 -0.27198866945518352 -0.39691764076724628 0 -0.28512053790638042 -0.41034556700415731 0 -0.28448586701840212 -0.39619968038816727 0 -0.27198866945518352 -0.39691764076724628 0 -0.28512053790638042 -0.41034556700415731 0 -0.27198866945518352 -0.39691764076724628 0 -0.27198866945518352 -0.39691764076724628 0 -0.2531098078334369 -0.39505658787466119 0 -0.26109603604429799 -0.40846368529764882 0 -0.2531098078334369 -0.39505658787466119 0 -0.26109603604429799 -0.40846368529764882 0 -0.24263514192489499 -0.40502500625716792 0 -0.27198866945518352 -0.39691764076724628 0 -0.25372868251686681 -0.37824598268554438 0 -0.27198866945518352 -0.39691764076724628 0 -0.2531098078334369 -0.39505658787466119 0 -0.25372868251686681 -0.37824598268554438 0 -0.29106761522098751 -0.43276122190150851 0 -0.27016620976965727 -0.41581674723662948 0 -0.27016620976965727 -0.41581674723662948 0 -0.2610014272341315 -0.42386051704126421 0 -0.26746025142878421 -0.44387783149108562 0 -0.27016620976965727 -0.41581674723662948 0 -0.26746025142878421 -0.44387783149108562 0 -0.28207858671543212 -0.44429675797388679 0 -0.27016620976965727 -0.41581674723662948 0 -0.26746025142878421 -0.44387783149108562 0 -0.29106761522098751 -0.43276122190150851 0 -0.27016620976965727 -0.41581674723662948 0 -0.28207858671543212 -0.44429675797388679 0 -0.29825240635757733 -0.42377349324106828 0 -0.27016620976965727 -0.41581674723662948 0 -0.27030733563551929 -0.4143532565566343 0 -0.28512053790638042 -0.41034556700415731 0 -0.27198866945518352 -0.39691764076724628 0 -0.27030733563551929 -0.4143532565566343 0 -0.27198866945518352 -0.39691764076724628 0 -0.26697553485617631 -0.41323011207655802 0 -0.27030733563551929 -0.4143532565566343 0 -0.26697553485617631 -0.41323011207655802 0 -0.27030733563551929 -0.4143532565566343 0 -0.26697553485617631 -0.41323011207655802 0 -0.27016620976965727 -0.41581674723662948 0 -0.2610014272341315 -0.42386051704126421 0 -0.27016620976965727 -0.41581674723662948 0 -0.27030733563551929 -0.4143532565566343 0 -0.26697553485617631 -0.41323011207655802 0 -0.27016620976965727 -0.41581674723662948 0 -0.27030733563551929 -0.4143532565566343 0 -0.26697553485617631 -0.41323011207655802 0 -0.27016620976965727 -0.41581674723662948 0 -0.26697553485617631 -0.41323011207655802 0 -0.2610014272341315 -0.42386051704126421 0 -0.24263514192489499 -0.40502500625716792 0 -0.26697553485617631 -0.41323011207655802 0 -0.26109603604429799 -0.40846368529764882 0 -0.24263514192489499 -0.40502500625716792 0 -0.26697553485617631 -0.41323011207655802 0 -0.24263514192489499 -0.40502500625716792 0 -0.26697553485617631 -0.41323011207655802 0 -0.26109603604429799 -0.40846368529764882 0 -0.2610014272341315 -0.42386051704126421 0 -0.26746025142878421 -0.44387783149108562 0 -0.24906648241450419 -0.4446402053072348 0 -0.2610014272341315 -0.42386051704126421 0 -0.24906648241450419 -0.4446402053072348 0 -0.24474641712459139 -0.42652236367682889 0 -0.26746025142878421 -0.44387783149108562 0 -0.26475429308790982 -0.47193891574554148 0 -0.24906648241450419 -0.4446402053072348 0 -0.26746025142878421 -0.44387783149108562 0 -0.28784356358008728 -0.45856101969816992 0 -0.26475429308790982 -0.47193891574554148 0 -0.26746025142878421 -0.44387783149108562 0 -0.26475429308790982 -0.47193891574554148 0 -0.26746025142878421 -0.44387783149108562 0 -0.28207858671543212 -0.44429675797388679 0 -0.28784356358008728 -0.45856101969816992 0 -0.29106761522098751 -0.43276122190150851 0 -0.28207858671543212 -0.44429675797388679 0 -0.29323969654720627 -0.44633117403498801 0 -0.28207858671543212 -0.44429675797388679 0 -0.29323969654720627 -0.44633117403498801 0 -0.28784356358008728 -0.45856101969816992 0 -0.28784356358008728 -0.45856101969816992 0 -0.31196902067231808 -0.44970569656638698 0 -0.30714571755529008 -0.47481110910015312 0 -0.29106761522098751 -0.43276122190150851 0 -0.31196902067231808 -0.44970569656638698 0 -0.29323969654720627 -0.44633117403498801 0 -0.28784356358008728 -0.45856101969816992 0 -0.31196902067231808 -0.44970569656638698 0 -0.30632400891769163 -0.43537136724523789 0 -0.29106761522098751 -0.43276122190150851 0 -0.31196902067231808 -0.44970569656638698 0 -0.29106761522098751 -0.43276122190150851 0 -0.29323969654720627 -0.44633117403498801 0 -0.31196902067231808 -0.44970569656638698 0 -0.32229042150768739 -0.49540683520154538 0 -0.30714571755529008 -0.47481110910015312 0 -0.29610683790165671 -0.5 0 -0.28784356358008728 -0.45856101969816992 0 -0.30714571755529008 -0.47481110910015312 0 -0.2835797493743959 -0.48106220890877238 0 -0.30714571755529008 -0.47481110910015312 0 -0.2835797493743959 -0.48106220890877238 0 -0.29610683790165671 -0.5 0 -0.2835797493743959 -0.48106220890877238 0 -0.29610683790165671 -0.5 0 -0.2620483347470357 -0.4999999999999975 0 -0.28784356358008728 -0.45856101969816992 0 -0.2835797493743959 -0.48106220890877238 0 -0.26475429308790982 -0.47193891574554148 0 -0.2835797493743959 -0.48106220890877238 0 -0.26475429308790982 -0.47193891574554148 0 -0.2620483347470357 -0.4999999999999975 0 -0.26475429308790982 -0.47193891574554148 0 -0.2620483347470357 -0.4999999999999975 0 -0.24765865014248489 -0.48482547006564231 0 -0.26475429308790982 -0.47193891574554148 0 -0.2620483347470357 -0.4999999999999975 0 -0.2620483347470357 -0.4999999999999975 0 -0.24765865014248489 -0.48482547006564231 0 -0.2382912122508502 -0.5 0 -0.24765865014248489 -0.48482547006564231 0 -0.2382912122508502 -0.5 0 -0.22725742093175541 -0.48560711782335869 0 -0.26475429308790982 -0.47193891574554148 0 -0.24765865014248489 -0.48482547006564231 0 -0.2347333675128809 -0.46651623189213098 0 -0.24765865014248489 -0.48482547006564231 0 -0.22725742093175541 -0.48560711782335869 0 -0.2347333675128809 -0.46651623189213098 0 -0.22725742093175541 -0.48560711782335869 0 -0.2347333675128809 -0.46651623189213098 0 -0.20512468065708661 -0.47334151695486543 0 -0.2382912122508502 -0.5 0 -0.22725742093175541 -0.48560711782335869 0 -0.21453408975466459 -0.49999999999999911 0 -0.24906648241450419 -0.4446402053072348 0 -0.2347333675128809 -0.46651623189213098 0 -0.2313650145929462 -0.43958352760853092 0 -0.26475429308790982 -0.47193891574554148 0 -0.24906648241450419 -0.4446402053072348 0 -0.2347333675128809 -0.46651623189213098 0 -0.2347333675128809 -0.46651623189213098 0 -0.2313650145929462 -0.43958352760853092 0 -0.21578890982870949 -0.45221698609991479 0 -0.2313650145929462 -0.43958352760853092 0 -0.21578890982870949 -0.45221698609991479 0 -0.21186125091848321 -0.42363265399573241 0 -0.21578890982870949 -0.45221698609991479 0 -0.19571527155950841 -0.44668303390973191 0 -0.21186125091848321 -0.42363265399573241 0 -0.21578890982870949 -0.45221698609991479 0 -0.19571527155950841 -0.44668303390973191 0 -0.20512468065708661 -0.47334151695486543 0 -0.2347333675128809 -0.46651623189213098 0 -0.21578890982870949 -0.45221698609991479 0 -0.20512468065708661 -0.47334151695486543 0 -0.19571527155950841 -0.44668303390973191 0 -0.20512468065708661 -0.47334151695486543 0 -0.1815957381450487 -0.46982065071888313 0 -0.19571527155950841 -0.44668303390973191 0 -0.20512468065708661 -0.47334151695486543 0 -0.21453408975466459 -0.49999999999999911 0 -0.20512468065708661 -0.47334151695486543 0 -0.22725742093175541 -0.48560711782335869 0 -0.21453408975466459 -0.49999999999999911 0 -0.20512468065708661 -0.47334151695486543 0 -0.21453408975466459 -0.49999999999999911 0 -0.20512468065708661 -0.47334151695486543 0 -0.19345724518032689 -0.5 0 -0.20512468065708661 -0.47334151695486543 0 -0.18382190859200709 -0.48499511259527361 0 -0.1815957381450487 -0.46982065071888313 0 -0.20512468065708661 -0.47334151695486543 0 -0.19345724518032689 -0.5 0 -0.18382190859200709 -0.48499511259527361 0 -0.19345724518032689 -0.5 0 -0.172380400605989 -0.5 0 -0.18382190859200709 -0.48499511259527361 0 -0.172380400605989 -0.5 0 -0.18382190859200709 -0.48499511259527361 0 -0.16655147837158421 -0.48181339530261952 0 -0.172380400605989 -0.5 0 -0.16655147837158421 -0.48181339530261952 0 -0.15130355603165119 -0.50000000000000422 0 -0.16655147837158421 -0.48181339530261952 0 -0.1815957381450487 -0.46982065071888313 0 -0.16391138649903769 -0.45839789605538389 0 -0.16655147837158421 -0.48181339530261952 0 -0.16391138649903769 -0.45839789605538389 0 -0.14719896605462079 -0.47608141404386051 0 -0.18382190859200709 -0.48499511259527361 0 -0.16655147837158421 -0.48181339530261952 0 -0.1815957381450487 -0.46982065071888313 0 -0.19571527155950841 -0.44668303390973191 0 -0.17006800129221139 -0.43838175335971069 0 -0.16391138649903769 -0.45839789605538389 0 -0.19571527155950841 -0.44668303390973191 0 -0.1815957381450487 -0.46982065071888313 0 -0.16391138649903769 -0.45839789605538389 0 -0.17006800129221139 -0.43838175335971069 0 -0.16391138649903769 -0.45839789605538389 0 -0.14309437607758929 -0.45216282808771707 0 -0.17006800129221139 -0.43838175335971069 0 -0.14309437607758929 -0.45216282808771707 0 -0.16391138649903769 -0.45839789605538389 0 -0.14309437607758929 -0.45216282808771707 0 -0.14719896605462079 -0.47608141404386051 0 -0.14309437607758929 -0.45216282808771707 0 -0.14719896605462079 -0.47608141404386051 0 -0.14309437607758929 -0.45216282808771707 0 -0.13961314743226941 -0.43187674176677038 0 -0.17006800129221139 -0.43838175335971069 0 -0.14309437607758929 -0.45216282808771707 0 -0.13961314743226941 -0.43187674176677038 0 -0.14309437607758929 -0.45216282808771707 0 -0.12634073113087191 -0.44378726844184607 0 -0.13961314743226941 -0.43187674176677038 0 -0.14309437607758929 -0.45216282808771707 0 -0.14719896605462079 -0.47608141404386051 0 -0.1188620011512401 -0.46454337267673412 0 -0.14309437607758929 -0.45216282808771707 0 -0.12634073113087191 -0.44378726844184607 0 -0.1188620011512401 -0.46454337267673412 0 -0.14309437607758929 -0.45216282808771707 0 -0.1188620011512401 -0.46454337267673412 0 -0.12968072546621401 -0.48318219875650242 0 -0.14719896605462079 -0.47608141404386051 0 -0.1188620011512401 -0.46454337267673412 0 -0.12968072546621401 -0.48318219875650242 0 -0.15130355603165119 -0.50000000000000422 0 -0.1238694244071858 -0.5 0 -0.16655147837158421 -0.48181339530261952 0 -0.15130355603165119 -0.50000000000000422 0 -0.14719896605462079 -0.47608141404386051 0 -0.12968072546621401 -0.48318219875650242 0 -0.15130355603165119 -0.50000000000000422 0 -0.14719896605462079 -0.47608141404386051 0 -0.15130355603165119 -0.50000000000000422 0 -0.14719896605462079 -0.47608141404386051 0 -0.1502133232826639 -0.39224453253034408 0 -0.13613191878694769 -0.41159065544582402 0 -0.16241338097291269 -0.40530650920842581 0 -0.1502133232826639 -0.39224453253034408 0 -0.1417331601780446 -0.37634865514489341 0 -0.16047555407407729 -0.37482723265364332 0 -0.1502133232826639 -0.39224453253034408 0 -0.1417331601780446 -0.37634865514489341 0 -0.13265069014162589 -0.39130456912487749 0 -0.1417331601780446 -0.37634865514489341 0 -0.13265069014162589 -0.39130456912487749 0 -0.1219167210072663 -0.38008905888290517 0 -0.13265069014162589 -0.39130456912487749 0 -0.13613191878694769 -0.41159065544582402 0 -0.1502133232826639 -0.39224453253034408 0 -0.13265069014162589 -0.39130456912487749 0 -0.13613191878694769 -0.41159065544582402 0 -0.13265069014162589 -0.39130456912487749 0 -0.13613191878694769 -0.41159065544582402 0 -0.1161711078885298 -0.39891365138407031 0 -0.13613191878694769 -0.41159065544582402 0 -0.13961314743226941 -0.43187674176677038 0 -0.12634073113087191 -0.44378726844184607 0 -0.13961314743226941 -0.43187674176677038 0 -0.1181243082007703 -0.42376097710149641 0 -0.13613191878694769 -0.41159065544582402 0 -0.13961314743226941 -0.43187674176677038 0 -0.1181243082007703 -0.42376097710149641 0 -0.13613191878694769 -0.41159065544582402 0 -0.13961314743226941 -0.43187674176677038 0 -0.1574088463004312 -0.42310523416485107 0 -0.17006800129221139 -0.43838175335971069 0 -0.13961314743226941 -0.43187674176677038 0 -0.1574088463004312 -0.42310523416485107 0 -0.13613191878694769 -0.41159065544582402 0 -0.1574088463004312 -0.42310523416485107 0 -0.16241338097291269 -0.40530650920842581 0 -0.1574088463004312 -0.42310523416485107 0 -0.18630586246193001 -0.42002455086459822 0 -0.16241338097291269 -0.40530650920842581 0 -0.17006800129221139 -0.43838175335971069 0 -0.1574088463004312 -0.42310523416485107 0 -0.18630586246193001 -0.42002455086459822 0 -0.19571527155950841 -0.44668303390973191 0 -0.17006800129221139 -0.43838175335971069 0 -0.18630586246193001 -0.42002455086459822 0 -0.18630586246193001 -0.42002455086459822 0 -0.17557989986893899 -0.39151606262485439 0 -0.16241338097291269 -0.40530650920842581 0 -0.18630586246193001 -0.42002455086459822 0 -0.17557989986893899 -0.39151606262485439 0 -0.19810552696750849 -0.40489070040727132 0 -0.1502133232826639 -0.39224453253034408 0 -0.17557989986893899 -0.39151606262485439 0 -0.16241338097291269 -0.40530650920842581 0 -0.1502133232826639 -0.39224453253034408 0 -0.17557989986893899 -0.39151606262485439 0 -0.16047555407407729 -0.37482723265364332 0 -0.17557989986893899 -0.39151606262485439 0 -0.16047555407407729 -0.37482723265364332 0 -0.1772239115371258 -0.36378179544822897 0 -0.17557989986893899 -0.39151606262485439 0 -0.19395435606233241 -0.38861479461838738 0 -0.1772239115371258 -0.36378179544822897 0 -0.17557989986893899 -0.39151606262485439 0 -0.19395435606233241 -0.38861479461838738 0 -0.19810552696750849 -0.40489070040727132 0 -0.19395435606233241 -0.38861479461838738 0 -0.19810552696750849 -0.40489070040727132 0 -0.2182947489936137 -0.39681990043777771 0 -0.19395435606233241 -0.38861479461838738 0 -0.2182947489936137 -0.39681990043777771 0 -0.19395435606233241 -0.38861479461838738 0 -0.2182947489936137 -0.39681990043777771 0 -0.21959588931369819 -0.37511185921415507 0 -0.19571527155950841 -0.44668303390973191 0 -0.18630586246193001 -0.42002455086459822 0 -0.19571527155950841 -0.44668303390973191 0 -0.18630586246193001 -0.42002455086459822 0 -0.21186125091848321 -0.42363265399573241 0 -0.18630586246193001 -0.42002455086459822 0 -0.19810552696750849 -0.40489070040727132 0 -0.21186125091848321 -0.42363265399573241 0 -0.19810552696750849 -0.40489070040727132 0 -0.2182947489936137 -0.39681990043777771 0 -0.21186125091848321 -0.42363265399573241 0 -0.2313650145929462 -0.43958352760853092 0 -0.21186125091848321 -0.42363265399573241 0 -0.2310770324495271 -0.42008596343476501 0 -0.2182947489936137 -0.39681990043777771 0 -0.21186125091848321 -0.42363265399573241 0 -0.2310770324495271 -0.42008596343476501 0 -0.2182947489936137 -0.39681990043777771 0 -0.2310770324495271 -0.42008596343476501 0 -0.24263514192489499 -0.40502500625716792 0 -0.2610014272341315 -0.42386051704126421 0 -0.24474641712459139 -0.42652236367682889 0 -0.24263514192489499 -0.40502500625716792 0 -0.2310770324495271 -0.42008596343476501 0 -0.24474641712459139 -0.42652236367682889 0 -0.24263514192489499 -0.40502500625716792 0 -0.2313650145929462 -0.43958352760853092 0 -0.2310770324495271 -0.42008596343476501 0 -0.24474641712459139 -0.42652236367682889 0 -0.24906648241450419 -0.4446402053072348 0 -0.2313650145929462 -0.43958352760853092 0 -0.24474641712459139 -0.42652236367682889 0 -0.2182947489936137 -0.39681990043777771 0 -0.21959588931369819 -0.37511185921415507 0 -0.23610050922594189 -0.38663062436569828 0 -0.2182947489936137 -0.39681990043777771 0 -0.24263514192489499 -0.40502500625716792 0 -0.2182947489936137 -0.39681990043777771 0 -0.24263514192489499 -0.40502500625716792 0 -0.23610050922594189 -0.38663062436569828 0 -0.2531098078334369 -0.39505658787466119 0 -0.24263514192489499 -0.40502500625716792 0 -0.23610050922594189 -0.38663062436569828 0 -0.2531098078334369 -0.39505658787466119 0 -0.25372868251686681 -0.37824598268554438 0 -0.23610050922594189 -0.38663062436569828 0 -0.25372868251686681 -0.37824598268554438 0 -0.2354686955785506 -0.35957432460384192 0 -0.25372868251686681 -0.37824598268554438 0 -0.23610050922594189 -0.38663062436569828 0 -0.2354686955785506 -0.35957432460384192 0 -0.25862232839652621 -0.35903655254702782 0 -0.25372868251686681 -0.37824598268554438 0 -0.2354686955785506 -0.35957432460384192 0 -0.21959588931369819 -0.37511185921415507 0 -0.23610050922594189 -0.38663062436569828 0 -0.2354686955785506 -0.35957432460384192 0 -0.21959588931369819 -0.37511185921415507 0 -0.2354686955785506 -0.35957432460384192 0 -0.2184715570638143 -0.35793218645779562 0 -0.2354686955785506 -0.35957432460384192 0 -0.2471067327845882 -0.34290146550219369 0 -0.21720870864023509 -0.34090266652213908 0 -0.2354686955785506 -0.35957432460384192 0 -0.21720870864023509 -0.34090266652213908 0 -0.2354686955785506 -0.35957432460384192 0 -0.21720870864023509 -0.34090266652213908 0 -0.2184715570638143 -0.35793218645779562 0 -0.25862232839652621 -0.35903655254702782 0 -0.2354686955785506 -0.35957432460384192 0 -0.2471067327845882 -0.34290146550219369 0 -0.2471067327845882 -0.34290146550219369 0 -0.24362129897875531 -0.31279969058816581 0 -0.23198737252180071 -0.3301388856372211 0 -0.24362129897875531 -0.31279969058816581 0 -0.23198737252180071 -0.3301388856372211 0 -0.21868319739549 -0.3209411594695481 0 -0.23198737252180071 -0.3301388856372211 0 -0.21720870864023509 -0.34090266652213908 0 -0.21868319739549 -0.3209411594695481 0 -0.2471067327845882 -0.34290146550219369 0 -0.21720870864023509 -0.34090266652213908 0 -0.2471067327845882 -0.34290146550219369 0 -0.23198737252180071 -0.3301388856372211 0 -0.21720870864023509 -0.34090266652213908 0 -0.21720870864023509 -0.34090266652213908 0 -0.19027954474718439 -0.33910234737518391 0 -0.21720870864023509 -0.34090266652213908 0 -0.2015641642543404 -0.32490541610765628 0 -0.21720870864023509 -0.34090266652213908 0 -0.21868319739549 -0.3209411594695481 0 -0.2015641642543404 -0.32490541610765628 0 -0.21868319739549 -0.3209411594695481 0 -0.2015641642543404 -0.32490541610765628 0 -0.2080073280864774 -0.2995463368533553 0 -0.2015641642543404 -0.32490541610765628 0 -0.1859196198684461 -0.30890816569317309 0 -0.2015641642543404 -0.32490541610765628 0 -0.1859196198684461 -0.30890816569317309 0 -0.1786885336863375 -0.32536417612510887 0 -0.21720870864023509 -0.34090266652213908 0 -0.2015641642543404 -0.32490541610765628 0 -0.19027954474718439 -0.33910234737518391 0 -0.2015641642543404 -0.32490541610765628 0 -0.19027954474718439 -0.33910234737518391 0 -0.1786885336863375 -0.32536417612510887 0 -0.19027954474718439 -0.33910234737518391 0 -0.20323039501472551 -0.36021652026673229 0 -0.1772239115371258 -0.36378179544822897 0 -0.19395435606233241 -0.38861479461838738 0 -0.20323039501472551 -0.36021652026673229 0 -0.1772239115371258 -0.36378179544822897 0 -0.21959588931369819 -0.37511185921415507 0 -0.20323039501472551 -0.36021652026673229 0 -0.2184715570638143 -0.35793218645779562 0 -0.19395435606233241 -0.38861479461838738 0 -0.21959588931369819 -0.37511185921415507 0 -0.20323039501472551 -0.36021652026673229 0 -0.21720870864023509 -0.34090266652213908 0 -0.20323039501472551 -0.36021652026673229 0 -0.2184715570638143 -0.35793218645779562 0 -0.21720870864023509 -0.34090266652213908 0 -0.19027954474718439 -0.33910234737518391 0 -0.20323039501472551 -0.36021652026673229 0 -0.22911004428117909 -0.25928338888805341 0 -0.21664362513124291 -0.26229047600745209 0 -0.222298668502317 -0.24847530355297609 0 -0.22911004428117909 -0.25928338888805341 0 -0.22872196377807519 -0.27251913721924459 0 -0.21664362513124291 -0.26229047600745209 0 -0.22911004428117909 -0.25928338888805341 0 -0.2354726814988696 -0.24894793315851049 0 -0.222298668502317 -0.24847530355297609 0 -0.24004363130804821 -0.26592468619517817 0 -0.2354726814988696 -0.24894793315851049 0 -0.25072384826432742 -0.23841644955799321 0 -0.22911004428117909 -0.25928338888805341 0 -0.24004363130804821 -0.26592468619517817 0 -0.2354726814988696 -0.24894793315851049 0 -0.24004363130804821 -0.26592468619517817 0 -0.25072384826432742 -0.23841644955799321 0 -0.25375469099219139 -0.27805694384383239 0 -0.24004363130804821 -0.26592468619517817 0 -0.24288527000267349 -0.28711669108024679 0 -0.24004363130804821 -0.26592468619517817 0 -0.2293634143517691 -0.29343292283236322 0 -0.22872196377807519 -0.27251913721924459 0 -0.2188330934739722 -0.28620369836933901 0 -0.20923966767956739 -0.2793163965723931 0 -0.22872196377807519 -0.27251913721924459 0 -0.20923966767956739 -0.2793163965723931 0 -0.24004363130804821 -0.26592468619517817 0 -0.22872196377807519 -0.27251913721924459 0 -0.2293634143517691 -0.29343292283236322 0 -0.22911004428117909 -0.25928338888805341 0 -0.24004363130804821 -0.26592468619517817 0 -0.22872196377807519 -0.27251913721924459 0 -0.22872196377807519 -0.27251913721924459 0 -0.2293634143517691 -0.29343292283236322 0 -0.2188330934739722 -0.28620369836933901 0 -0.24004363130804821 -0.26592468619517817 0 -0.2293634143517691 -0.29343292283236322 0 -0.24288527000267349 -0.28711669108024679 0 -0.24362129897875531 -0.31279969058816581 0 -0.2293634143517691 -0.29343292283236322 0 -0.24288527000267349 -0.28711669108024679 0 -0.25452603338474811 -0.29265532270736311 0 -0.24362129897875531 -0.31279969058816581 0 -0.24288527000267349 -0.28711669108024679 0 -0.21868319739549 -0.3209411594695481 0 -0.2293634143517691 -0.29343292283236322 0 -0.24362129897875531 -0.31279969058816581 0 -0.21868319739549 -0.3209411594695481 0 -0.2293634143517691 -0.29343292283236322 0 -0.21868319739549 -0.3209411594695481 0 -0.2293634143517691 -0.29343292283236322 0 -0.2080073280864774 -0.2995463368533553 0 -0.2015641642543404 -0.32490541610765628 0 -0.2080073280864774 -0.2995463368533553 0 -0.1859196198684461 -0.30890816569317309 0 -0.2080073280864774 -0.2995463368533553 0 -0.1897573715810596 -0.28611365592554161 0 -0.1859196198684461 -0.30890816569317309 0 -0.2080073280864774 -0.2995463368533553 0 -0.1897573715810596 -0.28611365592554161 0 -0.20923966767956739 -0.2793163965723931 0 -0.1897573715810596 -0.28611365592554161 0 -0.20923966767956739 -0.2793163965723931 0 -0.2188330934739722 -0.28620369836933901 0 -0.2080073280864774 -0.2995463368533553 0 -0.20923966767956739 -0.2793163965723931 0 -0.2293634143517691 -0.29343292283236322 0 -0.2188330934739722 -0.28620369836933901 0 -0.2080073280864774 -0.2995463368533553 0 -0.22872196377807519 -0.27251913721924459 0 -0.20923966767956739 -0.2793163965723931 0 -0.21664362513124291 -0.26229047600745209 0 -0.20923966767956739 -0.2793163965723931 0 -0.20166694682779901 -0.26239280046571117 0 -0.21664362513124291 -0.26229047600745209 0 -0.20923966767956739 -0.2793163965723931 0 -0.20166694682779901 -0.26239280046571117 0 -0.1855890245678454 -0.26917068663672539 0 -0.1897573715810596 -0.28611365592554161 0 -0.20923966767956739 -0.2793163965723931 0 -0.1855890245678454 -0.26917068663672539 0 -0.20166694682779901 -0.26239280046571117 0 -0.18679401823353531 -0.25309787563023223 0 -0.19701865170035759 -0.24077808621420541 0 -0.20166694682779901 -0.26239280046571117 0 -0.19701865170035759 -0.24077808621420541 0 -0.20166694682779901 -0.26239280046571117 0 -0.18679401823353531 -0.25309787563023223 0 -0.1855890245678454 -0.26917068663672539 0 -0.20166694682779901 -0.26239280046571117 0 -0.21032388326083029 -0.25024911192045129 0 -0.19701865170035759 -0.24077808621420541 0 -0.20166694682779901 -0.26239280046571117 0 -0.21032388326083029 -0.25024911192045129 0 -0.21664362513124291 -0.26229047600745209 0 -0.21032388326083029 -0.25024911192045129 0 -0.21664362513124291 -0.26229047600745209 0 -0.222298668502317 -0.24847530355297609 0 -0.17116287506745159 -0.25520359587210562 0 -0.16862387438099369 -0.27441941795874802 0 -0.15569989281877869 -0.25863487375335492 0 -0.17116287506745159 -0.25520359587210562 0 -0.15569989281877869 -0.25863487375335492 0 -0.15713976905195959 -0.24665593677925601 0 -0.17116287506745159 -0.25520359587210562 0 -0.18679401823353531 -0.25309787563023223 0 -0.1855890245678454 -0.26917068663672539 0 -0.1897573715810596 -0.28611365592554161 0 -0.1855890245678454 -0.26917068663672539 0 -0.16862387438099369 -0.27441941795874802 0 -0.17116287506745159 -0.25520359587210562 0 -0.1855890245678454 -0.26917068663672539 0 -0.16862387438099369 -0.27441941795874802 0 -0.16862387438099369 -0.27441941795874802 0 -0.17027507548255169 -0.29291091527869001 0 -0.15017377847902241 -0.27235643482278749 0 -0.16862387438099369 -0.27441941795874802 0 -0.15017377847902241 -0.27235643482278749 0 -0.15569989281877869 -0.25863487375335492 0 -0.17027507548255169 -0.29291091527869001 0 -0.15017377847902241 -0.27235643482278749 0 -0.17027507548255169 -0.29291091527869001 0 -0.14788387869433101 -0.30072307309763308 0 -0.1897573715810596 -0.28611365592554161 0 -0.16862387438099369 -0.27441941795874802 0 -0.17027507548255169 -0.29291091527869001 0 -0.1897573715810596 -0.28611365592554161 0 -0.17027507548255169 -0.29291091527869001 0 -0.1859196198684461 -0.30890816569317309 0 -0.1897573715810596 -0.28611365592554161 0 -0.17027507548255169 -0.29291091527869001 0 -0.17027507548255169 -0.29291091527869001 0 -0.1859196198684461 -0.30890816569317309 0 -0.17027507548255169 -0.29291091527869001 0 -0.1859196198684461 -0.30890816569317309 0 -0.16498224042861109 -0.31373548695382819 0 -0.17027507548255169 -0.29291091527869001 0 -0.14788387869433101 -0.30072307309763308 0 -0.16498224042861109 -0.31373548695382819 0 -0.14788387869433101 -0.30072307309763308 0 -0.16498224042861109 -0.31373548695382819 0 -0.14660552564488891 -0.32078894186354462 0 -0.14788387869433101 -0.30072307309763308 0 -0.13427128342459149 -0.30890164360628858 0 -0.14660552564488891 -0.32078894186354462 0 -0.14788387869433101 -0.30072307309763308 0 -0.13427128342459149 -0.30890164360628858 0 -0.13549484676779691 -0.29123233887408168 0 -0.13427128342459149 -0.30890164360628858 0 -0.1185992195973678 -0.31478208446321532 0 -0.1234773191078062 -0.29835466652758469 0 -0.13427128342459149 -0.30890164360628858 0 -0.13549484676779691 -0.29123233887408168 0 -0.1234773191078062 -0.29835466652758469 0 -0.13549484676779691 -0.29123233887408168 0 -0.12674544062716531 -0.2875180167175489 0 -0.1234773191078062 -0.29835466652758469 0 -0.13549484676779691 -0.29123233887408168 0 -0.12674544062716531 -0.2875180167175489 0 -0.13520112381667279 -0.28003790528545891 0 -0.13549484676779691 -0.29123233887408168 0 -0.14108320101907171 -0.28277905146625021 0 -0.13520112381667279 -0.28003790528545891 0 -0.13549484676779691 -0.29123233887408168 0 -0.14108320101907171 -0.28277905146625021 0 -0.1446980224594813 -0.28885539670309318 0 -0.17027507548255169 -0.29291091527869001 0 -0.1446980224594813 -0.28885539670309318 0 -0.1475430042670004 -0.27690142240708859 0 -0.14108320101907171 -0.28277905146625021 0 -0.1446980224594813 -0.28885539670309318 0 -0.1475430042670004 -0.27690142240708859 0 -0.17027507548255169 -0.29291091527869001 0 -0.14788387869433101 -0.30072307309763308 0 -0.1446980224594813 -0.28885539670309318 0 -0.14788387869433101 -0.30072307309763308 0 -0.13549484676779691 -0.29123233887408168 0 -0.1446980224594813 -0.28885539670309318 0 -0.17027507548255169 -0.29291091527869001 0 -0.15017377847902241 -0.27235643482278749 0 -0.1475430042670004 -0.27690142240708859 0 -0.15017377847902241 -0.27235643482278749 0 -0.1475430042670004 -0.27690142240708859 0 -0.12875709436948191 -0.25407444815903568 0 -0.1475430042670004 -0.27690142240708859 0 -0.14066180602684389 -0.27853061409774171 0 -0.13881989500463079 -0.27440407723216897 0 -0.14108320101907171 -0.28277905146625021 0 -0.1475430042670004 -0.27690142240708859 0 -0.14066180602684389 -0.27853061409774171 0 -0.14066180602684389 -0.27853061409774171 0 -0.13881989500463079 -0.27440407723216897 0 -0.13520112381667279 -0.28003790528545891 0 -0.1475430042670004 -0.27690142240708859 0 -0.13881989500463079 -0.27440407723216897 0 -0.13541558173528981 -0.26932216817355997 0 -0.14108320101907171 -0.28277905146625021 0 -0.14066180602684389 -0.27853061409774171 0 -0.13520112381667279 -0.28003790528545891 0 -0.1475430042670004 -0.27690142240708859 0 -0.13541558173528981 -0.26932216817355997 0 -0.12875709436948191 -0.25407444815903568 0 -0.13881989500463079 -0.27440407723216897 0 -0.13311469259178921 -0.27380089573644378 0 -0.13520112381667279 -0.28003790528545891 0 -0.12674544062716531 -0.2875180167175489 0 -0.13520112381667279 -0.28003790528545891 0 -0.12779211398180851 -0.27617974536287099 0 -0.12674544062716531 -0.2875180167175489 0 -0.12779211398180851 -0.27617974536287099 0 -0.12107718002096519 -0.2795383907146704 0 -0.13311469259178921 -0.27380089573644378 0 -0.13520112381667279 -0.28003790528545891 0 -0.12779211398180851 -0.27617974536287099 0 -0.12779211398180851 -0.27617974536287099 0 -0.1288432224435469 -0.26742999733306277 0 -0.1217710243907115 -0.26875326639004188 0 -0.13311469259178921 -0.27380089573644378 0 -0.12779211398180851 -0.27617974536287099 0 -0.1288432224435469 -0.26742999733306277 0 -0.1288432224435469 -0.26742999733306277 0 -0.124630317030118 -0.26159359545958921 0 -0.1217710243907115 -0.26875326639004188 0 -0.13311469259178921 -0.27380089573644378 0 -0.1288432224435469 -0.26742999733306277 0 -0.13541558173528981 -0.26932216817355997 0 -0.13881989500463079 -0.27440407723216897 0 -0.13311469259178921 -0.27380089573644378 0 -0.13541558173528981 -0.26932216817355997 0 -0.15017377847902241 -0.27235643482278749 0 -0.130072481475493 -0.25180195436688507 0 -0.1407491460047243 -0.25616043147434953 0 -0.15017377847902241 -0.27235643482278749 0 -0.130072481475493 -0.25180195436688507 0 -0.1475430042670004 -0.27690142240708859 0 -0.12875709436948191 -0.25407444815903568 0 -0.15017377847902241 -0.27235643482278749 0 -0.130072481475493 -0.25180195436688507 0 -0.12875709436948191 -0.25407444815903568 0 -0.1288432224435469 -0.26742999733306277 0 -0.12875709436948191 -0.25407444815903568 0 -0.124630317030118 -0.26159359545958921 0 -0.1288432224435469 -0.26742999733306277 0 -0.13541558173528981 -0.26932216817355997 0 -0.12875709436948191 -0.25407444815903568 0 -0.1407491460047243 -0.25616043147434953 0 -0.15569989281877869 -0.25863487375335492 0 -0.14634991392852029 -0.24701342561288289 0 -0.15017377847902241 -0.27235643482278749 0 -0.1407491460047243 -0.25616043147434953 0 -0.15569989281877869 -0.25863487375335492 0 -0.15569989281877869 -0.25863487375335492 0 -0.14634991392852029 -0.24701342561288289 0 -0.15713976905195959 -0.24665593677925601 0 -0.1772239115371258 -0.36378179544822897 0 -0.1633503808541335 -0.33730202822822958 0 -0.15363320926077051 -0.35761274232480689 0 -0.16047555407407729 -0.37482723265364332 0 -0.1772239115371258 -0.36378179544822897 0 -0.15363320926077051 -0.35761274232480689 0 -0.19027954474718439 -0.33910234737518391 0 -0.1772239115371258 -0.36378179544822897 0 -0.1633503808541335 -0.33730202822822958 0 -0.19027954474718439 -0.33910234737518391 0 -0.1786885336863375 -0.32536417612510887 0 -0.1633503808541335 -0.33730202822822958 0 -0.19027954474718439 -0.33910234737518391 0 -0.1633503808541335 -0.33730202822822958 0 -0.1859196198684461 -0.30890816569317309 0 -0.1786885336863375 -0.32536417612510887 0 -0.16498224042861109 -0.31373548695382819 0 -0.16498224042861109 -0.31373548695382819 0 -0.1633503808541335 -0.33730202822822958 0 -0.14660552564488891 -0.32078894186354462 0 -0.1786885336863375 -0.32536417612510887 0 -0.16498224042861109 -0.31373548695382819 0 -0.1633503808541335 -0.33730202822822958 0 -0.1633503808541335 -0.33730202822822958 0 -0.1408726807394837 -0.34330070490581499 0 -0.14660552564488891 -0.32078894186354462 0 -0.13427128342459149 -0.30890164360628858 0 -0.12922917150728219 -0.32951430041084928 0 -0.1185992195973678 -0.31478208446321532 0 -0.13427128342459149 -0.30890164360628858 0 -0.14660552564488891 -0.32078894186354462 0 -0.12922917150728219 -0.32951430041084928 0 -0.1408726807394837 -0.34330070490581499 0 -0.14660552564488891 -0.32078894186354462 0 -0.12922917150728219 -0.32951430041084928 0 -0.1408726807394837 -0.34330070490581499 0 -0.12922917150728219 -0.32951430041084928 0 -0.12066231117813039 -0.34569424908591279 0 -0.1408726807394837 -0.34330070490581499 0 -0.13257668785178139 -0.36145396094891541 0 -0.12066231117813039 -0.34569424908591279 0 -0.1408726807394837 -0.34330070490581499 0 -0.15363320926077051 -0.35761274232480689 0 -0.13257668785178139 -0.36145396094891541 0 -0.1633503808541335 -0.33730202822822958 0 -0.1408726807394837 -0.34330070490581499 0 -0.15363320926077051 -0.35761274232480689 0 -0.1417331601780446 -0.37634865514489341 0 -0.15363320926077051 -0.35761274232480689 0 -0.13257668785178139 -0.36145396094891541 0 -0.1417331601780446 -0.37634865514489341 0 -0.16047555407407729 -0.37482723265364332 0 -0.15363320926077051 -0.35761274232480689 0 -0.1417331601780446 -0.37634865514489341 0 -0.13257668785178139 -0.36145396094891541 0 -0.1219167210072663 -0.38008905888290517 0 -0.13257668785178139 -0.36145396094891541 0 -0.1145775243971575 -0.36546726112071343 0 -0.1219167210072663 -0.38008905888290517 0 -0.1145775243971575 -0.36546726112071343 0 -0.10135182884643031 -0.36765561096446442 0 -0.10495859327679451 -0.38118814837188503 0 -0.1145775243971575 -0.36546726112071343 0 -0.10135182884643031 -0.36765561096446442 0 -0.103116285115656 -0.35395041718901438 0 -0.10135182884643031 -0.36765561096446442 0 -0.103116285115656 -0.35395041718901438 0 -0.089737328475416822 -0.36132194398373652 0 -0.103116285115656 -0.35395041718901438 0 -0.108803332668857 -0.33892340891446232 0 -0.085576424878699736 -0.34451599268163258 0 -0.1145775243971575 -0.36546726112071343 0 -0.103116285115656 -0.35395041718901438 0 -0.12066231117813039 -0.34569424908591279 0 -0.13257668785178139 -0.36145396094891541 0 -0.1145775243971575 -0.36546726112071343 0 -0.12066231117813039 -0.34569424908591279 0 -0.103116285115656 -0.35395041718901438 0 -0.12066231117813039 -0.34569424908591279 0 -0.108803332668857 -0.33892340891446232 0 -0.12922917150728219 -0.32951430041084928 0 -0.12066231117813039 -0.34569424908591279 0 -0.11552356940393391 -0.32810041412042762 0 -0.12066231117813039 -0.34569424908591279 0 -0.11552356940393391 -0.32810041412042762 0 -0.108803332668857 -0.33892340891446232 0 -0.1185992195973678 -0.31478208446321532 0 -0.11552356940393391 -0.32810041412042762 0 -0.10045380961254249 -0.32281050172834652 0 -0.12922917150728219 -0.32951430041084928 0 -0.1185992195973678 -0.31478208446321532 0 -0.11552356940393391 -0.32810041412042762 0 -0.1185992195973678 -0.31478208446321532 0 -0.10045380961254249 -0.32281050172834652 0 -0.107901992776242 -0.30264267377958493 0 -0.10045380961254249 -0.32281050172834652 0 -0.108803332668857 -0.33892340891446232 0 -0.085576424878699736 -0.34451599268163258 0 -0.11552356940393391 -0.32810041412042762 0 -0.10045380961254249 -0.32281050172834652 0 -0.108803332668857 -0.33892340891446232 0 -0.10045380961254249 -0.32281050172834652 0 -0.076806928330129476 -0.32440665907022331 0 -0.085576424878699736 -0.34451599268163258 0 -0.076806928330129476 -0.32440665907022331 0 -0.089878750437375823 -0.30822198257661798 0 -0.075479513325821063 -0.31107563030213958 0 -0.10045380961254249 -0.32281050172834652 0 -0.076806928330129476 -0.32440665907022331 0 -0.089878750437375823 -0.30822198257661798 0 -0.076806928330129476 -0.32440665907022331 0 -0.050002540949144518 -0.3294749223597187 0 -0.060898784844116198 -0.31484822912099331 0 -0.076806928330129476 -0.32440665907022331 0 -0.075479513325821063 -0.31107563030213958 0 -0.060898784844116198 -0.31484822912099331 0 -0.076806928330129476 -0.32440665907022331 0 -0.063770944803493351 -0.34738045985972332 0 -0.050002540949144518 -0.3294749223597187 0 -0.076806928330129476 -0.32440665907022331 0 -0.063770944803493351 -0.34738045985972332 0 -0.085576424878699736 -0.34451599268163258 0 -0.063770944803493351 -0.34738045985972332 0 -0.072983626094223819 -0.36520806689879481 0 -0.085576424878699736 -0.34451599268163258 0 -0.072983626094223819 -0.36520806689879481 0 -0.055997487321713502 -0.36554542025478332 0 -0.059435892456149678 -0.38090363897561802 0 -0.063770944803493351 -0.34738045985972332 0 -0.072983626094223819 -0.36520806689879481 0 -0.055997487321713502 -0.36554542025478332 0 -0.10135182884643031 -0.36765561096446442 0 -0.089737328475416822 -0.36132194398373652 0 -0.088173120083863299 -0.37840868346538847 0 -0.072983626094223819 -0.36520806689879481 0 -0.089737328475416822 -0.36132194398373652 0 -0.088173120083863299 -0.37840868346538847 0 -0.072983626094223819 -0.36520806689879481 0 -0.089737328475416822 -0.36132194398373652 0 -0.085576424878699736 -0.34451599268163258 0 -0.103116285115656 -0.35395041718901438 0 -0.089737328475416822 -0.36132194398373652 0 -0.085576424878699736 -0.34451599268163258 0 -0.097482444952388198 -0.26017222762151532 0 -0.091407705863245425 -0.25235714484008959 0 -0.098388133221083043 -0.2495265329015236 0 -0.097482444952388198 -0.26017222762151532 0 -0.10426568687250121 -0.25532279680587211 0 -0.098388133221083043 -0.2495265329015236 0 -0.097482444952388198 -0.26017222762151532 0 -0.1067309197030837 -0.26528109512651121 0 -0.099555698492940964 -0.26950433327420842 0 -0.097482444952388198 -0.26017222762151532 0 -0.1067309197030837 -0.26528109512651121 0 -0.10426568687250121 -0.25532279680587211 0 -0.1067309197030837 -0.26528109512651121 0 -0.10426568687250121 -0.25532279680587211 0 -0.1112104850318912 -0.25719870605258283 0 -0.10426568687250121 -0.25532279680587211 0 -0.1090276001301521 -0.2524008449134118 0 -0.1112104850318912 -0.25719870605258283 0 -0.10426568687250121 -0.25532279680587211 0 -0.1090276001301521 -0.2524008449134118 0 -0.105800613435617 -0.2470165031877396 0 -0.10426568687250121 -0.25532279680587211 0 -0.105800613435617 -0.2470165031877396 0 -0.098388133221083043 -0.2495265329015236 0 -0.1090276001301521 -0.2524008449134118 0 -0.1112104850318912 -0.25719870605258283 0 -0.11483361518059911 -0.25006537360745279 0 -0.1112104850318912 -0.25719870605258283 0 -0.11483361518059911 -0.25006537360745279 0 -0.11644519202996791 -0.25783798571715061 0 -0.12875709436948191 -0.25407444815903568 0 -0.11483361518059911 -0.25006537360745279 0 -0.1209767352617543 -0.2565854332550439 0 -0.11483361518059911 -0.25006537360745279 0 -0.1209767352617543 -0.2565854332550439 0 -0.11644519202996791 -0.25783798571715061 0 -0.12875709436948191 -0.25407444815903568 0 -0.1209767352617543 -0.2565854332550439 0 -0.124630317030118 -0.26159359545958921 0 -0.124630317030118 -0.26159359545958921 0 -0.11984645110786971 -0.26149462254162298 0 -0.1217710243907115 -0.26875326639004188 0 -0.1209767352617543 -0.2565854332550439 0 -0.124630317030118 -0.26159359545958921 0 -0.11984645110786971 -0.26149462254162298 0 -0.11984645110786971 -0.26149462254162298 0 -0.11535867356772531 -0.26384579312905032 0 -0.11644519202996791 -0.25783798571715061 0 -0.1209767352617543 -0.2565854332550439 0 -0.11984645110786971 -0.26149462254162298 0 -0.11644519202996791 -0.25783798571715061 0 -0.11984645110786971 -0.26149462254162298 0 -0.11535867356772531 -0.26384579312905032 0 -0.1217710243907115 -0.26875326639004188 0 -0.1067309197030837 -0.26528109512651121 0 -0.1112104850318912 -0.25719870605258283 0 -0.11535867356772531 -0.26384579312905032 0 -0.1112104850318912 -0.25719870605258283 0 -0.11535867356772531 -0.26384579312905032 0 -0.11644519202996791 -0.25783798571715061 0 -0.11535867356772531 -0.26384579312905032 0 -0.1138250118283939 -0.27261651123073022 0 -0.1217710243907115 -0.26875326639004188 0 -0.1067309197030837 -0.26528109512651121 0 -0.11535867356772531 -0.26384579312905032 0 -0.1138250118283939 -0.27261651123073022 0 -0.1138250118283939 -0.27261651123073022 0 -0.1217710243907115 -0.26875326639004188 0 -0.12107718002096519 -0.2795383907146704 0 -0.12779211398180851 -0.27617974536287099 0 -0.1217710243907115 -0.26875326639004188 0 -0.12107718002096519 -0.2795383907146704 0 -0.1138250118283939 -0.27261651123073022 0 -0.1129321712742733 -0.28018130411504438 0 -0.1051294255897493 -0.2773882584068697 0 -0.1138250118283939 -0.27261651123073022 0 -0.12107718002096519 -0.2795383907146704 0 -0.1129321712742733 -0.28018130411504438 0 -0.1067309197030837 -0.26528109512651121 0 -0.1051294255897493 -0.2773882584068697 0 -0.099555698492940964 -0.26950433327420842 0 -0.1067309197030837 -0.26528109512651121 0 -0.1138250118283939 -0.27261651123073022 0 -0.1051294255897493 -0.2773882584068697 0 -0.097482444952388198 -0.26017222762151532 0 -0.099555698492940964 -0.26950433327420842 0 -0.092930821083103715 -0.26771599246952638 0 -0.099555698492940964 -0.26950433327420842 0 -0.093257453118642211 -0.27538194635779878 0 -0.092930821083103715 -0.26771599246952638 0 -0.1051294255897493 -0.2773882584068697 0 -0.094511681024589511 -0.28993258933265798 0 -0.093257453118642211 -0.27538194635779878 0 -0.1051294255897493 -0.2773882584068697 0 -0.099555698492940964 -0.26950433327420842 0 -0.093257453118642211 -0.27538194635779878 0 -0.094511681024589511 -0.28993258933265798 0 -0.11188647019038039 -0.28845197161948388 0 -0.107901992776242 -0.30264267377958493 0 -0.1051294255897493 -0.2773882584068697 0 -0.094511681024589511 -0.28993258933265798 0 -0.11188647019038039 -0.28845197161948388 0 -0.094511681024589511 -0.28993258933265798 0 -0.107901992776242 -0.30264267377958493 0 -0.1129321712742733 -0.28018130411504438 0 -0.1051294255897493 -0.2773882584068697 0 -0.11188647019038039 -0.28845197161948388 0 -0.12107718002096519 -0.2795383907146704 0 -0.1129321712742733 -0.28018130411504438 0 -0.11188647019038039 -0.28845197161948388 0 -0.12674544062716531 -0.2875180167175489 0 -0.12107718002096519 -0.2795383907146704 0 -0.11188647019038039 -0.28845197161948388 0 -0.12674544062716531 -0.2875180167175489 0 -0.11188647019038039 -0.28845197161948388 0 -0.1234773191078062 -0.29835466652758469 0 -0.11188647019038039 -0.28845197161948388 0 -0.1234773191078062 -0.29835466652758469 0 -0.107901992776242 -0.30264267377958493 0 -0.1185992195973678 -0.31478208446321532 0 -0.1234773191078062 -0.29835466652758469 0 -0.107901992776242 -0.30264267377958493 0 -0.10045380961254249 -0.32281050172834652 0 -0.107901992776242 -0.30264267377958493 0 -0.089878750437375823 -0.30822198257661798 0 -0.094511681024589511 -0.28993258933265798 0 -0.107901992776242 -0.30264267377958493 0 -0.089878750437375823 -0.30822198257661798 0 -0.094511681024589511 -0.28993258933265798 0 -0.089878750437375823 -0.30822198257661798 0 -0.08396628418231053 -0.29411383307331529 0 -0.089878750437375823 -0.30822198257661798 0 -0.074751431225866485 -0.29983666922866198 0 -0.08396628418231053 -0.29411383307331529 0 -0.089878750437375823 -0.30822198257661798 0 -0.075479513325821063 -0.31107563030213958 0 -0.074751431225866485 -0.29983666922866198 0 -0.075479513325821063 -0.31107563030213958 0 -0.063514841203156425 -0.30407744669966003 0 -0.074751431225866485 -0.29983666922866198 0 -0.075479513325821063 -0.31107563030213958 0 -0.063514841203156425 -0.30407744669966003 0 -0.060898784844116198 -0.31484822912099331 0 -0.063514841203156425 -0.30407744669966003 0 -0.074751431225866485 -0.29983666922866198 0 -0.063539417411167282 -0.29176531202092387 0 -0.074751431225866485 -0.29983666922866198 0 -0.074785561271778669 -0.28946292597692108 0 -0.063539417411167282 -0.29176531202092387 0 -0.074751431225866485 -0.29983666922866198 0 -0.074785561271778669 -0.28946292597692108 0 -0.08396628418231053 -0.29411383307331529 0 -0.074785561271778669 -0.28946292597692108 0 -0.063539417411167282 -0.29176531202092387 0 -0.06962765558905018 -0.28570131910227631 0 -0.06962765558905018 -0.28570131910227631 0 -0.07434924598539952 -0.28066724381757119 0 -0.065836397687855236 -0.28090979459368898 0 -0.063539417411167282 -0.29176531202092387 0 -0.06962765558905018 -0.28570131910227631 0 -0.065836397687855236 -0.28090979459368898 0 -0.074785561271778669 -0.28946292597692108 0 -0.081407081056017072 -0.28538577864413017 0 -0.07434924598539952 -0.28066724381757119 0 -0.074785561271778669 -0.28946292597692108 0 -0.06962765558905018 -0.28570131910227631 0 -0.07434924598539952 -0.28066724381757119 0 -0.094511681024589511 -0.28993258933265798 0 -0.081407081056017072 -0.28538577864413017 0 -0.081121369272937199 -0.27722250488573091 0 -0.081407081056017072 -0.28538577864413017 0 -0.079523804794912195 -0.28026573127899013 0 -0.07434924598539952 -0.28066724381757119 0 -0.074785561271778669 -0.28946292597692108 0 -0.081407081056017072 -0.28538577864413017 0 -0.08396628418231053 -0.29411383307331529 0 -0.094511681024589511 -0.28993258933265798 0 -0.081407081056017072 -0.28538577864413017 0 -0.08396628418231053 -0.29411383307331529 0 -0.094511681024589511 -0.28993258933265798 0 -0.081121369272937199 -0.27722250488573091 0 -0.081121369272937199 -0.27722250488573091 0 -0.077934205990084701 -0.25849823457342302 0 -0.086678739011287601 -0.26769882701960129 0 -0.081121369272937199 -0.27722250488573091 0 -0.077934205990084701 -0.25849823457342302 0 -0.094511681024589511 -0.28993258933265798 0 -0.093257453118642211 -0.27538194635779878 0 -0.081121369272937199 -0.27722250488573091 0 -0.093257453118642211 -0.27538194635779878 0 -0.086678739011287601 -0.26769882701960129 0 -0.081121369272937199 -0.27722250488573091 0 -0.093257453118642211 -0.27538194635779878 0 -0.092930821083103715 -0.26771599246952638 0 -0.086678739011287601 -0.26769882701960129 0 -0.081407081056017072 -0.28538577864413017 0 -0.081121369272937199 -0.27722250488573091 0 -0.079523804794912195 -0.28026573127899013 0 -0.081121369272937199 -0.27722250488573091 0 -0.079523804794912195 -0.28026573127899013 0 -0.07434924598539952 -0.28066724381757119 0 -0.081121369272937199 -0.27722250488573091 0 -0.069417961350928536 -0.26611362962095592 0 -0.077934205990084701 -0.25849823457342302 0 -0.081121369272937199 -0.27722250488573091 0 -0.07434924598539952 -0.28066724381757119 0 -0.069417961350928536 -0.26611362962095592 0 -0.07434924598539952 -0.28066724381757119 0 -0.065836397687855236 -0.28090979459368898 0 -0.069417961350928536 -0.26611362962095592 0 -0.081121369272937199 -0.27722250488573091 0 -0.069417961350928536 -0.26611362962095592 0 -0.077934205990084701 -0.25849823457342302 0 -0.070207504995135006 -0.25219882787524028 0 -0.07474704270723237 -0.239773964261115 0 -0.069417961350928536 -0.26611362962095592 0 -0.077934205990084701 -0.25849823457342302 0 -0.070207504995135006 -0.25219882787524028 0 -0.069417961350928536 -0.26611362962095592 0 -0.057714553428922379 -0.25500475435617842 0 -0.069417961350928536 -0.26611362962095592 0 -0.070207504995135006 -0.25219882787524028 0 -0.057714553428922379 -0.25500475435617842 0 -0.077934205990084701 -0.25849823457342302 0 -0.088149845591669967 -0.25967545681152771 0 -0.083971886421534386 -0.24957221478122329 0 -0.086678739011287601 -0.26769882701960129 0 -0.077934205990084701 -0.25849823457342302 0 -0.088149845591669967 -0.25967545681152771 0 -0.092930821083103715 -0.26771599246952638 0 -0.086678739011287601 -0.26769882701960129 0 -0.088149845591669967 -0.25967545681152771 0 -0.097482444952388198 -0.26017222762151532 0 -0.092930821083103715 -0.26771599246952638 0 -0.088149845591669967 -0.25967545681152771 0 -0.088149845591669967 -0.25967545681152771 0 -0.091407705863245425 -0.25235714484008959 0 -0.083971886421534386 -0.24957221478122329 0 -0.097482444952388198 -0.26017222762151532 0 -0.088149845591669967 -0.25967545681152771 0 -0.091407705863245425 -0.25235714484008959 0 -0.040512249463293341 -0.25569158202273867 0 -0.035224254491834993 -0.27151792184901508 0 -0.02050753490299383 -0.26205740768132563 0 -0.040512249463293341 -0.25569158202273867 0 -0.057714553428922379 -0.25500475435617842 0 -0.051316645434711532 -0.27941350857060882 0 -0.065836397687855236 -0.28090979459368898 0 -0.069417961350928536 -0.26611362962095592 0 -0.051316645434711532 -0.27941350857060882 0 -0.057714553428922379 -0.25500475435617842 0 -0.051316645434711532 -0.27941350857060882 0 -0.069417961350928536 -0.26611362962095592 0 -0.057714553428922379 -0.25500475435617842 0 -0.051316645434711532 -0.27941350857060882 0 -0.051316645434711532 -0.27941350857060882 0 -0.035224254491834993 -0.27151792184901508 0 -0.025952805467189019 -0.2868968591719252 0 -0.040512249463293341 -0.25569158202273867 0 -0.051316645434711532 -0.27941350857060882 0 -0.035224254491834993 -0.27151792184901508 0 -0.051316645434711532 -0.27941350857060882 0 -0.044918737440499193 -0.3038222627850386 0 -0.025952805467189019 -0.2868968591719252 0 -0.051316645434711532 -0.27941350857060882 0 -0.044918737440499193 -0.3038222627850386 0 -0.063539417411167282 -0.29176531202092387 0 -0.051316645434711532 -0.27941350857060882 0 -0.044918737440499193 -0.3038222627850386 0 -0.063539417411167282 -0.29176531202092387 0 -0.065836397687855236 -0.28090979459368898 0 -0.051316645434711532 -0.27941350857060882 0 -0.063514841203156425 -0.30407744669966003 0 -0.063539417411167282 -0.29176531202092387 0 -0.044918737440499193 -0.3038222627850386 0 -0.063514841203156425 -0.30407744669966003 0 -0.044918737440499193 -0.3038222627850386 0 -0.060898784844116198 -0.31484822912099331 0 -0.044918737440499193 -0.3038222627850386 0 -0.025952805467189019 -0.2868968591719252 0 -0.023540632916988581 -0.31610578747441592 0 -0.0042533295162894714 -0.30291953266693478 0 -0.025952805467189019 -0.2868968591719252 0 -0.023540632916988581 -0.31610578747441592 0 -0.0042533295162894714 -0.30291953266693478 0 -0.023540632916988581 -0.31610578747441592 0 0.0056592100768920166 -0.31809331474906261 0 -0.0042533295162894714 -0.30291953266693478 0 -0.0011038354285470269 -0.27759262811925578 0 -0.0042533295162894714 -0.30291953266693478 0 -0.025952805467189019 -0.2868968591719252 0 -0.0011038354285470269 -0.27759262811925578 0 -0.035224254491834993 -0.27151792184901508 0 -0.025952805467189019 -0.2868968591719252 0 -0.02050753490299383 -0.26205740768132563 0 -0.025952805467189019 -0.2868968591719252 0 -0.0011038354285470269 -0.27759262811925578 0 -0.02050753490299383 -0.26205740768132563 0 -0.0011038354285470269 -0.27759262811925578 0 -0.02050753490299383 -0.26205740768132563 0 0.002045658659195418 -0.25226572357157673 0 -0.02050753490299383 -0.26205740768132563 0 -0.014158786127307799 -0.24519737049676829 0 0.002045658659195418 -0.25226572357157673 0 -0.040512249463293341 -0.25569158202273867 0 -0.02050753490299383 -0.26205740768132563 0 -0.028054186667563302 -0.24683004061566199 0 -0.02050753490299383 -0.26205740768132563 0 -0.028054186667563302 -0.24683004061566199 0 -0.014158786127307799 -0.24519737049676829 0 -0.041451935361287877 -0.35561019429206669 0 -0.055997487321713502 -0.36554542025478332 0 -0.042345037893412783 -0.37862474124771361 0 -0.041451935361287877 -0.35561019429206669 0 -0.022199991597924549 -0.36847746851897623 0 -0.042345037893412783 -0.37862474124771361 0 -0.041451935361287877 -0.35561019429206669 0 -0.022199991597924549 -0.36847746851897623 0 -0.063770944803493351 -0.34738045985972332 0 -0.041451935361287877 -0.35561019429206669 0 -0.050002540949144518 -0.3294749223597187 0 -0.063770944803493351 -0.34738045985972332 0 -0.041451935361287877 -0.35561019429206669 0 -0.055997487321713502 -0.36554542025478332 0 -0.044918737440499193 -0.3038222627850386 0 -0.050002540949144518 -0.3294749223597187 0 -0.060898784844116198 -0.31484822912099331 0 -0.050002540949144518 -0.3294749223597187 0 -0.02910975880964841 -0.33733555366486162 0 -0.023540632916988581 -0.31610578747441592 0 -0.044918737440499193 -0.3038222627850386 0 -0.050002540949144518 -0.3294749223597187 0 -0.023540632916988581 -0.31610578747441592 0 -0.041451935361287877 -0.35561019429206669 0 -0.050002540949144518 -0.3294749223597187 0 -0.02910975880964841 -0.33733555366486162 0 -0.02910975880964841 -0.33733555366486162 0 -0.01281207884057475 -0.33340762167240701 0 -0.01750558476621155 -0.35099111245289899 0 -0.02910975880964841 -0.33733555366486162 0 -0.023540632916988581 -0.31610578747441592 0 -0.01281207884057475 -0.33340762167240701 0 -0.023540632916988581 -0.31610578747441592 0 -0.01281207884057475 -0.33340762167240701 0 0.0056592100768920166 -0.31809331474906261 0 -0.01281207884057475 -0.33340762167240701 0 -0.01750558476621155 -0.35099111245289899 0 0.0044074928226207309 -0.33817554634418401 0 -0.01281207884057475 -0.33340762167240701 0 0.0044074928226207309 -0.33817554634418401 0 0.0056592100768920166 -0.31809331474906261 0 -0.01750558476621155 -0.35099111245289899 0 -0.001397510826794308 -0.36155409714311598 0 0.0044074928226207309 -0.33817554634418401 0 -0.041451935361287877 -0.35561019429206669 0 -0.02910975880964841 -0.33733555366486162 0 -0.01750558476621155 -0.35099111245289899 0 -0.041451935361287877 -0.35561019429206669 0 -0.01750558476621155 -0.35099111245289899 0 -0.022199991597924549 -0.36847746851897623 0 -0.022199991597924549 -0.36847746851897623 0 -0.0029480478345611238 -0.38134474274588581 0 -0.022199991597924549 -0.36847746851897623 0 -0.001397510826794308 -0.36155409714311598 0 -0.0029480478345611238 -0.38134474274588581 0 -0.01750558476621155 -0.35099111245289899 0 -0.022199991597924549 -0.36847746851897623 0 -0.001397510826794308 -0.36155409714311598 0 -0.0029480478345611238 -0.38134474274588581 0 -0.022047552375237561 -0.39180739811008952 0 0.0023567555045513411 -0.39424368807509219 0 -0.0053933531450689126 -0.40583935730940551 0 -0.022047552375237561 -0.39180739811008952 0 -0.019364991900080949 -0.40709755143353382 0 -0.0053933531450689126 -0.40583935730940551 0 -0.022047552375237561 -0.39180739811008952 0 0.0023567555045513411 -0.39424368807509219 0 -0.022047552375237561 -0.39180739811008952 0 -0.030942051900373631 -0.40365164679376558 0 -0.019364991900080949 -0.40709755143353382 0 -0.022199991597924549 -0.36847746851897623 0 -0.022047552375237561 -0.39180739811008952 0 -0.042345037893412783 -0.37862474124771361 0 -0.022199991597924549 -0.36847746851897623 0 -0.0029480478345611238 -0.38134474274588581 0 -0.022047552375237561 -0.39180739811008952 0 -0.022047552375237561 -0.39180739811008952 0 -0.042345037893412783 -0.37862474124771361 0 -0.043028947615779953 -0.39764171767020517 0 -0.042345037893412783 -0.37862474124771361 0 -0.043028947615779953 -0.39764171767020517 0 -0.051410239923455177 -0.38898544990993988 0 -0.022047552375237561 -0.39180739811008952 0 -0.030942051900373631 -0.40365164679376558 0 -0.043028947615779953 -0.39764171767020517 0 -0.030942051900373631 -0.40365164679376558 0 -0.043028947615779953 -0.39764171767020517 0 -0.044876746116472598 -0.41596797880217029 0 -0.043028947615779953 -0.39764171767020517 0 -0.060831081728478342 -0.39877170174622301 0 -0.051410239923455177 -0.38898544990993988 0 -0.043028947615779953 -0.39764171767020517 0 -0.060831081728478342 -0.39877170174622301 0 -0.052830245328663233 -0.40725294302283321 0 -0.060831081728478342 -0.39877170174622301 0 -0.051410239923455177 -0.38898544990993988 0 -0.059435892456149678 -0.38090363897561802 0 -0.042345037893412783 -0.37862474124771361 0 -0.051410239923455177 -0.38898544990993988 0 -0.059435892456149678 -0.38090363897561802 0 -0.055997487321713502 -0.36554542025478332 0 -0.042345037893412783 -0.37862474124771361 0 -0.059435892456149678 -0.38090363897561802 0 -0.05347101533510093 -0.42767140743203602 0 -0.044876746116472598 -0.41596797880217029 0 -0.044258332761587083 -0.42531415972226477 0 -0.05347101533510093 -0.42767140743203602 0 -0.041118556120439603 -0.43342927474921311 0 -0.053601020182007693 -0.44108365735348382 0 -0.05347101533510093 -0.42767140743203602 0 -0.053601020182007693 -0.44108365735348382 0 -0.063493204984341176 -0.43693227507490362 0 -0.043028947615779953 -0.39764171767020517 0 -0.052830245328663233 -0.40725294302283321 0 -0.044876746116472598 -0.41596797880217029 0 -0.052830245328663233 -0.40725294302283321 0 -0.044876746116472598 -0.41596797880217029 0 -0.062584205853922048 -0.41663037387273472 0 -0.05347101533510093 -0.42767140743203602 0 -0.044876746116472598 -0.41596797880217029 0 -0.062584205853922048 -0.41663037387273472 0 -0.060831081728478342 -0.39877170174622301 0 -0.052830245328663233 -0.40725294302283321 0 -0.062584205853922048 -0.41663037387273472 0 -0.044876746116472598 -0.41596797880217029 0 -0.035994608021072023 -0.42323922684460519 0 -0.028203822403207429 -0.41513878010447047 0 -0.044876746116472598 -0.41596797880217029 0 -0.035994608021072023 -0.42323922684460519 0 -0.044258332761587083 -0.42531415972226477 0 -0.030942051900373631 -0.40365164679376558 0 -0.044876746116472598 -0.41596797880217029 0 -0.028203822403207429 -0.41513878010447047 0 -0.035994608021072023 -0.42323922684460519 0 -0.041118556120439603 -0.43342927474921311 0 -0.0262800491998204 -0.42490097616913608 0 -0.05347101533510093 -0.42767140743203602 0 -0.044258332761587083 -0.42531415972226477 0 -0.041118556120439603 -0.43342927474921311 0 -0.035994608021072023 -0.42323922684460519 0 -0.044258332761587083 -0.42531415972226477 0 -0.041118556120439603 -0.43342927474921311 0 -0.03489146627783847 -0.43479328688231811 0 -0.041118556120439603 -0.43342927474921311 0 -0.015845079777865739 -0.43364702429745328 0 -0.041118556120439603 -0.43342927474921311 0 -0.0262800491998204 -0.42490097616913608 0 -0.015845079777865739 -0.43364702429745328 0 -0.03489146627783847 -0.43479328688231811 0 -0.015845079777865739 -0.43364702429745328 0 -0.022792501434032161 -0.44122853394291489 0 -0.0262800491998204 -0.42490097616913608 0 -0.015845079777865739 -0.43364702429745328 0 -0.01023817967651721 -0.41905057484993791 0 -0.041118556120439603 -0.43342927474921311 0 -0.015845079777865739 -0.43364702429745328 0 -0.0262800491998204 -0.42490097616913608 0 -0.028203822403207429 -0.41513878010447047 0 -0.01023817967651721 -0.41905057484993791 0 -0.028203822403207429 -0.41513878010447047 0 -0.019364991900080949 -0.40709755143353382 0 -0.01023817967651721 -0.41905057484993791 0 -0.030942051900373631 -0.40365164679376558 0 -0.028203822403207429 -0.41513878010447047 0 -0.019364991900080949 -0.40709755143353382 0 -0.035994608021072023 -0.42323922684460519 0 -0.0262800491998204 -0.42490097616913608 0 -0.028203822403207429 -0.41513878010447047 0 -0.0053933531450689126 -0.40583935730940551 0 -0.01023817967651721 -0.41905057484993791 0 0.0113342753813368 -0.41256277494006283 0 -0.0053933531450689126 -0.40583935730940551 0 -0.019364991900080949 -0.40709755143353382 0 -0.01023817967651721 -0.41905057484993791 0 -0.015845079777865739 -0.43364702429745328 0 0.0094283965647081157 -0.43386477384569372 0 -0.015845079777865739 -0.43364702429745328 0 -0.01023817967651721 -0.41905057484993791 0 0.0094283965647081157 -0.43386477384569372 0 -0.015845079777865739 -0.43364702429745328 0 -0.0058504529610899324 -0.44990152804784911 0 -0.01700178227242051 -0.44625423590577801 0 -0.015845079777865739 -0.43364702429745328 0 -0.0058504529610899324 -0.44990152804784911 0 0.0094283965647081157 -0.43386477384569372 0 -0.0058504529610899324 -0.44990152804784911 0 -0.01618011672324654 -0.45520071058437689 0 -0.01700178227242051 -0.44625423590577801 0 -0.0058504529610899324 -0.44990152804784911 0 -0.011623736760695339 -0.46618794078210929 0 -0.01618011672324654 -0.45520071058437689 0 -0.0058504529610899324 -0.44990152804784911 0 -0.011623736760695339 -0.46618794078210929 0 0.0039709984709535521 -0.46476883406598812 0 -0.01618011672324654 -0.45520071058437689 0 -0.02299293421402299 -0.4634402595000377 0 -0.024340760465868191 -0.45129338265629532 0 -0.011623736760695339 -0.46618794078210929 0 -0.01618011672324654 -0.45520071058437689 0 -0.02299293421402299 -0.4634402595000377 0 -0.011623736760695339 -0.46618794078210929 0 -0.02299293421402299 -0.4634402595000377 0 -0.018761683200267359 -0.4741469931990952 0 -0.02299293421402299 -0.4634402595000377 0 -0.030495100877960028 -0.47324852431137587 0 -0.033787705219459042 -0.45875184677708952 0 -0.02299293421402299 -0.4634402595000377 0 -0.024340760465868191 -0.45129338265629532 0 -0.033787705219459042 -0.45875184677708952 0 -0.03489146627783847 -0.43479328688231811 0 -0.024340760465868191 -0.45129338265629532 0 -0.022792501434032161 -0.44122853394291489 0 -0.03489146627783847 -0.43479328688231811 0 -0.024340760465868191 -0.45129338265629532 0 -0.033787705219459042 -0.45875184677708952 0 -0.015845079777865739 -0.43364702429745328 0 -0.022792501434032161 -0.44122853394291489 0 -0.01700178227242051 -0.44625423590577801 0 -0.024340760465868191 -0.45129338265629532 0 -0.022792501434032161 -0.44122853394291489 0 -0.01700178227242051 -0.44625423590577801 0 -0.01618011672324654 -0.45520071058437689 0 -0.024340760465868191 -0.45129338265629532 0 -0.01700178227242051 -0.44625423590577801 0 -0.029445196634441971 -0.49374019206033393 0 9.6776935416854892e-06 -0.49687009603016702 0 -0.019768304568364869 -0.5 0 0.0048481237265801669 -0.5 0 9.6776935416854892e-06 -0.49687009603016702 0 -0.0090968466836395014 -0.48918820655694079 0 -0.029445196634441971 -0.49374019206033393 0 9.6776935416854892e-06 -0.49687009603016702 0 -0.0090968466836395014 -0.48918820655694079 0 9.6776935416854892e-06 -0.49687009603016702 0 0.0030684139669997592 -0.48764090158259221 0 -0.0090968466836395014 -0.48918820655694079 0 -0.0042147194705703427 -0.48381737062913271 0 0.0030684139669997592 -0.48764090158259221 0 -0.0090968466836395014 -0.48918820655694079 0 -0.01490240897372663 -0.48387247248247822 0 -0.0042147194705703427 -0.48381737062913271 0 -0.01490240897372663 -0.48387247248247822 0 -0.0042147194705703427 -0.48381737062913271 0 -0.0071170797511046196 -0.47591162345199173 0 -0.01490240897372663 -0.48387247248247822 0 -0.0071170797511046196 -0.47591162345199173 0 -0.018761683200267359 -0.4741469931990952 0 -0.0042147194705703427 -0.48381737062913271 0 -0.0071170797511046196 -0.47591162345199173 0 0.003558453197493754 -0.47918030164141068 0 -0.011623736760695339 -0.46618794078210929 0 -0.0071170797511046196 -0.47591162345199173 0 0.0039709984709535521 -0.46476883406598812 0 -0.011623736760695339 -0.46618794078210929 0 -0.0071170797511046196 -0.47591162345199173 0 -0.018761683200267359 -0.4741469931990952 0 -0.018761683200267359 -0.4741469931990952 0 -0.030495100877960028 -0.47324852431137587 0 -0.025438838624094549 -0.4822211386665789 0 -0.02299293421402299 -0.4634402595000377 0 -0.018761683200267359 -0.4741469931990952 0 -0.030495100877960028 -0.47324852431137587 0 -0.030495100877960028 -0.47324852431137587 0 -0.025438838624094549 -0.4822211386665789 0 -0.034527052950255308 -0.48167405902383281 0 -0.01490240897372663 -0.48387247248247822 0 -0.018761683200267359 -0.4741469931990952 0 -0.025438838624094549 -0.4822211386665789 0 -0.019768304568364869 -0.5 0 -0.029445196634441971 -0.49374019206033393 0 9.6776935416854892e-06 -0.49687009603016702 0 -0.019768304568364869 -0.5 0 -0.029445196634441971 -0.49374019206033393 0 -0.044384732863309961 -0.5 0 -0.0090968466836395014 -0.48918820655694079 0 -0.01490240897372663 -0.48387247248247822 0 -0.029445196634441971 -0.49374019206033393 0 -0.01490240897372663 -0.48387247248247822 0 -0.025438838624094549 -0.4822211386665789 0 -0.029445196634441971 -0.49374019206033393 0 -0.025438838624094549 -0.4822211386665789 0 -0.029445196634441971 -0.49374019206033393 0 -0.034527052950255308 -0.48167405902383281 0 -0.029445196634441971 -0.49374019206033393 0 -0.044384732863309961 -0.5 0 -0.058900070962425631 -0.49061028809050089 0 -0.029445196634441971 -0.49374019206033393 0 -0.043511523705026388 -0.4859536706899103 0 -0.058900070962425631 -0.49061028809050089 0 -0.029445196634441971 -0.49374019206033393 0 -0.058900070962425631 -0.49061028809050089 0 -0.029445196634441971 -0.49374019206033393 0 -0.043511523705026388 -0.4859536706899103 0 -0.034527052950255308 -0.48167405902383281 0 -0.043511523705026388 -0.4859536706899103 0 -0.034527052950255308 -0.48167405902383281 0 -0.043744604909753598 -0.47320676939096501 0 -0.043511523705026388 -0.4859536706899103 0 -0.043744604909753598 -0.47320676939096501 0 -0.050946865610497237 -0.48200878928303681 0 -0.030495100877960028 -0.47324852431137587 0 -0.034527052950255308 -0.48167405902383281 0 -0.043744604909753598 -0.47320676939096501 0 -0.043744604909753598 -0.47320676939096501 0 -0.057631262864783338 -0.47826442896077132 0 -0.046261364571310928 -0.45652885792154468 0 -0.057631262864783338 -0.47826442896077132 0 -0.050946865610497237 -0.48200878928303681 0 -0.058900070962425631 -0.49061028809050089 0 -0.043744604909753598 -0.47320676939096501 0 -0.057631262864783338 -0.47826442896077132 0 -0.050946865610497237 -0.48200878928303681 0 -0.044384732863309961 -0.5 0 -0.058900070962425631 -0.49061028809050089 0 -0.069001161158255039 -0.49999999999999822 0 -0.057631262864783338 -0.47826442896077132 0 -0.058900070962425631 -0.49061028809050089 0 -0.069001161158255039 -0.49999999999999822 0 -0.043511523705026388 -0.4859536706899103 0 -0.050946865610497237 -0.48200878928303681 0 -0.058900070962425631 -0.49061028809050089 0 -0.03489146627783847 -0.43479328688231811 0 -0.041118556120439603 -0.43342927474921311 0 -0.046261364571310928 -0.45652885792154468 0 -0.03489146627783847 -0.43479328688231811 0 -0.033787705219459042 -0.45875184677708952 0 -0.046261364571310928 -0.45652885792154468 0 -0.03489146627783847 -0.43479328688231811 0 -0.046261364571310928 -0.45652885792154468 0 -0.043744604909753598 -0.47320676939096501 0 -0.033787705219459042 -0.45875184677708952 0 -0.046261364571310928 -0.45652885792154468 0 -0.030495100877960028 -0.47324852431137587 0 -0.043744604909753598 -0.47320676939096501 0 -0.033787705219459042 -0.45875184677708952 0 -0.057631262864783338 -0.47826442896077132 0 -0.046261364571310928 -0.45652885792154468 0 -0.062255183964787283 -0.46320024328589299 0 -0.057631262864783338 -0.47826442896077132 0 -0.046261364571310928 -0.45652885792154468 0 -0.046261364571310928 -0.45652885792154468 0 -0.062255183964787283 -0.46320024328589299 0 -0.063676859986022294 -0.45022569972306181 0 -0.041118556120439603 -0.43342927474921311 0 -0.046261364571310928 -0.45652885792154468 0 -0.053601020182007693 -0.44108365735348382 0 -0.046261364571310928 -0.45652885792154468 0 -0.053601020182007693 -0.44108365735348382 0 -0.063676859986022294 -0.45022569972306181 0 -0.053601020182007693 -0.44108365735348382 0 -0.063676859986022294 -0.45022569972306181 0 -0.063493204984341176 -0.43693227507490362 0 -0.063676859986022294 -0.45022569972306181 0 -0.081645169628701553 -0.43878482927060508 0 -0.063493204984341176 -0.43693227507490362 0 -0.063676859986022294 -0.45022569972306181 0 -0.074971595097199931 -0.45822393861921051 0 -0.081645169628701553 -0.43878482927060508 0 -0.062255183964787283 -0.46320024328589299 0 -0.063676859986022294 -0.45022569972306181 0 -0.074971595097199931 -0.45822393861921051 0 -0.062255183964787283 -0.46320024328589299 0 -0.074971595097199931 -0.45822393861921051 0 -0.070116760590245575 -0.47091363449088802 0 -0.074971595097199931 -0.45822393861921051 0 -0.070116760590245575 -0.47091363449088802 0 -0.082098745560271663 -0.46984084523971009 0 -0.093667802170389947 -0.45694185184488367 0 -0.082098745560271663 -0.46984084523971009 0 -0.094629626224891072 -0.4769239172657514 0 -0.074971595097199931 -0.45822393861921051 0 -0.093667802170389947 -0.45694185184488367 0 -0.082098745560271663 -0.46984084523971009 0 -0.074971595097199931 -0.45822393861921051 0 -0.093667802170389947 -0.45694185184488367 0 -0.081645169628701553 -0.43878482927060508 0 -0.057631262864783338 -0.47826442896077132 0 -0.069001161158255039 -0.49999999999999822 0 -0.076302362750125058 -0.4823391464328447 0 -0.057631262864783338 -0.47826442896077132 0 -0.069001161158255039 -0.49999999999999822 0 -0.057631262864783338 -0.47826442896077132 0 -0.076302362750125058 -0.4823391464328447 0 -0.070116760590245575 -0.47091363449088802 0 -0.057631262864783338 -0.47826442896077132 0 -0.062255183964787283 -0.46320024328589299 0 -0.070116760590245575 -0.47091363449088802 0 -0.076302362750125058 -0.4823391464328447 0 -0.070116760590245575 -0.47091363449088802 0 -0.082098745560271663 -0.46984084523971009 0 -0.076302362750125058 -0.4823391464328447 0 -0.082098745560271663 -0.46984084523971009 0 -0.094629626224891072 -0.4769239172657514 0 -0.076302362750125058 -0.4823391464328447 0 -0.096435292782720561 -0.5 0 -0.094629626224891072 -0.4769239172657514 0 -0.069001161158255039 -0.49999999999999822 0 -0.076302362750125058 -0.4823391464328447 0 -0.096435292782720561 -0.5 0 -0.096435292782720561 -0.5 0 -0.094629626224891072 -0.4769239172657514 0 -0.1124743846336472 -0.48454415011268243 0 -0.094629626224891072 -0.4769239172657514 0 -0.1124743846336472 -0.48454415011268243 0 -0.1188620011512401 -0.46454337267673412 0 -0.094629626224891072 -0.4769239172657514 0 -0.1188620011512401 -0.46454337267673412 0 -0.12968072546621401 -0.48318219875650242 0 -0.1124743846336472 -0.48454415011268243 0 -0.1188620011512401 -0.46454337267673412 0 -0.12968072546621401 -0.48318219875650242 0 -0.1238694244071858 -0.5 0 -0.1124743846336472 -0.48454415011268243 0 -0.096435292782720561 -0.5 0 -0.1238694244071858 -0.5 0 -0.1124743846336472 -0.48454415011268243 0 -0.093667802170389947 -0.45694185184488367 0 -0.081645169628701553 -0.43878482927060508 0 -0.1085762031674314 -0.44012845345014029 0 -0.093667802170389947 -0.45694185184488367 0 -0.094629626224891072 -0.4769239172657514 0 -0.1188620011512401 -0.46454337267673412 0 -0.093667802170389947 -0.45694185184488367 0 -0.1085762031674314 -0.44012845345014029 0 -0.1188620011512401 -0.46454337267673412 0 -0.12634073113087191 -0.44378726844184607 0 -0.1085762031674314 -0.44012845345014029 0 -0.1188620011512401 -0.46454337267673412 0 -0.12634073113087191 -0.44378726844184607 0 -0.1085762031674314 -0.44012845345014029 0 -0.1181243082007703 -0.42376097710149641 0 -0.1085762031674314 -0.44012845345014029 0 -0.1181243082007703 -0.42376097710149641 0 -0.09623045444990283 -0.42614773777455628 0 -0.081645169628701553 -0.43878482927060508 0 -0.1085762031674314 -0.44012845345014029 0 -0.09623045444990283 -0.42614773777455628 0 -0.10448504091399299 -0.41315792022681891 0 -0.096544589706144004 -0.39705190908867122 0 -0.083555511198226476 -0.41514619270673481 0 -0.1181243082007703 -0.42376097710149641 0 -0.09623045444990283 -0.42614773777455628 0 -0.10448504091399299 -0.41315792022681891 0 -0.09623045444990283 -0.42614773777455628 0 -0.10448504091399299 -0.41315792022681891 0 -0.083555511198226476 -0.41514619270673481 0 -0.13613191878694769 -0.41159065544582402 0 -0.1181243082007703 -0.42376097710149641 0 -0.1161711078885298 -0.39891365138407031 0 -0.1181243082007703 -0.42376097710149641 0 -0.10448504091399299 -0.41315792022681891 0 -0.1161711078885298 -0.39891365138407031 0 -0.1145775243971575 -0.36546726112071343 0 -0.1219167210072663 -0.38008905888290517 0 -0.10495859327679451 -0.38118814837188503 0 -0.13265069014162589 -0.39130456912487749 0 -0.1161711078885298 -0.39891365138407031 0 -0.1219167210072663 -0.38008905888290517 0 -0.1161711078885298 -0.39891365138407031 0 -0.1219167210072663 -0.38008905888290517 0 -0.10495859327679451 -0.38118814837188503 0 -0.10495859327679451 -0.38118814837188503 0 -0.096544589706144004 -0.39705190908867122 0 -0.088173120083863299 -0.37840868346538847 0 -0.10135182884643031 -0.36765561096446442 0 -0.10495859327679451 -0.38118814837188503 0 -0.088173120083863299 -0.37840868346538847 0 -0.1161711078885298 -0.39891365138407031 0 -0.10495859327679451 -0.38118814837188503 0 -0.096544589706144004 -0.39705190908867122 0 -0.10448504091399299 -0.41315792022681891 0 -0.1161711078885298 -0.39891365138407031 0 -0.096544589706144004 -0.39705190908867122 0 -0.096544589706144004 -0.39705190908867122 0 -0.078731385127478973 -0.3950691176298361 0 -0.083555511198226476 -0.41514619270673481 0 -0.072983626094223819 -0.36520806689879481 0 -0.088173120083863299 -0.37840868346538847 0 -0.073428372944260897 -0.38201787300379281 0 -0.078731385127478973 -0.3950691176298361 0 -0.088173120083863299 -0.37840868346538847 0 -0.073428372944260897 -0.38201787300379281 0 -0.096544589706144004 -0.39705190908867122 0 -0.078731385127478973 -0.3950691176298361 0 -0.088173120083863299 -0.37840868346538847 0 -0.060831081728478342 -0.39877170174622301 0 -0.059435892456149678 -0.38090363897561802 0 -0.073428372944260897 -0.38201787300379281 0 -0.072983626094223819 -0.36520806689879481 0 -0.059435892456149678 -0.38090363897561802 0 -0.073428372944260897 -0.38201787300379281 0 -0.060831081728478342 -0.39877170174622301 0 -0.078731385127478973 -0.3950691176298361 0 -0.073428372944260897 -0.38201787300379281 0 -0.060831081728478342 -0.39877170174622301 0 -0.078731385127478973 -0.3950691176298361 0 -0.071925072252348315 -0.40734356931341981 0 -0.078731385127478973 -0.3950691176298361 0 -0.071925072252348315 -0.40734356931341981 0 -0.083555511198226476 -0.41514619270673481 0 -0.060831081728478342 -0.39877170174622301 0 -0.071925072252348315 -0.40734356931341981 0 -0.062584205853922048 -0.41663037387273472 0 -0.071925072252348315 -0.40734356931341981 0 -0.072427536378441792 -0.41666325111806962 0 -0.062584205853922048 -0.41663037387273472 0 -0.071925072252348315 -0.40734356931341981 0 -0.072427536378441792 -0.41666325111806962 0 -0.083555511198226476 -0.41514619270673481 0 -0.072427536378441792 -0.41666325111806962 0 -0.071645356209270358 -0.4275328685793891 0 -0.083555511198226476 -0.41514619270673481 0 -0.072427536378441792 -0.41666325111806962 0 -0.062584205853922048 -0.41663037387273472 0 -0.071645356209270358 -0.4275328685793891 0 -0.05347101533510093 -0.42767140743203602 0 -0.062584205853922048 -0.41663037387273472 0 -0.071645356209270358 -0.4275328685793891 0 -0.081645169628701553 -0.43878482927060508 0 -0.063493204984341176 -0.43693227507490362 0 -0.071645356209270358 -0.4275328685793891 0 -0.05347101533510093 -0.42767140743203602 0 -0.063493204984341176 -0.43693227507490362 0 -0.071645356209270358 -0.4275328685793891 0 -0.081645169628701553 -0.43878482927060508 0 -0.071645356209270358 -0.4275328685793891 0 -0.083555511198226476 -0.41514619270673481 0 -0.081645169628701553 -0.43878482927060508 0 -0.09623045444990283 -0.42614773777455628 0 -0.083555511198226476 -0.41514619270673481 0 -0.082725843864598636 -0.08219143755481817 0 -0.075945512851144759 -0.091612047150588863 0 -0.08685755327520113 -0.094127916624385966 0 -0.082725843864598636 -0.08219143755481817 0 -0.08685755327520113 -0.094127916624385966 0 -0.0945204406891203 -0.08435836893230389 0 -0.082725843864598636 -0.08219143755481817 0 -0.0945204406891203 -0.08435836893230389 0 -0.095228552116159354 -0.070868036298784728 0 -0.082725843864598636 -0.08219143755481817 0 -0.071916519887833194 -0.07013712179906359 0 -0.095228552116159354 -0.070868036298784728 0 -0.071916519887833194 -0.07013712179906359 0 -0.095228552116159354 -0.070868036298784728 0 -0.079646417349663642 -0.061691771128058959 0 -0.071916519887833194 -0.07013712179906359 0 -0.095228552116159354 -0.070868036298784728 0 -0.095228552116159354 -0.070868036298784728 0 -0.079646417349663642 -0.061691771128058959 0 -0.091329810721418839 -0.059670379361232852 0 -0.082725843864598636 -0.08219143755481817 0 -0.071916519887833194 -0.07013712179906359 0 -0.070390828693811747 -0.081929390547153147 0 -0.071916519887833194 -0.07013712179906359 0 -0.079646417349663642 -0.061691771128058959 0 -0.062864147071656357 -0.062276242090445737 0 -0.071916519887833194 -0.07013712179906359 0 -0.070390828693811747 -0.081929390547153147 0 -0.062257272558245369 -0.076039920942192363 0 -0.070390828693811747 -0.081929390547153147 0 -0.065703008785182523 -0.089862912435240694 0 -0.060587799686571603 -0.082653835595661279 0 -0.070390828693811747 -0.081929390547153147 0 -0.060587799686571603 -0.082653835595661279 0 -0.062257272558245369 -0.076039920942192363 0 -0.082725843864598636 -0.08219143755481817 0 -0.070390828693811747 -0.081929390547153147 0 -0.075945512851144759 -0.091612047150588863 0 -0.070390828693811747 -0.081929390547153147 0 -0.075945512851144759 -0.091612047150588863 0 -0.065703008785182523 -0.089862912435240694 0 -0.075945512851144759 -0.091612047150588863 0 -0.065703008785182523 -0.089862912435240694 0 -0.063747086900504263 -0.1004228525822561 0 -0.063747086900504263 -0.1004228525822561 0 -0.072275616283645955 -0.1131512454257303 0 -0.06054559442286947 -0.11201242882646011 0 -0.063747086900504263 -0.1004228525822561 0 -0.072275616283645955 -0.1131512454257303 0 -0.078388076658291686 -0.10244863763514379 0 -0.075945512851144759 -0.091612047150588863 0 -0.063747086900504263 -0.1004228525822561 0 -0.078388076658291686 -0.10244863763514379 0 -0.066546173548621232 -0.1222795392078645 0 -0.072275616283645955 -0.1131512454257303 0 -0.06054559442286947 -0.11201242882646011 0 -0.072275616283645955 -0.1131512454257303 0 -0.079154913729244394 -0.121915448498808 0 -0.066546173548621232 -0.1222795392078645 0 -0.072275616283645955 -0.1131512454257303 0 -0.079154913729244394 -0.121915448498808 0 -0.079154913729244394 -0.121915448498808 0 -0.089573453105765144 -0.10869081899075619 0 -0.1047602595159054 -0.1137702650083381 0 -0.072275616283645955 -0.1131512454257303 0 -0.079154913729244394 -0.121915448498808 0 -0.089573453105765144 -0.10869081899075619 0 -0.079154913729244394 -0.121915448498808 0 -0.089573453105765144 -0.10869081899075619 0 -0.072275616283645955 -0.1131512454257303 0 -0.078388076658291686 -0.10244863763514379 0 -0.089573453105765144 -0.10869081899075619 0 -0.075945512851144759 -0.091612047150588863 0 -0.078388076658291686 -0.10244863763514379 0 -0.08685755327520113 -0.094127916624385966 0 -0.078388076658291686 -0.10244863763514379 0 -0.089573453105765144 -0.10869081899075619 0 -0.08685755327520113 -0.094127916624385966 0 -0.089573453105765144 -0.10869081899075619 0 -0.08685755327520113 -0.094127916624385966 0 -0.099991992482286352 -0.095466189482704814 0 -0.089573453105765144 -0.10869081899075619 0 -0.099991992482286352 -0.095466189482704814 0 -0.1047602595159054 -0.1137702650083381 0 -0.099991992482286352 -0.095466189482704814 0 -0.1047602595159054 -0.1137702650083381 0 -0.1162135235181824 -0.087595374320889013 0 -0.089573453105765144 -0.10869081899075619 0 -0.099991992482286352 -0.095466189482704814 0 -0.1047602595159054 -0.1137702650083381 0 -0.1206501631140116 -0.1196762209048116 0 -0.1205201078216398 -0.1049632512248226 0 -0.1047602595159054 -0.1137702650083381 0 -0.1206501631140116 -0.1196762209048116 0 -0.1115459371956342 -0.13077829445691719 0 -0.1206501631140116 -0.1196762209048116 0 -0.1205201078216398 -0.1049632512248226 0 -0.1330070026904597 -0.1097875923650501 0 -0.1047602595159054 -0.1137702650083381 0 -0.1162135235181824 -0.087595374320889013 0 -0.1047602595159054 -0.1137702650083381 0 -0.1205201078216398 -0.1049632512248226 0 -0.1162135235181824 -0.087595374320889013 0 -0.1205201078216398 -0.1049632512248226 0 -0.1162135235181824 -0.087595374320889013 0 -0.12985377978098289 -0.09482830396379692 0 -0.1162135235181824 -0.087595374320889013 0 -0.1057082298188743 -0.079419099863378029 0 -0.120376902100942 -0.075467166246956263 0 -0.099991992482286352 -0.095466189482704814 0 -0.1162135235181824 -0.087595374320889013 0 -0.1057082298188743 -0.079419099863378029 0 -0.099991992482286352 -0.095466189482704814 0 -0.1057082298188743 -0.079419099863378029 0 -0.0945204406891203 -0.08435836893230389 0 -0.1057082298188743 -0.079419099863378029 0 -0.0945204406891203 -0.08435836893230389 0 -0.095228552116159354 -0.070868036298784728 0 -0.08685755327520113 -0.094127916624385966 0 -0.099991992482286352 -0.095466189482704814 0 -0.0945204406891203 -0.08435836893230389 0 -0.1057082298188743 -0.079419099863378029 0 -0.1079179680065555 -0.062759463898629547 0 -0.095228552116159354 -0.070868036298784728 0 -0.1079179680065555 -0.062759463898629547 0 -0.095228552116159354 -0.070868036298784728 0 -0.091329810721418839 -0.059670379361232852 0 -0.1162135235181824 -0.087595374320889013 0 -0.1276667875204594 -0.061420483633439937 0 -0.1057082298188743 -0.079419099863378029 0 -0.1079179680065555 -0.062759463898629547 0 -0.120376902100942 -0.075467166246956263 0 -0.1162135235181824 -0.087595374320889013 0 -0.120376902100942 -0.075467166246956263 0 -0.1276667875204594 -0.061420483633439937 0 -0.1079179680065555 -0.062759463898629547 0 -0.1191780740788313 -0.047088666837466972 0 -0.1033240357057047 -0.051567457975697013 0 -0.120376902100942 -0.075467166246956263 0 -0.1191780740788313 -0.047088666837466972 0 -0.120376902100942 -0.075467166246956263 0 -0.1191780740788313 -0.047088666837466972 0 -0.1276667875204594 -0.061420483633439937 0 -0.1079179680065555 -0.062759463898629547 0 -0.120376902100942 -0.075467166246956263 0 -0.1191780740788313 -0.047088666837466972 0 -0.1191780740788313 -0.047088666837466972 0 -0.10642161498654309 -0.04049709422692032 0 -0.1033240357057047 -0.051567457975697013 0 -0.1191780740788313 -0.047088666837466972 0 -0.10642161498654309 -0.04049709422692032 0 -0.1060198297361834 -0.026324916746777029 0 -0.1191780740788313 -0.047088666837466972 0 -0.1179792460567205 -0.018710167427977629 0 -0.10642161498654309 -0.04049709422692032 0 -0.095000090859077957 -0.035196297846314659 0 -0.1060198297361834 -0.026324916746777029 0 -0.10642161498654309 -0.04049709422692032 0 -0.095000090859077957 -0.035196297846314659 0 -0.091772710735174526 -0.047821685554235341 0 -0.10642161498654309 -0.04049709422692032 0 -0.1033240357057047 -0.051567457975697013 0 -0.091772710735174526 -0.047821685554235341 0 -0.10642161498654309 -0.04049709422692032 0 -0.091772710735174526 -0.047821685554235341 0 -0.1079179680065555 -0.062759463898629547 0 -0.1033240357057047 -0.051567457975697013 0 -0.091329810721418839 -0.059670379361232852 0 -0.1033240357057047 -0.051567457975697013 0 -0.091329810721418839 -0.059670379361232852 0 -0.091772710735174526 -0.047821685554235341 0 -0.1179792460567205 -0.018710167427977629 0 -0.13518087730504541 0.0058338015274088072 0 -0.1167804180346098 0.0096683319815117214 0 -0.1179792460567205 -0.018710167427977629 0 -0.1167804180346098 0.0096683319815117214 0 -0.1179792460567205 -0.018710167427977629 0 -0.097274239274747376 -0.0046019085417796646 0 -0.1167804180346098 0.0096683319815117214 0 -0.1191780740788313 -0.047088666837466972 0 -0.1179792460567205 -0.018710167427977629 0 -0.1060198297361834 -0.026324916746777029 0 -0.095000090859077957 -0.035196297846314659 0 -0.1060198297361834 -0.026324916746777029 0 -0.087241779402928779 -0.02318610010433066 0 -0.1060198297361834 -0.026324916746777029 0 -0.097274239274747376 -0.0046019085417796646 0 -0.087241779402928779 -0.02318610010433066 0 -0.1179792460567205 -0.018710167427977629 0 -0.1060198297361834 -0.026324916746777029 0 -0.097274239274747376 -0.0046019085417796646 0 -0.097274239274747376 -0.0046019085417796646 0 -0.078233446507469578 -0.010252112110808219 0 -0.081981731323709672 0.0092292092104944434 0 -0.097274239274747376 -0.0046019085417796646 0 -0.078233446507469578 -0.010252112110808219 0 -0.087241779402928779 -0.02318610010433066 0 -0.087241779402928779 -0.02318610010433066 0 -0.083544519434559955 -0.038151692599309929 0 -0.0679967444796193 -0.031464014728227553 0 -0.078233446507469578 -0.010252112110808219 0 -0.0679967444796193 -0.031464014728227553 0 -0.058869682475428689 -0.0077817525749057908 0 -0.0679967444796193 -0.031464014728227553 0 -0.058869682475428689 -0.0077817525749057908 0 -0.078233446507469578 -0.010252112110808219 0 -0.087241779402928779 -0.02318610010433066 0 -0.0679967444796193 -0.031464014728227553 0 -0.078233446507469578 -0.010252112110808219 0 -0.058869682475428689 -0.0077817525749057908 0 -0.081981731323709672 0.0092292092104944434 0 -0.091772710735174526 -0.047821685554235341 0 -0.083544519434559955 -0.038151692599309929 0 -0.077123806483806165 -0.055146276881550722 0 -0.091772710735174526 -0.047821685554235341 0 -0.077123806483806165 -0.055146276881550722 0 -0.079646417349663642 -0.061691771128058959 0 -0.091329810721418839 -0.059670379361232852 0 -0.077123806483806165 -0.055146276881550722 0 -0.079646417349663642 -0.061691771128058959 0 -0.077123806483806165 -0.055146276881550722 0 -0.091329810721418839 -0.059670379361232852 0 -0.091772710735174526 -0.047821685554235341 0 -0.077123806483806165 -0.055146276881550722 0 -0.095000090859077957 -0.035196297846314659 0 -0.091772710735174526 -0.047821685554235341 0 -0.083544519434559955 -0.038151692599309929 0 -0.095000090859077957 -0.035196297846314659 0 -0.087241779402928779 -0.02318610010433066 0 -0.083544519434559955 -0.038151692599309929 0 -0.0679967444796193 -0.031464014728227553 0 -0.064129040546685154 -0.049681283456652819 0 -0.077123806483806165 -0.055146276881550722 0 -0.083544519434559955 -0.038151692599309929 0 -0.0679967444796193 -0.031464014728227553 0 -0.077123806483806165 -0.055146276881550722 0 -0.0679967444796193 -0.031464014728227553 0 -0.077123806483806165 -0.055146276881550722 0 -0.079646417349663642 -0.061691771128058959 0 -0.077123806483806165 -0.055146276881550722 0 -0.062864147071656357 -0.062276242090445737 0 -0.064129040546685154 -0.049681283456652819 0 -0.077123806483806165 -0.055146276881550722 0 -0.062864147071656357 -0.062276242090445737 0 -0.077123806483806165 -0.055146276881550722 0 -0.062864147071656357 -0.062276242090445737 0 -0.062864147071656357 -0.062276242090445737 0 -0.05243690184366339 -0.060262852470139378 0 -0.057190764629057089 -0.054377140972501008 0 -0.064129040546685154 -0.049681283456652819 0 -0.062864147071656357 -0.062276242090445737 0 -0.057190764629057089 -0.054377140972501008 0 -0.05243690184366339 -0.060262852470139378 0 -0.049294123302313579 -0.053987445431778448 0 -0.043825248977434672 -0.061835059003759553 0 -0.05243690184366339 -0.060262852470139378 0 -0.049294123302313579 -0.053987445431778448 0 -0.057190764629057089 -0.054377140972501008 0 -0.049294123302313579 -0.053987445431778448 0 -0.057190764629057089 -0.054377140972501008 0 -0.053709869757606582 -0.044607603807589519 0 -0.064129040546685154 -0.049681283456652819 0 -0.057190764629057089 -0.054377140972501008 0 -0.053709869757606582 -0.044607603807589519 0 -0.0679967444796193 -0.031464014728227553 0 -0.064129040546685154 -0.049681283456652819 0 -0.053709869757606582 -0.044607603807589519 0 -0.0679967444796193 -0.031464014728227553 0 -0.053709869757606582 -0.044607603807589519 0 -0.042578722056988011 -0.02607804595853579 0 -0.037547960992125921 -0.048319432101953212 0 -0.042578722056988011 -0.02607804595853579 0 -0.02264376783593507 -0.033476250749725198 0 -0.053709869757606582 -0.044607603807589519 0 -0.037547960992125921 -0.048319432101953212 0 -0.042578722056988011 -0.02607804595853579 0 -0.049294123302313579 -0.053987445431778448 0 -0.053709869757606582 -0.044607603807589519 0 -0.037547960992125921 -0.048319432101953212 0 -0.037547960992125921 -0.048319432101953212 0 -0.033230576541648349 -0.060906014464405168 0 -0.027083990225655389 -0.05680204782543985 0 -0.037547960992125921 -0.048319432101953212 0 -0.033230576541648349 -0.060906014464405168 0 -0.043825248977434672 -0.061835059003759553 0 -0.049294123302313579 -0.053987445431778448 0 -0.037547960992125921 -0.048319432101953212 0 -0.043825248977434672 -0.061835059003759553 0 -0.058869682475428689 -0.0077817525749057908 0 -0.042578722056988011 -0.02607804595853579 0 -0.040135715836543677 -0.0043694999882779141 0 -0.0679967444796193 -0.031464014728227553 0 -0.058869682475428689 -0.0077817525749057908 0 -0.042578722056988011 -0.02607804595853579 0 -0.042578722056988011 -0.02607804595853579 0 -0.040135715836543677 -0.0043694999882779141 0 -0.022454462358346899 -0.01241010211001888 0 -0.040135715836543677 -0.0043694999882779141 0 -0.022454462358346899 -0.01241010211001888 0 -0.027208590888315939 0.0084929312031133842 0 -0.022454462358346899 -0.01241010211001888 0 -0.027208590888315939 0.0084929312031133842 0 -0.01042188962313418 0.0033145873257822219 0 -0.042578722056988011 -0.02607804595853579 0 -0.022454462358346899 -0.01241010211001888 0 -0.02264376783593507 -0.033476250749725198 0 -0.022454462358346899 -0.01241010211001888 0 -0.0045653430997711266 -0.018287619473552709 0 -0.02264376783593507 -0.033476250749725198 0 -0.0045653430997711266 -0.018287619473552709 0 -0.02264376783593507 -0.033476250749725198 0 -0.0056048939326261791 -0.039673260332606368 0 -0.022454462358346899 -0.01241010211001888 0 -0.0045653430997711266 -0.018287619473552709 0 -0.01042188962313418 0.0033145873257822219 0 -0.0045653430997711266 -0.018287619473552709 0 -0.01042188962313418 0.0033145873257822219 0 0.005904608835726727 -0.00024378440871443069 0 -0.027083990225655389 -0.05680204782543985 0 -0.013990952064892041 -0.05119138259787373 0 -0.016968425713235612 -0.068414305084892504 0 -0.033230576541648349 -0.060906014464405168 0 -0.027083990225655389 -0.05680204782543985 0 -0.016968425713235612 -0.068414305084892504 0 -0.027083990225655389 -0.05680204782543985 0 -0.025316667779652101 -0.047447278318748003 0 -0.013990952064892041 -0.05119138259787373 0 -0.037547960992125921 -0.048319432101953212 0 -0.027083990225655389 -0.05680204782543985 0 -0.025316667779652101 -0.047447278318748003 0 -0.025316667779652101 -0.047447278318748003 0 -0.02264376783593507 -0.033476250749725198 0 -0.013990952064892041 -0.05119138259787373 0 -0.037547960992125921 -0.048319432101953212 0 -0.025316667779652101 -0.047447278318748003 0 -0.02264376783593507 -0.033476250749725198 0 -0.02264376783593507 -0.033476250749725198 0 -0.0056048939326261791 -0.039673260332606368 0 -0.013990952064892041 -0.05119138259787373 0 -0.013990952064892041 -0.05119138259787373 0 -0.016968425713235612 -0.068414305084892504 0 0.00043414137965645799 -0.061061088137375992 0 -0.0056048939326261791 -0.039673260332606368 0 -0.013990952064892041 -0.05119138259787373 0 0.00043414137965645799 -0.061061088137375992 0 -0.011873169198497929 -0.087772215570247558 0 0.00043414137965645799 -0.061061088137375992 0 -0.011873169198497929 -0.087772215570247558 0 -0.016968425713235612 -0.068414305084892504 0 0.00043414137965645799 -0.061061088137375992 0 -0.011873169198497929 -0.087772215570247558 0 0.0043764673912596299 -0.079956963037604731 0 0.00043414137965645799 -0.061061088137375992 0 -0.011873169198497929 -0.087772215570247558 0 0.0055871776796167418 -0.096502554926749473 0 0.0043764673912596299 -0.079956963037604731 0 -0.011873169198497929 -0.087772215570247558 0 0.0055871776796167418 -0.096502554926749473 0 -0.011873169198497929 -0.087772215570247558 0 -0.030647024887798899 -0.092990574834819678 0 -0.038481915179940401 -0.074467589729157402 0 -0.011873169198497929 -0.087772215570247558 0 -0.038481915179940401 -0.074467589729157402 0 -0.011873169198497929 -0.087772215570247558 0 -0.016968425713235612 -0.068414305084892504 0 -0.038481915179940401 -0.074467589729157402 0 -0.033230576541648349 -0.060906014464405168 0 -0.016968425713235612 -0.068414305084892504 0 -0.040727256799789578 -0.06915922830598048 0 -0.016968425713235612 -0.068414305084892504 0 -0.040727256799789578 -0.06915922830598048 0 -0.016968425713235612 -0.068414305084892504 0 -0.040727256799789578 -0.06915922830598048 0 -0.038481915179940401 -0.074467589729157402 0 -0.043825248977434672 -0.061835059003759553 0 -0.040727256799789578 -0.06915922830598048 0 -0.04860448765950702 -0.069406207299341716 0 -0.033230576541648349 -0.060906014464405168 0 -0.043825248977434672 -0.061835059003759553 0 -0.040727256799789578 -0.06915922830598048 0 -0.040727256799789578 -0.06915922830598048 0 -0.04860448765950702 -0.069406207299341716 0 -0.043825248977434672 -0.061835059003759553 0 -0.040727256799789578 -0.06915922830598048 0 -0.040727256799789578 -0.06915922830598048 0 -0.038481915179940401 -0.074467589729157402 0 -0.04860448765950702 -0.069406207299341716 0 -0.038481915179940401 -0.074467589729157402 0 -0.048428760187909099 -0.083821118772574157 0 -0.04860448765950702 -0.069406207299341716 0 -0.038481915179940401 -0.074467589729157402 0 -0.04860448765950702 -0.069406207299341716 0 -0.040727256799789578 -0.06915922830598048 0 -0.038481915179940401 -0.074467589729157402 0 -0.030647024887798899 -0.092990574834819678 0 -0.048428760187909099 -0.083821118772574157 0 -0.047490132068796112 -0.098968010804293405 0 -0.030647024887798899 -0.092990574834819678 0 -0.038481915179940401 -0.074467589729157402 0 -0.048428760187909099 -0.083821118772574157 0 -0.030647024887798899 -0.092990574834819678 0 -0.038481915179940401 -0.074467589729157402 0 -0.048428760187909099 -0.083821118772574157 0 -0.05719135752579272 -0.091145746038005127 0 -0.047490132068796112 -0.098968010804293405 0 -0.065703008785182523 -0.089862912435240694 0 -0.05719135752579272 -0.091145746038005127 0 -0.060587799686571603 -0.082653835595661279 0 -0.048428760187909099 -0.083821118772574157 0 -0.060587799686571603 -0.082653835595661279 0 -0.055504818560885461 -0.077768357187697826 0 -0.048428760187909099 -0.083821118772574157 0 -0.05719135752579272 -0.091145746038005127 0 -0.060587799686571603 -0.082653835595661279 0 -0.060587799686571603 -0.082653835595661279 0 -0.062257272558245369 -0.076039920942192363 0 -0.055504818560885461 -0.077768357187697826 0 -0.071916519887833194 -0.07013712179906359 0 -0.062864147071656357 -0.062276242090445737 0 -0.04860448765950702 -0.069406207299341716 0 -0.071916519887833194 -0.07013712179906359 0 -0.062257272558245369 -0.076039920942192363 0 -0.04860448765950702 -0.069406207299341716 0 -0.062257272558245369 -0.076039920942192363 0 -0.055504818560885461 -0.077768357187697826 0 -0.04860448765950702 -0.069406207299341716 0 -0.071916519887833194 -0.07013712179906359 0 -0.04860448765950702 -0.069406207299341716 0 -0.062864147071656357 -0.062276242090445737 0 -0.04860448765950702 -0.069406207299341716 0 -0.05243690184366339 -0.060262852470139378 0 -0.043825248977434672 -0.061835059003759553 0 -0.04860448765950702 -0.069406207299341716 0 -0.062864147071656357 -0.062276242090445737 0 -0.05243690184366339 -0.060262852470139378 0 -0.04860448765950702 -0.069406207299341716 0 -0.048428760187909099 -0.083821118772574157 0 -0.055504818560885461 -0.077768357187697826 0 -0.04860448765950702 -0.069406207299341716 0 -0.06054559442286947 -0.11201242882646011 0 -0.038872639437462178 -0.1133177428187719 0 -0.055169916472709482 -0.12517812183203231 0 -0.066546173548621232 -0.1222795392078645 0 -0.06054559442286947 -0.11201242882646011 0 -0.055169916472709482 -0.12517812183203231 0 -0.063747086900504263 -0.1004228525822561 0 -0.05719135752579272 -0.091145746038005127 0 -0.047490132068796112 -0.098968010804293405 0 -0.063747086900504263 -0.1004228525822561 0 -0.06054559442286947 -0.11201242882646011 0 -0.047490132068796112 -0.098968010804293405 0 -0.06054559442286947 -0.11201242882646011 0 -0.047490132068796112 -0.098968010804293405 0 -0.038872639437462178 -0.1133177428187719 0 -0.065703008785182523 -0.089862912435240694 0 -0.063747086900504263 -0.1004228525822561 0 -0.05719135752579272 -0.091145746038005127 0 -0.047490132068796112 -0.098968010804293405 0 -0.038872639437462178 -0.1133177428187719 0 -0.030647024887798899 -0.092990574834819678 0 -0.047490132068796112 -0.098968010804293405 0 -0.038872639437462178 -0.1133177428187719 0 -0.038872639437462178 -0.1133177428187719 0 -0.055169916472709482 -0.12517812183203231 0 -0.043440524829983791 -0.13190826212108719 0 -0.038872639437462178 -0.1133177428187719 0 -0.030255146806130191 -0.1276674748332515 0 -0.043440524829983791 -0.13190826212108719 0 -0.038872639437462178 -0.1133177428187719 0 -0.030255146806130191 -0.1276674748332515 0 -0.038872639437462178 -0.1133177428187719 0 -0.02281213459565928 -0.1115135599404828 0 -0.030255146806130191 -0.1276674748332515 0 -0.02281213459565928 -0.1115135599404828 0 -0.020061622420425518 -0.11801622866398891 0 -0.030255146806130191 -0.1276674748332515 0 -0.02281213459565928 -0.1115135599404828 0 -0.030255146806130191 -0.1276674748332515 0 -0.019640957672936329 -0.1157347389352778 0 -0.02281213459565928 -0.1115135599404828 0 -0.020061622420425518 -0.11801622866398891 0 -0.02281213459565928 -0.1115135599404828 0 -0.020061622420425518 -0.11801622866398891 0 -0.02281213459565928 -0.1115135599404828 0 -0.015974691651047829 -0.1128772035176948 0 -0.01175785931783839 -0.1065107621217163 0 -0.019640957672936329 -0.1157347389352778 0 -0.020061622420425518 -0.11801622866398891 0 -0.019640957672936329 -0.1157347389352778 0 -0.015974691651047829 -0.1128772035176948 0 -0.01243253381211184 -0.1185875804614562 0 -0.019640957672936329 -0.1157347389352778 0 -0.02281213459565928 -0.1115135599404828 0 -0.015974691651047829 -0.1128772035176948 0 -0.019640957672936329 -0.1157347389352778 0 -0.020061622420425518 -0.11801622866398891 0 -0.01243253381211184 -0.1185875804614562 0 -0.011873169198497929 -0.087772215570247558 0 -0.02281213459565928 -0.1115135599404828 0 -0.030647024887798899 -0.092990574834819678 0 -0.02281213459565928 -0.1115135599404828 0 -0.011873169198497929 -0.087772215570247558 0 -0.030647024887798899 -0.092990574834819678 0 -0.02281213459565928 -0.1115135599404828 0 -0.030647024887798899 -0.092990574834819678 0 -0.038872639437462178 -0.1133177428187719 0 -0.02281213459565928 -0.1115135599404828 0 -0.011873169198497929 -0.087772215570247558 0 -0.01175785931783839 -0.1065107621217163 0 -0.0054880464665176369 -0.098150446906979827 0 -0.011873169198497929 -0.087772215570247558 0 -0.0054880464665176369 -0.098150446906979827 0 0.0055871776796167418 -0.096502554926749473 0 -0.011873169198497929 -0.087772215570247558 0 -0.02281213459565928 -0.1115135599404828 0 -0.01175785931783839 -0.1065107621217163 0 -0.01175785931783839 -0.1065107621217163 0 -1.170615023791954e-05 -0.1034689084604536 0 -0.0054880464665176369 -0.098150446906979827 0 -1.170615023791954e-05 -0.1034689084604536 0 -0.0051268486959103578 -0.122350190065947 0 -0.01175785931783839 -0.1065107621217163 0 -0.0051268486959103578 -0.122350190065947 0 -0.01243253381211184 -0.1185875804614562 0 -0.01175785931783839 -0.1065107621217163 0 -1.170615023791954e-05 -0.1034689084604536 0 -0.0051268486959103578 -0.122350190065947 0 -0.015974691651047829 -0.1128772035176948 0 -0.01175785931783839 -0.1065107621217163 0 -0.01243253381211184 -0.1185875804614562 0 -0.020061622420425518 -0.11801622866398891 0 -0.010241991241583001 -0.1412314716714404 0 -0.010241991241583001 -0.1412314716714404 0 0.0032140268818641178 -0.14153708485685071 0 0.0061657884986084316 -0.12918962103613721 0 -0.0051268486959103578 -0.122350190065947 0 -0.010241991241583001 -0.1412314716714404 0 -0.020061622420425518 -0.11801622866398891 0 -0.01243253381211184 -0.1185875804614562 0 -0.010241991241583001 -0.1412314716714404 0 -0.0051268486959103578 -0.122350190065947 0 -0.010241991241583001 -0.1412314716714404 0 0.0061657884986084316 -0.12918962103613721 0 -0.0051268486959103578 -0.122350190065947 0 -0.01243253381211184 -0.1185875804614562 0 -0.010241991241583001 -0.1412314716714404 0 -0.020061622420425518 -0.11801622866398891 0 -0.0238176406721964 -0.1383871228579665 0 -0.010241991241583001 -0.1412314716714404 0 -0.020061622420425518 -0.11801622866398891 0 -0.0238176406721964 -0.1383871228579665 0 -0.020061622420425518 -0.11801622866398891 0 -0.0238176406721964 -0.1383871228579665 0 -0.030255146806130191 -0.1276674748332515 0 -0.0238176406721964 -0.1383871228579665 0 -0.030255146806130191 -0.1276674748332515 0 -0.039341940624721322 -0.1473889652517453 0 -0.0238176406721964 -0.1383871228579665 0 -0.030255146806130191 -0.1276674748332515 0 -0.0238176406721964 -0.1383871228579665 0 -0.013931315381848211 -0.15484969783117869 0 -0.02901281443769882 -0.16656332648703889 0 -0.0238176406721964 -0.1383871228579665 0 -0.013931315381848211 -0.15484969783117869 0 -0.0238176406721964 -0.1383871228579665 0 -0.013931315381848211 -0.15484969783117869 0 -0.010241991241583001 -0.1412314716714404 0 -0.0238176406721964 -0.1383871228579665 0 -0.02901281443769882 -0.16656332648703889 0 -0.0238176406721964 -0.1383871228579665 0 -0.02901281443769882 -0.16656332648703889 0 -0.039341940624721322 -0.1473889652517453 0 -0.013931315381848211 -0.15484969783117869 0 -0.0061180970615561971 -0.15098104411288141 0 0.0057934695779179174 -0.1621061041675308 0 -0.013931315381848211 -0.15484969783117869 0 -0.010241991241583001 -0.1412314716714404 0 -0.0061180970615561971 -0.15098104411288141 0 -0.010241991241583001 -0.1412314716714404 0 -0.0061180970615561971 -0.15098104411288141 0 -0.013931315381848211 -0.15484969783117869 0 -0.010241991241583001 -0.1412314716714404 0 -0.010241991241583001 -0.1412314716714404 0 -0.0061180970615561971 -0.15098104411288141 0 0.0032140268818641178 -0.14153708485685071 0 -0.013931315381848211 -0.15484969783117869 0 -0.01973318282813654 -0.17626585429466249 0 0.00016161218586271259 -0.1783170499424877 0 -0.013931315381848211 -0.15484969783117869 0 0.00016161218586271259 -0.1783170499424877 0 -0.013931315381848211 -0.15484969783117869 0 0.0057934695779179174 -0.1621061041675308 0 0.00016161218586271259 -0.1783170499424877 0 -0.01973318282813654 -0.17626585429466249 0 -0.0072362567426319498 -0.1924080863237628 0 0.00016161218586271259 -0.1783170499424877 0 -0.01973318282813654 -0.17626585429466249 0 -0.02553505027442619 -0.19768201075814609 0 -0.01973318282813654 -0.17626585429466249 0 -0.02901281443769882 -0.16656332648703889 0 -0.034207988203200999 -0.1947395301161112 0 -0.013931315381848211 -0.15484969783117869 0 -0.01973318282813654 -0.17626585429466249 0 -0.02901281443769882 -0.16656332648703889 0 -0.013931315381848211 -0.15484969783117869 0 -0.01973318282813654 -0.17626585429466249 0 -0.02901281443769882 -0.16656332648703889 0 -0.04842873444330871 -0.16711045567024069 0 -0.039341940624721322 -0.1473889652517453 0 -0.052014739940029642 -0.15636545441377611 0 -0.04842873444330871 -0.16711045567024069 0 -0.039341940624721322 -0.1473889652517453 0 -0.02901281443769882 -0.16656332648703889 0 -0.04229126633652619 -0.17881131459053171 0 -0.04842873444330871 -0.16711045567024069 0 -0.04842873444330871 -0.16711045567024069 0 -0.039341940624721322 -0.1473889652517453 0 -0.02901281443769882 -0.16656332648703889 0 -0.04229126633652619 -0.17881131459053171 0 -0.034207988203200999 -0.1947395301161112 0 -0.02901281443769882 -0.16656332648703889 0 -0.034207988203200999 -0.1947395301161112 0 -0.04229126633652619 -0.17881131459053171 0 -0.057515528261897569 -0.1868319460887353 0 -0.034207988203200999 -0.1947395301161112 0 -0.057515528261897569 -0.1868319460887353 0 -0.04842873444330871 -0.16711045567024069 0 -0.04229126633652619 -0.17881131459053171 0 -0.057515528261897569 -0.1868319460887353 0 -0.04842873444330871 -0.16711045567024069 0 -0.057515528261897569 -0.1868319460887353 0 -0.062322562886658349 -0.16678136927802939 0 -0.063745213810263407 -0.1847183913414622 0 -0.057515528261897569 -0.1868319460887353 0 -0.04842873444330871 -0.16711045567024069 0 -0.062322562886658349 -0.16678136927802939 0 -0.057515528261897569 -0.1868319460887353 0 -0.05912802428591217 -0.19033162105907239 0 -0.063745213810263407 -0.1847183913414622 0 -0.057515528261897569 -0.1868319460887353 0 -0.063745213810263407 -0.1847183913414622 0 -0.052014739940029642 -0.15636545441377611 0 -0.062322562886658349 -0.16678136927802939 0 -0.069005910853996155 -0.15501280701314399 0 -0.052014739940029642 -0.15636545441377611 0 -0.04842873444330871 -0.16711045567024069 0 -0.062322562886658349 -0.16678136927802939 0 -0.052014739940029642 -0.15636545441377611 0 -0.065584826834636803 -0.13914045145629189 0 -0.052014739940029642 -0.15636545441377611 0 -0.051110389740416207 -0.13999625101498661 0 -0.065584826834636803 -0.13914045145629189 0 -0.052014739940029642 -0.15636545441377611 0 -0.051110389740416207 -0.13999625101498661 0 -0.039341940624721322 -0.1473889652517453 0 -0.052014739940029642 -0.15636545441377611 0 -0.065584826834636803 -0.13914045145629189 0 -0.069005910853996155 -0.15501280701314399 0 -0.055169916472709482 -0.12517812183203231 0 -0.051110389740416207 -0.13999625101498661 0 -0.065584826834636803 -0.13914045145629189 0 -0.066546173548621232 -0.1222795392078645 0 -0.055169916472709482 -0.12517812183203231 0 -0.065584826834636803 -0.13914045145629189 0 -0.055169916472709482 -0.12517812183203231 0 -0.051110389740416207 -0.13999625101498661 0 -0.043440524829983791 -0.13190826212108719 0 -0.030255146806130191 -0.1276674748332515 0 -0.039341940624721322 -0.1473889652517453 0 -0.051110389740416207 -0.13999625101498661 0 -0.043440524829983791 -0.13190826212108719 0 -0.039341940624721322 -0.1473889652517453 0 -0.030255146806130191 -0.1276674748332515 0 -0.043440524829983791 -0.13190826212108719 0 -0.039341940624721322 -0.1473889652517453 0 -0.014158786127307799 -0.24519737049676829 0 -0.0098572142302557775 -0.22952383578989441 0 -0.02479026077015236 -0.23272698803945799 0 -0.028054186667563302 -0.24683004061566199 0 -0.02479026077015236 -0.23272698803945799 0 -0.04030210207406916 -0.23847685483801981 0 -0.028054186667563302 -0.24683004061566199 0 -0.014158786127307799 -0.24519737049676829 0 -0.02479026077015236 -0.23272698803945799 0 -0.014158786127307799 -0.24519737049676829 0 -0.0041937972378574863 -0.2384814372205343 0 -0.0098572142302557775 -0.22952383578989441 0 -0.014158786127307799 -0.24519737049676829 0 -0.0041937972378574863 -0.2384814372205343 0 0.002045658659195418 -0.25226572357157673 0 -0.015321952323229139 -0.21526225450057679 0 0.0051951527469382107 -0.2269388190238977 0 -0.015321952323229139 -0.21526225450057679 0 0.0051951527469382107 -0.2269388190238977 0 0.005508109684769601 -0.2244221511810062 0 -0.0098572142302557775 -0.22952383578989441 0 -0.015321952323229139 -0.21526225450057679 0 0.0051951527469382107 -0.2269388190238977 0 -0.0041937972378574863 -0.2384814372205343 0 -0.0098572142302557775 -0.22952383578989441 0 0.0051951527469382107 -0.2269388190238977 0 -0.0098572142302557775 -0.22952383578989441 0 -0.018695018782215179 -0.2247325196610063 0 -0.015321952323229139 -0.21526225450057679 0 -0.018695018782215179 -0.2247325196610063 0 -0.02834519697557111 -0.21977168861308269 0 -0.015321952323229139 -0.21526225450057679 0 -0.0098572142302557775 -0.22952383578989441 0 -0.018695018782215179 -0.2247325196610063 0 -0.02479026077015236 -0.23272698803945799 0 -0.018695018782215179 -0.2247325196610063 0 -0.02479026077015236 -0.23272698803945799 0 -0.02834519697557111 -0.21977168861308269 0 -0.015321952323229139 -0.21526225450057679 0 -0.035839057393396982 -0.2035856899772566 0 -0.034054069434406267 -0.21132356409066111 0 -0.015321952323229139 -0.21526225450057679 0 -0.035839057393396982 -0.2035856899772566 0 -0.027556454757254559 -0.20514352467258751 0 -0.015321952323229139 -0.21526225450057679 0 -0.02553505027442619 -0.19768201075814609 0 -0.027556454757254559 -0.20514352467258751 0 -0.015321952323229139 -0.21526225450057679 0 -0.035839057393396982 -0.2035856899772566 0 -0.02834519697557111 -0.21977168861308269 0 -0.015321952323229139 -0.21526225450057679 0 -0.034054069434406267 -0.21132356409066111 0 -0.015321952323229139 -0.21526225450057679 0 -0.0020900314666772268 -0.2056362374066513 0 0.001564903750543953 -0.21508749120778081 0 -0.015321952323229139 -0.21526225450057679 0 0.005508109684769601 -0.2244221511810062 0 0.001564903750543953 -0.21508749120778081 0 -0.015321952323229139 -0.21526225450057679 0 -0.0020900314666772268 -0.2056362374066513 0 -0.02553505027442619 -0.19768201075814609 0 -0.0020900314666772268 -0.2056362374066513 0 -0.02553505027442619 -0.19768201075814609 0 -0.0020900314666772268 -0.2056362374066513 0 -0.0072362567426319498 -0.1924080863237628 0 -0.02553505027442619 -0.19768201075814609 0 -0.01973318282813654 -0.17626585429466249 0 -0.0072362567426319498 -0.1924080863237628 0 -0.02553505027442619 -0.19768201075814609 0 -0.01973318282813654 -0.17626585429466249 0 -0.02553505027442619 -0.19768201075814609 0 -0.034207988203200999 -0.1947395301161112 0 -0.027556454757254559 -0.20514352467258751 0 -0.02553505027442619 -0.19768201075814609 0 -0.035839057393396982 -0.2035856899772566 0 -0.02553505027442619 -0.19768201075814609 0 -0.034207988203200999 -0.1947395301161112 0 -0.027556454757254559 -0.20514352467258751 0 -0.02553505027442619 -0.19768201075814609 0 -0.034207988203200999 -0.1947395301161112 0 -0.05912802428591217 -0.19033162105907239 0 -0.035839057393396982 -0.2035856899772566 0 -0.057515528261897569 -0.1868319460887353 0 -0.034207988203200999 -0.1947395301161112 0 -0.057091451997723919 -0.19530026354469021 0 -0.047260931700680478 -0.20584440259599049 0 -0.035839057393396982 -0.2035856899772566 0 -0.034207988203200999 -0.1947395301161112 0 -0.035839057393396982 -0.2035856899772566 0 -0.02553505027442619 -0.19768201075814609 0 -0.034207988203200999 -0.1947395301161112 0 -0.035839057393396982 -0.2035856899772566 0 -0.05912802428591217 -0.19033162105907239 0 -0.035839057393396982 -0.2035856899772566 0 -0.057515528261897569 -0.1868319460887353 0 -0.034207988203200999 -0.1947395301161112 0 -0.05912802428591217 -0.19033162105907239 0 -0.057091451997723919 -0.19530026354469021 0 -0.05912802428591217 -0.19033162105907239 0 -0.035839057393396982 -0.2035856899772566 0 -0.05912802428591217 -0.19033162105907239 0 -0.061451936467821433 -0.19537531553966331 0 -0.065695024900316729 -0.18659425137963589 0 -0.057515528261897569 -0.1868319460887353 0 -0.05912802428591217 -0.19033162105907239 0 -0.05912802428591217 -0.19033162105907239 0 -0.061451936467821433 -0.19537531553966331 0 -0.057091451997723919 -0.19530026354469021 0 -0.05912802428591217 -0.19033162105907239 0 -0.061451936467821433 -0.19537531553966331 0 -0.05912802428591217 -0.19033162105907239 0 -0.065695024900316729 -0.18659425137963589 0 -0.061451936467821433 -0.19537531553966331 0 -0.058233830340577712 -0.20074045768874629 0 -0.065652753941613934 -0.20449254469806191 0 -0.057091451997723919 -0.19530026354469021 0 -0.061451936467821433 -0.19537531553966331 0 -0.058233830340577712 -0.20074045768874629 0 -0.057091451997723919 -0.19530026354469021 0 -0.061451936467821433 -0.19537531553966331 0 -0.057091451997723919 -0.19530026354469021 0 -0.058233830340577712 -0.20074045768874629 0 -0.047260931700680478 -0.20584440259599049 0 -0.058233830340577712 -0.20074045768874629 0 -0.047260931700680478 -0.20584440259599049 0 -0.065652753941613934 -0.20449254469806191 0 -0.045221507355882908 -0.21860976636875981 0 -0.058718655849625538 -0.219751668322476 0 -0.065652753941613934 -0.20449254469806191 0 -0.047260931700680478 -0.20584440259599049 0 -0.045221507355882908 -0.21860976636875981 0 -0.065652753941613934 -0.20449254469806191 0 -0.045221507355882908 -0.21860976636875981 0 -0.065652753941613934 -0.20449254469806191 0 -0.045221507355882908 -0.21860976636875981 0 -0.041635264252917109 -0.21059121089720431 0 -0.034054069434406267 -0.21132356409066111 0 -0.047260931700680478 -0.20584440259599049 0 -0.045221507355882908 -0.21860976636875981 0 -0.041635264252917109 -0.21059121089720431 0 -0.02834519697557111 -0.21977168861308269 0 -0.045221507355882908 -0.21860976636875981 0 -0.034054069434406267 -0.21132356409066111 0 -0.047260931700680478 -0.20584440259599049 0 -0.039713433205346933 -0.2079235494071652 0 -0.035839057393396982 -0.2035856899772566 0 -0.047260931700680478 -0.20584440259599049 0 -0.039713433205346933 -0.2079235494071652 0 -0.041635264252917109 -0.21059121089720431 0 -0.039713433205346933 -0.2079235494071652 0 -0.035839057393396982 -0.2035856899772566 0 -0.034054069434406267 -0.21132356409066111 0 -0.039713433205346933 -0.2079235494071652 0 -0.041635264252917109 -0.21059121089720431 0 -0.034054069434406267 -0.21132356409066111 0 -0.02479026077015236 -0.23272698803945799 0 -0.02834519697557111 -0.21977168861308269 0 -0.045221507355882908 -0.21860976636875981 0 -0.02479026077015236 -0.23272698803945799 0 -0.045221507355882908 -0.21860976636875981 0 -0.04030210207406916 -0.23847685483801981 0 -0.02479026077015236 -0.23272698803945799 0 -0.045221507355882908 -0.21860976636875981 0 -0.045221507355882908 -0.21860976636875981 0 -0.051030052154395773 -0.23110007688046311 0 -0.04030210207406916 -0.23847685483801981 0 -0.045221507355882908 -0.21860976636875981 0 -0.058718655849625538 -0.219751668322476 0 -0.051030052154395773 -0.23110007688046311 0 -0.058718655849625538 -0.219751668322476 0 -0.051030052154395773 -0.23110007688046311 0 -0.06337333651469193 -0.2334158466041083 0 -0.057714553428922379 -0.25500475435617842 0 -0.04030210207406916 -0.23847685483801981 0 -0.057714553428922379 -0.25500475435617842 0 -0.051030052154395773 -0.23110007688046311 0 -0.04030210207406916 -0.23847685483801981 0 -0.057714553428922379 -0.25500475435617842 0 -0.051030052154395773 -0.23110007688046311 0 -0.06337333651469193 -0.2334158466041083 0 -0.057714553428922379 -0.25500475435617842 0 -0.06337333651469193 -0.2334158466041083 0 -0.040512249463293341 -0.25569158202273867 0 -0.028054186667563302 -0.24683004061566199 0 -0.04030210207406916 -0.23847685483801981 0 -0.040512249463293341 -0.25569158202273867 0 -0.057714553428922379 -0.25500475435617842 0 -0.04030210207406916 -0.23847685483801981 0 -0.077934205990084701 -0.25849823457342302 0 -0.083971886421534386 -0.24957221478122329 0 -0.07474704270723237 -0.239773964261115 0 -0.09041974796923867 -0.24406125167670259 0 -0.080526144573508984 -0.23677295478476931 0 -0.09782673664442855 -0.23979469263012931 0 -0.091407705863245425 -0.25235714484008959 0 -0.09041974796923867 -0.24406125167670259 0 -0.098388133221083043 -0.2495265329015236 0 -0.091407705863245425 -0.25235714484008959 0 -0.09041974796923867 -0.24406125167670259 0 -0.083971886421534386 -0.24957221478122329 0 -0.09041974796923867 -0.24406125167670259 0 -0.082650623739631474 -0.24138381053383309 0 -0.080526144573508984 -0.23677295478476931 0 -0.082650623739631474 -0.24138381053383309 0 -0.080526144573508984 -0.23677295478476931 0 -0.07474704270723237 -0.239773964261115 0 -0.082650623739631474 -0.24138381053383309 0 -0.080526144573508984 -0.23677295478476931 0 -0.082650623739631474 -0.24138381053383309 0 -0.083971886421534386 -0.24957221478122329 0 -0.07474704270723237 -0.239773964261115 0 -0.09041974796923867 -0.24406125167670259 0 -0.082650623739631474 -0.24138381053383309 0 -0.083971886421534386 -0.24957221478122329 0 -0.077934205990084701 -0.25849823457342302 0 -0.07474704270723237 -0.239773964261115 0 -0.070207504995135006 -0.25219882787524028 0 -0.071223761498505955 -0.2416035565645287 0 -0.07474704270723237 -0.239773964261115 0 -0.057714553428922379 -0.25500475435617842 0 -0.071223761498505955 -0.2416035565645287 0 -0.06337333651469193 -0.2334158466041083 0 -0.070207504995135006 -0.25219882787524028 0 -0.057714553428922379 -0.25500475435617842 0 -0.071223761498505955 -0.2416035565645287 0 -0.071223761498505955 -0.2416035565645287 0 -0.07474704270723237 -0.239773964261115 0 -0.06337333651469193 -0.2334158466041083 0 -0.071223761498505955 -0.2416035565645287 0 -0.07474704270723237 -0.239773964261115 0 -0.080526144573508984 -0.23677295478476931 0 -0.07474704270723237 -0.239773964261115 0 -0.06337333651469193 -0.2334158466041083 0 -0.069032119600459727 -0.2118269388520376 0 -0.07474704270723237 -0.239773964261115 0 -0.06337333651469193 -0.2334158466041083 0 -0.070551218317602041 -0.21512390931191369 0 -0.080526144573508984 -0.23677295478476931 0 -0.070551218317602041 -0.21512390931191369 0 -0.06337333651469193 -0.2334158466041083 0 -0.070551218317602041 -0.21512390931191369 0 -0.069032119600459727 -0.2118269388520376 0 -0.07474704270723237 -0.239773964261115 0 -0.070551218317602041 -0.21512390931191369 0 -0.080526144573508984 -0.23677295478476931 0 -0.07474704270723237 -0.239773964261115 0 -0.070551218317602041 -0.21512390931191369 0 -0.058718655849625538 -0.219751668322476 0 -0.06337333651469193 -0.2334158466041083 0 -0.069032119600459727 -0.2118269388520376 0 -0.080526144573508984 -0.23677295478476931 0 -0.084817414903086696 -0.22159515260762061 0 -0.1036378526463841 -0.22477135721031449 0 -0.080526144573508984 -0.23677295478476931 0 -0.084817414903086696 -0.22159515260762061 0 -0.070551218317602041 -0.21512390931191369 0 -0.084817414903086696 -0.22159515260762061 0 -0.090061871862976151 -0.21088930613504109 0 -0.1036378526463841 -0.22477135721031449 0 -0.080526144573508984 -0.23677295478476931 0 -0.1036378526463841 -0.22477135721031449 0 -0.092790519077754818 -0.20938729155756361 0 -0.090061871862976151 -0.21088930613504109 0 -0.097648786977038021 -0.21627438760186099 0 -0.092790519077754818 -0.20938729155756361 0 -0.090061871862976151 -0.21088930613504109 0 -0.078424930134952331 -0.19566745212321521 0 -0.090061871862976151 -0.21088930613504109 0 -0.076485891079567742 -0.19700725505976821 0 -0.090061871862976151 -0.21088930613504109 0 -0.079808520321869414 -0.21071199160295781 0 -0.076485891079567742 -0.19700725505976821 0 -0.084817414903086696 -0.22159515260762061 0 -0.090061871862976151 -0.21088930613504109 0 -0.079808520321869414 -0.21071199160295781 0 -0.084817414903086696 -0.22159515260762061 0 -0.079808520321869414 -0.21071199160295781 0 -0.070551218317602041 -0.21512390931191369 0 -0.079808520321869414 -0.21071199160295781 0 -0.070551218317602041 -0.21512390931191369 0 -0.069612880728157772 -0.20961126841162331 0 -0.058718655849625538 -0.219751668322476 0 -0.069032119600459727 -0.2118269388520376 0 -0.065652753941613934 -0.20449254469806191 0 -0.070551218317602041 -0.21512390931191369 0 -0.069032119600459727 -0.2118269388520376 0 -0.070551218317602041 -0.21512390931191369 0 -0.069032119600459727 -0.2118269388520376 0 -0.069612880728157772 -0.20961126841162331 0 -0.070551218317602041 -0.21512390931191369 0 -0.069612880728157772 -0.20961126841162331 0 -0.069612880728157772 -0.20961126841162331 0 -0.072127169613626391 -0.2000189673836989 0 -0.068416538197623833 -0.2025828738990533 0 -0.069032119600459727 -0.2118269388520376 0 -0.065652753941613934 -0.20449254469806191 0 -0.069032119600459727 -0.2118269388520376 0 -0.065652753941613934 -0.20449254469806191 0 -0.069612880728157772 -0.20961126841162331 0 -0.069032119600459727 -0.2118269388520376 0 -0.069612880728157772 -0.20961126841162331 0 -0.069612880728157772 -0.20961126841162331 0 -0.068416538197623833 -0.2025828738990533 0 -0.065652753941613934 -0.20449254469806191 0 -0.069612880728157772 -0.20961126841162331 0 -0.068416538197623833 -0.2025828738990533 0 -0.065652753941613934 -0.20449254469806191 0 -0.068416538197623833 -0.2025828738990533 0 -0.069612880728157772 -0.20961126841162331 0 -0.074696535016055193 -0.20479562077529209 0 -0.072127169613626391 -0.2000189673836989 0 -0.069612880728157772 -0.20961126841162331 0 -0.072127169613626391 -0.2000189673836989 0 -0.079808520321869414 -0.21071199160295781 0 -0.069612880728157772 -0.20961126841162331 0 -0.074696535016055193 -0.20479562077529209 0 -0.079808520321869414 -0.21071199160295781 0 -0.074696535016055193 -0.20479562077529209 0 -0.076485891079567742 -0.19700725505976821 0 -0.074696535016055193 -0.20479562077529209 0 -0.076485891079567742 -0.19700725505976821 0 -0.072127169613626391 -0.2000189673836989 0 -0.076485891079567742 -0.19700725505976821 0 -0.072127169613626391 -0.2000189673836989 0 -0.076485891079567742 -0.19700725505976821 0 -0.074949347586406978 -0.1954360702156101 0 -0.078424930134952331 -0.19566745212321521 0 -0.076485891079567742 -0.19700725505976821 0 -0.078424930134952331 -0.19566745212321521 0 -0.076485891079567742 -0.19700725505976821 0 -0.074949347586406978 -0.1954360702156101 0 -0.073290930334432583 -0.1955790865000924 0 -0.076485891079567742 -0.19700725505976821 0 -0.073290930334432583 -0.1955790865000924 0 -0.076485891079567742 -0.19700725505976821 0 -0.074949347586406978 -0.1954360702156101 0 -0.073290930334432583 -0.1955790865000924 0 -0.072127169613626391 -0.2000189673836989 0 -0.067206558644238468 -0.1954743632206678 0 -0.073290930334432583 -0.1955790865000924 0 -0.072127169613626391 -0.2000189673836989 0 -0.076485891079567742 -0.19700725505976821 0 -0.073290930334432583 -0.1955790865000924 0 -0.072127169613626391 -0.2000189673836989 0 -0.072127169613626391 -0.2000189673836989 0 -0.068416538197623833 -0.2025828738990533 0 -0.065652753941613934 -0.20449254469806191 0 -0.068416538197623833 -0.2025828738990533 0 -0.067206558644238468 -0.1954743632206678 0 -0.072127169613626391 -0.2000189673836989 0 -0.068416538197623833 -0.2025828738990533 0 -0.067206558644238468 -0.1954743632206678 0 -0.061451936467821433 -0.19537531553966331 0 -0.065652753941613934 -0.20449254469806191 0 -0.061451936467821433 -0.19537531553966331 0 -0.065652753941613934 -0.20449254469806191 0 -0.067206558644238468 -0.1954743632206678 0 -0.073290930334432583 -0.1955790865000924 0 -0.067206558644238468 -0.1954743632206678 0 -0.068416538197623833 -0.2025828738990533 0 -0.067206558644238468 -0.1954743632206678 0 -0.061451936467821433 -0.19537531553966331 0 -0.067206558644238468 -0.1954743632206678 0 -0.067206558644238468 -0.1954743632206678 0 -0.069252524061868478 -0.19072134768818719 0 -0.065695024900316729 -0.18659425137963589 0 -0.061451936467821433 -0.19537531553966331 0 -0.067206558644238468 -0.1954743632206678 0 -0.065695024900316729 -0.18659425137963589 0 -0.067206558644238468 -0.1954743632206678 0 -0.065695024900316729 -0.18659425137963589 0 -0.073290930334432583 -0.1955790865000924 0 -0.067206558644238468 -0.1954743632206678 0 -0.069252524061868478 -0.19072134768818719 0 -0.069252524061868478 -0.19072134768818719 0 -0.068415528694499905 -0.18561482539829649 0 -0.065695024900316729 -0.18659425137963589 0 -0.074378392482175343 -0.19143029344058179 0 -0.068415528694499905 -0.18561482539829649 0 -0.069252524061868478 -0.19072134768818719 0 -0.074378392482175343 -0.19143029344058179 0 -0.068415528694499905 -0.18561482539829649 0 -0.074949347586406978 -0.1954360702156101 0 -0.073290930334432583 -0.1955790865000924 0 -0.074378392482175343 -0.19143029344058179 0 -0.073290930334432583 -0.1955790865000924 0 -0.069252524061868478 -0.19072134768818719 0 -0.074378392482175343 -0.19143029344058179 0 -0.073290930334432583 -0.1955790865000924 0 -0.074378392482175343 -0.19143029344058179 0 -0.074949347586406978 -0.1954360702156101 0 -0.074378392482175343 -0.19143029344058179 0 -0.078424930134952331 -0.19566745212321521 0 -0.074378392482175343 -0.19143029344058179 0 -0.078772675126339647 -0.18999661298577719 0 -0.078424930134952331 -0.19566745212321521 0 -0.074378392482175343 -0.19143029344058179 0 -0.078424930134952331 -0.19566745212321521 0 -0.092790519077754818 -0.20938729155756361 0 -0.078424930134952331 -0.19566745212321521 0 -0.1059767386994999 -0.1961416696585617 0 -0.078424930134952331 -0.19566745212321521 0 -0.1059767386994999 -0.1961416696585617 0 -0.078424930134952331 -0.19566745212321521 0 -0.1059767386994999 -0.1961416696585617 0 -0.093639959806350509 -0.1851544398262861 0 -0.078772675126339647 -0.18999661298577719 0 -0.078424930134952331 -0.19566745212321521 0 -0.08242770360058288 -0.187399261305987 0 -0.078424930134952331 -0.19566745212321521 0 -0.08242770360058288 -0.187399261305987 0 -0.093639959806350509 -0.1851544398262861 0 -0.092790519077754818 -0.20938729155756361 0 -0.078424930134952331 -0.19566745212321521 0 -0.090061871862976151 -0.21088930613504109 0 -0.076485891079567742 -0.19700725505976821 0 -0.078424930134952331 -0.19566745212321521 0 -0.078424930134952331 -0.19566745212321521 0 -0.093639959806350509 -0.1851544398262861 0 -0.1059767386994999 -0.1961416696585617 0 -0.093639959806350509 -0.1851544398262861 0 -0.1047289700833028 -0.1851230395995648 0 -0.1059767386994999 -0.1961416696585617 0 -0.1047289700833028 -0.1851230395995648 0 -0.118293341037632 -0.18651450902121131 0 -0.1059767386994999 -0.1961416696585617 0 -0.118293341037632 -0.18651450902121131 0 -0.13322517961482519 -0.19661066567610561 0 -0.1059767386994999 -0.1961416696585617 0 -0.1184172506631281 -0.20405091920382981 0 -0.13322517961482519 -0.19661066567610561 0 -0.1059767386994999 -0.1961416696585617 0 -0.13322517961482519 -0.19661066567610561 0 -0.12399798292479659 -0.21419861678823221 0 -0.1068527403713352 -0.22310190947410799 0 -0.11046910141339079 -0.20925272469241971 0 -0.12399798292479659 -0.21419861678823221 0 -0.1068527403713352 -0.22310190947410799 0 -0.1059767386994999 -0.1961416696585617 0 -0.11046910141339079 -0.20925272469241971 0 -0.1184172506631281 -0.20405091920382981 0 -0.11046910141339079 -0.20925272469241971 0 -0.1184172506631281 -0.20405091920382981 0 -0.12399798292479659 -0.21419861678823221 0 -0.092790519077754818 -0.20938729155756361 0 -0.11046910141339079 -0.20925272469241971 0 -0.1068527403713352 -0.22310190947410799 0 -0.092790519077754818 -0.20938729155756361 0 -0.1059767386994999 -0.1961416696585617 0 -0.11046910141339079 -0.20925272469241971 0 -0.092790519077754818 -0.20938729155756361 0 -0.1068527403713352 -0.22310190947410799 0 -0.090061871862976151 -0.21088930613504109 0 -0.1036378526463841 -0.22477135721031449 0 -0.092790519077754818 -0.20938729155756361 0 -0.097648786977038021 -0.21627438760186099 0 -0.1068527403713352 -0.22310190947410799 0 -0.090061871862976151 -0.21088930613504109 0 -0.097648786977038021 -0.21627438760186099 0 -0.1036378526463841 -0.22477135721031449 0 -0.080526144573508984 -0.23677295478476931 0 -0.1036378526463841 -0.22477135721031449 0 -0.09782673664442855 -0.23979469263012931 0 -0.097648786977038021 -0.21627438760186099 0 -0.1036378526463841 -0.22477135721031449 0 -0.1036378526463841 -0.22477135721031449 0 -0.1099711844719633 -0.2312474739109826 0 -0.1056547197900774 -0.23813758980519359 0 -0.1036378526463841 -0.22477135721031449 0 -0.1056547197900774 -0.23813758980519359 0 -0.09782673664442855 -0.23979469263012931 0 -0.1036378526463841 -0.22477135721031449 0 -0.1099711844719633 -0.2312474739109826 0 -0.097648786977038021 -0.21627438760186099 0 -0.1068527403713352 -0.22310190947410799 0 -0.1036378526463841 -0.22477135721031449 0 -0.1068527403713352 -0.22310190947410799 0 -0.1036378526463841 -0.22477135721031449 0 -0.1099711844719633 -0.2312474739109826 0 -0.1068527403713352 -0.22310190947410799 0 -0.1036378526463841 -0.22477135721031449 0 -0.1068527403713352 -0.22310190947410799 0 -0.1099711844719633 -0.2312474739109826 0 -0.12380094318803 -0.23963117047422849 0 -0.12399798292479659 -0.21419861678823221 0 -0.1068527403713352 -0.22310190947410799 0 -0.12161297710486001 -0.22597695049280811 0 -0.1068527403713352 -0.22310190947410799 0 -0.12161297710486001 -0.22597695049280811 0 -0.12380094318803 -0.23963117047422849 0 -0.1068527403713352 -0.22310190947410799 0 -0.12380094318803 -0.23963117047422849 0 -0.130072481475493 -0.25180195436688507 0 -0.1099711844719633 -0.2312474739109826 0 -0.12875709436948191 -0.25407444815903568 0 -0.1099711844719633 -0.2312474739109826 0 -0.130072481475493 -0.25180195436688507 0 -0.1099711844719633 -0.2312474739109826 0 -0.12380094318803 -0.23963117047422849 0 -0.11483361518059911 -0.25006537360745279 0 -0.1099711844719633 -0.2312474739109826 0 -0.1056547197900774 -0.23813758980519359 0 -0.12875709436948191 -0.25407444815903568 0 -0.11483361518059911 -0.25006537360745279 0 -0.1099711844719633 -0.2312474739109826 0 -0.130072481475493 -0.25180195436688507 0 -0.12875709436948191 -0.25407444815903568 0 -0.1099711844719633 -0.2312474739109826 0 -0.1090276001301521 -0.2524008449134118 0 -0.11483361518059911 -0.25006537360745279 0 -0.105800613435617 -0.2470165031877396 0 -0.11483361518059911 -0.25006537360745279 0 -0.105800613435617 -0.2470165031877396 0 -0.1056547197900774 -0.23813758980519359 0 -0.105800613435617 -0.2470165031877396 0 -0.1056547197900774 -0.23813758980519359 0 -0.09782673664442855 -0.23979469263012931 0 -0.105800613435617 -0.2470165031877396 0 -0.09782673664442855 -0.23979469263012931 0 -0.098388133221083043 -0.2495265329015236 0 -0.09041974796923867 -0.24406125167670259 0 -0.09782673664442855 -0.23979469263012931 0 -0.098388133221083043 -0.2495265329015236 0 -0.079073304345726209 -0.144177298706922 0 -0.093306995513628602 -0.1399451556957873 0 -0.084955065985414663 -0.1590323645811155 0 -0.093306995513628602 -0.1399451556957873 0 -0.084955065985414663 -0.1590323645811155 0 -0.079154913729244394 -0.121915448498808 0 -0.093306995513628602 -0.1399451556957873 0 -0.079154913729244394 -0.121915448498808 0 -0.1047602595159054 -0.1137702650083381 0 -0.093306995513628602 -0.1399451556957873 0 -0.079154913729244394 -0.121915448498808 0 -0.079073304345726209 -0.144177298706922 0 -0.093306995513628602 -0.1399451556957873 0 -0.079154913729244394 -0.121915448498808 0 -0.079073304345726209 -0.144177298706922 0 -0.065584826834636803 -0.13914045145629189 0 -0.079154913729244394 -0.121915448498808 0 -0.065584826834636803 -0.13914045145629189 0 -0.066546173548621232 -0.1222795392078645 0 -0.079154913729244394 -0.121915448498808 0 -0.065584826834636803 -0.13914045145629189 0 -0.079073304345726209 -0.144177298706922 0 -0.069005910853996155 -0.15501280701314399 0 -0.084955065985414663 -0.1590323645811155 0 -0.079073304345726209 -0.144177298706922 0 -0.065584826834636803 -0.13914045145629189 0 -0.069005910853996155 -0.15501280701314399 0 -0.069005910853996155 -0.15501280701314399 0 -0.07283607530616204 -0.16726394811502551 0 -0.084955065985414663 -0.1590323645811155 0 -0.062322562886658349 -0.16678136927802939 0 -0.069005910853996155 -0.15501280701314399 0 -0.07283607530616204 -0.16726394811502551 0 -0.062322562886658349 -0.16678136927802939 0 -0.07283607530616204 -0.16726394811502551 0 -0.068973441166858884 -0.17306688593371139 0 -0.062322562886658349 -0.16678136927802939 0 -0.065695024900316729 -0.18659425137963589 0 -0.062322562886658349 -0.16678136927802939 0 -0.065695024900316729 -0.18659425137963589 0 -0.068973441166858884 -0.17306688593371139 0 -0.062322562886658349 -0.16678136927802939 0 -0.063745213810263407 -0.1847183913414622 0 -0.065695024900316729 -0.18659425137963589 0 -0.05912802428591217 -0.19033162105907239 0 -0.063745213810263407 -0.1847183913414622 0 -0.065695024900316729 -0.18659425137963589 0 -0.065695024900316729 -0.18659425137963589 0 -0.068973441166858884 -0.17306688593371139 0 -0.07144317620603842 -0.1792793282433803 0 -0.07283607530616204 -0.16726394811502551 0 -0.076603136457200932 -0.17811957346644389 0 -0.079360478140972093 -0.1718180408076046 0 -0.07283607530616204 -0.16726394811502551 0 -0.076603136457200932 -0.17811957346644389 0 -0.07227467544832622 -0.17593914936720681 0 -0.07283607530616204 -0.16726394811502551 0 -0.068973441166858884 -0.17306688593371139 0 -0.07227467544832622 -0.17593914936720681 0 -0.076603136457200932 -0.17811957346644389 0 -0.077390672596575644 -0.17993809864754531 0 -0.079360478140972093 -0.1718180408076046 0 -0.076603136457200932 -0.17811957346644389 0 -0.079360478140972093 -0.1718180408076046 0 -0.076603136457200932 -0.17811957346644389 0 -0.07144317620603842 -0.1792793282433803 0 -0.077390672596575644 -0.17993809864754531 0 -0.068973441166858884 -0.17306688593371139 0 -0.07227467544832622 -0.17593914936720681 0 -0.07144317620603842 -0.1792793282433803 0 -0.076603136457200932 -0.17811957346644389 0 -0.07227467544832622 -0.17593914936720681 0 -0.07144317620603842 -0.1792793282433803 0 -0.068415528694499905 -0.18561482539829649 0 -0.065695024900316729 -0.18659425137963589 0 -0.077390672596575644 -0.17993809864754531 0 -0.065695024900316729 -0.18659425137963589 0 -0.077390672596575644 -0.17993809864754531 0 -0.074378392482175343 -0.19143029344058179 0 -0.068415528694499905 -0.18561482539829649 0 -0.077390672596575644 -0.17993809864754531 0 -0.074378392482175343 -0.19143029344058179 0 -0.078772675126339647 -0.18999661298577719 0 -0.077390672596575644 -0.17993809864754531 0 -0.065695024900316729 -0.18659425137963589 0 -0.07144317620603842 -0.1792793282433803 0 -0.077390672596575644 -0.17993809864754531 0 -0.074378392482175343 -0.19143029344058179 0 -0.077390672596575644 -0.17993809864754531 0 -0.077390672596575644 -0.17993809864754531 0 -0.085742553350576081 -0.18138288883451259 0 -0.08242770360058288 -0.187399261305987 0 -0.078772675126339647 -0.18999661298577719 0 -0.077390672596575644 -0.17993809864754531 0 -0.08242770360058288 -0.187399261305987 0 -0.077390672596575644 -0.17993809864754531 0 -0.089511877398795403 -0.17303975555823231 0 -0.079360478140972093 -0.1718180408076046 0 -0.077390672596575644 -0.17993809864754531 0 -0.085742553350576081 -0.18138288883451259 0 -0.089511877398795403 -0.17303975555823231 0 -0.077390672596575644 -0.17993809864754531 0 -0.089511877398795403 -0.17303975555823231 0 -0.077390672596575644 -0.17993809864754531 0 -0.079360478140972093 -0.1718180408076046 0 -0.085742553350576081 -0.18138288883451259 0 -0.089511877398795403 -0.17303975555823231 0 -0.093639959806350509 -0.1851544398262861 0 -0.085742553350576081 -0.18138288883451259 0 -0.08242770360058288 -0.187399261305987 0 -0.093639959806350509 -0.1851544398262861 0 -0.089511877398795403 -0.17303975555823231 0 -0.084955065985414663 -0.1590323645811155 0 -0.079360478140972093 -0.1718180408076046 0 -0.07283607530616204 -0.16726394811502551 0 -0.084955065985414663 -0.1590323645811155 0 -0.079360478140972093 -0.1718180408076046 0 -0.084955065985414663 -0.1590323645811155 0 -0.079360478140972093 -0.1718180408076046 0 -0.089511877398795403 -0.17303975555823231 0 -0.084955065985414663 -0.1590323645811155 0 -0.098513628154735897 -0.1661754486448842 0 -0.098513628154735897 -0.1661754486448842 0 -0.1061453335012814 -0.15630115747276199 0 -0.1086805568555361 -0.1747619538997886 0 -0.084955065985414663 -0.1590323645811155 0 -0.098513628154735897 -0.1661754486448842 0 -0.1061453335012814 -0.15630115747276199 0 -0.089511877398795403 -0.17303975555823231 0 -0.098513628154735897 -0.1661754486448842 0 -0.1086805568555361 -0.1747619538997886 0 -0.089511877398795403 -0.17303975555823231 0 -0.093639959806350509 -0.1851544398262861 0 -0.1086805568555361 -0.1747619538997886 0 -0.093639959806350509 -0.1851544398262861 0 -0.1086805568555361 -0.1747619538997886 0 -0.1086805568555361 -0.1747619538997886 0 -0.1047289700833028 -0.1851230395995648 0 -0.1133435897224347 -0.17970050643515009 0 -0.093639959806350509 -0.1851544398262861 0 -0.1086805568555361 -0.1747619538997886 0 -0.1047289700833028 -0.1851230395995648 0 -0.1189836714889341 -0.17265715924973679 0 -0.118293341037632 -0.18651450902121131 0 -0.13182200947658679 -0.1890131610267117 0 -0.1047289700833028 -0.1851230395995648 0 -0.1133435897224347 -0.17970050643515009 0 -0.118293341037632 -0.18651450902121131 0 -0.1086805568555361 -0.1747619538997886 0 -0.1133435897224347 -0.17970050643515009 0 -0.1189836714889341 -0.17265715924973679 0 -0.1133435897224347 -0.17970050643515009 0 -0.1189836714889341 -0.17265715924973679 0 -0.118293341037632 -0.18651450902121131 0 -0.1061453335012814 -0.15630115747276199 0 -0.1086805568555361 -0.1747619538997886 0 -0.1189836714889341 -0.17265715924973679 0 -0.1061453335012814 -0.15630115747276199 0 -0.1189836714889341 -0.17265715924973679 0 -0.11948551327275141 -0.15860985757859861 0 -0.1061453335012814 -0.15630115747276199 0 -0.1189836714889341 -0.17265715924973679 0 -0.1189836714889341 -0.17265715924973679 0 -0.11948551327275141 -0.15860985757859861 0 -0.12733327723314269 -0.16504852316286389 0 -0.11948551327275141 -0.15860985757859861 0 -0.11613246327587121 -0.1448939581026597 0 -0.12883282086452749 -0.1541484899049706 0 -0.1061453335012814 -0.15630115747276199 0 -0.11948551327275141 -0.15860985757859861 0 -0.11613246327587121 -0.1448939581026597 0 -0.093306995513628602 -0.1399451556957873 0 -0.1061453335012814 -0.15630115747276199 0 -0.093306995513628602 -0.1399451556957873 0 -0.1061453335012814 -0.15630115747276199 0 -0.11613246327587121 -0.1448939581026597 0 -0.093306995513628602 -0.1399451556957873 0 -0.084955065985414663 -0.1590323645811155 0 -0.1061453335012814 -0.15630115747276199 0 -0.1047602595159054 -0.1137702650083381 0 -0.093306995513628602 -0.1399451556957873 0 -0.093306995513628602 -0.1399451556957873 0 -0.11613246327587121 -0.1448939581026597 0 -0.1115459371956342 -0.13077829445691719 0 -0.1047602595159054 -0.1137702650083381 0 -0.093306995513628602 -0.1399451556957873 0 -0.1115459371956342 -0.13077829445691719 0 -0.11613246327587121 -0.1448939581026597 0 -0.1222582854999008 -0.13302235048208291 0 -0.13280730388069831 -0.1411370753271757 0 -0.11613246327587121 -0.1448939581026597 0 -0.1115459371956342 -0.13077829445691719 0 -0.1222582854999008 -0.13302235048208291 0 -0.1206501631140116 -0.1196762209048116 0 -0.1115459371956342 -0.13077829445691719 0 -0.1222582854999008 -0.13302235048208291 0 -0.1206501631140116 -0.1196762209048116 0 -0.1222582854999008 -0.13302235048208291 0 -0.13602922183001481 -0.12700507490658439 0 -0.13602922183001481 -0.12700507490658439 0 -0.151060327642731 -0.1360027325000204 0 -0.13280730388069831 -0.1411370753271757 0 -0.1222582854999008 -0.13302235048208291 0 -0.13602922183001481 -0.12700507490658439 0 -0.13280730388069831 -0.1411370753271757 0 -0.13602922183001481 -0.12700507490658439 0 -0.151060327642731 -0.1360027325000204 0 -0.14852313579675791 -0.11680153384729661 0 -0.151060327642731 -0.1360027325000204 0 -0.14253070417114511 -0.15174984606673619 0 -0.13280730388069831 -0.1411370753271757 0 -0.151060327642731 -0.1360027325000204 0 -0.14253070417114511 -0.15174984606673619 0 -0.15708943888084179 -0.1526164810571371 0 -0.14253070417114511 -0.15174984606673619 0 -0.14858394632667421 -0.16276612913372351 0 -0.15708943888084179 -0.1526164810571371 0 -0.14253070417114511 -0.15174984606673619 0 -0.13280730388069831 -0.1411370753271757 0 -0.12883282086452749 -0.1541484899049706 0 -0.11613246327587121 -0.1448939581026597 0 -0.13280730388069831 -0.1411370753271757 0 -0.12883282086452749 -0.1541484899049706 0 -0.11948551327275141 -0.15860985757859861 0 -0.12883282086452749 -0.1541484899049706 0 -0.12733327723314269 -0.16504852316286389 0 -0.12883282086452749 -0.1541484899049706 0 -0.12733327723314269 -0.16504852316286389 0 -0.1373959360529535 -0.1632795581712832 0 -0.12733327723314269 -0.16504852316286389 0 -0.1373959360529535 -0.1632795581712832 0 -0.13320482325366009 -0.17446290234960221 0 -0.1189836714889341 -0.17265715924973679 0 -0.12733327723314269 -0.16504852316286389 0 -0.13320482325366009 -0.17446290234960221 0 -0.1373959360529535 -0.1632795581712832 0 -0.13320482325366009 -0.17446290234960221 0 -0.14530547030229879 -0.17445373742685441 0 -0.14253070417114511 -0.15174984606673619 0 -0.12883282086452749 -0.1541484899049706 0 -0.1373959360529535 -0.1632795581712832 0 -0.1189836714889341 -0.17265715924973679 0 -0.13320482325366009 -0.17446290234960221 0 -0.13182200947658679 -0.1890131610267117 0 -0.1189836714889341 -0.17265715924973679 0 -0.13182200947658679 -0.1890131610267117 0 -0.13320482325366009 -0.17446290234960221 0 -0.14034924467277349 -0.18230737410588441 0 -0.14530547030229879 -0.17445373742685441 0 -0.14034924467277349 -0.18230737410588441 0 -0.13182200947658679 -0.1890131610267117 0 -0.14320313586306749 -0.18979386234763901 0 -0.13320482325366009 -0.17446290234960221 0 -0.14034924467277349 -0.18230737410588441 0 -0.13182200947658679 -0.1890131610267117 0 -0.14530547030229879 -0.17445373742685441 0 -0.15208046557374921 -0.1841036910930737 0 -0.16375721859090889 -0.172214760747364 0 -0.14034924467277349 -0.18230737410588441 0 -0.15208046557374921 -0.1841036910930737 0 -0.14320313586306749 -0.18979386234763901 0 -0.14034924467277349 -0.18230737410588441 0 -0.14530547030229879 -0.17445373742685441 0 -0.15208046557374921 -0.1841036910930737 0 -0.14530547030229879 -0.17445373742685441 0 -0.14858394632667421 -0.16276612913372351 0 -0.16375721859090889 -0.172214760747364 0 -0.14253070417114511 -0.15174984606673619 0 -0.1373959360529535 -0.1632795581712832 0 -0.14858394632667421 -0.16276612913372351 0 -0.1373959360529535 -0.1632795581712832 0 -0.14530547030229879 -0.17445373742685441 0 -0.14858394632667421 -0.16276612913372351 0 -0.17059057568065991 -0.15640636573034339 0 -0.16375721859090889 -0.172214760747364 0 -0.18000279481144321 -0.16391963676576149 0 -0.14858394632667421 -0.16276612913372351 0 -0.16375721859090889 -0.172214760747364 0 -0.15708943888084179 -0.1526164810571371 0 -0.17059057568065991 -0.15640636573034339 0 -0.16375721859090889 -0.172214760747364 0 -0.15708943888084179 -0.1526164810571371 0 -0.15208046557374921 -0.1841036910930737 0 -0.16375721859090889 -0.172214760747364 0 -0.17127454054901711 -0.18634857829849749 0 -0.18330723375096061 -0.17701957415038189 0 -0.1877220614454759 -0.19754865771119351 0 -0.17127454054901711 -0.18634857829849749 0 -0.18330723375096061 -0.17701957415038189 0 -0.1877220614454759 -0.19754865771119351 0 -0.16375721859090889 -0.172214760747364 0 -0.17127454054901711 -0.18634857829849749 0 -0.18330723375096061 -0.17701957415038189 0 -0.16375721859090889 -0.172214760747364 0 -0.18330723375096061 -0.17701957415038189 0 -0.18000279481144321 -0.16391963676576149 0 -0.18330723375096061 -0.17701957415038189 0 -0.18000279481144321 -0.16391963676576149 0 -0.19395889057052121 -0.15864815702413529 0 -0.17059057568065991 -0.15640636573034339 0 -0.18000279481144321 -0.16391963676576149 0 -0.1808805530190303 -0.15255725600453171 0 -0.18000279481144321 -0.16391963676576149 0 -0.1808805530190303 -0.15255725600453171 0 -0.19395889057052121 -0.15864815702413529 0 -0.1808805530190303 -0.15255725600453171 0 -0.17079240077402019 -0.1434085100721034 0 -0.1881957749964504 -0.1400880060527861 0 -0.17059057568065991 -0.15640636573034339 0 -0.1808805530190303 -0.15255725600453171 0 -0.17079240077402019 -0.1434085100721034 0 -0.1881957749964504 -0.1400880060527861 0 -0.19543974656364119 -0.12952400934525171 0 -0.17370704535480891 -0.12370643112049309 0 -0.17079240077402019 -0.1434085100721034 0 -0.1881957749964504 -0.1400880060527861 0 -0.17370704535480891 -0.12370643112049309 0 -0.151060327642731 -0.1360027325000204 0 -0.17370704535480891 -0.12370643112049309 0 -0.14852313579675791 -0.11680153384729661 0 -0.151060327642731 -0.1360027325000204 0 -0.17079240077402019 -0.1434085100721034 0 -0.17370704535480891 -0.12370643112049309 0 -0.151060327642731 -0.1360027325000204 0 -0.15708943888084179 -0.1526164810571371 0 -0.17079240077402019 -0.1434085100721034 0 -0.17059057568065991 -0.15640636573034339 0 -0.15708943888084179 -0.1526164810571371 0 -0.17079240077402019 -0.1434085100721034 0 -0.14481302165502311 -0.23558015778230559 0 -0.16170538707704521 -0.23088871053905191 0 -0.15713976905195959 -0.24665593677925601 0 -0.14481302165502311 -0.23558015778230559 0 -0.14634991392852029 -0.24701342561288289 0 -0.15713976905195959 -0.24665593677925601 0 -0.1407491460047243 -0.25616043147434953 0 -0.12380094318803 -0.23963117047422849 0 -0.14634991392852029 -0.24701342561288289 0 -0.12380094318803 -0.23963117047422849 0 -0.14481302165502311 -0.23558015778230559 0 -0.14634991392852029 -0.24701342561288289 0 -0.130072481475493 -0.25180195436688507 0 -0.1407491460047243 -0.25616043147434953 0 -0.12380094318803 -0.23963117047422849 0 -0.1407491460047243 -0.25616043147434953 0 -0.12380094318803 -0.23963117047422849 0 -0.13180024193527759 -0.22697610523466441 0 -0.14822476141985641 -0.22066258603271291 0 -0.13629155293954689 -0.216783158039491 0 -0.12380094318803 -0.23963117047422849 0 -0.14481302165502311 -0.23558015778230559 0 -0.13180024193527759 -0.22697610523466441 0 -0.12161297710486001 -0.22597695049280811 0 -0.12380094318803 -0.23963117047422849 0 -0.13180024193527759 -0.22697610523466441 0 -0.12399798292479659 -0.21419861678823221 0 -0.13180024193527759 -0.22697610523466441 0 -0.13629155293954689 -0.216783158039491 0 -0.12399798292479659 -0.21419861678823221 0 -0.12161297710486001 -0.22597695049280811 0 -0.13180024193527759 -0.22697610523466441 0 -0.14481302165502311 -0.23558015778230559 0 -0.14822476141985641 -0.22066258603271291 0 -0.16170538707704521 -0.23088871053905191 0 -0.14481302165502311 -0.23558015778230559 0 -0.13180024193527759 -0.22697610523466441 0 -0.14822476141985641 -0.22066258603271291 0 -0.15458041217405 -0.20940671634318611 0 -0.14114322547825711 -0.20529532410235449 0 -0.1604736205301506 -0.19707966169364941 0 -0.14822476141985641 -0.22066258603271291 0 -0.15458041217405 -0.20940671634318611 0 -0.16009931524013951 -0.21900741650855099 0 -0.14822476141985641 -0.22066258603271291 0 -0.15458041217405 -0.20940671634318611 0 -0.14114322547825711 -0.20529532410235449 0 -0.14822476141985641 -0.22066258603271291 0 -0.14114322547825711 -0.20529532410235449 0 -0.13629155293954689 -0.216783158039491 0 -0.12399798292479659 -0.21419861678823221 0 -0.14114322547825711 -0.20529532410235449 0 -0.13322517961482519 -0.19661066567610561 0 -0.1184172506631281 -0.20405091920382981 0 -0.12399798292479659 -0.21419861678823221 0 -0.13322517961482519 -0.19661066567610561 0 -0.12399798292479659 -0.21419861678823221 0 -0.14114322547825711 -0.20529532410235449 0 -0.12399798292479659 -0.21419861678823221 0 -0.14114322547825711 -0.20529532410235449 0 -0.13629155293954689 -0.216783158039491 0 -0.118293341037632 -0.18651450902121131 0 -0.13322517961482519 -0.19661066567610561 0 -0.13182200947658679 -0.1890131610267117 0 -0.13322517961482519 -0.19661066567610561 0 -0.13182200947658679 -0.1890131610267117 0 -0.14320313586306749 -0.18979386234763901 0 -0.14114322547825711 -0.20529532410235449 0 -0.13322517961482519 -0.19661066567610561 0 -0.1604736205301506 -0.19707966169364941 0 -0.13322517961482519 -0.19661066567610561 0 -0.1604736205301506 -0.19707966169364941 0 -0.13322517961482519 -0.19661066567610561 0 -0.14320313586306749 -0.18979386234763901 0 -0.1604736205301506 -0.19707966169364941 0 -0.15208046557374921 -0.1841036910930737 0 -0.14320313586306749 -0.18979386234763901 0 -0.1604736205301506 -0.19707966169364941 0 -0.15208046557374921 -0.1841036910930737 0 -0.17127454054901711 -0.18634857829849749 0 -0.1604736205301506 -0.19707966169364941 0 -0.17127454054901711 -0.18634857829849749 0 -0.1604736205301506 -0.19707966169364941 0 -0.1877220614454759 -0.19754865771119351 0 -0.1604736205301506 -0.19707966169364941 0 -0.1877220614454759 -0.19754865771119351 0 -0.17126270498811719 -0.21520377324449161 0 -0.19237035657291621 -0.2191633719626995 0 -0.1877220614454759 -0.19754865771119351 0 -0.1604736205301506 -0.19707966169364941 0 -0.17126270498811719 -0.21520377324449161 0 -0.1877220614454759 -0.19754865771119351 0 -0.15458041217405 -0.20940671634318611 0 -0.17126270498811719 -0.21520377324449161 0 -0.16009931524013951 -0.21900741650855099 0 -0.15458041217405 -0.20940671634318611 0 -0.1604736205301506 -0.19707966169364941 0 -0.17126270498811719 -0.21520377324449161 0 -0.17126270498811719 -0.21520377324449161 0 -0.16170538707704521 -0.23088871053905191 0 -0.17853259300422289 -0.23794420896241339 0 -0.17126270498811719 -0.21520377324449161 0 -0.16009931524013951 -0.21900741650855099 0 -0.16170538707704521 -0.23088871053905191 0 -0.14822476141985641 -0.22066258603271291 0 -0.16009931524013951 -0.21900741650855099 0 -0.16170538707704521 -0.23088871053905191 0 -0.17126270498811719 -0.21520377324449161 0 -0.17853259300422289 -0.23794420896241339 0 -0.19237035657291621 -0.2191633719626995 0 -0.17116287506745159 -0.25520359587210562 0 -0.18679401823353531 -0.25309787563023223 0 -0.17853259300422289 -0.23794420896241339 0 -0.17116287506745159 -0.25520359587210562 0 -0.17853259300422289 -0.23794420896241339 0 -0.16713515605016979 -0.24267311303820671 0 -0.18679401823353531 -0.25309787563023223 0 -0.17853259300422289 -0.23794420896241339 0 -0.19701865170035759 -0.24077808621420541 0 -0.16170538707704521 -0.23088871053905191 0 -0.16713515605016979 -0.24267311303820671 0 -0.15713976905195959 -0.24665593677925601 0 -0.17116287506745159 -0.25520359587210562 0 -0.16713515605016979 -0.24267311303820671 0 -0.15713976905195959 -0.24665593677925601 0 -0.16170538707704521 -0.23088871053905191 0 -0.17853259300422289 -0.23794420896241339 0 -0.16713515605016979 -0.24267311303820671 0 -0.21399152414243511 -0.23730889336191169 0 -0.19701865170035759 -0.24077808621420541 0 -0.2063754620985209 -0.2265507669674989 0 -0.21032388326083029 -0.25024911192045129 0 -0.21399152414243511 -0.23730889336191169 0 -0.19701865170035759 -0.24077808621420541 0 -0.21032388326083029 -0.25024911192045129 0 -0.21399152414243511 -0.23730889336191169 0 -0.222298668502317 -0.24847530355297609 0 -0.17853259300422289 -0.23794420896241339 0 -0.19701865170035759 -0.24077808621420541 0 -0.19237035657291621 -0.2191633719626995 0 -0.19701865170035759 -0.24077808621420541 0 -0.19237035657291621 -0.2191633719626995 0 -0.2063754620985209 -0.2265507669674989 0 -0.19701865170035759 -0.24077808621420541 0 -0.19237035657291621 -0.2191633719626995 0 -0.19237035657291621 -0.2191633719626995 0 -0.2063754620985209 -0.2265507669674989 0 -0.21091374414785791 -0.21337519535784691 0 -0.21399152414243511 -0.23730889336191169 0 -0.2063754620985209 -0.2265507669674989 0 -0.22174016338364269 -0.22223305073552091 0 -0.2063754620985209 -0.2265507669674989 0 -0.21091374414785791 -0.21337519535784691 0 -0.22174016338364269 -0.22223305073552091 0 -0.19237035657291621 -0.2191633719626995 0 -0.21091374414785791 -0.21337519535784691 0 -0.20643390413605461 -0.19787072309945011 0 -0.2165718470805619 -0.20499277511011521 0 -0.21091374414785791 -0.21337519535784691 0 -0.20643390413605461 -0.19787072309945011 0 -0.2165718470805619 -0.20499277511011521 0 -0.21091374414785791 -0.21337519535784691 0 -0.22379399321170171 -0.21053239349545691 0 -0.19237035657291621 -0.2191633719626995 0 -0.1877220614454759 -0.19754865771119351 0 -0.20643390413605461 -0.19787072309945011 0 -0.19237035657291621 -0.2191633719626995 0 -0.1877220614454759 -0.19754865771119351 0 -0.1877220614454759 -0.19754865771119351 0 -0.20643390413605461 -0.19787072309945011 0 -0.1877220614454759 -0.19754865771119351 0 -0.20643390413605461 -0.19787072309945011 0 -0.19777090039008041 -0.18530208911438389 0 -0.20643390413605461 -0.19787072309945011 0 -0.21228982601916521 -0.18057486931431899 0 -0.22122899401824039 -0.1873916831155889 0 -0.20643390413605461 -0.19787072309945011 0 -0.22514574682663341 -0.19819278848770691 0 -0.20643390413605461 -0.19787072309945011 0 -0.19777090039008041 -0.18530208911438389 0 -0.21228982601916521 -0.18057486931431899 0 -0.20643390413605461 -0.19787072309945011 0 -0.22514574682663341 -0.19819278848770691 0 -0.22122899401824039 -0.1873916831155889 0 -0.2165718470805619 -0.20499277511011521 0 -0.20643390413605461 -0.19787072309945011 0 -0.22514574682663341 -0.19819278848770691 0 -0.22514574682663341 -0.19819278848770691 0 -0.2338242921914688 -0.20272505461971391 0 -0.23391924430936981 -0.18986902955470489 0 -0.22514574682663341 -0.19819278848770691 0 -0.23391924430936981 -0.18986902955470489 0 -0.22122899401824039 -0.1873916831155889 0 -0.2338242921914688 -0.20272505461971391 0 -0.24527721666347321 -0.21256379641157161 0 -0.25236195113672338 -0.1919112964829979 0 -0.2338242921914688 -0.20272505461971391 0 -0.25236195113672338 -0.1919112964829979 0 -0.2338242921914688 -0.20272505461971391 0 -0.23391924430936981 -0.18986902955470489 0 -0.25236195113672338 -0.1919112964829979 0 -0.2338242921914688 -0.20272505461971391 0 -0.24527721666347321 -0.21256379641157161 0 -0.23217343322604059 -0.2143428861814026 0 -0.24527721666347321 -0.21256379641157161 0 -0.23217343322604059 -0.2143428861814026 0 -0.23623150067991641 -0.2236601356447499 0 -0.22514574682663341 -0.19819278848770691 0 -0.2338242921914688 -0.20272505461971391 0 -0.22379399321170171 -0.21053239349545691 0 -0.2338242921914688 -0.20272505461971391 0 -0.23217343322604059 -0.2143428861814026 0 -0.22379399321170171 -0.21053239349545691 0 -0.2165718470805619 -0.20499277511011521 0 -0.22514574682663341 -0.19819278848770691 0 -0.22379399321170171 -0.21053239349545691 0 -0.23217343322604059 -0.2143428861814026 0 -0.22379399321170171 -0.21053239349545691 0 -0.22174016338364269 -0.22223305073552091 0 -0.21091374414785791 -0.21337519535784691 0 -0.22379399321170171 -0.21053239349545691 0 -0.22174016338364269 -0.22223305073552091 0 -0.21399152414243511 -0.23730889336191169 0 -0.22174016338364269 -0.22223305073552091 0 -0.23044791276379051 -0.23612102098454171 0 -0.22174016338364269 -0.22223305073552091 0 -0.23623150067991641 -0.2236601356447499 0 -0.23044791276379051 -0.23612102098454171 0 -0.23217343322604059 -0.2143428861814026 0 -0.22174016338364269 -0.22223305073552091 0 -0.23623150067991641 -0.2236601356447499 0 -0.23623150067991641 -0.2236601356447499 0 -0.23044791276379051 -0.23612102098454171 0 -0.25072384826432742 -0.23841644955799321 0 -0.24527721666347321 -0.21256379641157161 0 -0.23623150067991641 -0.2236601356447499 0 -0.25072384826432742 -0.23841644955799321 0 -0.2354726814988696 -0.24894793315851049 0 -0.23044791276379051 -0.23612102098454171 0 -0.25072384826432742 -0.23841644955799321 0 -0.2354726814988696 -0.24894793315851049 0 -0.23044791276379051 -0.23612102098454171 0 -0.222298668502317 -0.24847530355297609 0 -0.21399152414243511 -0.23730889336191169 0 -0.23044791276379051 -0.23612102098454171 0 -0.222298668502317 -0.24847530355297609 0 -0.20638565849052579 -0.14542965310061309 0 -0.21539919339325739 -0.154402973339094 0 -0.22248519928184679 -0.14522004837137709 0 -0.20638565849052579 -0.14542965310061309 0 -0.22248519928184679 -0.14522004837137709 0 -0.21905532520058829 -0.1334651583264572 0 -0.20638565849052579 -0.14542965310061309 0 -0.21539919339325739 -0.154402973339094 0 -0.20652125541651109 -0.15880586066551369 0 -0.20638565849052579 -0.14542965310061309 0 -0.208033678837584 -0.13033137633198691 0 -0.21905532520058829 -0.1334651583264572 0 -0.20638565849052579 -0.14542965310061309 0 -0.208033678837584 -0.13033137633198691 0 -0.19543974656364119 -0.12952400934525171 0 -0.208033678837584 -0.13033137633198691 0 -0.21905532520058829 -0.1334651583264572 0 -0.213741019778449 -0.12358787610454269 0 -0.20638565849052579 -0.14542965310061309 0 -0.1881957749964504 -0.1400880060527861 0 -0.19543974656364119 -0.12952400934525171 0 -0.208033678837584 -0.13033137633198691 0 -0.19543974656364119 -0.12952400934525171 0 -0.20341144819041559 -0.12005497745297811 0 -0.1808805530190303 -0.15255725600453171 0 -0.1881957749964504 -0.1400880060527861 0 -0.19395889057052121 -0.15864815702413529 0 -0.20638565849052579 -0.14542965310061309 0 -0.1881957749964504 -0.1400880060527861 0 -0.19395889057052121 -0.15864815702413529 0 -0.20638565849052579 -0.14542965310061309 0 -0.19395889057052121 -0.15864815702413529 0 -0.20652125541651109 -0.15880586066551369 0 -0.18330723375096061 -0.17701957415038189 0 -0.19395889057052121 -0.15864815702413529 0 -0.20144640561630719 -0.1709401429512718 0 -0.19395889057052121 -0.15864815702413529 0 -0.20144640561630719 -0.1709401429512718 0 -0.20652125541651109 -0.15880586066551369 0 -0.18330723375096061 -0.17701957415038189 0 -0.20144640561630719 -0.1709401429512718 0 -0.19777090039008041 -0.18530208911438389 0 -0.18330723375096061 -0.17701957415038189 0 -0.1877220614454759 -0.19754865771119351 0 -0.19777090039008041 -0.18530208911438389 0 -0.20144640561630719 -0.1709401429512718 0 -0.21228982601916521 -0.18057486931431899 0 -0.21522157984658241 -0.16490703865479631 0 -0.20144640561630719 -0.1709401429512718 0 -0.19777090039008041 -0.18530208911438389 0 -0.21228982601916521 -0.18057486931431899 0 -0.21228982601916521 -0.18057486931431899 0 -0.21522157984658241 -0.16490703865479631 0 -0.22621181003498211 -0.16860613589149681 0 -0.20144640561630719 -0.1709401429512718 0 -0.20652125541651109 -0.15880586066551369 0 -0.21522157984658241 -0.16490703865479631 0 -0.21539919339325739 -0.154402973339094 0 -0.20652125541651109 -0.15880586066551369 0 -0.21522157984658241 -0.16490703865479631 0 -0.21539919339325739 -0.154402973339094 0 -0.21522157984658241 -0.16490703865479631 0 -0.22628499934814 -0.157801596774341 0 -0.21522157984658241 -0.16490703865479631 0 -0.22628499934814 -0.157801596774341 0 -0.22621181003498211 -0.16860613589149681 0 -0.22621181003498211 -0.16860613589149681 0 -0.2364093671096949 -0.16068306716239231 0 -0.23578822088313961 -0.17106386572274551 0 -0.22628499934814 -0.157801596774341 0 -0.22621181003498211 -0.16860613589149681 0 -0.2364093671096949 -0.16068306716239231 0 -0.21228982601916521 -0.18057486931431899 0 -0.22621181003498211 -0.16860613589149681 0 -0.22867533096078871 -0.17968598290805099 0 -0.21228982601916521 -0.18057486931431899 0 -0.22122899401824039 -0.1873916831155889 0 -0.22867533096078871 -0.17968598290805099 0 -0.22621181003498211 -0.16860613589149681 0 -0.22867533096078871 -0.17968598290805099 0 -0.23578822088313961 -0.17106386572274551 0 -0.23391924430936981 -0.18986902955470489 0 -0.22122899401824039 -0.1873916831155889 0 -0.22867533096078871 -0.17968598290805099 0 -0.23391924430936981 -0.18986902955470489 0 -0.24227915072236411 -0.17930737171417041 0 -0.25236195113672338 -0.1919112964829979 0 -0.24227915072236411 -0.17930737171417041 0 -0.25236195113672338 -0.1919112964829979 0 -0.25438837735015563 -0.17408901105307889 0 -0.23391924430936981 -0.18986902955470489 0 -0.22867533096078871 -0.17968598290805099 0 -0.24227915072236411 -0.17930737171417041 0 -0.22867533096078871 -0.17968598290805099 0 -0.24227915072236411 -0.17930737171417041 0 -0.23578822088313961 -0.17106386572274551 0 -0.24227915072236411 -0.17930737171417041 0 -0.23578822088313961 -0.17106386572274551 0 -0.245232381934577 -0.1660834696861731 0 -0.24227915072236411 -0.17930737171417041 0 -0.245232381934577 -0.1660834696861731 0 -0.25438837735015563 -0.17408901105307889 0 -0.2364093671096949 -0.16068306716239231 0 -0.245232381934577 -0.1660834696861731 0 -0.2441779313611992 -0.15430066241038479 0 -0.2364093671096949 -0.16068306716239231 0 -0.23578822088313961 -0.17106386572274551 0 -0.245232381934577 -0.1660834696861731 0 -0.245232381934577 -0.1660834696861731 0 -0.2441779313611992 -0.15430066241038479 0 -0.25828471235426331 -0.1565801894285449 0 -0.24251306179481419 -0.14061913508783591 0 -0.24654581804579309 -0.13376537365426189 0 -0.25828471235426331 -0.1565801894285449 0 -0.2441779313611992 -0.15430066241038479 0 -0.24251306179481419 -0.14061913508783591 0 -0.25828471235426331 -0.1565801894285449 0 -0.2441779313611992 -0.15430066241038479 0 -0.23395422373047001 -0.14967637101481701 0 -0.24251306179481419 -0.14061913508783591 0 -0.23395422373047001 -0.14967637101481701 0 -0.228949844248617 -0.1387277587095227 0 -0.24251306179481419 -0.14061913508783591 0 -0.2364093671096949 -0.16068306716239231 0 -0.2441779313611992 -0.15430066241038479 0 -0.23395422373047001 -0.14967637101481701 0 -0.22628499934814 -0.157801596774341 0 -0.23395422373047001 -0.14967637101481701 0 -0.22248519928184679 -0.14522004837137709 0 -0.22628499934814 -0.157801596774341 0 -0.2364093671096949 -0.16068306716239231 0 -0.23395422373047001 -0.14967637101481701 0 -0.23395422373047001 -0.14967637101481701 0 -0.22248519928184679 -0.14522004837137709 0 -0.228949844248617 -0.1387277587095227 0 -0.21539919339325739 -0.154402973339094 0 -0.22628499934814 -0.157801596774341 0 -0.22248519928184679 -0.14522004837137709 0 -0.228949844248617 -0.1387277587095227 0 -0.24251306179481419 -0.14061913508783591 0 -0.22674141123536559 -0.12465808074712641 0 -0.21905532520058829 -0.1334651583264572 0 -0.228949844248617 -0.1387277587095227 0 -0.22674141123536559 -0.12465808074712641 0 -0.21905532520058829 -0.1334651583264572 0 -0.22674141123536559 -0.12465808074712641 0 -0.213741019778449 -0.12358787610454269 0 -0.22248519928184679 -0.14522004837137709 0 -0.21905532520058829 -0.1334651583264572 0 -0.228949844248617 -0.1387277587095227 0 -0.24251306179481419 -0.14061913508783591 0 -0.24654581804579309 -0.13376537365426189 0 -0.22674141123536559 -0.12465808074712641 0 -0.24251306179481419 -0.14061913508783591 0 -0.22674141123536559 -0.12465808074712641 0 -0.24654581804579309 -0.13376537365426189 0 -0.23480692373732229 -0.11095055787997909 0 -0.2489309622580109 -0.1242303833033653 0 -0.23480692373732229 -0.11095055787997909 0 -0.24549039803179959 -0.1059939859931003 0 -0.25070980455925612 -0.1157637291888518 0 -0.24654581804579309 -0.13376537365426189 0 -0.23480692373732229 -0.11095055787997909 0 -0.22674141123536559 -0.12465808074712641 0 -0.23480692373732229 -0.11095055787997909 0 -0.2489309622580109 -0.1242303833033653 0 -0.25070980455925612 -0.1157637291888518 0 -0.24654581804579309 -0.13376537365426189 0 -0.23480692373732229 -0.11095055787997909 0 -0.24549039803179959 -0.1059939859931003 0 -0.24971090441552871 -0.096958464046099729 0 -0.2378072085228122 -0.089072822333533114 0 -0.23480692373732229 -0.11095055787997909 0 -0.24549039803179959 -0.1059939859931003 0 -0.2378072085228122 -0.089072822333533114 0 -0.23480692373732229 -0.11095055787997909 0 -0.2378072085228122 -0.089072822333533114 0 -0.22306802942885151 -0.088135742105696344 0 -0.23480692373732229 -0.11095055787997909 0 -0.22306802942885151 -0.088135742105696344 0 -0.2221801450510954 -0.1060904129666433 0 -0.22306802942885151 -0.088135742105696344 0 -0.2131855281047558 -0.098082385591244547 0 -0.23480692373732229 -0.11095055787997909 0 -0.2221801450510954 -0.1060904129666433 0 -0.22306802942885151 -0.088135742105696344 0 -0.22674141123536559 -0.12465808074712641 0 -0.210969760675917 -0.108697026406417 0 -0.2221801450510954 -0.1060904129666433 0 -0.22674141123536559 -0.12465808074712641 0 -0.210969760675917 -0.108697026406417 0 -0.23480692373732229 -0.11095055787997909 0 -0.2221801450510954 -0.1060904129666433 0 -0.22674141123536559 -0.12465808074712641 0 -0.24336531570479769 -0.065727331489220331 0 -0.2378072085228122 -0.089072822333533114 0 -0.2250876512780165 -0.064392679317399351 0 -0.24336531570479769 -0.065727331489220331 0 -0.2378072085228122 -0.089072822333533114 0 -0.25337569101513241 -0.084501502158025821 0 -0.24971090441552871 -0.096958464046099729 0 -0.2378072085228122 -0.089072822333533114 0 -0.25337569101513241 -0.084501502158025821 0 -0.2378072085228122 -0.089072822333533114 0 -0.22306802942885151 -0.088135742105696344 0 -0.2250876512780165 -0.064392679317399351 0 -0.22306802942885151 -0.088135742105696344 0 -0.2250876512780165 -0.064392679317399351 0 -0.20033165650512519 -0.071072651713821086 0 -0.2250876512780165 -0.064392679317399351 0 -0.20033165650512519 -0.071072651713821086 0 -0.20773695673549261 -0.052272518561201527 0 -0.22306802942885151 -0.088135742105696344 0 -0.20598765215981241 -0.087646242995685811 0 -0.2131855281047558 -0.098082385591244547 0 -0.22306802942885151 -0.088135742105696344 0 -0.20598765215981241 -0.087646242995685811 0 -0.20033165650512519 -0.071072651713821086 0 -0.20265751717147021 -0.099878367430403542 0 -0.17922598328423819 -0.085997294450397332 0 -0.20598765215981241 -0.087646242995685811 0 -0.20265751717147021 -0.099878367430403542 0 -0.17922598328423819 -0.085997294450397332 0 -0.20598765215981241 -0.087646242995685811 0 -0.20033165650512519 -0.071072651713821086 0 -0.17922598328423819 -0.085997294450397332 0 -0.22674141123536559 -0.12465808074712641 0 -0.213741019778449 -0.12358787610454269 0 -0.210969760675917 -0.108697026406417 0 -0.20341144819041559 -0.12005497745297811 0 -0.210969760675917 -0.108697026406417 0 -0.2001623369175724 -0.1105570449050914 0 -0.20341144819041559 -0.12005497745297811 0 -0.213741019778449 -0.12358787610454269 0 -0.210969760675917 -0.108697026406417 0 -0.208033678837584 -0.13033137633198691 0 -0.20341144819041559 -0.12005497745297811 0 -0.213741019778449 -0.12358787610454269 0 -0.2221801450510954 -0.1060904129666433 0 -0.210969760675917 -0.108697026406417 0 -0.2131855281047558 -0.098082385591244547 0 -0.20598765215981241 -0.087646242995685811 0 -0.2131855281047558 -0.098082385591244547 0 -0.20265751717147021 -0.099878367430403542 0 -0.210969760675917 -0.108697026406417 0 -0.20265751717147021 -0.099878367430403542 0 -0.2001623369175724 -0.1105570449050914 0 -0.210969760675917 -0.108697026406417 0 -0.2131855281047558 -0.098082385591244547 0 -0.20265751717147021 -0.099878367430403542 0 -0.20265751717147021 -0.099878367430403542 0 -0.18550241107618401 -0.1021195462040608 0 -0.17922598328423819 -0.085997294450397332 0 -0.20265751717147021 -0.099878367430403542 0 -0.2001623369175724 -0.1105570449050914 0 -0.18550241107618401 -0.1021195462040608 0 -0.2001623369175724 -0.1105570449050914 0 -0.191563055553092 -0.11770318849024081 0 -0.18550241107618401 -0.1021195462040608 0 -0.20341144819041559 -0.12005497745297811 0 -0.2001623369175724 -0.1105570449050914 0 -0.191563055553092 -0.11770318849024081 0 -0.19543974656364119 -0.12952400934525171 0 -0.20341144819041559 -0.12005497745297811 0 -0.191563055553092 -0.11770318849024081 0 -0.17370704535480891 -0.12370643112049309 0 -0.16172523634541491 -0.1070183808424095 0 -0.18550241107618401 -0.1021195462040608 0 -0.191563055553092 -0.11770318849024081 0 -0.17370704535480891 -0.12370643112049309 0 -0.18550241107618401 -0.1021195462040608 0 -0.19543974656364119 -0.12952400934525171 0 -0.191563055553092 -0.11770318849024081 0 -0.17370704535480891 -0.12370643112049309 0 -0.17370704535480891 -0.12370643112049309 0 -0.16172523634541491 -0.1070183808424095 0 -0.14852313579675791 -0.11680153384729661 0 -0.16172523634541491 -0.1070183808424095 0 -0.18550241107618401 -0.1021195462040608 0 -0.16204746641378431 -0.08973624109365709 0 -0.16172523634541491 -0.1070183808424095 0 -0.16204746641378431 -0.08973624109365709 0 -0.14594981662278539 -0.09680354857783828 0 -0.18550241107618401 -0.1021195462040608 0 -0.17922598328423819 -0.085997294450397332 0 -0.16204746641378431 -0.08973624109365709 0 -0.20033165650512519 -0.071072651713821086 0 -0.17922598328423819 -0.085997294450397332 0 -0.17493714182002559 -0.064397359501391027 0 -0.17922598328423819 -0.085997294450397332 0 -0.17493714182002559 -0.064397359501391027 0 -0.1557944493970064 -0.072116221470391192 0 -0.17922598328423819 -0.085997294450397332 0 -0.16204746641378431 -0.08973624109365709 0 -0.1557944493970064 -0.072116221470391192 0 -0.17922598328423819 -0.085997294450397332 0 -0.1557944493970064 -0.072116221470391192 0 -0.1557944493970064 -0.072116221470391192 0 -0.1352735564919858 -0.080223751315632738 0 -0.14594981662278539 -0.09680354857783828 0 -0.16204746641378431 -0.08973624109365709 0 -0.1557944493970064 -0.072116221470391192 0 -0.14594981662278539 -0.09680354857783828 0 -0.1557944493970064 -0.072116221470391192 0 -0.1323629155097743 -0.058235148490384941 0 -0.1557944493970064 -0.072116221470391192 0 -0.13635737525930311 -0.069178575696391562 0 -0.1352735564919858 -0.080223751315632738 0 -0.1557944493970064 -0.072116221470391192 0 -0.13635737525930311 -0.069178575696391562 0 -0.1323629155097743 -0.058235148490384941 0 -0.13635737525930311 -0.069178575696391562 0 -0.1352735564919858 -0.080223751315632738 0 -0.1276667875204594 -0.061420483633439937 0 -0.1162135235181824 -0.087595374320889013 0 -0.1352735564919858 -0.080223751315632738 0 -0.1276667875204594 -0.061420483633439937 0 -0.13635737525930311 -0.069178575696391562 0 -0.1323629155097743 -0.058235148490384941 0 -0.1276667875204594 -0.061420483633439937 0 -0.1352735564919858 -0.080223751315632738 0 -0.12985377978098289 -0.09482830396379692 0 -0.14594981662278539 -0.09680354857783828 0 -0.1162135235181824 -0.087595374320889013 0 -0.1352735564919858 -0.080223751315632738 0 -0.12985377978098289 -0.09482830396379692 0 -0.12985377978098289 -0.09482830396379692 0 -0.1330070026904597 -0.1097875923650501 0 -0.14594981662278539 -0.09680354857783828 0 -0.1205201078216398 -0.1049632512248226 0 -0.12985377978098289 -0.09482830396379692 0 -0.1330070026904597 -0.1097875923650501 0 -0.13602922183001481 -0.12700507490658439 0 -0.1330070026904597 -0.1097875923650501 0 -0.14852313579675791 -0.11680153384729661 0 -0.1206501631140116 -0.1196762209048116 0 -0.13602922183001481 -0.12700507490658439 0 -0.1330070026904597 -0.1097875923650501 0 -0.16172523634541491 -0.1070183808424095 0 -0.14852313579675791 -0.11680153384729661 0 -0.14594981662278539 -0.09680354857783828 0 -0.1330070026904597 -0.1097875923650501 0 -0.14852313579675791 -0.11680153384729661 0 -0.14594981662278539 -0.09680354857783828 0 -0.14179680904898881 -0.01103102019700854 0 -0.16003862370912281 -0.021864989907177751 0 -0.15716480579668429 0.0096173806601869243 0 -0.14179680904898881 -0.01103102019700854 0 -0.13912005152273629 -0.035245592945990889 0 -0.16003862370912281 -0.021864989907177751 0 -0.1179792460567205 -0.018710167427977629 0 -0.14179680904898881 -0.01103102019700854 0 -0.13518087730504541 0.0058338015274088072 0 -0.1179792460567205 -0.018710167427977629 0 -0.14179680904898881 -0.01103102019700854 0 -0.13912005152273629 -0.035245592945990889 0 -0.1191780740788313 -0.047088666837466972 0 -0.1179792460567205 -0.018710167427977629 0 -0.13912005152273629 -0.035245592945990889 0 -0.13912005152273629 -0.035245592945990889 0 -0.1323629155097743 -0.058235148490384941 0 -0.1276667875204594 -0.061420483633439937 0 -0.1191780740788313 -0.047088666837466972 0 -0.13912005152273629 -0.035245592945990889 0 -0.1276667875204594 -0.061420483633439937 0 -0.13912005152273629 -0.035245592945990889 0 -0.1276667875204594 -0.061420483633439937 0 -0.13912005152273629 -0.035245592945990889 0 -0.1323629155097743 -0.058235148490384941 0 -0.15332240043719239 -0.050963131129824368 0 -0.1557944493970064 -0.072116221470391192 0 -0.1323629155097743 -0.058235148490384941 0 -0.15332240043719239 -0.050963131129824368 0 -0.13912005152273629 -0.035245592945990889 0 -0.15332240043719239 -0.050963131129824368 0 -0.16003862370912281 -0.021864989907177751 0 -0.15332240043719239 -0.050963131129824368 0 -0.1717939529517111 -0.042508332671546523 0 -0.16003862370912281 -0.021864989907177751 0 -0.17493714182002559 -0.064397359501391027 0 -0.1557944493970064 -0.072116221470391192 0 -0.15332240043719239 -0.050963131129824368 0 -0.17493714182002559 -0.064397359501391027 0 -0.15332240043719239 -0.050963131129824368 0 -0.1717939529517111 -0.042508332671546523 0 -0.17493714182002559 -0.064397359501391027 0 -0.1717939529517111 -0.042508332671546523 0 -0.19007450889192951 -0.049947218415534483 0 -0.1717939529517111 -0.042508332671546523 0 -0.18016940808067289 -0.022525103880661951 0 -0.19007450889192951 -0.049947218415534483 0 -0.18016940808067289 -0.022525103880661951 0 -0.16003862370912281 -0.021864989907177751 0 -0.17618077961913581 -0.0035985267045714349 0 -0.16003862370912281 -0.021864989907177751 0 -0.17618077961913581 -0.0035985267045714349 0 -0.15716480579668429 0.0096173806601869243 0 -0.1717939529517111 -0.042508332671546523 0 -0.18016940808067289 -0.022525103880661951 0 -0.16003862370912281 -0.021864989907177751 0 -0.18016940808067289 -0.022525103880661951 0 -0.17618077961913581 -0.0035985267045714349 0 -0.19893365398983109 -0.0041071238595800259 0 -0.18016940808067289 -0.022525103880661951 0 -0.19893365398983109 -0.0041071238595800259 0 -0.18016940808067289 -0.022525103880661951 0 -0.19893365398983109 -0.0041071238595800259 0 -0.2024502716501711 -0.029527530051054549 0 -0.2024502716501711 -0.029527530051054549 0 -0.2145161172965902 -0.01322262508513292 0 -0.22077985023517219 -0.038199626318468648 0 -0.19893365398983109 -0.0041071238595800259 0 -0.2145161172965902 -0.01322262508513292 0 -0.21769789989898911 0.01431085616150183 0 -0.19893365398983109 -0.0041071238595800259 0 -0.2024502716501711 -0.029527530051054549 0 -0.2145161172965902 -0.01322262508513292 0 -0.20033165650512519 -0.071072651713821086 0 -0.17493714182002559 -0.064397359501391027 0 -0.19007450889192951 -0.049947218415534483 0 -0.20033165650512519 -0.071072651713821086 0 -0.19007450889192951 -0.049947218415534483 0 -0.20773695673549261 -0.052272518561201527 0 -0.18016940808067289 -0.022525103880661951 0 -0.2024502716501711 -0.029527530051054549 0 -0.19007450889192951 -0.049947218415534483 0 -0.2024502716501711 -0.029527530051054549 0 -0.19007450889192951 -0.049947218415534483 0 -0.20773695673549261 -0.052272518561201527 0 -0.2024502716501711 -0.029527530051054549 0 -0.20773695673549261 -0.052272518561201527 0 -0.22077985023517219 -0.038199626318468648 0 -0.2250876512780165 -0.064392679317399351 0 -0.20773695673549261 -0.052272518561201527 0 -0.22077985023517219 -0.038199626318468648 0 -0.2250876512780165 -0.064392679317399351 0 -0.22077985023517219 -0.038199626318468648 0 -0.2424439762167564 -0.043787450241019203 0 -0.22077985023517219 -0.038199626318468648 0 -0.2424439762167564 -0.043787450241019203 0 -0.2342347475845421 -0.01565714949806642 0 -0.24336531570479769 -0.065727331489220331 0 -0.2250876512780165 -0.064392679317399351 0 -0.2424439762167564 -0.043787450241019203 0 -0.2145161172965902 -0.01322262508513292 0 -0.2342347475845421 -0.01565714949806642 0 -0.21769789989898911 0.01431085616150183 0 -0.2145161172965902 -0.01322262508513292 0 -0.22077985023517219 -0.038199626318468648 0 -0.2342347475845421 -0.01565714949806642 0 -0.2424439762167564 -0.043787450241019203 0 -0.2342347475845421 -0.01565714949806642 0 -0.25437700065985103 -0.02525094854927299 0 -0.2342347475845421 -0.01565714949806642 0 -0.24968331053108711 -0.0096343182687553472 0 -0.25437700065985103 -0.02525094854927299 0 -0.2342347475845421 -0.01565714949806642 0 -0.24968331053108711 -0.0096343182687553472 0 -0.2436265138743488 0.0065037479392753318 0 -0.24968331053108711 -0.0096343182687553472 0 -0.26649498000560651 -0.0041329229669573231 0 -0.2436265138743488 0.0065037479392753318 0 -0.24968331053108711 -0.0096343182687553472 0 -0.25437700065985103 -0.02525094854927299 0 -0.26649498000560651 -0.0041329229669573231 0 -0.25437700065985103 -0.02525094854927299 0 -0.27384371670170671 -0.028675515219102918 0 -0.26649498000560651 -0.0041329229669573231 0 -0.27384371670170671 -0.028675515219102918 0 -0.26649498000560651 -0.0041329229669573231 0 -0.28550996469666812 -0.014365948860096581 0 -0.26649498000560651 -0.0041329229669573231 0 -0.28550996469666812 -0.014365948860096581 0 -0.28788476338416141 0.0020438274912654162 0 -0.29554605467350958 -0.0056270752818544222 0 -0.28550996469666812 -0.014365948860096581 0 -0.28788476338416141 0.0020438274912654162 0 -0.29554605467350958 -0.0056270752818544222 0 -0.28788476338416141 0.0020438274912654162 0 -0.29990889168979129 0.001231685760085421 0 -0.29554605467350958 -0.0056270752818544222 0 -0.28550996469666812 -0.014365948860096581 0 -0.29735620919151329 -0.016477701774447961 0 -0.27384371670170671 -0.028675515219102918 0 -0.28550996469666812 -0.014365948860096581 0 -0.29168220551422758 -0.031712424564627181 0 -0.28550996469666812 -0.014365948860096581 0 -0.29735620919151329 -0.016477701774447961 0 -0.29168220551422758 -0.031712424564627181 0 -0.29735620919151329 -0.016477701774447961 0 -0.30771798142821333 -0.026400763813054919 0 -0.29168220551422758 -0.031712424564627181 0 -0.30771798142821333 -0.026400763813054919 0 -0.31015431122765103 -0.0011357570533747129 0 -0.30771798142821333 -0.026400763813054919 0 -0.31015431122765103 -0.0011357570533747129 0 -0.30600008428928249 -0.0030200428416092759 0 -0.29735620919151329 -0.016477701774447961 0 -0.30771798142821333 -0.026400763813054919 0 -0.30600008428928249 -0.0030200428416092759 0 -0.31015431122765103 -0.0011357570533747129 0 -0.30600008428928249 -0.0030200428416092759 0 -0.29990889168979129 0.001231685760085421 0 -0.31015431122765103 -0.0011357570533747129 0 -0.30600008428928249 -0.0030200428416092759 0 -0.29554605467350958 -0.0056270752818544222 0 -0.30600008428928249 -0.0030200428416092759 0 -0.29990889168979129 0.001231685760085421 0 -0.29554605467350958 -0.0056270752818544222 0 -0.29735620919151329 -0.016477701774447961 0 -0.30600008428928249 -0.0030200428416092759 0 -0.30771798142821333 -0.026400763813054919 0 -0.30528165162877768 -0.051665770572735331 0 -0.29168220551422758 -0.031712424564627181 0 -0.30771798142821333 -0.026400763813054919 0 -0.30528165162877768 -0.051665770572735331 0 -0.31576324030239489 -0.040653424844253848 0 -0.30771798142821333 -0.026400763813054919 0 -0.30528165162877768 -0.051665770572735331 0 -0.30528165162877768 -0.051665770572735331 0 -0.29168220551422758 -0.031712424564627181 0 -0.28454894695726629 -0.049462961487513717 0 -0.27384371670170671 -0.028675515219102918 0 -0.29168220551422758 -0.031712424564627181 0 -0.28454894695726629 -0.049462961487513717 0 -0.30528165162877768 -0.051665770572735331 0 -0.28454894695726629 -0.049462961487513717 0 -0.29244193454514372 -0.066803425177083001 0 -0.28454894695726629 -0.049462961487513717 0 -0.27761751511788418 -0.066961551183906121 0 -0.29244193454514372 -0.066803425177083001 0 -0.2665170705308082 -0.046282204978945127 0 -0.27761751511788418 -0.066961551183906121 0 -0.28454894695726629 -0.049462961487513717 0 -0.2665170705308082 -0.046282204978945127 0 -0.27761751511788418 -0.066961551183906121 0 -0.2665170705308082 -0.046282204978945127 0 -0.26190401461426749 -0.070855655739992279 0 -0.27761751511788418 -0.066961551183906121 0 -0.27384371670170671 -0.028675515219102918 0 -0.28454894695726629 -0.049462961487513717 0 -0.2665170705308082 -0.046282204978945127 0 -0.2424439762167564 -0.043787450241019203 0 -0.25437700065985103 -0.02525094854927299 0 -0.2665170705308082 -0.046282204978945127 0 -0.25437700065985103 -0.02525094854927299 0 -0.27384371670170671 -0.028675515219102918 0 -0.2665170705308082 -0.046282204978945127 0 -0.24336531570479769 -0.065727331489220331 0 -0.2665170705308082 -0.046282204978945127 0 -0.26190401461426749 -0.070855655739992279 0 -0.24336531570479769 -0.065727331489220331 0 -0.2424439762167564 -0.043787450241019203 0 -0.2665170705308082 -0.046282204978945127 0 -0.24336531570479769 -0.065727331489220331 0 -0.26190401461426749 -0.070855655739992279 0 -0.25337569101513241 -0.084501502158025821 0 -0.26190401461426749 -0.070855655739992279 0 -0.25337569101513241 -0.084501502158025821 0 -0.26665952145714489 -0.087057309233605024 0 -0.24971090441552871 -0.096958464046099729 0 -0.25337569101513241 -0.084501502158025821 0 -0.26108217164898451 -0.097183901361724195 0 -0.25337569101513241 -0.084501502158025821 0 -0.26665952145714489 -0.087057309233605024 0 -0.26108217164898451 -0.097183901361724195 0 -0.26190401461426749 -0.070855655739992279 0 -0.26665952145714489 -0.087057309233605024 0 -0.27557175139898099 -0.081137034363003693 0 -0.27557175139898099 -0.081137034363003693 0 -0.27761751511788418 -0.066961551183906121 0 -0.28871795970496028 -0.087640897388867073 0 -0.26665952145714489 -0.087057309233605024 0 -0.27841882873313828 -0.092046374269760575 0 -0.27186647184734858 -0.098931854665899932 0 -0.26665952145714489 -0.087057309233605024 0 -0.27841882873313828 -0.092046374269760575 0 -0.27557175139898099 -0.081137034363003693 0 -0.27841882873313828 -0.092046374269760575 0 -0.27557175139898099 -0.081137034363003693 0 -0.28871795970496028 -0.087640897388867073 0 -0.26190401461426749 -0.070855655739992279 0 -0.27557175139898099 -0.081137034363003693 0 -0.27761751511788418 -0.066961551183906121 0 -0.2602953535867269 -0.11553034670823679 0 -0.26911083711160338 -0.11960384436840529 0 -0.25816117760555263 -0.1255307634636546 0 -0.25070980455925612 -0.1157637291888518 0 -0.2602953535867269 -0.11553034670823679 0 -0.25816117760555263 -0.1255307634636546 0 -0.2489309622580109 -0.1242303833033653 0 -0.25070980455925612 -0.1157637291888518 0 -0.25816117760555263 -0.1255307634636546 0 -0.24549039803179959 -0.1059939859931003 0 -0.25070980455925612 -0.1157637291888518 0 -0.2564685214683643 -0.1068446522750542 0 -0.25070980455925612 -0.1157637291888518 0 -0.2602953535867269 -0.11553034670823679 0 -0.2564685214683643 -0.1068446522750542 0 -0.2602953535867269 -0.11553034670823679 0 -0.26702642718885822 -0.10990874424521779 0 -0.26911083711160338 -0.11960384436840529 0 -0.2602953535867269 -0.11553034670823679 0 -0.2564685214683643 -0.1068446522750542 0 -0.26702642718885822 -0.10990874424521779 0 -0.2564685214683643 -0.1068446522750542 0 -0.26108217164898451 -0.097183901361724195 0 -0.26702642718885822 -0.10990874424521779 0 -0.24549039803179959 -0.1059939859931003 0 -0.24971090441552871 -0.096958464046099729 0 -0.2564685214683643 -0.1068446522750542 0 -0.24971090441552871 -0.096958464046099729 0 -0.2564685214683643 -0.1068446522750542 0 -0.26108217164898451 -0.097183901361724195 0 -0.26665952145714489 -0.087057309233605024 0 -0.26108217164898451 -0.097183901361724195 0 -0.27186647184734858 -0.098931854665899932 0 -0.27841882873313828 -0.092046374269760575 0 -0.27186647184734858 -0.098931854665899932 0 -0.28485156603242612 -0.10168580097865949 0 -0.27186647184734858 -0.098931854665899932 0 -0.27763997356974041 -0.1101604263327622 0 -0.28485156603242612 -0.10168580097865949 0 -0.26108217164898451 -0.097183901361724195 0 -0.27186647184734858 -0.098931854665899932 0 -0.26702642718885822 -0.10990874424521779 0 -0.27186647184734858 -0.098931854665899932 0 -0.26702642718885822 -0.10990874424521779 0 -0.27763997356974041 -0.1101604263327622 0 -0.26702642718885822 -0.10990874424521779 0 -0.27763997356974041 -0.1101604263327622 0 -0.26911083711160338 -0.11960384436840529 0 -0.27763997356974041 -0.1101604263327622 0 -0.26911083711160338 -0.11960384436840529 0 -0.28240949559094691 -0.1209547776230335 0 -0.26911083711160338 -0.11960384436840529 0 -0.28240949559094691 -0.1209547776230335 0 -0.26862893053779041 -0.133231444332227 0 -0.28240949559094691 -0.1209547776230335 0 -0.29935050584718031 -0.11317240169450569 0 -0.29076261401395248 -0.1352915928804358 0 -0.28240949559094691 -0.1209547776230335 0 -0.29057504364725878 -0.10987753611535719 0 -0.29935050584718031 -0.11317240169450569 0 -0.29935050584718031 -0.11317240169450569 0 -0.29076261401395248 -0.1352915928804358 0 -0.27763997356974041 -0.1101604263327622 0 -0.28240949559094691 -0.1209547776230335 0 -0.29057504364725878 -0.10987753611535719 0 -0.29057504364725878 -0.10987753611535719 0 -0.29981840429203582 -0.1083202435938284 0 -0.29935050584718031 -0.11317240169450569 0 -0.29981840429203582 -0.1083202435938284 0 -0.28871795970496028 -0.087640897388867073 0 -0.29981840429203582 -0.1083202435938284 0 -0.28871795970496028 -0.087640897388867073 0 -0.3013318630606886 -0.092625510463122035 0 -0.28485156603242612 -0.10168580097865949 0 -0.29981840429203582 -0.1083202435938284 0 -0.28871795970496028 -0.087640897388867073 0 -0.29057504364725878 -0.10987753611535719 0 -0.28485156603242612 -0.10168580097865949 0 -0.29981840429203582 -0.1083202435938284 0 -0.27763997356974041 -0.1101604263327622 0 -0.29057504364725878 -0.10987753611535719 0 -0.28485156603242612 -0.10168580097865949 0 -0.27841882873313828 -0.092046374269760575 0 -0.28485156603242612 -0.10168580097865949 0 -0.28871795970496028 -0.087640897388867073 0 -0.29981840429203582 -0.1083202435938284 0 -0.3013318630606886 -0.092625510463122035 0 -0.30064007422699363 -0.1098509567934603 0 -0.31052060539315868 -0.084402411082017584 0 -0.30064007422699363 -0.1098509567934603 0 -0.3013318630606886 -0.092625510463122035 0 -0.31052060539315868 -0.084402411082017584 0 -0.30064007422699363 -0.1098509567934603 0 -0.31052060539315868 -0.084402411082017584 0 -0.3260902512485529 -0.099558944449840425 0 -0.29981840429203582 -0.1083202435938284 0 -0.30064007422699363 -0.1098509567934603 0 -0.3013318630606886 -0.092625510463122035 0 -0.29981840429203582 -0.1083202435938284 0 -0.30064007422699363 -0.1098509567934603 0 -0.30064007422699363 -0.1098509567934603 0 -0.30570839022682478 -0.1192928724225614 0 -0.3260902512485529 -0.099558944449840425 0 -0.29935050584718031 -0.11317240169450569 0 -0.30064007422699363 -0.1098509567934603 0 -0.30570839022682478 -0.1192928724225614 0 -0.30064007422699363 -0.1098509567934603 0 -0.30570839022682478 -0.1192928724225614 0 -0.29981840429203582 -0.1083202435938284 0 -0.29935050584718031 -0.11317240169450569 0 -0.29981840429203582 -0.1083202435938284 0 -0.29935050584718031 -0.11317240169450569 0 -0.30064007422699363 -0.1098509567934603 0 -0.29935050584718031 -0.11317240169450569 0 -0.30064007422699363 -0.1098509567934603 0 -0.30671187394855282 -0.1211622918975932 0 -0.29983888914099138 -0.1249757838868354 0 -0.30815370012431431 -0.12542028008571471 0 -0.30570839022682478 -0.1192928724225614 0 -0.30671187394855282 -0.1211622918975932 0 -0.31407064313318062 -0.1195965130679109 0 -0.30570839022682478 -0.1192928724225614 0 -0.30671187394855282 -0.1211622918975932 0 -0.31153012226091198 -0.12298273144865809 0 -0.30671187394855282 -0.1211622918975932 0 -0.30815370012431431 -0.12542028008571471 0 -0.31153012226091198 -0.12298273144865809 0 -0.30671187394855282 -0.1211622918975932 0 -0.31407064313318062 -0.1195965130679109 0 -0.29935050584718031 -0.11317240169450569 0 -0.30570839022682478 -0.1192928724225614 0 -0.29983888914099138 -0.1249757838868354 0 -0.30570839022682478 -0.1192928724225614 0 -0.29983888914099138 -0.1249757838868354 0 -0.30570839022682478 -0.1192928724225614 0 -0.30671187394855282 -0.1211622918975932 0 -0.29983888914099138 -0.1249757838868354 0 -0.27761751511788418 -0.066961551183906121 0 -0.28871795970496028 -0.087640897388867073 0 -0.27761751511788418 -0.066961551183906121 0 -0.29215639502376711 -0.077503896622655694 0 -0.28871795970496028 -0.087640897388867073 0 -0.29215639502376711 -0.077503896622655694 0 -0.29244193454514372 -0.066803425177083001 0 -0.30284532182934271 -0.076930777332415795 0 -0.27761751511788418 -0.066961551183906121 0 -0.29215639502376711 -0.077503896622655694 0 -0.29244193454514372 -0.066803425177083001 0 -0.29215639502376711 -0.077503896622655694 0 -0.28871795970496028 -0.087640897388867073 0 -0.3013318630606886 -0.092625510463122035 0 -0.29215639502376711 -0.077503896622655694 0 -0.3013318630606886 -0.092625510463122035 0 -0.30284532182934271 -0.076930777332415795 0 -0.3013318630606886 -0.092625510463122035 0 -0.31052060539315868 -0.084402411082017584 0 -0.30284532182934271 -0.076930777332415795 0 -0.3013318630606886 -0.092625510463122035 0 -0.30284532182934271 -0.076930777332415795 0 -0.31052060539315868 -0.084402411082017584 0 -0.30284532182934271 -0.076930777332415795 0 -0.30528165162877768 -0.051665770572735331 0 -0.29244193454514372 -0.066803425177083001 0 -0.30284532182934271 -0.076930777332415795 0 -0.30528165162877768 -0.051665770572735331 0 -0.30284532182934271 -0.076930777332415795 0 -0.32034990890216708 -0.0590858086186586 0 -0.31052060539315868 -0.084402411082017584 0 -0.30284532182934271 -0.076930777332415795 0 -0.32034990890216708 -0.0590858086186586 0 -0.30528165162877768 -0.051665770572735331 0 -0.30284532182934271 -0.076930777332415795 0 -0.29244193454514372 -0.066803425177083001 0 -0.30284532182934271 -0.076930777332415795 0 -0.31052060539315868 -0.084402411082017584 0 -0.32875676548461102 -0.076496011358249433 0 -0.32034990890216708 -0.0590858086186586 0 -0.31052060539315868 -0.084402411082017584 0 -0.32034990890216708 -0.0590858086186586 0 -0.31052060539315868 -0.084402411082017584 0 -0.32875676548461102 -0.076496011358249433 0 -0.3260902512485529 -0.099558944449840425 0 -0.31052060539315868 -0.084402411082017584 0 -0.3260902512485529 -0.099558944449840425 0 -0.32875676548461102 -0.076496011358249433 0 -0.3260902512485529 -0.099558944449840425 0 -0.34590053041713342 -0.080378427920192355 0 -0.3260902512485529 -0.099558944449840425 0 -0.34590053041713342 -0.080378427920192355 0 -0.3260902512485529 -0.099558944449840425 0 -0.34676683452670831 -0.096490792336774378 0 -0.34590053041713342 -0.080378427920192355 0 -0.32875676548461102 -0.076496011358249433 0 -0.32034990890216708 -0.0590858086186586 0 -0.34092253146204238 -0.05905446472053856 0 -0.32875676548461102 -0.076496011358249433 0 -0.34590053041713342 -0.080378427920192355 0 -0.34092253146204238 -0.05905446472053856 0 -0.30570839022682478 -0.1192928724225614 0 -0.3260902512485529 -0.099558944449840425 0 -0.30570839022682478 -0.1192928724225614 0 -0.32121209559422642 -0.1132059800106886 0 -0.3260902512485529 -0.099558944449840425 0 -0.32113876393527441 -0.1212046785429227 0 -0.32912707619935322 -0.11888876585185509 0 -0.3257773897067513 -0.12696083631139321 0 -0.32113876393527441 -0.1212046785429227 0 -0.32121209559422642 -0.1132059800106886 0 -0.32912707619935322 -0.11888876585185509 0 -0.32113876393527441 -0.1212046785429227 0 -0.31407064313318062 -0.1195965130679109 0 -0.31550661504286021 -0.12737129747276579 0 -0.30570839022682478 -0.1192928724225614 0 -0.31407064313318062 -0.1195965130679109 0 -0.32121209559422642 -0.1132059800106886 0 -0.32113876393527441 -0.1212046785429227 0 -0.31407064313318062 -0.1195965130679109 0 -0.32121209559422642 -0.1132059800106886 0 -0.31153012226091198 -0.12298273144865809 0 -0.31407064313318062 -0.1195965130679109 0 -0.31550661504286021 -0.12737129747276579 0 -0.3260902512485529 -0.099558944449840425 0 -0.33838987137686549 -0.1115322163288426 0 -0.34676683452670831 -0.096490792336774378 0 -0.32121209559422642 -0.1132059800106886 0 -0.3260902512485529 -0.099558944449840425 0 -0.33838987137686549 -0.1115322163288426 0 -0.3260902512485529 -0.099558944449840425 0 -0.33838987137686549 -0.1115322163288426 0 -0.32121209559422642 -0.1132059800106886 0 -0.33838987137686549 -0.1115322163288426 0 -0.32912707619935322 -0.11888876585185509 0 -0.33838987137686549 -0.1115322163288426 0 -0.33645206971597641 -0.12306835146609681 0 -0.3506894915051797 -0.1235054882078431 0 -0.33838987137686549 -0.1115322163288426 0 -0.33645206971597641 -0.12306835146609681 0 -0.32912707619935322 -0.11888876585185509 0 -0.33645206971597641 -0.12306835146609681 0 -0.32912707619935322 -0.11888876585185509 0 -0.3257773897067513 -0.12696083631139321 0 -0.33838987137686549 -0.1115322163288426 0 -0.3506894915051797 -0.1235054882078431 0 -0.35841265480373019 -0.10632050082420511 0 -0.33838987137686549 -0.1115322163288426 0 -0.3506894915051797 -0.1235054882078431 0 -0.35841265480373019 -0.10632050082420511 0 -0.34676683452670831 -0.096490792336774378 0 -0.36504086478725972 -0.08466387216079152 0 -0.33838987137686549 -0.1115322163288426 0 -0.35841265480373019 -0.10632050082420511 0 -0.34676683452670831 -0.096490792336774378 0 -0.35841265480373019 -0.10632050082420511 0 -0.36504086478725972 -0.08466387216079152 0 -0.38054174058850881 -0.099067238422367254 0 -0.35841265480373019 -0.10632050082420511 0 -0.37071750949614313 -0.12569597969797369 0 -0.38054174058850881 -0.099067238422367254 0 -0.3506894915051797 -0.1235054882078431 0 -0.35841265480373019 -0.10632050082420511 0 -0.37071750949614313 -0.12569597969797369 0 -0.34590053041713342 -0.080378427920192355 0 -0.36504086478725972 -0.08466387216079152 0 -0.36571080958571378 -0.061197911390544431 0 -0.34590053041713342 -0.080378427920192355 0 -0.36571080958571378 -0.061197911390544431 0 -0.34590053041713342 -0.080378427920192355 0 -0.36571080958571378 -0.061197911390544431 0 -0.34092253146204238 -0.05905446472053856 0 -0.34676683452670831 -0.096490792336774378 0 -0.34590053041713342 -0.080378427920192355 0 -0.36504086478725972 -0.08466387216079152 0 -0.36504086478725972 -0.08466387216079152 0 -0.36571080958571378 -0.061197911390544431 0 -0.39258723976806498 -0.071571852114322571 0 -0.36571080958571378 -0.061197911390544431 0 -0.35524372047347141 -0.038028690133064397 0 -0.38552108875429431 -0.042017394860896513 0 -0.36571080958571378 -0.061197911390544431 0 -0.35524372047347141 -0.038028690133064397 0 -0.34092253146204238 -0.05905446472053856 0 -0.35524372047347141 -0.038028690133064397 0 -0.36899913698722853 -0.020285415498841441 0 -0.38552108875429431 -0.042017394860896513 0 -0.36899913698722853 -0.020285415498841441 0 -0.3726509171759278 -0.0042871194606509278 0 -0.36241518134319989 -0.0066877441878053466 0 -0.36899913698722853 -0.020285415498841441 0 -0.36241518134319989 -0.0066877441878053466 0 -0.35334194143049752 -0.01267605704233035 0 -0.3726509171759278 -0.0042871194606509278 0 -0.36241518134319989 -0.0066877441878053466 0 -0.36524667940101929 0.001494106089630491 0 -0.36241518134319989 -0.0066877441878053466 0 -0.35707862334528662 0.002397725235558461 0 -0.36524667940101929 0.001494106089630491 0 -0.35334194143049752 -0.01267605704233035 0 -0.34572501347511109 -0.025197119151390689 0 -0.34000851592018583 -0.0084526036919412573 0 -0.35334194143049752 -0.01267605704233035 0 -0.35707862334528662 0.002397725235558461 0 -0.35053270008252568 0.00024745909662373121 0 -0.35334194143049752 -0.01267605704233035 0 -0.35707862334528662 0.002397725235558461 0 -0.36241518134319989 -0.0066877441878053466 0 -0.35334194143049752 -0.01267605704233035 0 -0.35707862334528662 0.002397725235558461 0 -0.35334194143049752 -0.01267605704233035 0 -0.34000851592018583 -0.0084526036919412573 0 -0.35053270008252568 0.00024745909662373121 0 -0.35524372047347141 -0.038028690133064397 0 -0.36899913698722853 -0.020285415498841441 0 -0.34572501347511109 -0.025197119151390689 0 -0.36899913698722853 -0.020285415498841441 0 -0.35334194143049752 -0.01267605704233035 0 -0.34572501347511109 -0.025197119151390689 0 -0.34572501347511109 -0.025197119151390689 0 -0.34000851592018583 -0.0084526036919412573 0 -0.33017921241117643 -0.033769206155300033 0 -0.34000851592018583 -0.0084526036919412573 0 -0.33017921241117643 -0.033769206155300033 0 -0.34000851592018583 -0.0084526036919412573 0 -0.32256000771720261 -0.0150820229744968 0 -0.33017921241117643 -0.033769206155300033 0 -0.34000851592018583 -0.0084526036919412573 0 -0.32256000771720261 -0.0150820229744968 0 -0.32999606532842318 0.0078641208590209677 0 -0.30771798142821333 -0.026400763813054919 0 -0.31015431122765103 -0.0011357570533747129 0 -0.32256000771720261 -0.0150820229744968 0 -0.31015431122765103 -0.0011357570533747129 0 -0.32256000771720261 -0.0150820229744968 0 -0.32999606532842318 0.0078641208590209677 0 -0.30771798142821333 -0.026400763813054919 0 -0.32256000771720261 -0.0150820229744968 0 -0.33017921241117643 -0.033769206155300033 0 -0.31576324030239489 -0.040653424844253848 0 -0.32034990890216708 -0.0590858086186586 0 -0.33017921241117643 -0.033769206155300033 0 -0.32034990890216708 -0.0590858086186586 0 -0.33017921241117643 -0.033769206155300033 0 -0.30771798142821333 -0.026400763813054919 0 -0.31576324030239489 -0.040653424844253848 0 -0.33017921241117643 -0.033769206155300033 0 -0.30528165162877768 -0.051665770572735331 0 -0.31576324030239489 -0.040653424844253848 0 -0.32034990890216708 -0.0590858086186586 0 -0.32034990890216708 -0.0590858086186586 0 -0.34092253146204238 -0.05905446472053856 0 -0.33017921241117643 -0.033769206155300033 0 -0.35524372047347141 -0.038028690133064397 0 -0.34092253146204238 -0.05905446472053856 0 -0.33017921241117643 -0.033769206155300033 0 -0.35524372047347141 -0.038028690133064397 0 -0.34572501347511109 -0.025197119151390689 0 -0.33017921241117643 -0.033769206155300033 0 -0.30401873591413647 -0.24546533437633369 0 -0.29668121857547219 -0.23120469773345731 0 -0.31499835545508431 -0.23151030138369399 0 -0.30401873591413647 -0.24546533437633369 0 -0.29668121857547219 -0.23120469773345731 0 -0.31659653321669018 -0.25755681406275349 0 -0.30401873591413647 -0.24546533437633369 0 -0.31640456271018519 -0.24484152662589109 0 -0.30401873591413647 -0.24546533437633369 0 -0.31499835545508431 -0.23151030138369399 0 -0.31640456271018519 -0.24484152662589109 0 -0.30637986302314069 -0.21893006648055471 0 -0.29668121857547219 -0.23120469773345731 0 -0.28934370123681091 -0.21694406109057929 0 -0.30637986302314069 -0.21893006648055471 0 -0.29668121857547219 -0.23120469773345731 0 -0.31499835545508431 -0.23151030138369399 0 -0.28687591237524018 -0.24253530176891069 0 -0.27228727320874052 -0.2282138987346449 0 -0.28934370123681091 -0.21694406109057929 0 -0.28687591237524018 -0.24253530176891069 0 -0.28934370123681091 -0.21694406109057929 0 -0.29668121857547219 -0.23120469773345731 0 -0.28687591237524018 -0.24253530176891069 0 -0.28934370123681091 -0.21694406109057929 0 -0.29668121857547219 -0.23120469773345731 0 -0.28934370123681091 -0.21694406109057929 0 -0.30401873591413647 -0.24546533437633369 0 -0.29668121857547219 -0.23120469773345731 0 -0.28687591237524018 -0.24253530176891069 0 -0.29458154172358941 -0.25465892743969759 0 -0.30401873591413647 -0.24546533437633369 0 -0.28687591237524018 -0.24253530176891069 0 -0.28687591237524018 -0.24253530176891069 0 -0.27027951111711762 -0.24829868529917781 0 -0.27228727320874052 -0.2282138987346449 0 -0.27027951111711762 -0.24829868529917781 0 -0.25072384826432742 -0.23841644955799321 0 -0.27228727320874052 -0.2282138987346449 0 -0.25072384826432742 -0.23841644955799321 0 -0.26140406522060639 -0.2109082129208083 0 -0.24527721666347321 -0.21256379641157161 0 -0.25072384826432742 -0.23841644955799321 0 -0.26140406522060639 -0.2109082129208083 0 -0.25072384826432742 -0.23841644955799321 0 -0.27228727320874052 -0.2282138987346449 0 -0.26140406522060639 -0.2109082129208083 0 -0.27228727320874052 -0.2282138987346449 0 -0.27593725784325052 -0.2140595478582841 0 -0.28934370123681091 -0.21694406109057929 0 -0.27593725784325052 -0.2140595478582841 0 -0.26140406522060639 -0.2109082129208083 0 -0.28071399170684708 -0.20017201868710219 0 -0.27228727320874052 -0.2282138987346449 0 -0.27593725784325052 -0.2140595478582841 0 -0.26140406522060639 -0.2109082129208083 0 -0.24527721666347321 -0.21256379641157161 0 -0.26140406522060639 -0.2109082129208083 0 -0.25236195113672338 -0.1919112964829979 0 -0.26140406522060639 -0.2109082129208083 0 -0.25236195113672338 -0.1919112964829979 0 -0.27208428217688613 -0.1833999762836237 0 -0.26140406522060639 -0.2109082129208083 0 -0.28071399170684708 -0.20017201868710219 0 -0.27208428217688613 -0.1833999762836237 0 -0.28071399170684708 -0.20017201868710219 0 -0.28031175384305951 -0.1843676486373538 0 -0.27208428217688613 -0.1833999762836237 0 -0.28071399170684708 -0.20017201868710219 0 -0.27208428217688613 -0.1833999762836237 0 -0.26140406522060639 -0.2109082129208083 0 -0.27208428217688613 -0.1833999762836237 0 -0.28934370123681091 -0.21694406109057929 0 -0.29224242304910031 -0.18688399853309789 0 -0.28071399170684708 -0.20017201868710219 0 -0.28503488555435608 -0.19151543051666531 0 -0.28031175384305951 -0.1843676486373538 0 -0.28503488555435608 -0.19151543051666531 0 -0.28934370123681091 -0.21694406109057929 0 -0.29224242304910031 -0.18688399853309789 0 -0.28071399170684708 -0.20017201868710219 0 -0.28503488555435608 -0.19151543051666531 0 -0.28934370123681091 -0.21694406109057929 0 -0.27593725784325052 -0.2140595478582841 0 -0.28071399170684708 -0.20017201868710219 0 -0.28934370123681091 -0.21694406109057929 0 -0.28071399170684708 -0.20017201868710219 0 -0.28934370123681091 -0.21694406109057929 0 -0.30637986302314069 -0.21893006648055471 0 -0.28934370123681091 -0.21694406109057929 0 -0.31163935630926343 -0.20364036687094611 0 -0.31163935630926343 -0.20364036687094611 0 -0.29224242304910031 -0.18688399853309789 0 -0.31163935630926343 -0.20364036687094611 0 -0.31213242737901309 -0.18035654736000339 0 -0.29224242304910031 -0.18688399853309789 0 -0.28934370123681091 -0.21694406109057929 0 -0.31163935630926343 -0.20364036687094611 0 -0.29224242304910031 -0.18688399853309789 0 -0.31213242737901309 -0.18035654736000339 0 -0.29410581392002377 -0.16756043118962649 0 -0.29224242304910031 -0.18688399853309789 0 -0.31213242737901309 -0.18035654736000339 0 -0.31231663401071158 -0.15693733123326081 0 -0.29410581392002377 -0.16756043118962649 0 -0.31231663401071158 -0.15693733123326081 0 -0.29410581392002377 -0.16756043118962649 0 -0.29410581392002377 -0.16756043118962649 0 -0.28217472218071932 -0.15741078406636369 0 -0.27358683034749193 -0.17952997525229389 0 -0.29410581392002377 -0.16756043118962649 0 -0.29224242304910031 -0.18688399853309789 0 -0.29410581392002377 -0.16756043118962649 0 -0.28031175384305951 -0.1843676486373538 0 -0.27358683034749193 -0.17952997525229389 0 -0.29410581392002377 -0.16756043118962649 0 -0.29224242304910031 -0.18688399853309789 0 -0.28856990491777418 -0.18371143173035509 0 -0.29410581392002377 -0.16756043118962649 0 -0.28856990491777418 -0.18371143173035509 0 -0.28031175384305951 -0.1843676486373538 0 -0.29410581392002377 -0.16756043118962649 0 -0.27358683034749193 -0.17952997525229389 0 -0.29224242304910031 -0.18688399853309789 0 -0.28856990491777418 -0.18371143173035509 0 -0.28503488555435608 -0.19151543051666531 0 -0.28856990491777418 -0.18371143173035509 0 -0.28031175384305951 -0.1843676486373538 0 -0.28503488555435608 -0.19151543051666531 0 -0.29224242304910031 -0.18688399853309789 0 -0.28856990491777418 -0.18371143173035509 0 -0.28031175384305951 -0.1843676486373538 0 -0.27358683034749193 -0.17952997525229389 0 -0.27208428217688613 -0.1833999762836237 0 -0.27358683034749193 -0.17952997525229389 0 -0.27089961008197838 -0.1810975383462827 0 -0.26839912481327938 -0.1668160671684307 0 -0.27208428217688613 -0.1833999762836237 0 -0.27089961008197838 -0.1810975383462827 0 -0.27358683034749193 -0.17952997525229389 0 -0.27208428217688613 -0.1833999762836237 0 -0.27089961008197838 -0.1810975383462827 0 -0.27358683034749193 -0.17952997525229389 0 -0.27089961008197838 -0.1810975383462827 0 -0.27358683034749193 -0.17952997525229389 0 -0.27208428217688613 -0.1833999762836237 0 -0.25236195113672338 -0.1919112964829979 0 -0.27089961008197838 -0.1810975383462827 0 -0.25236195113672338 -0.1919112964829979 0 -0.27089961008197838 -0.1810975383462827 0 -0.25438837735015563 -0.17408901105307889 0 -0.25236195113672338 -0.1919112964829979 0 -0.27208428217688613 -0.1833999762836237 0 -0.27089961008197838 -0.1810975383462827 0 -0.27089961008197838 -0.1810975383462827 0 -0.25438837735015563 -0.17408901105307889 0 -0.25828471235426331 -0.1565801894285449 0 -0.245232381934577 -0.1660834696861731 0 -0.25438837735015563 -0.17408901105307889 0 -0.25828471235426331 -0.1565801894285449 0 -0.27089961008197838 -0.1810975383462827 0 -0.25828471235426331 -0.1565801894285449 0 -0.25828471235426331 -0.1565801894285449 0 -0.26839912481327938 -0.1668160671684307 0 -0.27089961008197838 -0.1810975383462827 0 -0.25828471235426331 -0.1565801894285449 0 -0.26839912481327938 -0.1668160671684307 0 -0.28217472218071932 -0.15741078406636369 0 -0.27358683034749193 -0.17952997525229389 0 -0.28217472218071932 -0.15741078406636369 0 -0.26839912481327938 -0.1668160671684307 0 -0.27108920438673562 -0.14858567909264611 0 -0.28217472218071932 -0.15741078406636369 0 -0.27358683034749193 -0.17952997525229389 0 -0.26839912481327938 -0.1668160671684307 0 -0.25828471235426331 -0.1565801894285449 0 -0.26839912481327938 -0.1668160671684307 0 -0.27108920438673562 -0.14858567909264611 0 -0.27108920438673562 -0.14858567909264611 0 -0.25828512242040869 -0.14218399667987491 0 -0.26862893053779041 -0.133231444332227 0 -0.24654581804579309 -0.13376537365426189 0 -0.25828471235426331 -0.1565801894285449 0 -0.25828471235426331 -0.1565801894285449 0 -0.27108920438673562 -0.14858567909264611 0 -0.25828512242040869 -0.14218399667987491 0 -0.24251306179481419 -0.14061913508783591 0 -0.25828471235426331 -0.1565801894285449 0 -0.24654581804579309 -0.13376537365426189 0 -0.25828471235426331 -0.1565801894285449 0 -0.25828512242040869 -0.14218399667987491 0 -0.2489309622580109 -0.1242303833033653 0 -0.25528788062344721 -0.1334307270018126 0 -0.25816117760555263 -0.1255307634636546 0 -0.24654581804579309 -0.13376537365426189 0 -0.2489309622580109 -0.1242303833033653 0 -0.25528788062344721 -0.1334307270018126 0 -0.24654581804579309 -0.13376537365426189 0 -0.25828512242040869 -0.14218399667987491 0 -0.25528788062344721 -0.1334307270018126 0 -0.25828512242040869 -0.14218399667987491 0 -0.25528788062344721 -0.1334307270018126 0 -0.26862893053779041 -0.133231444332227 0 -0.26911083711160338 -0.11960384436840529 0 -0.25816117760555263 -0.1255307634636546 0 -0.26862893053779041 -0.133231444332227 0 -0.25528788062344721 -0.1334307270018126 0 -0.25816117760555263 -0.1255307634636546 0 -0.26862893053779041 -0.133231444332227 0 -0.28240949559094691 -0.1209547776230335 0 -0.26862893053779041 -0.133231444332227 0 -0.29076261401395248 -0.1352915928804358 0 -0.27108920438673562 -0.14858567909264611 0 -0.26862893053779041 -0.133231444332227 0 -0.29076261401395248 -0.1352915928804358 0 -0.29935050584718031 -0.11317240169450569 0 -0.29076261401395248 -0.1352915928804358 0 -0.29672815988360601 -0.1403664164420666 0 -0.29410581392002377 -0.16756043118962649 0 -0.29672815988360601 -0.1403664164420666 0 -0.28217472218071932 -0.15741078406636369 0 -0.29076261401395248 -0.1352915928804358 0 -0.28217472218071932 -0.15741078406636369 0 -0.29076261401395248 -0.1352915928804358 0 -0.29672815988360601 -0.1403664164420666 0 -0.29410581392002377 -0.16756043118962649 0 -0.28217472218071932 -0.15741078406636369 0 -0.29672815988360601 -0.1403664164420666 0 -0.28217472218071932 -0.15741078406636369 0 -0.27108920438673562 -0.14858567909264611 0 -0.29076261401395248 -0.1352915928804358 0 -0.31231663401071158 -0.15693733123326081 0 -0.29672815988360601 -0.1403664164420666 0 -0.31632206150055597 -0.1458754985724641 0 -0.31231663401071158 -0.15693733123326081 0 -0.29410581392002377 -0.16756043118962649 0 -0.29672815988360601 -0.1403664164420666 0 -0.29672815988360601 -0.1403664164420666 0 -0.31250138375919179 -0.13636930031260561 0 -0.31632206150055597 -0.1458754985724641 0 -0.29935050584718031 -0.11317240169450569 0 -0.29983888914099138 -0.1249757838868354 0 -0.29672815988360601 -0.1403664164420666 0 -0.29935050584718031 -0.11317240169450569 0 -0.29672815988360601 -0.1403664164420666 0 -0.29672815988360601 -0.1403664164420666 0 -0.30687373335935447 -0.1300586150464195 0 -0.31250138375919179 -0.13636930031260561 0 -0.29983888914099138 -0.1249757838868354 0 -0.30687373335935447 -0.1300586150464195 0 -0.30815370012431431 -0.12542028008571471 0 -0.30687373335935447 -0.1300586150464195 0 -0.31550661504286021 -0.12737129747276579 0 -0.31250138375919179 -0.13636930031260561 0 -0.30687373335935447 -0.1300586150464195 0 -0.30815370012431431 -0.12542028008571471 0 -0.31550661504286021 -0.12737129747276579 0 -0.31153012226091198 -0.12298273144865809 0 -0.30815370012431431 -0.12542028008571471 0 -0.31550661504286021 -0.12737129747276579 0 -0.29983888914099138 -0.1249757838868354 0 -0.29672815988360601 -0.1403664164420666 0 -0.30687373335935447 -0.1300586150464195 0 -0.32113876393527441 -0.1212046785429227 0 -0.3257773897067513 -0.12696083631139321 0 -0.31550661504286021 -0.12737129747276579 0 -0.32347658647870359 -0.13778516290051759 0 -0.3257773897067513 -0.12696083631139321 0 -0.31550661504286021 -0.12737129747276579 0 -0.32347658647870359 -0.13778516290051759 0 -0.31550661504286021 -0.12737129747276579 0 -0.31250138375919179 -0.13636930031260561 0 -0.32347658647870359 -0.13778516290051759 0 -0.31250138375919179 -0.13636930031260561 0 -0.31632206150055597 -0.1458754985724641 0 -0.31231663401071158 -0.15693733123326081 0 -0.31632206150055597 -0.1458754985724641 0 -0.33052745410141138 -0.1463142312769157 0 -0.31231663401071158 -0.15693733123326081 0 -0.33052745410141138 -0.1463142312769157 0 -0.33582423820278778 -0.1582422127495956 0 -0.31231663401071158 -0.15693733123326081 0 -0.33052745410141138 -0.1463142312769157 0 -0.32347658647870359 -0.13778516290051759 0 -0.31632206150055597 -0.1458754985724641 0 -0.33052745410141138 -0.1463142312769157 0 -0.33052745410141138 -0.1463142312769157 0 -0.34228213779606598 -0.14580946084917309 0 -0.33582423820278778 -0.1582422127495956 0 -0.33052745410141138 -0.1463142312769157 0 -0.34228213779606598 -0.14580946084917309 0 -0.3376028637442316 -0.1344052422800816 0 -0.32347658647870359 -0.13778516290051759 0 -0.3257773897067513 -0.12696083631139321 0 -0.3376028637442316 -0.1344052422800816 0 -0.32347658647870359 -0.13778516290051759 0 -0.33052745410141138 -0.1463142312769157 0 -0.3376028637442316 -0.1344052422800816 0 -0.33645206971597641 -0.12306835146609681 0 -0.3257773897067513 -0.12696083631139321 0 -0.3376028637442316 -0.1344052422800816 0 -0.33645206971597641 -0.12306835146609681 0 -0.3506894915051797 -0.1235054882078431 0 -0.3376028637442316 -0.1344052422800816 0 -0.3506894915051797 -0.1235054882078431 0 -0.35363640616744169 -0.1358047554622806 0 -0.37071750949614313 -0.12569597969797369 0 -0.34228213779606598 -0.14580946084917309 0 -0.3376028637442316 -0.1344052422800816 0 -0.35363640616744169 -0.1358047554622806 0 -0.3506894915051797 -0.1235054882078431 0 -0.3376028637442316 -0.1344052422800816 0 -0.35363640616744169 -0.1358047554622806 0 -0.35363640616744169 -0.1358047554622806 0 -0.37071750949614313 -0.12569597969797369 0 -0.36680666286690738 -0.14647999565409761 0 -0.34228213779606598 -0.14580946084917309 0 -0.36680666286690738 -0.14647999565409761 0 -0.36049137084903021 -0.16739093492521651 0 -0.34228213779606598 -0.14580946084917309 0 -0.35363640616744169 -0.1358047554622806 0 -0.36680666286690738 -0.14647999565409761 0 -0.34228213779606598 -0.14580946084917309 0 -0.36049137084903021 -0.16739093492521651 0 -0.33582423820278778 -0.1582422127495956 0 -0.34228213779606598 -0.14580946084917309 0 -0.36049137084903021 -0.16739093492521651 0 -0.36680666286690738 -0.14647999565409761 0 -0.36049137084903021 -0.16739093492521651 0 -0.38013457174529541 -0.16202959899375111 0 -0.36049137084903021 -0.16739093492521651 0 -0.37870060390199423 -0.18897240900125981 0 -0.36049137084903021 -0.16739093492521651 0 -0.348615572221251 -0.19480129121027809 0 -0.37870060390199423 -0.18897240900125981 0 -0.36049137084903021 -0.16739093492521651 0 -0.37870060390199423 -0.18897240900125981 0 -0.38013457174529541 -0.16202959899375111 0 -0.36049137084903021 -0.16739093492521651 0 -0.3335035942567196 -0.17475910546341181 0 -0.348615572221251 -0.19480129121027809 0 -0.36049137084903021 -0.16739093492521651 0 -0.3335035942567196 -0.17475910546341181 0 -0.33582423820278778 -0.1582422127495956 0 -0.31231663401071158 -0.15693733123326081 0 -0.3335035942567196 -0.17475910546341181 0 -0.33582423820278778 -0.1582422127495956 0 -0.31213242737901309 -0.18035654736000339 0 -0.31231663401071158 -0.15693733123326081 0 -0.3335035942567196 -0.17475910546341181 0 -0.31213242737901309 -0.18035654736000339 0 -0.3335035942567196 -0.17475910546341181 0 -0.32784296074173858 -0.19409573540754191 0 -0.31163935630926343 -0.20364036687094611 0 -0.31213242737901309 -0.18035654736000339 0 -0.32784296074173858 -0.19409573540754191 0 -0.31163935630926343 -0.20364036687094611 0 -0.32784296074173858 -0.19409573540754191 0 -0.33103628956942027 -0.22039673520880129 0 -0.31163935630926343 -0.20364036687094611 0 -0.33103628956942027 -0.22039673520880129 0 -0.30637986302314069 -0.21893006648055471 0 -0.31163935630926343 -0.20364036687094611 0 -0.33103628956942027 -0.22039673520880129 0 -0.3335035942567196 -0.17475910546341181 0 -0.32784296074173858 -0.19409573540754191 0 -0.348615572221251 -0.19480129121027809 0 -0.32784296074173858 -0.19409573540754191 0 -0.348615572221251 -0.19480129121027809 0 -0.33103628956942027 -0.22039673520880129 0 -0.35700843436735852 -0.21375627950719561 0 -0.37625648331454958 -0.22745785856898251 0 -0.37870060390199423 -0.18897240900125981 0 -0.348615572221251 -0.19480129121027809 0 -0.35700843436735852 -0.21375627950719561 0 -0.37870060390199423 -0.18897240900125981 0 -0.348615572221251 -0.19480129121027809 0 -0.35700843436735852 -0.21375627950719561 0 -0.33103628956942027 -0.22039673520880129 0 -0.35700843436735852 -0.21375627950719561 0 -0.35043322282957728 -0.2371531035466565 0 -0.33103628956942027 -0.22039673520880129 0 -0.35700843436735852 -0.21375627950719561 0 -0.35043322282957728 -0.2371531035466565 0 -0.37625648331454958 -0.22745785856898251 0 -0.36983015608973419 -0.25390947188451179 0 -0.35043322282957728 -0.2371531035466565 0 -0.36983015608973419 -0.25390947188451179 0 -0.35043322282957728 -0.2371531035466565 0 -0.37625648331454958 -0.22745785856898251 0 -0.34807838734227869 -0.25811203799629667 0 -0.36983015608973419 -0.25390947188451179 0 -0.35043322282957728 -0.2371531035466565 0 -0.34807838734227869 -0.25811203799629667 0 -0.35043322282957728 -0.2371531035466565 0 -0.3300046262548299 -0.24483365668078319 0 -0.35043322282957728 -0.2371531035466565 0 -0.3300046262548299 -0.24483365668078319 0 -0.33103628956942027 -0.22039673520880129 0 -0.35043322282957728 -0.2371531035466565 0 -0.33103628956942027 -0.22039673520880129 0 -0.30637986302314069 -0.21893006648055471 0 -0.33103628956942027 -0.22039673520880129 0 -0.31499835545508431 -0.23151030138369399 0 -0.3300046262548299 -0.24483365668078319 0 -0.33103628956942027 -0.22039673520880129 0 -0.31499835545508431 -0.23151030138369399 0 -0.31659653321669018 -0.25755681406275349 0 -0.3300046262548299 -0.24483365668078319 0 -0.31640456271018519 -0.24484152662589109 0 -0.3300046262548299 -0.24483365668078319 0 -0.31499835545508431 -0.23151030138369399 0 -0.31640456271018519 -0.24484152662589109 0 -0.42000328436744028 -0.25335409995795077 0 -0.4367077728136779 -0.23294460943889089 0 -0.43927174221576148 -0.25208391209016778 0 -0.42000328436744028 -0.25335409995795077 0 -0.4367077728136779 -0.23294460943889089 0 -0.42000328436744028 -0.25335409995795077 0 -0.4367077728136779 -0.23294460943889089 0 -0.4214579082251293 -0.22394455670044261 0 -0.4367077728136779 -0.23294460943889089 0 -0.4214579082251293 -0.22394455670044261 0 -0.4362363080227124 -0.21120797898905311 0 -0.4214579082251293 -0.22394455670044261 0 -0.41078338772165912 -0.23265331082458621 0 -0.39690983695495829 -0.21055388307730311 0 -0.42000328436744028 -0.25335409995795077 0 -0.41078338772165912 -0.23265331082458621 0 -0.41228915616382261 -0.24953313471748659 0 -0.42000328436744028 -0.25335409995795077 0 -0.4214579082251293 -0.22394455670044261 0 -0.41078338772165912 -0.23265331082458621 0 -0.42000328436744028 -0.25335409995795077 0 -0.4214579082251293 -0.22394455670044261 0 -0.41078338772165912 -0.23265331082458621 0 -0.41228915616382261 -0.24953313471748659 0 -0.40325337519837501 -0.24785612878935209 0 -0.38865366959963482 -0.25001431328282347 0 -0.40325337519837501 -0.24785612878935209 0 -0.39556596183279352 -0.23324308848395189 0 -0.41078338772165912 -0.23265331082458621 0 -0.40325337519837501 -0.24785612878935209 0 -0.39556596183279352 -0.23324308848395189 0 -0.38865366959963482 -0.25001431328282347 0 -0.37625648331454958 -0.22745785856898251 0 -0.39556596183279352 -0.23324308848395189 0 -0.38865366959963482 -0.25001431328282347 0 -0.36983015608973419 -0.25390947188451179 0 -0.37625648331454958 -0.22745785856898251 0 -0.37625648331454958 -0.22745785856898251 0 -0.39556596183279352 -0.23324308848395189 0 -0.39690983695495829 -0.21055388307730311 0 -0.41078338772165912 -0.23265331082458621 0 -0.39556596183279352 -0.23324308848395189 0 -0.39690983695495829 -0.21055388307730311 0 -0.37625648331454958 -0.22745785856898251 0 -0.39690983695495829 -0.21055388307730311 0 -0.37870060390199423 -0.18897240900125981 0 -0.39690983695495829 -0.21055388307730311 0 -0.37870060390199423 -0.18897240900125981 0 -0.39690983695495829 -0.21055388307730311 0 -0.37870060390199423 -0.18897240900125981 0 -0.39918976079289309 -0.18958882794581189 0 -0.39690983695495829 -0.21055388307730311 0 -0.39918976079289309 -0.18958882794581189 0 -0.42291253208281843 -0.19453501344293431 0 -0.4214579082251293 -0.22394455670044261 0 -0.39690983695495829 -0.21055388307730311 0 -0.42291253208281843 -0.19453501344293431 0 -0.4214579082251293 -0.22394455670044261 0 -0.4362363080227124 -0.21120797898905311 0 -0.42291253208281843 -0.19453501344293431 0 -0.4214579082251293 -0.22394455670044261 0 -0.42291253208281843 -0.19453501344293431 0 -0.4362363080227124 -0.21120797898905311 0 -0.42291253208281843 -0.19453501344293431 0 -0.44669106573202128 -0.192080596443167 0 -0.42291253208281843 -0.19453501344293431 0 -0.4243671559405075 -0.165125470185426 0 -0.43848857122621338 -0.1669843304792179 0 -0.42291253208281843 -0.19453501344293431 0 -0.43848857122621338 -0.1669843304792179 0 -0.44669106573202128 -0.192080596443167 0 -0.42291253208281843 -0.19453501344293431 0 -0.4243671559405075 -0.165125470185426 0 -0.4243671559405075 -0.165125470185426 0 -0.43716769905328762 -0.14888770848455651 0 -0.43848857122621338 -0.1669843304792179 0 -0.4243671559405075 -0.165125470185426 0 -0.40900140180568523 -0.15762867323244489 0 -0.41030558170094689 -0.1757234610405638 0 -0.42291253208281843 -0.19453501344293431 0 -0.4243671559405075 -0.165125470185426 0 -0.41030558170094689 -0.1757234610405638 0 -0.39918976079289309 -0.18958882794581189 0 -0.42291253208281843 -0.19453501344293431 0 -0.41030558170094689 -0.1757234610405638 0 -0.39918976079289309 -0.18958882794581189 0 -0.41030558170094689 -0.1757234610405638 0 -0.39721467557183071 -0.17090770734298971 0 -0.37870060390199423 -0.18897240900125981 0 -0.39918976079289309 -0.18958882794581189 0 -0.39721467557183071 -0.17090770734298971 0 -0.37870060390199423 -0.18897240900125981 0 -0.38013457174529541 -0.16202959899375111 0 -0.39721467557183071 -0.17090770734298971 0 -0.38013457174529541 -0.16202959899375111 0 -0.39721467557183071 -0.17090770734298971 0 -0.3911212480325269 -0.14567944644061881 0 -0.40900140180568523 -0.15762867323244489 0 -0.39721467557183071 -0.17090770734298971 0 -0.3911212480325269 -0.14567944644061881 0 -0.40900140180568523 -0.15762867323244489 0 -0.41030558170094689 -0.1757234610405638 0 -0.39721467557183071 -0.17090770734298971 0 -0.40900140180568523 -0.15762867323244489 0 -0.3911212480325269 -0.14567944644061881 0 -0.41556682970599729 -0.14167779006090789 0 -0.36680666286690738 -0.14647999565409761 0 -0.38013457174529541 -0.16202959899375111 0 -0.3911212480325269 -0.14567944644061881 0 -0.37071750949614313 -0.12569597969797369 0 -0.36680666286690738 -0.14647999565409761 0 -0.3911212480325269 -0.14567944644061881 0 -0.37071750949614313 -0.12569597969797369 0 -0.3911212480325269 -0.14567944644061881 0 -0.39461008301172218 -0.12297541224525629 0 -0.3911212480325269 -0.14567944644061881 0 -0.41556682970599729 -0.14167779006090789 0 -0.39461008301172218 -0.12297541224525629 0 -0.41556682970599729 -0.14167779006090789 0 -0.39461008301172218 -0.12297541224525629 0 -0.41267078123875139 -0.1132865858272603 0 -0.4243671559405075 -0.165125470185426 0 -0.40900140180568523 -0.15762867323244489 0 -0.41556682970599729 -0.14167779006090789 0 -0.41556682970599729 -0.14167779006090789 0 -0.43716769905328762 -0.14888770848455651 0 -0.43844297564434842 -0.13204453278645201 0 -0.4243671559405075 -0.165125470185426 0 -0.41556682970599729 -0.14167779006090789 0 -0.43716769905328762 -0.14888770848455651 0 -0.41556682970599729 -0.14167779006090789 0 -0.43844297564434842 -0.13204453278645201 0 -0.41267078123875139 -0.1132865858272603 0 -0.43844297564434842 -0.13204453278645201 0 -0.45349670511650858 -0.13695653530917201 0 -0.45969885162518609 -0.1248443240432532 0 -0.43716769905328762 -0.14888770848455651 0 -0.43844297564434842 -0.13204453278645201 0 -0.45349670511650858 -0.13695653530917201 0 -0.43844297564434842 -0.13204453278645201 0 -0.45969885162518609 -0.1248443240432532 0 -0.43716769905328762 -0.14888770848455651 0 -0.45264395668615021 -0.15053759208616349 0 -0.43848857122621338 -0.1669843304792179 0 -0.43716769905328762 -0.14888770848455651 0 -0.45264395668615021 -0.15053759208616349 0 -0.45349670511650858 -0.13695653530917201 0 -0.45264395668615021 -0.15053759208616349 0 -0.46679934214608709 -0.13409085369310911 0 -0.45264395668615021 -0.15053759208616349 0 -0.46679934214608709 -0.13409085369310911 0 -0.47358190840333469 -0.1441871730360211 0 -0.45264395668615021 -0.15053759208616349 0 -0.47358190840333469 -0.1441871730360211 0 -0.47195732169728111 -0.15612680115048849 0 -0.45264395668615021 -0.15053759208616349 0 -0.46679934214608709 -0.13409085369310911 0 -0.45349670511650858 -0.13695653530917201 0 -0.46679934214608709 -0.13409085369310911 0 -0.45349670511650858 -0.13695653530917201 0 -0.45969885162518609 -0.1248443240432532 0 -0.46679934214608709 -0.13409085369310911 0 -0.48095472760602381 -0.1176441153000545 0 -0.46679934214608709 -0.13409085369310911 0 -0.45969885162518609 -0.1248443240432532 0 -0.48095472760602381 -0.1176441153000545 0 -0.46679934214608709 -0.13409085369310911 0 -0.48455781653138302 -0.13327928546415871 0 -0.48095472760602381 -0.1176441153000545 0 -0.46679934214608709 -0.13409085369310911 0 -0.48455781653138302 -0.13327928546415871 0 -0.47358190840333469 -0.1441871730360211 0 -0.5 -0.13969120193862031 0 -0.48455781653138302 -0.13327928546415871 0 -0.50000000000000422 -0.11119272572046721 0 -0.5 -0.13969120193862031 0 -0.48444771473734749 -0.15444025107312609 0 -0.5 -0.1681896781567733 0 -0.5 -0.13969120193862031 0 -0.48455781653138302 -0.13327928546415871 0 -0.48444771473734749 -0.15444025107312609 0 -0.48455781653138302 -0.13327928546415871 0 -0.48444771473734749 -0.15444025107312609 0 -0.47358190840333469 -0.1441871730360211 0 -0.48444771473734749 -0.15444025107312609 0 -0.47358190840333469 -0.1441871730360211 0 -0.47195732169728111 -0.15612680115048849 0 -0.48444771473734749 -0.15444025107312609 0 -0.47339416075497498 -0.16831947182861109 0 -0.48682123815238998 -0.17171613788171081 0 -0.48444771473734749 -0.15444025107312609 0 -0.47195732169728111 -0.15612680115048849 0 -0.47339416075497498 -0.16831947182861109 0 -0.48444771473734749 -0.15444025107312609 0 -0.48682123815238998 -0.17171613788171081 0 -0.5 -0.1681896781567733 0 -0.48682123815238998 -0.17171613788171081 0 -0.5 -0.1681896781567733 0 -0.48678296933375109 -0.18819019770924419 0 -0.5 -0.1681896781567733 0 -0.48678296933375109 -0.18819019770924419 0 -0.5 -0.19668815437492651 0 -0.47339416075497498 -0.16831947182861109 0 -0.48682123815238998 -0.17171613788171081 0 -0.47011674970615269 -0.1921256284007708 0 -0.48682123815238998 -0.17171613788171081 0 -0.47011674970615269 -0.1921256284007708 0 -0.48682123815238998 -0.17171613788171081 0 -0.47011674970615269 -0.1921256284007708 0 -0.48678296933375109 -0.18819019770924419 0 -0.45865936214253678 -0.17052312670469011 0 -0.44669106573202128 -0.192080596443167 0 -0.47011674970615269 -0.1921256284007708 0 -0.47339416075497498 -0.16831947182861109 0 -0.45865936214253678 -0.17052312670469011 0 -0.47011674970615269 -0.1921256284007708 0 -0.47195732169728111 -0.15612680115048849 0 -0.47339416075497498 -0.16831947182861109 0 -0.45865936214253678 -0.17052312670469011 0 -0.45264395668615021 -0.15053759208616349 0 -0.47195732169728111 -0.15612680115048849 0 -0.45865936214253678 -0.17052312670469011 0 -0.45264395668615021 -0.15053759208616349 0 -0.43848857122621338 -0.1669843304792179 0 -0.45264395668615021 -0.15053759208616349 0 -0.45865936214253678 -0.17052312670469011 0 -0.43848857122621338 -0.1669843304792179 0 -0.45865936214253678 -0.17052312670469011 0 -0.43848857122621338 -0.1669843304792179 0 -0.44669106573202128 -0.192080596443167 0 -0.4362363080227124 -0.21120797898905311 0 -0.44669106573202128 -0.192080596443167 0 -0.45341226125991529 -0.2125351189198309 0 -0.45341226125991529 -0.2125351189198309 0 -0.48063429779868461 -0.2126549738503615 0 -0.4656459924282832 -0.23018847163577039 0 -0.45341226125991529 -0.2125351189198309 0 -0.47011674970615269 -0.1921256284007708 0 -0.48063429779868461 -0.2126549738503615 0 -0.44669106573202128 -0.192080596443167 0 -0.45341226125991529 -0.2125351189198309 0 -0.47011674970615269 -0.1921256284007708 0 -0.45341226125991529 -0.2125351189198309 0 -0.47011674970615269 -0.1921256284007708 0 -0.47011674970615269 -0.1921256284007708 0 -0.48678296933375109 -0.18819019770924419 0 -0.48063429779868461 -0.2126549738503615 0 -0.48678296933375109 -0.18819019770924419 0 -0.5 -0.19668815437492651 0 -0.48063429779868461 -0.2126549738503615 0 -0.5 -0.19668815437492651 0 -0.48063429779868461 -0.2126549738503615 0 -0.5 -0.2251866305930795 0 -0.48063429779868461 -0.2126549738503615 0 -0.48140992144811862 -0.2447762604425387 0 -0.4656459924282832 -0.23018847163577039 0 -0.48063429779868461 -0.2126549738503615 0 -0.5 -0.2251866305930795 0 -0.48140992144811862 -0.2447762604425387 0 -0.50000000000000033 -0.25368510681123269 0 -0.5 -0.2251866305930795 0 -0.48140992144811862 -0.2447762604425387 0 -0.46123398647280539 -0.25011284716588772 0 -0.48140992144811862 -0.2447762604425387 0 -0.4656459924282832 -0.23018847163577039 0 -0.46123398647280539 -0.25011284716588772 0 -0.4656459924282832 -0.23018847163577039 0 -0.4512543510380887 -0.23557299185010949 0 -0.45341226125991529 -0.2125351189198309 0 -0.4656459924282832 -0.23018847163577039 0 -0.4512543510380887 -0.23557299185010949 0 -0.4367077728136779 -0.23294460943889089 0 -0.45341226125991529 -0.2125351189198309 0 -0.4512543510380887 -0.23557299185010949 0 -0.4367077728136779 -0.23294460943889089 0 -0.45341226125991529 -0.2125351189198309 0 -0.4367077728136779 -0.23294460943889089 0 -0.4362363080227124 -0.21120797898905311 0 -0.45341226125991529 -0.2125351189198309 0 -0.43927174221576148 -0.25208391209016778 0 -0.46123398647280539 -0.25011284716588772 0 -0.4512543510380887 -0.23557299185010949 0 -0.43927174221576148 -0.25208391209016778 0 -0.4367077728136779 -0.23294460943889089 0 -0.4512543510380887 -0.23557299185010949 0 -0.42082872506791591 -0.046002683660812803 0 -0.40626341955694911 -0.03592537104748101 0 -0.40453820216396102 -0.051503842364244039 0 -0.42082872506791591 -0.046002683660812803 0 -0.42052685648746579 -0.031263453809136497 0 -0.40626341955694911 -0.03592537104748101 0 -0.42082872506791591 -0.046002683660812803 0 -0.41669344860658702 -0.061820564769708708 0 -0.40453820216396102 -0.051503842364244039 0 -0.42082872506791591 -0.046002683660812803 0 -0.41669344860658702 -0.061820564769708708 0 -0.42897360252215699 -0.055710244797989958 0 -0.42082872506791591 -0.046002683660812803 0 -0.42897360252215699 -0.055710244797989958 0 -0.43589588996377288 -0.04644975318126765 0 -0.41669344860658702 -0.061820564769708708 0 -0.42897360252215699 -0.055710244797989958 0 -0.43103510433489278 -0.067463752473306479 0 -0.42897360252215699 -0.055710244797989958 0 -0.43103510433489278 -0.067463752473306479 0 -0.44041484463761638 -0.056814469904854142 0 -0.42897360252215699 -0.055710244797989958 0 -0.43589588996377288 -0.04644975318126765 0 -0.44041484463761638 -0.056814469904854142 0 -0.42082872506791591 -0.046002683660812803 0 -0.43589588996377288 -0.04644975318126765 0 -0.43528474327177091 -0.032244922889812642 0 -0.42082872506791591 -0.046002683660812803 0 -0.42052685648746579 -0.031263453809136497 0 -0.43528474327177091 -0.032244922889812642 0 -0.43528474327177091 -0.032244922889812642 0 -0.42827139990870472 -0.02082187325057994 0 -0.44137935866266942 -0.016363140029995199 0 -0.42052685648746579 -0.031263453809136497 0 -0.43528474327177091 -0.032244922889812642 0 -0.42827139990870472 -0.02082187325057994 0 -0.42827139990870472 -0.02082187325057994 0 -0.42982395106742899 -0.0075707495645251071 0 -0.41293756554363542 -0.017537426645689521 0 -0.42982395106742899 -0.0075707495645251071 0 -0.44137935866266942 -0.016363140029995199 0 -0.44091309867001888 0.0051402313807609561 0 -0.42827139990870472 -0.02082187325057994 0 -0.42982395106742899 -0.0075707495645251071 0 -0.44137935866266942 -0.016363140029995199 0 -0.42982395106742899 -0.0075707495645251071 0 -0.41293756554363542 -0.017537426645689521 0 -0.41792504398981378 0.0037659010775271859 0 -0.41293756554363542 -0.017537426645689521 0 -0.39896575605720602 -0.0057845984529939993 0 -0.41792504398981378 0.0037659010775271859 0 -0.42052685648746579 -0.031263453809136497 0 -0.40626341955694911 -0.03592537104748101 0 -0.41293756554363542 -0.017537426645689521 0 -0.42052685648746579 -0.031263453809136497 0 -0.42827139990870472 -0.02082187325057994 0 -0.41293756554363542 -0.017537426645689521 0 -0.40626341955694911 -0.03592537104748101 0 -0.41293756554363542 -0.017537426645689521 0 -0.39529598831802021 -0.022335755758276669 0 -0.41293756554363542 -0.017537426645689521 0 -0.39529598831802021 -0.022335755758276669 0 -0.39896575605720602 -0.0057845984529939993 0 -0.39529598831802021 -0.022335755758276669 0 -0.39896575605720602 -0.0057845984529939993 0 -0.38372708291996749 -0.010060758333478191 0 -0.36899913698722853 -0.020285415498841441 0 -0.3726509171759278 -0.0042871194606509278 0 -0.38372708291996749 -0.010060758333478191 0 -0.3726509171759278 -0.0042871194606509278 0 -0.38372708291996749 -0.010060758333478191 0 -0.38330909489703818 0.0066255610516746388 0 -0.39896575605720602 -0.0057845984529939993 0 -0.38372708291996749 -0.010060758333478191 0 -0.38330909489703818 0.0066255610516746388 0 -0.36899913698722853 -0.020285415498841441 0 -0.39529598831802021 -0.022335755758276669 0 -0.38372708291996749 -0.010060758333478191 0 -0.36899913698722853 -0.020285415498841441 0 -0.39529598831802021 -0.022335755758276669 0 -0.38552108875429431 -0.042017394860896513 0 -0.40626341955694911 -0.03592537104748101 0 -0.38552108875429431 -0.042017394860896513 0 -0.40453820216396102 -0.051503842364244039 0 -0.40626341955694911 -0.03592537104748101 0 -0.39529598831802021 -0.022335755758276669 0 -0.38552108875429431 -0.042017394860896513 0 -0.38552108875429431 -0.042017394860896513 0 -0.40453820216396102 -0.051503842364244039 0 -0.39258723976806498 -0.071571852114322571 0 -0.41669344860658702 -0.061820564769708708 0 -0.40453820216396102 -0.051503842364244039 0 -0.39258723976806498 -0.071571852114322571 0 -0.36571080958571378 -0.061197911390544431 0 -0.38552108875429431 -0.042017394860896513 0 -0.36571080958571378 -0.061197911390544431 0 -0.38552108875429431 -0.042017394860896513 0 -0.39258723976806498 -0.071571852114322571 0 -0.36504086478725972 -0.08466387216079152 0 -0.39258723976806498 -0.071571852114322571 0 -0.38054174058850881 -0.099067238422367254 0 -0.39258723976806498 -0.071571852114322571 0 -0.38054174058850881 -0.099067238422367254 0 -0.40376133984712959 -0.094158704296024229 0 -0.39258723976806498 -0.071571852114322571 0 -0.40376133984712959 -0.094158704296024229 0 -0.41832082261926551 -0.078449386124863685 0 -0.37071750949614313 -0.12569597969797369 0 -0.38054174058850881 -0.099067238422367254 0 -0.39461008301172218 -0.12297541224525629 0 -0.38054174058850881 -0.099067238422367254 0 -0.40376133984712959 -0.094158704296024229 0 -0.39461008301172218 -0.12297541224525629 0 -0.40376133984712959 -0.094158704296024229 0 -0.39461008301172218 -0.12297541224525629 0 -0.41267078123875139 -0.1132865858272603 0 -0.40376133984712959 -0.094158704296024229 0 -0.41267078123875139 -0.1132865858272603 0 -0.42229290292187682 -0.094629282842547638 0 -0.41267078123875139 -0.1132865858272603 0 -0.42229290292187682 -0.094629282842547638 0 -0.43813319314552213 -0.105462264528315 0 -0.42229290292187682 -0.094629282842547638 0 -0.43857837775871539 -0.081789473436274879 0 -0.43813319314552213 -0.105462264528315 0 -0.41267078123875139 -0.1132865858272603 0 -0.43813319314552213 -0.105462264528315 0 -0.43844297564434842 -0.13204453278645201 0 -0.41267078123875139 -0.1132865858272603 0 -0.43813319314552213 -0.105462264528315 0 -0.41669344860658702 -0.061820564769708708 0 -0.39258723976806498 -0.071571852114322571 0 -0.41832082261926551 -0.078449386124863685 0 -0.40376133984712959 -0.094158704296024229 0 -0.42229290292187682 -0.094629282842547638 0 -0.41832082261926551 -0.078449386124863685 0 -0.42229290292187682 -0.094629282842547638 0 -0.41832082261926551 -0.078449386124863685 0 -0.43857837775871539 -0.081789473436274879 0 -0.43103510433489278 -0.067463752473306479 0 -0.4422723455701596 -0.068310450330115027 0 -0.43857837775871539 -0.081789473436274879 0 -0.41669344860658702 -0.061820564769708708 0 -0.41832082261926551 -0.078449386124863685 0 -0.43103510433489278 -0.067463752473306479 0 -0.41832082261926551 -0.078449386124863685 0 -0.43103510433489278 -0.067463752473306479 0 -0.43857837775871539 -0.081789473436274879 0 -0.43103510433489278 -0.067463752473306479 0 -0.4422723455701596 -0.068310450330115027 0 -0.44041484463761638 -0.056814469904854142 0 -0.4422723455701596 -0.068310450330115027 0 -0.45030274096741513 -0.064202275803310838 0 -0.44041484463761638 -0.056814469904854142 0 -0.4422723455701596 -0.068310450330115027 0 -0.45030274096741513 -0.064202275803310838 0 -0.44871359615100442 -0.075501003494543195 0 -0.45171953035217932 -0.065138558216323014 0 -0.45030274096741513 -0.064202275803310838 0 -0.45030274096741513 -0.064202275803310838 0 -0.44871359615100442 -0.075501003494543195 0 -0.45922285007578412 -0.075188793089512637 0 -0.4422723455701596 -0.068310450330115027 0 -0.44871359615100442 -0.075501003494543195 0 -0.43857837775871539 -0.081789473436274879 0 -0.43857837775871539 -0.081789473436274879 0 -0.45311389298228139 -0.085514874337114313 0 -0.43813319314552213 -0.105462264528315 0 -0.44871359615100442 -0.075501003494543195 0 -0.43857837775871539 -0.081789473436274879 0 -0.45311389298228139 -0.085514874337114313 0 -0.45311389298228139 -0.085514874337114313 0 -0.45922285007578412 -0.075188793089512637 0 -0.47043973571037018 -0.077509768244670818 0 -0.45311389298228139 -0.085514874337114313 0 -0.46359560505229269 -0.097637943229369653 0 -0.47043973571037018 -0.077509768244670818 0 -0.44871359615100442 -0.075501003494543195 0 -0.45311389298228139 -0.085514874337114313 0 -0.45922285007578412 -0.075188793089512637 0 -0.45171953035217932 -0.065138558216323014 0 -0.47043973571037018 -0.077509768244670818 0 -0.45171953035217932 -0.065138558216323014 0 -0.45922285007578412 -0.075188793089512637 0 -0.47043973571037018 -0.077509768244670818 0 -0.45922285007578412 -0.075188793089512637 0 -0.47043973571037018 -0.077509768244670818 0 -0.45171953035217932 -0.065138558216323014 0 -0.46376300381529573 -0.063213571976253061 0 -0.47043973571037018 -0.077509768244670818 0 -0.45171953035217932 -0.065138558216323014 0 -0.45030274096741513 -0.064202275803310838 0 -0.45922285007578412 -0.075188793089512637 0 -0.43844297564434842 -0.13204453278645201 0 -0.45234498253695071 -0.1123981263234885 0 -0.45969885162518609 -0.1248443240432532 0 -0.43844297564434842 -0.13204453278645201 0 -0.45234498253695071 -0.1123981263234885 0 -0.43813319314552213 -0.105462264528315 0 -0.45234498253695071 -0.1123981263234885 0 -0.43813319314552213 -0.105462264528315 0 -0.46359560505229269 -0.097637943229369653 0 -0.43813319314552213 -0.105462264528315 0 -0.46359560505229269 -0.097637943229369653 0 -0.45311389298228139 -0.085514874337114313 0 -0.43813319314552213 -0.105462264528315 0 -0.46359560505229269 -0.097637943229369653 0 -0.45234498253695071 -0.1123981263234885 0 -0.46359560505229269 -0.097637943229369653 0 -0.46678307135447872 -0.1115794268551209 0 -0.45234498253695071 -0.1123981263234885 0 -0.46678307135447872 -0.1115794268551209 0 -0.45969885162518609 -0.1248443240432532 0 -0.46678307135447872 -0.1115794268551209 0 -0.45969885162518609 -0.1248443240432532 0 -0.48095472760602381 -0.1176441153000545 0 -0.45969885162518609 -0.1248443240432532 0 -0.48095472760602381 -0.1176441153000545 0 -0.46678307135447872 -0.1115794268551209 0 -0.48095472760602381 -0.1176441153000545 0 -0.47712410579008852 -0.1066544879181346 0 -0.48095472760602381 -0.1176441153000545 0 -0.47712410579008852 -0.1066544879181346 0 -0.48962558525429462 -0.107569693251419 0 -0.46359560505229269 -0.097637943229369653 0 -0.47712410579008852 -0.1066544879181346 0 -0.48388066261114809 -0.099744071145368096 0 -0.46359560505229269 -0.097637943229369653 0 -0.48388066261114809 -0.099744071145368096 0 -0.48905801695906331 -0.08981362193042397 0 -0.47712410579008852 -0.1066544879181346 0 -0.48388066261114809 -0.099744071145368096 0 -0.48962558525429462 -0.107569693251419 0 -0.46359560505229269 -0.097637943229369653 0 -0.46678307135447872 -0.1115794268551209 0 -0.47712410579008852 -0.1066544879181346 0 -0.48388066261114809 -0.099744071145368096 0 -0.500000000000001 -0.097044609397494125 0 -0.48905801695906331 -0.08981362193042397 0 -0.48388066261114809 -0.099744071145368096 0 -0.500000000000001 -0.097044609397494125 0 -0.48962558525429462 -0.107569693251419 0 -0.500000000000001 -0.097044609397494125 0 -0.48962558525429462 -0.107569693251419 0 -0.50000000000000422 -0.11119272572046721 0 -0.48095472760602381 -0.1176441153000545 0 -0.50000000000000422 -0.11119272572046721 0 -0.48455781653138302 -0.13327928546415871 0 -0.48095472760602381 -0.1176441153000545 0 -0.50000000000000422 -0.11119272572046721 0 -0.48095472760602381 -0.1176441153000545 0 -0.48962558525429462 -0.107569693251419 0 -0.50000000000000422 -0.11119272572046721 0 -0.48095472760602381 -0.1176441153000545 0 -0.48962558525429462 -0.107569693251419 0 -0.46376300381529573 -0.063213571976253061 0 -0.47211920345263408 -0.065894811243754098 0 -0.47043973571037018 -0.077509768244670818 0 -0.4832133830374864 -0.066081488584147294 0 -0.47211920345263408 -0.065894811243754098 0 -0.47043973571037018 -0.077509768244670818 0 -0.4832133830374864 -0.066081488584147294 0 -0.47211920345263408 -0.065894811243754098 0 -0.47106069124738431 -0.056774416169945392 0 -0.46359560505229269 -0.097637943229369653 0 -0.47043973571037018 -0.077509768244670818 0 -0.48905801695906331 -0.08981362193042397 0 -0.47043973571037018 -0.077509768244670818 0 -0.48905801695906331 -0.08981362193042397 0 -0.46359560505229269 -0.097637943229369653 0 -0.48905801695906331 -0.08981362193042397 0 -0.47043973571037018 -0.077509768244670818 0 -0.500000000000001 -0.083626317992187907 0 -0.47043973571037018 -0.077509768244670818 0 -0.48905801695906331 -0.08981362193042397 0 -0.500000000000001 -0.083626317992187907 0 -0.48905801695906331 -0.08981362193042397 0 -0.49999999999999573 -0.086451269955548513 0 -0.500000000000001 -0.097044609397494125 0 -0.48905801695906331 -0.08981362193042397 0 -0.49999999999999573 -0.086451269955548513 0 -0.500000000000001 -0.097044609397494125 0 -0.48905801695906331 -0.08981362193042397 0 -0.48905801695906331 -0.08981362193042397 0 -0.49999999999999573 -0.086451269955548513 0 -0.500000000000001 -0.083626317992187907 0 -0.4832133830374864 -0.066081488584147294 0 -0.500000000000001 -0.083626317992187907 0 -0.5 -0.060099545665706848 0 -0.4832133830374864 -0.066081488584147294 0 -0.47043973571037018 -0.077509768244670818 0 -0.500000000000001 -0.083626317992187907 0 -0.5 -0.060099545665706848 0 -0.48526382792267891 -0.050918696726963163 0 -0.5 -0.036572773339225928 0 -0.4832133830374864 -0.066081488584147294 0 -0.5 -0.060099545665706848 0 -0.48526382792267891 -0.050918696726963163 0 -0.5 -0.036572773339225928 0 -0.47817874298062152 -0.037289197388399198 0 -0.48818903686314791 -0.02435720963814509 0 -0.48526382792267891 -0.050918696726963163 0 -0.5 -0.036572773339225928 0 -0.47817874298062152 -0.037289197388399198 0 -0.48526382792267891 -0.050918696726963163 0 -0.47817874298062152 -0.037289197388399198 0 -0.46778012165347871 -0.044533266995336877 0 -0.47817874298062152 -0.037289197388399198 0 -0.46778012165347871 -0.044533266995336877 0 -0.46807345515539461 -0.0257836512505497 0 -0.47817874298062152 -0.037289197388399198 0 -0.46807345515539461 -0.0257836512505497 0 -0.48526382792267891 -0.050918696726963163 0 -0.47106069124738431 -0.056774416169945392 0 -0.46778012165347871 -0.044533266995336877 0 -0.4832133830374864 -0.066081488584147294 0 -0.48526382792267891 -0.050918696726963163 0 -0.47106069124738431 -0.056774416169945392 0 -0.46376300381529573 -0.063213571976253061 0 -0.47211920345263408 -0.065894811243754098 0 -0.47106069124738431 -0.056774416169945392 0 -0.46376300381529573 -0.063213571976253061 0 -0.47106069124738431 -0.056774416169945392 0 -0.46153646920472918 -0.053622266484380302 0 -0.45171953035217932 -0.065138558216323014 0 -0.45472362232416119 -0.03957326508009406 0 -0.45171953035217932 -0.065138558216323014 0 -0.46153646920472918 -0.053622266484380302 0 -0.45472362232416119 -0.03957326508009406 0 -0.45171953035217932 -0.065138558216323014 0 -0.46376300381529573 -0.063213571976253061 0 -0.46153646920472918 -0.053622266484380302 0 -0.47106069124738431 -0.056774416169945392 0 -0.46153646920472918 -0.053622266484380302 0 -0.46778012165347871 -0.044533266995336877 0 -0.46153646920472918 -0.053622266484380302 0 -0.46778012165347871 -0.044533266995336877 0 -0.45472362232416119 -0.03957326508009406 0 -0.46778012165347871 -0.044533266995336877 0 -0.45472362232416119 -0.03957326508009406 0 -0.46807345515539461 -0.0257836512505497 0 -0.43589588996377288 -0.04644975318126765 0 -0.43528474327177091 -0.032244922889812642 0 -0.45472362232416119 -0.03957326508009406 0 -0.43528474327177091 -0.032244922889812642 0 -0.45472362232416119 -0.03957326508009406 0 -0.44699819642083849 -0.025678365711299962 0 -0.45171953035217932 -0.065138558216323014 0 -0.45030274096741513 -0.064202275803310838 0 -0.45472362232416119 -0.03957326508009406 0 -0.45030274096741513 -0.064202275803310838 0 -0.45472362232416119 -0.03957326508009406 0 -0.44041484463761638 -0.056814469904854142 0 -0.43589588996377288 -0.04644975318126765 0 -0.45472362232416119 -0.03957326508009406 0 -0.44041484463761638 -0.056814469904854142 0 -0.44137935866266942 -0.016363140029995199 0 -0.4575112446583719 -0.014335535380556871 0 -0.44091309867001888 0.0051402313807609561 0 -0.4575112446583719 -0.014335535380556871 0 -0.44091309867001888 0.0051402313807609561 0 -0.44137935866266942 -0.016363140029995199 0 -0.4575112446583719 -0.014335535380556871 0 -0.4575112446583719 -0.014335535380556871 0 -0.45941139917563428 0.0028675073363715522 0 -0.44091309867001888 0.0051402313807609561 0 -0.45472362232416119 -0.03957326508009406 0 -0.44699819642083849 -0.025678365711299962 0 -0.4575112446583719 -0.014335535380556871 0 -0.43528474327177091 -0.032244922889812642 0 -0.44699819642083849 -0.025678365711299962 0 -0.44137935866266942 -0.016363140029995199 0 -0.44699819642083849 -0.025678365711299962 0 -0.44137935866266942 -0.016363140029995199 0 -0.4575112446583719 -0.014335535380556871 0 -0.45472362232416119 -0.03957326508009406 0 -0.46807345515539461 -0.0257836512505497 0 -0.4575112446583719 -0.014335535380556871 0 -0.45472362232416119 -0.03957326508009406 0 -0.4575112446583719 -0.014335535380556871 0 -0.46807345515539461 -0.0257836512505497 0 -0.4575112446583719 -0.014335535380556871 0 -0.47771745191272569 -0.01179583234847848 0 -0.46807345515539461 -0.0257836512505497 0 -0.4575112446583719 -0.014335535380556871 0 -0.4575112446583719 -0.014335535380556871 0 -0.47771745191272569 -0.01179583234847848 0 -0.46651899065793923 -0.0063643223838418719 0 -0.4575112446583719 -0.014335535380556871 0 -0.45941139917563428 0.0028675073363715522 0 -0.4575112446583719 -0.014335535380556871 0 -0.45941139917563428 0.0028675073363715522 0 -0.46651899065793923 -0.0063643223838418719 0 -0.4575112446583719 -0.014335535380556871 0 -0.47771745191272569 -0.01179583234847848 0 -0.46651899065793923 -0.0063643223838418719 0 -0.47771745191272569 -0.01179583234847848 0 -0.48197648259811038 0.01350935847227157 0 -0.47817874298062152 -0.037289197388399198 0 -0.46807345515539461 -0.0257836512505497 0 -0.48818903686314791 -0.02435720963814509 0 -0.46807345515539461 -0.0257836512505497 0 -0.47771745191272569 -0.01179583234847848 0 -0.48818903686314791 -0.02435720963814509 0 -0.5 -0.036572773339225928 0 -0.48818903686314791 -0.02435720963814509 0 -0.49999999999999739 -0.01304600101274501 0 -0.47771745191272569 -0.01179583234847848 0 -0.48818903686314791 -0.02435720963814509 0 -0.4915561377902315 -0.016051073346498801 0 -0.48818903686314791 -0.02435720963814509 0 -0.4915561377902315 -0.016051073346498801 0 -0.49999999999999739 -0.01304600101274501 0 -0.47771745191272569 -0.01179583234847848 0 -0.49746673649528422 -0.0093135595842568034 0 -0.47771745191272569 -0.01179583234847848 0 -0.4915561377902315 -0.016051073346498801 0 -0.49746673649528422 -0.0093135595842568034 0 -0.49746673649528422 -0.0093135595842568034 0 -0.49999999999999789 -0.0089951555946811111 0 -0.5 0.010560297795983831 0 -0.47771745191272569 -0.01179583234847848 0 -0.49746673649528422 -0.0093135595842568034 0 -0.48197648259811038 0.01350935847227157 0 -0.4915561377902315 -0.016051073346498801 0 -0.49999999999999739 -0.01304600101274501 0 -0.49746673649528422 -0.0093135595842568034 0 -0.49999999999999739 -0.01304600101274501 0 -0.49746673649528422 -0.0093135595842568034 0 -0.49999999999999789 -0.0089951555946811111 0 -0.49999999999999739 -0.01304600101274501 0 -0.49746673649528422 -0.0093135595842568034 0 -0.49746673649528422 -0.0093135595842568034 0 -0.49999999999999789 -0.0089951555946811111 0 -0.49746673649528422 -0.0093135595842568034 0 -0.5 0.010560297795983831 0 -0.48197648259811038 0.01350935847227157 0 -0.49746673649528422 -0.0093135595842568034 0 -0.48197648259811038 0.01350935847227157 0 -0.5 0.010560297795983831 0 -0.49093018214113082 0.02214948337793618 0 -0.48197648259811038 0.01350935847227157 0 -0.49093018214113082 0.02214948337793618 0 -0.48197648259811038 0.01350935847227157 0 -0.4832431143504724 0.033224013857726192 0 -0.5 0.010560297795983831 0 -0.50000000000000633 0.030115751186648779 0 -0.49093018214113082 0.02214948337793618 0 -0.50000000000000633 0.030115751186648779 0 -0.49093018214113082 0.02214948337793618 0 -0.4832431143504724 0.033224013857726192 0 -0.48197648259811038 0.01350935847227157 0 -0.4832431143504724 0.033224013857726192 0 -0.46648622870093792 0.036332276528800722 0 -0.48197648259811038 0.01350935847227157 0 -0.46648622870093792 0.036332276528800722 0 -0.46125487554460681 0.019557414622830161 0 -0.48197648259811038 0.01350935847227157 0 -0.46648622870093792 0.036332276528800722 0 -0.46651899065793923 -0.0063643223838418719 0 -0.48197648259811038 0.01350935847227157 0 -0.45941139917563428 0.0028675073363715522 0 -0.5 0.056766931725124481 0 -0.488151392793366 0.045187817115039393 0 -0.48208509534110922 0.059702832013251737 0 -0.50000000000000633 0.030115751186648779 0 -0.4832431143504724 0.033224013857726192 0 -0.50000000000000633 0.030115751186648779 0 -0.488151392793366 0.045187817115039393 0 -0.4832431143504724 0.033224013857726192 0 -0.50000000000000633 0.030115751186648779 0 -0.5 0.056766931725124481 0 -0.488151392793366 0.045187817115039393 0 -0.4832431143504724 0.033224013857726192 0 -0.46648622870093792 0.036332276528800722 0 -0.4832431143504724 0.033224013857726192 0 -0.47542875427524189 0.046129556792444633 0 -0.46648622870093792 0.036332276528800722 0 -0.47542875427524189 0.046129556792444633 0 -0.46722779674071829 0.043906038274379472 0 -0.46648622870093792 0.036332276528800722 0 -0.488151392793366 0.045187817115039393 0 -0.4832431143504724 0.033224013857726192 0 -0.47542875427524189 0.046129556792444633 0 -0.488151392793366 0.045187817115039393 0 -0.47542875427524189 0.046129556792444633 0 -0.48208509534110922 0.059702832013251737 0 -0.47542875427524189 0.046129556792444633 0 -0.4662707420372092 0.051627402163333933 0 -0.46722779674071829 0.043906038274379472 0 -0.47542875427524189 0.046129556792444633 0 -0.47024624653465452 0.058813456584548222 0 -0.4662707420372092 0.051627402163333933 0 -0.47542875427524189 0.046129556792444633 0 -0.47024624653465452 0.058813456584548222 0 -0.48208509534110922 0.059702832013251737 0 -0.4623044118675656 0.044204173563706928 0 -0.45065409215475671 0.05052237335916071 0 -0.45614650076786611 0.065083785601589894 0 -0.4662707420372092 0.051627402163333933 0 -0.4623044118675656 0.044204173563706928 0 -0.45614650076786611 0.065083785601589894 0 -0.4623044118675656 0.044204173563706928 0 -0.45614650076786611 0.065083785601589894 0 -0.47024624653465452 0.058813456584548222 0 -0.4662707420372092 0.051627402163333933 0 -0.45614650076786611 0.065083785601589894 0 -0.46648622870093792 0.036332276528800722 0 -0.440322272477156 0.041185472412508771 0 -0.46302182035479489 0.041436641397395092 0 -0.46648622870093792 0.036332276528800722 0 -0.440322272477156 0.041185472412508771 0 -0.4623044118675656 0.044204173563706928 0 -0.46302182035479489 0.041436641397395092 0 -0.45065409215475671 0.05052237335916071 0 -0.4623044118675656 0.044204173563706928 0 -0.46722779674071829 0.043906038274379472 0 -0.46302182035479489 0.041436641397395092 0 -0.4662707420372092 0.051627402163333933 0 -0.4623044118675656 0.044204173563706928 0 -0.46722779674071829 0.043906038274379472 0 -0.46722779674071829 0.043906038274379472 0 -0.46302182035479489 0.041436641397395092 0 -0.46648622870093792 0.036332276528800722 0 -0.46302182035479489 0.041436641397395092 0 -0.46648622870093792 0.036332276528800722 0 -0.46302182035479489 0.041436641397395092 0 -0.440322272477156 0.041185472412508771 0 -0.45065409215475671 0.05052237335916071 0 -0.46648622870093792 0.036332276528800722 0 -0.440322272477156 0.041185472412508771 0 -0.44485013814745472 0.02316531343076508 0 -0.44905207736181929 0.061865877336575163 0 -0.43160519680759651 0.053952272816395128 0 -0.44290840970033207 0.051881498981159978 0 -0.44905207736181929 0.061865877336575163 0 -0.43160519680759651 0.053952272816395128 0 -0.440322272477156 0.041185472412508771 0 -0.44290840970033207 0.051881498981159978 0 -0.43160519680759651 0.053952272816395128 0 -0.440322272477156 0.041185472412508771 0 -0.45065409215475671 0.05052237335916071 0 -0.44290840970033207 0.051881498981159978 0 -0.45065409215475671 0.05052237335916071 0 -0.44905207736181929 0.061865877336575163 0 -0.45614650076786611 0.065083785601589894 0 -0.45065409215475671 0.05052237335916071 0 -0.44905207736181929 0.061865877336575163 0 -0.45065409215475671 0.05052237335916071 0 -0.44290840970033207 0.051881498981159978 0 -0.44905207736181929 0.061865877336575163 0 -0.45941139917563428 0.0028675073363715522 0 -0.46125487554460681 0.019557414622830161 0 -0.45160737788442862 0.01268261669268194 0 -0.45941139917563428 0.0028675073363715522 0 -0.46125487554460681 0.019557414622830161 0 -0.48197648259811038 0.01350935847227157 0 -0.45941139917563428 0.0028675073363715522 0 -0.46125487554460681 0.019557414622830161 0 -0.46648622870093792 0.036332276528800722 0 -0.46125487554460681 0.019557414622830161 0 -0.44485013814745472 0.02316531343076508 0 -0.46125487554460681 0.019557414622830161 0 -0.44485013814745472 0.02316531343076508 0 -0.45160737788442862 0.01268261669268194 0 -0.44485013814745472 0.02316531343076508 0 -0.44091309867001888 0.0051402313807609561 0 -0.45160737788442862 0.01268261669268194 0 -0.45941139917563428 0.0028675073363715522 0 -0.44091309867001888 0.0051402313807609561 0 -0.45160737788442862 0.01268261669268194 0 -0.44091309867001888 0.0051402313807609561 0 -0.42425827453337789 0.02410286271160967 0 -0.44091309867001888 0.0051402313807609561 0 -0.41792504398981378 0.0037659010775271859 0 -0.42425827453337789 0.02410286271160967 0 -0.42982395106742899 -0.0075707495645251071 0 -0.44091309867001888 0.0051402313807609561 0 -0.41792504398981378 0.0037659010775271859 0 -0.41792504398981378 0.0037659010775271859 0 -0.4068297226380736 0.02559067364570854 0 -0.39893486609569478 0.011927981103442131 0 -0.4068297226380736 0.02559067364570854 0 -0.42425827453337789 0.02410286271160967 0 -0.40760345039673163 0.043065494042453863 0 -0.41792504398981378 0.0037659010775271859 0 -0.4068297226380736 0.02559067364570854 0 -0.42425827453337789 0.02410286271160967 0 -0.440322272477156 0.041185472412508771 0 -0.44485013814745472 0.02316531343076508 0 -0.42425827453337789 0.02410286271160967 0 -0.44485013814745472 0.02316531343076508 0 -0.44091309867001888 0.0051402313807609561 0 -0.42425827453337789 0.02410286271160967 0 -0.440322272477156 0.041185472412508771 0 -0.41415831625337368 0.046038668296214967 0 -0.440322272477156 0.041185472412508771 0 -0.42425827453337789 0.02410286271160967 0 -0.41415831625337368 0.046038668296214967 0 -0.43160519680759651 0.053952272816395128 0 -0.41415831625337368 0.046038668296214967 0 -0.440322272477156 0.041185472412508771 0 -0.43160519680759651 0.053952272816395128 0 -0.41415831625337368 0.046038668296214967 0 -0.43160519680759651 0.053952272816395128 0 -0.4095056371324744 0.058956079060222807 0 -0.41415831625337368 0.046038668296214967 0 -0.43160519680759651 0.053952272816395128 0 -0.4095056371324744 0.058956079060222807 0 -0.41550739346534199 0.072265650915184845 0 -0.4095056371324744 0.058956079060222807 0 -0.41415831625337368 0.046038668296214967 0 -0.40320815487691319 0.048069831995758032 0 -0.41415831625337368 0.046038668296214967 0 -0.40320815487691319 0.048069831995758032 0 -0.42425827453337789 0.02410286271160967 0 -0.40760345039673163 0.043065494042453863 0 -0.42425827453337789 0.02410286271160967 0 -0.41415831625337368 0.046038668296214967 0 -0.40760345039673163 0.043065494042453863 0 -0.41415831625337368 0.046038668296214967 0 -0.40760345039673163 0.043065494042453863 0 -0.40320815487691319 0.048069831995758032 0 -0.41415831625337368 0.046038668296214967 0 -0.40760345039673163 0.043065494042453863 0 -0.40760345039673163 0.043065494042453863 0 -0.38481987753503039 0.032731257808996342 0 -0.40320815487691319 0.048069831995758032 0 -0.38656936754766508 0.051156188412405407 0 -0.38481987753503039 0.032731257808996342 0 -0.40760345039673163 0.043065494042453863 0 -0.40320815487691319 0.048069831995758032 0 -0.38481987753503039 0.032731257808996342 0 -0.4068297226380736 0.02559067364570854 0 -0.40760345039673163 0.043065494042453863 0 -0.38481987753503039 0.032731257808996342 0 -0.40760345039673163 0.043065494042453863 0 -0.40320815487691319 0.048069831995758032 0 -0.40320815487691319 0.048069831995758032 0 -0.38656936754766508 0.051156188412405407 0 -0.40320815487691319 0.048069831995758032 0 -0.39564011769278618 0.05468080555088603 0 -0.38656936754766508 0.051156188412405407 0 -0.4095056371324744 0.058956079060222807 0 -0.40320815487691319 0.048069831995758032 0 -0.38963515870565191 0.063523596042682651 0 -0.40320815487691319 0.048069831995758032 0 -0.39564011769278618 0.05468080555088603 0 -0.38963515870565191 0.063523596042682651 0 -0.40320815487691319 0.048069831995758032 0 -0.38963515870565191 0.063523596042682651 0 -0.39564011769278618 0.05468080555088603 0 -0.38963515870565191 0.063523596042682651 0 -0.37195635054025011 0.062414506337287262 0 -0.39564011769278618 0.05468080555088603 0 -0.38656936754766508 0.051156188412405407 0 -0.37195635054025011 0.062414506337287262 0 -0.38656936754766508 0.051156188412405407 0 -0.36993058021841713 0.054242544829053038 0 -0.39564011769278618 0.05468080555088603 0 -0.37195635054025011 0.062414506337287262 0 -0.38656936754766508 0.051156188412405407 0 -0.36993058021841713 0.054242544829053038 0 -0.37195635054025011 0.062414506337287262 0 -0.38656936754766508 0.051156188412405407 0 -0.37682581693674783 0.044112443563187477 0 -0.36993058021841713 0.054242544829053038 0 -0.37682581693674783 0.044112443563187477 0 -0.38481987753503039 0.032731257808996342 0 -0.36598344244587838 0.038319783202294663 0 -0.38656936754766508 0.051156188412405407 0 -0.37682581693674783 0.044112443563187477 0 -0.38481987753503039 0.032731257808996342 0 -0.38481987753503039 0.032731257808996342 0 -0.38330909489703818 0.0066255610516746388 0 -0.37124240922392238 0.0159546708235399 0 -0.38481987753503039 0.032731257808996342 0 -0.38330909489703818 0.0066255610516746388 0 -0.39893486609569478 0.011927981103442131 0 -0.38330909489703818 0.0066255610516746388 0 -0.37124240922392238 0.0159546708235399 0 -0.37105926560901481 0.0060949122395229484 0 -0.3726509171759278 -0.0042871194606509278 0 -0.38330909489703818 0.0066255610516746388 0 -0.37105926560901481 0.0060949122395229484 0 -0.39896575605720602 -0.0057845984529939993 0 -0.41792504398981378 0.0037659010775271859 0 -0.39893486609569478 0.011927981103442131 0 -0.39896575605720602 -0.0057845984529939993 0 -0.38330909489703818 0.0066255610516746388 0 -0.39893486609569478 0.011927981103442131 0 -0.4068297226380736 0.02559067364570854 0 -0.38481987753503039 0.032731257808996342 0 -0.39893486609569478 0.011927981103442131 0 -0.40391979060475153 0.1055586112208665 0 -0.38909192653899338 0.1179678688311816 0 -0.38155938747992491 0.098566870914757881 0 -0.40391979060475153 0.1055586112208665 0 -0.38155938747992491 0.098566870914757881 0 -0.39054183552354033 0.089623453147329016 0 -0.40391979060475153 0.1055586112208665 0 -0.38155938747992491 0.098566870914757881 0 -0.40391979060475153 0.1055586112208665 0 -0.4032914301198407 0.12463496770649719 0 -0.38909192653899338 0.1179678688311816 0 -0.38909192653899338 0.1179678688311816 0 -0.3814008065916894 0.1124749014680579 0 -0.37840990618325931 0.1321093317991919 0 -0.37840990618325931 0.1321093317991919 0 -0.3719841621530966 0.1116669262127041 0 -0.38909192653899338 0.1179678688311816 0 -0.3814008065916894 0.1124749014680579 0 -0.38238728706197239 0.1030752805832611 0 -0.3814008065916894 0.1124749014680579 0 -0.37840990618325931 0.1321093317991919 0 -0.3719841621530966 0.1116669262127041 0 -0.38238728706197239 0.1030752805832611 0 -0.3719841621530966 0.1116669262127041 0 -0.3814008065916894 0.1124749014680579 0 -0.38238728706197239 0.1030752805832611 0 -0.3719841621530966 0.1116669262127041 0 -0.38909192653899338 0.1179678688311816 0 -0.38155938747992491 0.098566870914757881 0 -0.38238728706197239 0.1030752805832611 0 -0.38155938747992491 0.098566870914757881 0 -0.3719841621530966 0.1116669262127041 0 -0.38909192653899338 0.1179678688311816 0 -0.38238728706197239 0.1030752805832611 0 -0.38155938747992491 0.098566870914757881 0 -0.38155938747992491 0.098566870914757881 0 -0.37679700847320929 0.081941730068692681 0 -0.37460000895301448 0.080642119746363317 0 -0.38155938747992491 0.098566870914757881 0 -0.37679700847320929 0.081941730068692681 0 -0.39054183552354033 0.089623453147329016 0 -0.38155938747992491 0.098566870914757881 0 -0.37460000895301448 0.080642119746363317 0 -0.37606216253438818 0.078977360089605125 0 -0.37679700847320929 0.081941730068692681 0 -0.38809886652471137 0.077566814472760565 0 -0.37606216253438818 0.078977360089605125 0 -0.37460000895301448 0.080642119746363317 0 -0.37606216253438818 0.078977360089605125 0 -0.37679700847320929 0.081941730068692681 0 -0.37460000895301448 0.080642119746363317 0 -0.37606216253438818 0.078977360089605125 0 -0.37679700847320929 0.081941730068692681 0 -0.37679700847320929 0.081941730068692681 0 -0.39054183552354033 0.089623453147329016 0 -0.38809886652471137 0.077566814472760565 0 -0.37606216253438818 0.078977360089605125 0 -0.38963515870565191 0.063523596042682651 0 -0.37195635054025011 0.062414506337287262 0 -0.37606216253438818 0.078977360089605125 0 -0.38809886652471137 0.077566814472760565 0 -0.38963515870565191 0.063523596042682651 0 -0.37606216253438818 0.078977360089605125 0 -0.38963515870565191 0.063523596042682651 0 -0.4095056371324744 0.058956079060222807 0 -0.38963515870565191 0.063523596042682651 0 -0.40101623607265707 0.0713590759100836 0 -0.38809886652471137 0.077566814472760565 0 -0.40101623607265707 0.0713590759100836 0 -0.40233412453510548 0.084483239059567145 0 -0.38809886652471137 0.077566814472760565 0 -0.38963515870565191 0.063523596042682651 0 -0.40101623607265707 0.0713590759100836 0 -0.40391979060475153 0.1055586112208665 0 -0.39054183552354033 0.089623453147329016 0 -0.40233412453510548 0.084483239059567145 0 -0.39054183552354033 0.089623453147329016 0 -0.38809886652471137 0.077566814472760565 0 -0.40233412453510548 0.084483239059567145 0 -0.40233412453510548 0.084483239059567145 0 -0.41909368629973848 0.091231733939596132 0 -0.41550739346534199 0.072265650915184845 0 -0.4095056371324744 0.058956079060222807 0 -0.40101623607265707 0.0713590759100836 0 -0.41550739346534199 0.072265650915184845 0 -0.40101623607265707 0.0713590759100836 0 -0.40233412453510548 0.084483239059567145 0 -0.41550739346534199 0.072265650915184845 0 -0.43160519680759651 0.053952272816395128 0 -0.41550739346534199 0.072265650915184845 0 -0.43238877183437707 0.075652417363254232 0 -0.41909368629973848 0.091231733939596132 0 -0.41550739346534199 0.072265650915184845 0 -0.43238877183437707 0.075652417363254232 0 -0.43238877183437707 0.075652417363254232 0 -0.43421886016070688 0.09904686728406073 0 -0.44535663213209342 0.088032488185953439 0 -0.41909368629973848 0.091231733939596132 0 -0.43238877183437707 0.075652417363254232 0 -0.43421886016070688 0.09904686728406073 0 -0.41909368629973848 0.091231733939596132 0 -0.43421886016070688 0.09904686728406073 0 -0.42628019372957759 0.11255035152697671 0 -0.43421886016070688 0.09904686728406073 0 -0.42628019372957759 0.11255035152697671 0 -0.44166118690236661 0.1141990990353316 0 -0.40391979060475153 0.1055586112208665 0 -0.40233412453510548 0.084483239059567145 0 -0.41909368629973848 0.091231733939596132 0 -0.40391979060475153 0.1055586112208665 0 -0.42628019372957759 0.11255035152697671 0 -0.40391979060475153 0.1055586112208665 0 -0.41909368629973848 0.091231733939596132 0 -0.42628019372957759 0.11255035152697671 0 -0.40391979060475153 0.1055586112208665 0 -0.41496981185606852 0.119318716470034 0 -0.42628019372957759 0.11255035152697671 0 -0.40391979060475153 0.1055586112208665 0 -0.4032914301198407 0.12463496770649719 0 -0.41496981185606852 0.119318716470034 0 -0.4032914301198407 0.12463496770649719 0 -0.41496981185606852 0.119318716470034 0 -0.41569433644902259 0.1300283974526143 0 -0.41496981185606852 0.119318716470034 0 -0.42593380249649798 0.122911036410404 0 -0.41569433644902259 0.1300283974526143 0 -0.41496981185606852 0.119318716470034 0 -0.42593380249649798 0.122911036410404 0 -0.42628019372957759 0.11255035152697671 0 -0.42593380249649798 0.122911036410404 0 -0.44166118690236661 0.1141990990353316 0 -0.43232610777074748 0.12671768133931149 0 -0.42593380249649798 0.122911036410404 0 -0.42628019372957759 0.11255035152697671 0 -0.44166118690236661 0.1141990990353316 0 -0.44166118690236661 0.1141990990353316 0 -0.43892782739222752 0.13355339876569261 0 -0.44166118690236661 0.1141990990353316 0 -0.45814585536859848 0.1024752214956004 0 -0.45954584428379053 0.1205124967203971 0 -0.44166118690236661 0.1141990990353316 0 -0.45954584428379053 0.1205124967203971 0 -0.43892782739222752 0.13355339876569261 0 -0.44166118690236661 0.1141990990353316 0 -0.45814585536859848 0.1024752214956004 0 -0.44890384383511789 0.089641442318461245 0 -0.43421886016070688 0.09904686728406073 0 -0.44166118690236661 0.1141990990353316 0 -0.44535663213209342 0.088032488185953439 0 -0.44166118690236661 0.1141990990353316 0 -0.44890384383511789 0.089641442318461245 0 -0.44535663213209342 0.088032488185953439 0 -0.44166118690236661 0.1141990990353316 0 -0.44890384383511789 0.089641442318461245 0 -0.44166118690236661 0.1141990990353316 0 -0.44535663213209342 0.088032488185953439 0 -0.45814585536859848 0.1024752214956004 0 -0.47142816804714111 0.090360874720207943 0 -0.47254188328933089 0.1068112959977434 0 -0.45814585536859848 0.1024752214956004 0 -0.45954584428379053 0.1205124967203971 0 -0.47254188328933089 0.1068112959977434 0 -0.44905207736181929 0.061865877336575163 0 -0.43160519680759651 0.053952272816395128 0 -0.43238877183437707 0.075652417363254232 0 -0.44905207736181929 0.061865877336575163 0 -0.43238877183437707 0.075652417363254232 0 -0.44535663213209342 0.088032488185953439 0 -0.44890384383511789 0.089641442318461245 0 -0.45614650076786611 0.065083785601589894 0 -0.44905207736181929 0.061865877336575163 0 -0.44535663213209342 0.088032488185953439 0 -0.45614650076786611 0.065083785601589894 0 -0.44905207736181929 0.061865877336575163 0 -0.44535663213209342 0.088032488185953439 0 -0.44905207736181929 0.061865877336575163 0 -0.45614650076786611 0.065083785601589894 0 -0.44890384383511789 0.089641442318461245 0 -0.44535663213209342 0.088032488185953439 0 -0.45614650076786611 0.065083785601589894 0 -0.4610563190871394 0.082103589126315712 0 -0.47099004877416861 0.071816563316960208 0 -0.47142816804714111 0.090360874720207943 0 -0.45814585536859848 0.1024752214956004 0 -0.44890384383511789 0.089641442318461245 0 -0.4610563190871394 0.082103589126315712 0 -0.44890384383511789 0.089641442318461245 0 -0.4610563190871394 0.082103589126315712 0 -0.45614650076786611 0.065083785601589894 0 -0.45814585536859848 0.1024752214956004 0 -0.4610563190871394 0.082103589126315712 0 -0.47142816804714111 0.090360874720207943 0 -0.4610563190871394 0.082103589126315712 0 -0.45614650076786611 0.065083785601589894 0 -0.47099004877416861 0.071816563316960208 0 -0.45614650076786611 0.065083785601589894 0 -0.47099004877416861 0.071816563316960208 0 -0.47024624653465452 0.058813456584548222 0 -0.45614650076786611 0.065083785601589894 0 -0.47099004877416861 0.071816563316960208 0 -0.48208509534110922 0.059702832013251737 0 -0.47099004877416861 0.071816563316960208 0 -0.48583359678047139 0.078549341032330022 0 -0.47024624653465452 0.058813456584548222 0 -0.48208509534110922 0.059702832013251737 0 -0.47099004877416861 0.071816563316960208 0 -0.47099004877416861 0.071816563316960208 0 -0.48583359678047139 0.078549341032330022 0 -0.47099004877416861 0.071816563316960208 0 -0.47142816804714111 0.090360874720207943 0 -0.48583359678047139 0.078549341032330022 0 -0.47142816804714111 0.090360874720207943 0 -0.48583359678047139 0.078549341032330022 0 -0.48038679546117269 0.096842762332133778 0 -0.5 0.083418112263600186 0 -0.48583359678047139 0.078549341032330022 0 -0.49092627687018719 0.094579539394287815 0 -0.48583359678047139 0.078549341032330022 0 -0.48038679546117269 0.096842762332133778 0 -0.49092627687018719 0.094579539394287815 0 -0.5 0.056766931725124481 0 -0.5 0.083418112263600186 0 -0.48583359678047139 0.078549341032330022 0 -0.5 0.056766931725124481 0 -0.48208509534110922 0.059702832013251737 0 -0.48583359678047139 0.078549341032330022 0 -0.4884109921092919 0.1040181885412991 0 -0.47770093245123912 0.1260000037694021 0 -0.45954584428379053 0.1205124967203971 0 -0.47254188328933089 0.1068112959977434 0 -0.47770093245123912 0.1260000037694021 0 -0.47254188328933089 0.1068112959977434 0 -0.4884109921092919 0.1040181885412991 0 -0.47770093245123912 0.1260000037694021 0 -0.47142816804714111 0.090360874720207943 0 -0.47254188328933089 0.1068112959977434 0 -0.48038679546117269 0.096842762332133778 0 -0.47254188328933089 0.1068112959977434 0 -0.48038679546117269 0.096842762332133778 0 -0.4884109921092919 0.1040181885412991 0 -0.5 0.083418112263600186 0 -0.49092627687018719 0.094579539394287815 0 -0.5 0.1100692928020759 0 -0.48038679546117269 0.096842762332133778 0 -0.4884109921092919 0.1040181885412991 0 -0.49092627687018719 0.094579539394287815 0 -0.4884109921092919 0.1040181885412991 0 -0.49092627687018719 0.094579539394287815 0 -0.5 0.1100692928020759 0 -0.5 0.1100692928020759 0 -0.5 0.13672047334055171 0 -0.47770093245123912 0.1260000037694021 0 -0.4884109921092919 0.1040181885412991 0 -0.5 0.1100692928020759 0 -0.47770093245123912 0.1260000037694021 0 -0.5 0.13672047334055171 0 -0.47770093245123912 0.1260000037694021 0 -0.48113157351830449 0.14058530432575311 0 -0.47770093245123912 0.1260000037694021 0 -0.48113157351830449 0.14058530432575311 0 -0.46590886749153992 0.1493255812707481 0 -0.47770093245123912 0.1260000037694021 0 -0.46392543015206972 0.13432264445056261 0 -0.46590886749153992 0.1493255812707481 0 -0.47770093245123912 0.1260000037694021 0 -0.46590886749153992 0.1493255812707481 0 -0.47743210544725212 0.15185287026826089 0 -0.47169334772091809 0.15670421941916929 0 -0.46590886749153992 0.1493255812707481 0 -0.48113157351830449 0.14058530432575311 0 -0.47743210544725212 0.15185287026826089 0 -0.46590886749153992 0.1493255812707481 0 -0.48113157351830449 0.14058530432575311 0 -0.47743210544725212 0.15185287026826089 0 -0.4883123202985078 0.149860121106238 0 -0.47743210544725212 0.15185287026826089 0 -0.4883123202985078 0.149860121106238 0 -0.48507921326066161 0.15972199941592591 0 -0.5 0.13672047334055171 0 -0.48113157351830449 0.14058530432575311 0 -0.4883123202985078 0.149860121106238 0 -0.5 0.13672047334055171 0 -0.4883123202985078 0.149860121106238 0 -0.5 0.16337165387902761 0 -0.5 0.16337165387902761 0 -0.48785690887875349 0.16911329468733069 0 -0.48507921326066161 0.15972199941592591 0 -0.4883123202985078 0.149860121106238 0 -0.5 0.16337165387902761 0 -0.48507921326066161 0.15972199941592591 0 -0.48785690887875349 0.16911329468733069 0 -0.48752476925336341 0.1862919926432012 0 -0.49948842554111239 0.1907067101328983 0 -0.5 0.16337165387902761 0 -0.48785690887875349 0.16911329468733069 0 -0.49948842554111239 0.1907067101328983 0 -0.48785690887875349 0.16911329468733069 0 -0.47223137675788601 0.1854102081277452 0 -0.48785690887875349 0.16911329468733069 0 -0.47223137675788601 0.1854102081277452 0 -0.47353362567471602 0.1716375038690274 0 -0.48785690887875349 0.16911329468733069 0 -0.48752476925336341 0.1862919926432012 0 -0.47223137675788601 0.1854102081277452 0 -0.47223137675788601 0.1854102081277452 0 -0.47353362567471602 0.1716375038690274 0 -0.46568418044810689 0.17590475371945169 0 -0.48785690887875349 0.16911329468733069 0 -0.48507921326066161 0.15972199941592591 0 -0.4767752205693257 0.162157203564816 0 -0.47743210544725212 0.15185287026826089 0 -0.48507921326066161 0.15972199941592591 0 -0.4767752205693257 0.162157203564816 0 -0.48785690887875349 0.16911329468733069 0 -0.4767752205693257 0.162157203564816 0 -0.47353362567471602 0.1716375038690274 0 -0.4767752205693257 0.162157203564816 0 -0.47353362567471602 0.1716375038690274 0 -0.46760521082909112 0.1643697823602267 0 -0.47353362567471602 0.1716375038690274 0 -0.46760521082909112 0.1643697823602267 0 -0.46568418044810689 0.17590475371945169 0 -0.47743210544725212 0.15185287026826089 0 -0.4767752205693257 0.162157203564816 0 -0.47169334772091809 0.15670421941916929 0 -0.4767752205693257 0.162157203564816 0 -0.47169334772091809 0.15670421941916929 0 -0.46760521082909112 0.1643697823602267 0 -0.45628081313513352 0.16996363422560801 0 -0.46590886749153992 0.1493255812707481 0 -0.45628081313513352 0.16996363422560801 0 -0.45118337364277811 0.15603928596271791 0 -0.46590886749153992 0.1493255812707481 0 -0.46760521082909112 0.1643697823602267 0 -0.45628081313513352 0.16996363422560801 0 -0.46590886749153992 0.1493255812707481 0 -0.47169334772091809 0.15670421941916929 0 -0.46760521082909112 0.1643697823602267 0 -0.46590886749153992 0.1493255812707481 0 -0.46760521082909112 0.1643697823602267 0 -0.45628081313513352 0.16996363422560801 0 -0.46568418044810689 0.17590475371945169 0 -0.45628081313513352 0.16996363422560801 0 -0.46568418044810689 0.17590475371945169 0 -0.45876987584370821 0.18814264001465139 0 -0.45628081313513352 0.16996363422560801 0 -0.45876987584370821 0.18814264001465139 0 -0.44557075347708069 0.19194544945371081 0 -0.47223137675788601 0.1854102081277452 0 -0.46568418044810689 0.17590475371945169 0 -0.45876987584370821 0.18814264001465139 0 -0.45628081313513352 0.16996363422560801 0 -0.44351322294470308 0.17822722575389219 0 -0.44557075347708069 0.19194544945371081 0 -0.45628081313513352 0.16996363422560801 0 -0.44557075347708069 0.19194544945371081 0 -0.45628081313513352 0.16996363422560801 0 -0.44351322294470308 0.17822722575389219 0 -0.44143734873330998 0.16918343540661679 0 -0.44351322294470308 0.17822722575389219 0 -0.43767422444411569 0.1746794823769757 0 -0.44143734873330998 0.16918343540661679 0 -0.44351322294470308 0.17822722575389219 0 -0.43767422444411569 0.1746794823769757 0 -0.43163287386523902 0.18366436928129631 0 -0.44351322294470308 0.17822722575389219 0 -0.44557075347708069 0.19194544945371081 0 -0.43559926904268398 0.19178202898532171 0 -0.45628081313513352 0.16996363422560801 0 -0.44740372705685089 0.16322400281084001 0 -0.45118337364277811 0.15603928596271791 0 -0.44740372705685089 0.16322400281084001 0 -0.44338417164298177 0.15860207487053279 0 -0.45118337364277811 0.15603928596271791 0 -0.45628081313513352 0.16996363422560801 0 -0.44740372705685089 0.16322400281084001 0 -0.44143734873330998 0.16918343540661679 0 -0.44740372705685089 0.16322400281084001 0 -0.44143734873330998 0.16918343540661679 0 -0.43718201005867269 0.16221250395562389 0 -0.43767422444411569 0.1746794823769757 0 -0.44143734873330998 0.16918343540661679 0 -0.43422033477101951 0.16688608801909749 0 -0.44143734873330998 0.16918343540661679 0 -0.43718201005867269 0.16221250395562389 0 -0.43422033477101951 0.16688608801909749 0 -0.44338417164298177 0.15860207487053279 0 -0.43619446788209132 0.1529076984960541 0 -0.43718201005867269 0.16221250395562389 0 -0.44740372705685089 0.16322400281084001 0 -0.44338417164298177 0.15860207487053279 0 -0.43718201005867269 0.16221250395562389 0 -0.45118337364277811 0.15603928596271791 0 -0.46590886749153992 0.1493255812707481 0 -0.43619446788209132 0.1529076984960541 0 -0.45199407767210431 0.1456421509718894 0 -0.46590886749153992 0.1493255812707481 0 -0.43619446788209132 0.1529076984960541 0 -0.44378009940909968 0.1441088356888269 0 -0.43892782739222752 0.13355339876569261 0 -0.43619446788209132 0.1529076984960541 0 -0.44338417164298177 0.15860207487053279 0 -0.45118337364277811 0.15603928596271791 0 -0.43619446788209132 0.1529076984960541 0 -0.43892782739222752 0.13355339876569261 0 -0.43619446788209132 0.1529076984960541 0 -0.45199407767210431 0.1456421509718894 0 -0.44378009940909968 0.1441088356888269 0 -0.43619446788209132 0.1529076984960541 0 -0.46590886749153992 0.1493255812707481 0 -0.43619446788209132 0.1529076984960541 0 -0.45199407767210431 0.1456421509718894 0 -0.44378009940909968 0.1441088356888269 0 -0.45382299845016288 0.13819587449518289 0 -0.44166118690236661 0.1141990990353316 0 -0.43892782739222752 0.13355339876569261 0 -0.4351558898741355 0.13625659157486539 0 -0.44166118690236661 0.1141990990353316 0 -0.4351558898741355 0.13625659157486539 0 -0.45954584428379053 0.1205124967203971 0 -0.43892782739222752 0.13355339876569261 0 -0.45382299845016288 0.13819587449518289 0 -0.44378009940909968 0.1441088356888269 0 -0.43892782739222752 0.13355339876569261 0 -0.45382299845016288 0.13819587449518289 0 -0.45954584428379053 0.1205124967203971 0 -0.47770093245123912 0.1260000037694021 0 -0.46392543015206972 0.13432264445056261 0 -0.45954584428379053 0.1205124967203971 0 -0.45382299845016288 0.13819587449518289 0 -0.46392543015206972 0.13432264445056261 0 -0.45382299845016288 0.13819587449518289 0 -0.46392543015206972 0.13432264445056261 0 -0.46026395512763091 0.1436727649086354 0 -0.46392543015206972 0.13432264445056261 0 -0.46590886749153992 0.1493255812707481 0 -0.46026395512763091 0.1436727649086354 0 -0.45199407767210431 0.1456421509718894 0 -0.46590886749153992 0.1493255812707481 0 -0.46026395512763091 0.1436727649086354 0 -0.45199407767210431 0.1456421509718894 0 -0.45382299845016288 0.13819587449518289 0 -0.46026395512763091 0.1436727649086354 0 -0.47922328285479288 0.239403860082369 0 -0.46399351030847469 0.24395188759928779 0 -0.4784490913002995 0.25975246748932668 0 -0.47922328285479288 0.239403860082369 0 -0.46620656683517703 0.23129722958105159 0 -0.46399351030847469 0.24395188759928779 0 -0.47922328285479288 0.239403860082369 0 -0.5 0.24436361662805769 0 -0.4784490913002995 0.25975246748932668 0 -0.47922328285479288 0.239403860082369 0 -0.5 0.24436361662805769 0 -0.48970507848744138 0.22852520981802121 0 -0.48970507848744138 0.22852520981802121 0 -0.47608184841704532 0.2219967587224185 0 -0.48778513697907933 0.2063517344276587 0 -0.5 0.24436361662805769 0 -0.48970507848744138 0.22852520981802121 0 -0.5 0.21746954781573141 0 -0.47922328285479288 0.239403860082369 0 -0.47608184841704532 0.2219967587224185 0 -0.46620656683517703 0.23129722958105159 0 -0.47922328285479288 0.239403860082369 0 -0.48970507848744138 0.22852520981802121 0 -0.47608184841704532 0.2219967587224185 0 -0.47608184841704532 0.2219967587224185 0 -0.48778513697907933 0.2063517344276587 0 -0.47608184841704532 0.2219967587224185 0 -0.47190445153985372 0.20885535075028119 0 -0.48778513697907933 0.2063517344276587 0 -0.47190445153985372 0.20885535075028119 0 -0.48778513697907933 0.2063517344276587 0 -0.47804713508906532 0.1962069158505283 0 -0.47608184841704532 0.2219967587224185 0 -0.47190445153985372 0.20885535075028119 0 -0.46100229257705988 0.2180142231826408 0 -0.5 0.21746954781573141 0 -0.48778513697907933 0.2063517344276587 0 -0.49948842554111239 0.1907067101328983 0 -0.48970507848744138 0.22852520981802121 0 -0.5 0.21746954781573141 0 -0.48778513697907933 0.2063517344276587 0 -0.49948842554111239 0.1907067101328983 0 -0.47804713508906532 0.1962069158505283 0 -0.48752476925336341 0.1862919926432012 0 -0.49948842554111239 0.1907067101328983 0 -0.47804713508906532 0.1962069158505283 0 -0.48778513697907933 0.2063517344276587 0 -0.49948842554111239 0.1907067101328983 0 -0.47804713508906532 0.1962069158505283 0 -0.48778513697907933 0.2063517344276587 0 -0.49948842554111239 0.1907067101328983 0 -0.47223137675788601 0.1854102081277452 0 -0.47804713508906532 0.1962069158505283 0 -0.45660584463701842 0.20170712156815959 0 -0.47190445153985372 0.20885535075028119 0 -0.47804713508906532 0.1962069158505283 0 -0.45660584463701842 0.20170712156815959 0 -0.48752476925336341 0.1862919926432012 0 -0.47223137675788601 0.1854102081277452 0 -0.47804713508906532 0.1962069158505283 0 -0.47804713508906532 0.1962069158505283 0 -0.45660584463701842 0.20170712156815959 0 -0.47223137675788601 0.1854102081277452 0 -0.45660584463701842 0.20170712156815959 0 -0.47223137675788601 0.1854102081277452 0 -0.45660584463701842 0.20170712156815959 0 -0.45876987584370821 0.18814264001465139 0 -0.45660584463701842 0.20170712156815959 0 -0.45876987584370821 0.18814264001465139 0 -0.45172577055384061 0.19610565527500129 0 -0.45660584463701842 0.20170712156815959 0 -0.45014469102192978 0.20336456257599839 0 -0.45876987584370821 0.18814264001465139 0 -0.44557075347708069 0.19194544945371081 0 -0.45172577055384061 0.19610565527500129 0 -0.44557075347708069 0.19194544945371081 0 -0.45014469102192978 0.20336456257599839 0 -0.43631987780264891 0.20227650151428239 0 -0.44557075347708069 0.19194544945371081 0 -0.43631987780264891 0.20227650151428239 0 -0.43559926904268398 0.19178202898532171 0 -0.44557075347708069 0.19194544945371081 0 -0.45172577055384061 0.19610565527500129 0 -0.45014469102192978 0.20336456257599839 0 -0.45660584463701842 0.20170712156815959 0 -0.45172577055384061 0.19610565527500129 0 -0.45014469102192978 0.20336456257599839 0 -0.45660584463701842 0.20170712156815959 0 -0.45014469102192978 0.20336456257599839 0 -0.44414916323243669 0.21469902846995259 0 -0.45660584463701842 0.20170712156815959 0 -0.44414916323243669 0.21469902846995259 0 -0.45014469102192978 0.20336456257599839 0 -0.44414916323243669 0.21469902846995259 0 -0.43631987780264891 0.20227650151428239 0 -0.45660584463701842 0.20170712156815959 0 -0.44414916323243669 0.21469902846995259 0 -0.46100229257705988 0.2180142231826408 0 -0.47190445153985372 0.20885535075028119 0 -0.45660584463701842 0.20170712156815959 0 -0.46100229257705988 0.2180142231826408 0 -0.47608184841704532 0.2219967587224185 0 -0.46100229257705988 0.2180142231826408 0 -0.46620656683517703 0.23129722958105159 0 -0.46100229257705988 0.2180142231826408 0 -0.46620656683517703 0.23129722958105159 0 -0.45390232161562549 0.23097613839558151 0 -0.44414916323243669 0.21469902846995259 0 -0.44217974833861018 0.23117374510529029 0 -0.43169248182785491 0.22769093537174559 0 -0.44414916323243669 0.21469902846995259 0 -0.45390232161562549 0.23097613839558151 0 -0.44217974833861018 0.23117374510529029 0 -0.44414916323243669 0.21469902846995259 0 -0.46100229257705988 0.2180142231826408 0 -0.45390232161562549 0.23097613839558151 0 -0.44414916323243669 0.21469902846995259 0 -0.43169248182785491 0.22769093537174559 0 -0.45390232161562549 0.23097613839558151 0 -0.44217974833861018 0.23117374510529029 0 -0.44784340792963268 0.24566193026528449 0 -0.44217974833861018 0.23117374510529029 0 -0.44784340792963268 0.24566193026528449 0 -0.4362612258554292 0.23945830792229639 0 -0.44784340792963268 0.24566193026528449 0 -0.4362612258554292 0.23945830792229639 0 -0.43772017251073492 0.25071492700109782 0 -0.44784340792963268 0.24566193026528449 0 -0.46399351030847469 0.24395188759928779 0 -0.45856876218142739 0.25899060087044001 0 -0.45390232161562549 0.23097613839558151 0 -0.44784340792963268 0.24566193026528449 0 -0.46399351030847469 0.24395188759928779 0 -0.46620656683517703 0.23129722958105159 0 -0.45390232161562549 0.23097613839558151 0 -0.46399351030847469 0.24395188759928779 0 -0.41267999889491608 0.23241883219145479 0 -0.40550594772209481 0.25500262474814189 0 -0.41859921477497491 0.24134678005994381 0 -0.41267999889491608 0.23241883219145479 0 -0.40550594772209481 0.25500262474814189 0 -0.41267999889491608 0.23241883219145479 0 -0.40242553196709552 0.24470377531646639 0 -0.40550594772209481 0.25500262474814189 0 -0.41859921477497491 0.24134678005994381 0 -0.40550594772209481 0.25500262474814189 0 -0.41859921477497491 0.24134678005994381 0 -0.4282964880421043 0.24988677976854409 0 -0.41843448825728158 0.254975555924362 0 -0.41859921477497491 0.24134678005994381 0 -0.4362612258554292 0.23945830792229639 0 -0.43169248182785491 0.22769093537174559 0 -0.41859921477497491 0.24134678005994381 0 -0.4282964880421043 0.24988677976854409 0 -0.4362612258554292 0.23945830792229639 0 -0.4282964880421043 0.24988677976854409 0 -0.4362612258554292 0.23945830792229639 0 -0.43772017251073492 0.25071492700109782 0 -0.41859921477497491 0.24134678005994381 0 -0.43169248182785491 0.22769093537174559 0 -0.43169248182785491 0.22769093537174559 0 -0.42485320758727102 0.21007552783772829 0 -0.43169248182785491 0.22769093537174559 0 -0.42226993459444478 0.22000508375892411 0 -0.42485320758727102 0.21007552783772829 0 -0.43169248182785491 0.22769093537174559 0 -0.42226993459444478 0.22000508375892411 0 -0.41267999889491608 0.23241883219145479 0 -0.4362612258554292 0.23945830792229639 0 -0.43169248182785491 0.22769093537174559 0 -0.44217974833861018 0.23117374510529029 0 -0.4362612258554292 0.23945830792229639 0 -0.43169248182785491 0.22769093537174559 0 -0.41267999889491608 0.23241883219145479 0 -0.41985405006773729 0.20983503963476771 0 -0.42226993459444478 0.22000508375892411 0 -0.41267999889491608 0.23241883219145479 0 -0.41985405006773729 0.20983503963476771 0 -0.41859921477497491 0.24134678005994381 0 -0.43169248182785491 0.22769093537174559 0 -0.41267999889491608 0.23241883219145479 0 -0.41267999889491608 0.23241883219145479 0 -0.41985405006773729 0.20983503963476771 0 -0.40403262643857618 0.2145229080187219 0 -0.41985405006773729 0.20983503963476771 0 -0.42485320758727102 0.21007552783772829 0 -0.41801393334668852 0.1924601203037106 0 -0.41985405006773729 0.20983503963476771 0 -0.41801393334668852 0.1924601203037106 0 -0.40403262643857618 0.2145229080187219 0 -0.41801393334668852 0.1924601203037106 0 -0.40403262643857618 0.2145229080187219 0 -0.44414916323243669 0.21469902846995259 0 -0.42485320758727102 0.21007552783772829 0 -0.43631987780264891 0.20227650151428239 0 -0.42226993459444478 0.22000508375892411 0 -0.41985405006773729 0.20983503963476771 0 -0.42485320758727102 0.21007552783772829 0 -0.44414916323243669 0.21469902846995259 0 -0.43169248182785491 0.22769093537174559 0 -0.42485320758727102 0.21007552783772829 0 -0.43631987780264891 0.20227650151428239 0 -0.43559926904268398 0.19178202898532171 0 -0.41801393334668852 0.1924601203037106 0 -0.42485320758727102 0.21007552783772829 0 -0.43631987780264891 0.20227650151428239 0 -0.41801393334668852 0.1924601203037106 0 -0.43559926904268398 0.19178202898532171 0 -0.41801393334668852 0.1924601203037106 0 -0.43163287386523902 0.18366436928129631 0 -0.42485320758727102 0.21007552783772829 0 -0.41801393334668852 0.1924601203037106 0 -0.41801393334668852 0.1924601203037106 0 -0.39287567361042758 0.20016847000118521 0 -0.40403262643857618 0.2145229080187219 0 -0.39287567361042758 0.20016847000118521 0 -0.39867900368128989 0.18408477232761489 0 -0.3850326189331561 0.18590906179069941 0 -0.41801393334668852 0.1924601203037106 0 -0.39287567361042758 0.20016847000118521 0 -0.39867900368128989 0.18408477232761489 0 -0.39287567361042758 0.20016847000118521 0 -0.37672854268715572 0.19563282632865239 0 -0.3850326189331561 0.18590906179069941 0 -0.39287567361042758 0.20016847000118521 0 -0.37672854268715572 0.19563282632865239 0 -0.37734930586523291 0.20993929110379289 0 -0.37672854268715572 0.19563282632865239 0 -0.3850326189331561 0.18590906179069941 0 -0.37097276692626829 0.18302760571807669 0 -0.39287567361042758 0.20016847000118521 0 -0.37734930586523291 0.20993929110379289 0 -0.40403262643857618 0.2145229080187219 0 -0.40403262643857618 0.2145229080187219 0 -0.39005131953046379 0.23658569573373289 0 -0.41267999889491608 0.23241883219145479 0 -0.40403262643857618 0.2145229080187219 0 -0.39005131953046379 0.23658569573373289 0 -0.37734930586523291 0.20993929110379289 0 -0.40403262643857618 0.2145229080187219 0 -0.39005131953046379 0.23658569573373289 0 -0.37734930586523291 0.20993929110379289 0 -0.39005131953046379 0.23658569573373289 0 -0.37694323688959253 0.23439932673728911 0 -0.37734930586523291 0.20993929110379289 0 -0.39005131953046379 0.23658569573373289 0 -0.39005131953046379 0.23658569573373289 0 -0.37694323688959253 0.23439932673728911 0 -0.38451691437018648 0.2453191000558386 0 -0.37694323688959253 0.23439932673728911 0 -0.37932103441474058 0.25298974324206969 0 -0.36915274903456652 0.25566928348620699 0 -0.39005131953046379 0.23658569573373289 0 -0.38451691437018648 0.2453191000558386 0 -0.38810223377704772 0.25551313542616172 0 -0.39005131953046379 0.23658569573373289 0 -0.38451691437018648 0.2453191000558386 0 -0.37694323688959253 0.23439932673728911 0 -0.38451691437018648 0.2453191000558386 0 -0.37932103441474058 0.25298974324206969 0 -0.41267999889491608 0.23241883219145479 0 -0.39005131953046379 0.23658569573373289 0 -0.40242553196709552 0.24470377531646639 0 -0.39005131953046379 0.23658569573373289 0 -0.40242553196709552 0.24470377531646639 0 -0.40104719784854448 0.25965295346525019 0 -0.39005131953046379 0.23658569573373289 0 -0.40104719784854448 0.25965295346525019 0 -0.42017573626961202 0.15483878158004169 0 -0.41146242317091142 0.14401997619693069 0 -0.40415700465713261 0.15676986466402851 0 -0.42017573626961202 0.15483878158004169 0 -0.40415700465713261 0.15676986466402851 0 -0.42066057288072722 0.14109397054036399 0 -0.42017573626961202 0.15483878158004169 0 -0.41146242317091142 0.14401997619693069 0 -0.41146242317091142 0.14401997619693069 0 -0.41569433644902259 0.1300283974526143 0 -0.39662446559806291 0.1373688667476051 0 -0.42066057288072722 0.14109397054036399 0 -0.41569433644902259 0.1300283974526143 0 -0.42655355180998988 0.1335039983366452 0 -0.42066057288072722 0.14109397054036399 0 -0.41146242317091142 0.14401997619693069 0 -0.41569433644902259 0.1300283974526143 0 -0.44166118690236661 0.1141990990353316 0 -0.43232610777074748 0.12671768133931149 0 -0.4351558898741355 0.13625659157486539 0 -0.42066057288072722 0.14109397054036399 0 -0.42655355180998988 0.1335039983366452 0 -0.42774804374331121 0.14372020810559419 0 -0.42593380249649798 0.122911036410404 0 -0.41569433644902259 0.1300283974526143 0 -0.42655355180998988 0.1335039983366452 0 -0.42593380249649798 0.122911036410404 0 -0.42655355180998988 0.1335039983366452 0 -0.43232610777074748 0.12671768133931149 0 -0.42655355180998988 0.1335039983366452 0 -0.43232610777074748 0.12671768133931149 0 -0.4351558898741355 0.13625659157486539 0 -0.42655355180998988 0.1335039983366452 0 -0.4351558898741355 0.13625659157486539 0 -0.42774804374331121 0.14372020810559419 0 -0.42017573626961202 0.15483878158004169 0 -0.42774804374331121 0.14372020810559419 0 -0.43619446788209132 0.1529076984960541 0 -0.43892782739222752 0.13355339876569261 0 -0.4351558898741355 0.13625659157486539 0 -0.43619446788209132 0.1529076984960541 0 -0.4351558898741355 0.13625659157486539 0 -0.42774804374331121 0.14372020810559419 0 -0.43619446788209132 0.1529076984960541 0 -0.42017573626961202 0.15483878158004169 0 -0.43619446788209132 0.1529076984960541 0 -0.42066057288072722 0.14109397054036399 0 -0.42017573626961202 0.15483878158004169 0 -0.42774804374331121 0.14372020810559419 0 -0.43619446788209132 0.1529076984960541 0 -0.43718201005867269 0.16221250395562389 0 -0.43422033477101951 0.16688608801909749 0 -0.43619446788209132 0.1529076984960541 0 -0.43422033477101951 0.16688608801909749 0 -0.42017573626961202 0.15483878158004169 0 -0.43619446788209132 0.1529076984960541 0 -0.43422033477101951 0.16688608801909749 0 -0.43718201005867269 0.16221250395562389 0 -0.43422033477101951 0.16688608801909749 0 -0.42017573626961202 0.15483878158004169 0 -0.43422033477101951 0.16688608801909749 0 -0.42050326505379482 0.1678813055967753 0 -0.41801393334668852 0.1924601203037106 0 -0.43422033477101951 0.16688608801909749 0 -0.41801393334668852 0.1924601203037106 0 -0.43422033477101951 0.16688608801909749 0 -0.43163287386523902 0.18366436928129631 0 -0.41801393334668852 0.1924601203037106 0 -0.43422033477101951 0.16688608801909749 0 -0.42050326505379482 0.1678813055967753 0 -0.43767422444411569 0.1746794823769757 0 -0.43422033477101951 0.16688608801909749 0 -0.43163287386523902 0.18366436928129631 0 -0.44351322294470308 0.17822722575389219 0 -0.43559926904268398 0.19178202898532171 0 -0.43163287386523902 0.18366436928129631 0 -0.41801393334668852 0.1924601203037106 0 -0.41108546900190979 0.1746149924838698 0 -0.41801393334668852 0.1924601203037106 0 -0.41108546900190979 0.1746149924838698 0 -0.42050326505379482 0.1678813055967753 0 -0.41801393334668852 0.1924601203037106 0 -0.41108546900190979 0.1746149924838698 0 -0.39867900368128989 0.18408477232761489 0 -0.41108546900190979 0.1746149924838698 0 -0.40415700465713261 0.15676986466402851 0 -0.41108546900190979 0.1746149924838698 0 -0.42050326505379482 0.1678813055967753 0 -0.40415700465713261 0.15676986466402851 0 -0.42017573626961202 0.15483878158004169 0 -0.42050326505379482 0.1678813055967753 0 -0.40415700465713261 0.15676986466402851 0 -0.41108546900190979 0.1746149924838698 0 -0.40415700465713261 0.15676986466402851 0 -0.39534428027915131 0.1618220550041338 0 -0.40415700465713261 0.15676986466402851 0 -0.38558338154322369 0.15900894390396481 0 -0.40415700465713261 0.15676986466402851 0 -0.39534428027915131 0.1618220550041338 0 -0.38558338154322369 0.15900894390396481 0 -0.40415700465713261 0.15676986466402851 0 -0.38558338154322369 0.15900894390396481 0 -0.38633046356062622 0.15730723038013419 0 -0.41108546900190979 0.1746149924838698 0 -0.39534428027915131 0.1618220550041338 0 -0.39688529480840962 0.17323716544392539 0 -0.39534428027915131 0.1618220550041338 0 -0.39688529480840962 0.17323716544392539 0 -0.38862717087836302 0.16678832013349021 0 -0.39534428027915131 0.1618220550041338 0 -0.38890634277887071 0.16272584533863671 0 -0.38862717087836302 0.16678832013349021 0 -0.41108546900190979 0.1746149924838698 0 -0.39867900368128989 0.18408477232761489 0 -0.39688529480840962 0.17323716544392539 0 -0.39688529480840962 0.17323716544392539 0 -0.38917307754054581 0.1767937606458799 0 -0.38862717087836302 0.16678832013349021 0 -0.39867900368128989 0.18408477232761489 0 -0.39688529480840962 0.17323716544392539 0 -0.38917307754054581 0.1767937606458799 0 -0.39867900368128989 0.18408477232761489 0 -0.3850326189331561 0.18590906179069941 0 -0.38917307754054581 0.1767937606458799 0 -0.3850326189331561 0.18590906179069941 0 -0.38917307754054581 0.1767937606458799 0 -0.38067620473873198 0.17278676983865149 0 -0.38917307754054581 0.1767937606458799 0 -0.38067620473873198 0.17278676983865149 0 -0.38862717087836302 0.16678832013349021 0 -0.3850326189331561 0.18590906179069941 0 -0.38067620473873198 0.17278676983865149 0 -0.37097276692626829 0.18302760571807669 0 -0.39534428027915131 0.1618220550041338 0 -0.38558338154322369 0.15900894390396481 0 -0.38890634277887071 0.16272584533863671 0 -0.38607053841474498 0.16328406231295781 0 -0.38558338154322369 0.15900894390396481 0 -0.38207017271935012 0.16486868641080299 0 -0.38558338154322369 0.15900894390396481 0 -0.38633046356062622 0.15730723038013419 0 -0.38019707222607402 0.15785401462369211 0 -0.38607053841474498 0.16328406231295781 0 -0.38558338154322369 0.15900894390396481 0 -0.38890634277887071 0.16272584533863671 0 -0.38607053841474498 0.16328406231295781 0 -0.38890634277887071 0.16272584533863671 0 -0.38862717087836302 0.16678832013349021 0 -0.38067620473873198 0.17278676983865149 0 -0.38862717087836302 0.16678832013349021 0 -0.38207017271935012 0.16486868641080299 0 -0.38607053841474498 0.16328406231295781 0 -0.38862717087836302 0.16678832013349021 0 -0.38207017271935012 0.16486868641080299 0 -0.38067620473873198 0.17278676983865149 0 -0.38207017271935012 0.16486868641080299 0 -0.37416538136529881 0.16472317504898909 0 -0.38067620473873198 0.17278676983865149 0 -0.37416538136529881 0.16472317504898909 0 -0.37100330885703803 0.1725038782364812 0 -0.38019707222607402 0.15785401462369211 0 -0.37297402516570349 0.1524583679853265 0 -0.37416538136529881 0.16472317504898909 0 -0.38207017271935012 0.16486868641080299 0 -0.38019707222607402 0.15785401462369211 0 -0.37416538136529881 0.16472317504898909 0 -0.38558338154322369 0.15900894390396481 0 -0.38207017271935012 0.16486868641080299 0 -0.38019707222607402 0.15785401462369211 0 -0.38633046356062622 0.15730723038013419 0 -0.38115419474987189 0.14083981649663521 0 -0.38633046356062622 0.15730723038013419 0 -0.38115419474987189 0.14083981649663521 0 -0.38457764780669301 0.14065867352832551 0 -0.38633046356062622 0.15730723038013419 0 -0.38457764780669301 0.14065867352832551 0 -0.39205597568363332 0.15102466881248641 0 -0.38019707222607402 0.15785401462369211 0 -0.38011254467740863 0.1504705275631962 0 -0.37297402516570349 0.1524583679853265 0 -0.38633046356062622 0.15730723038013419 0 -0.38011254467740863 0.1504705275631962 0 -0.38115419474987189 0.14083981649663521 0 -0.38633046356062622 0.15730723038013419 0 -0.38019707222607402 0.15785401462369211 0 -0.38011254467740863 0.1504705275631962 0 -0.38011254467740863 0.1504705275631962 0 -0.38115419474987189 0.14083981649663521 0 -0.37297402516570349 0.1524583679853265 0 -0.38457764780669301 0.14065867352832551 0 -0.39205597568363332 0.15102466881248641 0 -0.38457764780669301 0.14065867352832551 0 -0.39205597568363332 0.15102466881248641 0 -0.38634561370396198 0.14056512628664489 0 -0.39205597568363332 0.15102466881248641 0 -0.39296857201064678 0.14373788862351991 0 -0.38634561370396198 0.14056512628664489 0 -0.38115419474987189 0.14083981649663521 0 -0.38457764780669301 0.14065867352832551 0 -0.39296857201064678 0.14373788862351991 0 -0.39049985717541141 0.13893277374746421 0 -0.38634561370396198 0.14056512628664489 0 -0.40415700465713261 0.15676986466402851 0 -0.38633046356062622 0.15730723038013419 0 -0.39205597568363332 0.15102466881248641 0 -0.40415700465713261 0.15676986466402851 0 -0.39205597568363332 0.15102466881248641 0 -0.39296857201064678 0.14373788862351991 0 -0.41146242317091142 0.14401997619693069 0 -0.40415700465713261 0.15676986466402851 0 -0.39662446559806291 0.1373688667476051 0 -0.40415700465713261 0.15676986466402851 0 -0.39662446559806291 0.1373688667476051 0 -0.40415700465713261 0.15676986466402851 0 -0.39296857201064678 0.14373788862351991 0 -0.39662446559806291 0.1373688667476051 0 -0.38909192653899338 0.1179678688311816 0 -0.39662446559806291 0.1373688667476051 0 -0.4032914301198407 0.12463496770649719 0 -0.38909192653899338 0.1179678688311816 0 -0.39662446559806291 0.1373688667476051 0 -0.4032914301198407 0.12463496770649719 0 -0.41569433644902259 0.1300283974526143 0 -0.39662446559806291 0.1373688667476051 0 -0.39662446559806291 0.1373688667476051 0 -0.39049985717541141 0.13893277374746421 0 -0.38606077738897399 0.1340592133320869 0 -0.39296857201064678 0.14373788862351991 0 -0.39662446559806291 0.1373688667476051 0 -0.39049985717541141 0.13893277374746421 0 -0.38909192653899338 0.1179678688311816 0 -0.38606077738897399 0.1340592133320869 0 -0.37840990618325931 0.1321093317991919 0 -0.38909192653899338 0.1179678688311816 0 -0.39662446559806291 0.1373688667476051 0 -0.38606077738897399 0.1340592133320869 0 -0.38457764780669301 0.14065867352832551 0 -0.38606077738897399 0.1340592133320869 0 -0.37840990618325931 0.1321093317991919 0 -0.39049985717541141 0.13893277374746421 0 -0.38606077738897399 0.1340592133320869 0 -0.38634561370396198 0.14056512628664489 0 -0.38457764780669301 0.14065867352832551 0 -0.38606077738897399 0.1340592133320869 0 -0.38634561370396198 0.14056512628664489 0 -0.38457764780669301 0.14065867352832551 0 -0.38634561370396198 0.14056512628664489 0 -0.38115419474987189 0.14083981649663521 0 -0.37840990618325931 0.1321093317991919 0 -0.3667819372444226 0.13213699316434049 0 -0.38115419474987189 0.14083981649663521 0 -0.37840990618325931 0.1321093317991919 0 -0.38115419474987189 0.14083981649663521 0 -0.38457764780669301 0.14065867352832551 0 -0.37840990618325931 0.1321093317991919 0 -0.38457764780669301 0.14065867352832551 0 -0.37840990618325931 0.1321093317991919 0 -0.38115419474987189 0.14083981649663521 0 -0.3667819372444226 0.13213699316434049 0 -0.3573844039846536 0.14209753213746781 0 -0.37840990618325931 0.1321093317991919 0 -0.3667819372444226 0.13213699316434049 0 -0.36676924979640702 0.1159737743328359 0 -0.3667819372444226 0.13213699316434049 0 -0.35019193150792199 0.12966451105557139 0 -0.36676924979640702 0.1159737743328359 0 -0.3667819372444226 0.13213699316434049 0 -0.35019193150792199 0.12966451105557139 0 -0.3573844039846536 0.14209753213746781 0 -0.35019193150792199 0.12966451105557139 0 -0.3573844039846536 0.14209753213746781 0 -0.33361461321943559 0.14335524777830511 0 -0.3573844039846536 0.14209753213746781 0 -0.34165393041108971 0.16128929664599331 0 -0.33361461321943559 0.14335524777830511 0 -0.3573844039846536 0.14209753213746781 0 -0.33361461321943559 0.14335524777830511 0 -0.3573844039846536 0.14209753213746781 0 -0.37297402516570349 0.1524583679853265 0 -0.35991308082528972 0.1689261962044922 0 -0.38115419474987189 0.14083981649663521 0 -0.3573844039846536 0.14209753213746781 0 -0.37297402516570349 0.1524583679853265 0 -0.38115419474987189 0.14083981649663521 0 -0.3573844039846536 0.14209753213746781 0 -0.37297402516570349 0.1524583679853265 0 -0.37416538136529881 0.16472317504898909 0 -0.35991308082528972 0.1689261962044922 0 -0.37416538136529881 0.16472317504898909 0 -0.35991308082528972 0.1689261962044922 0 -0.37100330885703803 0.1725038782364812 0 -0.35991308082528972 0.1689261962044922 0 -0.37097276692626829 0.18302760571807669 0 -0.36299297022838201 0.19784055863173039 0 -0.35991308082528972 0.1689261962044922 0 -0.36299297022838201 0.19784055863173039 0 -0.38067620473873198 0.17278676983865149 0 -0.37097276692626829 0.18302760571807669 0 -0.37100330885703803 0.1725038782364812 0 -0.35991308082528972 0.1689261962044922 0 -0.37097276692626829 0.18302760571807669 0 -0.37100330885703803 0.1725038782364812 0 -0.35991308082528972 0.1689261962044922 0 -0.34639364136940681 0.1855935196272562 0 -0.34165393041108971 0.16128929664599331 0 -0.35991308082528972 0.1689261962044922 0 -0.34639364136940681 0.1855935196272562 0 -0.36299297022838201 0.19784055863173039 0 -0.3573844039846536 0.14209753213746781 0 -0.35991308082528972 0.1689261962044922 0 -0.34165393041108971 0.16128929664599331 0 -0.34165393041108971 0.16128929664599331 0 -0.32740649838934799 0.1777713126547506 0 -0.32479047405478018 0.1506428538920164 0 -0.34639364136940681 0.1855935196272562 0 -0.34165393041108971 0.16128929664599331 0 -0.32740649838934799 0.1777713126547506 0 -0.32740649838934799 0.1777713126547506 0 -0.305618138929449 0.16647674137569499 0 -0.30774210079585063 0.18595033612138689 0 -0.32740649838934799 0.1777713126547506 0 -0.32479047405478018 0.1506428538920164 0 -0.32479047405478018 0.1506428538920164 0 -0.30957527900999621 0.15174393504622019 0 -0.305618138929449 0.16647674137569499 0 -0.32740649838934799 0.1777713126547506 0 -0.32479047405478018 0.1506428538920164 0 -0.305618138929449 0.16647674137569499 0 -0.32479047405478018 0.1506428538920164 0 -0.305618138929449 0.16647674137569499 0 -0.32479047405478018 0.1506428538920164 0 -0.32413608608346739 0.14385677898440369 0 -0.30957527900999621 0.15174393504622019 0 -0.32479047405478018 0.1506428538920164 0 -0.32413608608346739 0.14385677898440369 0 -0.33361461321943559 0.14335524777830511 0 -0.32479047405478018 0.1506428538920164 0 -0.32413608608346739 0.14385677898440369 0 -0.32413608608346739 0.14385677898440369 0 -0.33129204423798569 0.13105892619213061 0 -0.32208475727866309 0.122584274690567 0 -0.32413608608346739 0.14385677898440369 0 -0.32208475727866309 0.122584274690567 0 -0.32413608608346739 0.14385677898440369 0 -0.30622320745172521 0.12896916685240051 0 -0.32208475727866309 0.122584274690567 0 -0.32413608608346739 0.14385677898440369 0 -0.33129204423798569 0.13105892619213061 0 -0.33361461321943559 0.14335524777830511 0 -0.35019193150792199 0.12966451105557139 0 -0.33129204423798569 0.13105892619213061 0 -0.33361461321943559 0.14335524777830511 0 -0.35019193150792199 0.12966451105557139 0 -0.33129204423798569 0.13105892619213061 0 -0.33858927493192442 0.12089308754380949 0 -0.35019193150792199 0.12966451105557139 0 -0.33361461321943559 0.14335524777830511 0 -0.34165393041108971 0.16128929664599331 0 -0.32479047405478018 0.1506428538920164 0 -0.33361461321943559 0.14335524777830511 0 -0.32479047405478018 0.1506428538920164 0 -0.33361461321943559 0.14335524777830511 0 -0.32413608608346739 0.14385677898440369 0 -0.33361461321943559 0.14335524777830511 0 -0.35133167286781808 0.2424725474208298 0 -0.36607285963147418 0.22675492105896861 0 -0.36915274903456652 0.25566928348620699 0 -0.37694323688959253 0.23439932673728911 0 -0.36607285963147418 0.22675492105896861 0 -0.36915274903456652 0.25566928348620699 0 -0.36607285963147418 0.22675492105896861 0 -0.36915274903456652 0.25566928348620699 0 -0.37734930586523291 0.20993929110379289 0 -0.37694323688959253 0.23439932673728911 0 -0.36607285963147418 0.22675492105896861 0 -0.35133167286781808 0.2424725474208298 0 -0.36607285963147418 0.22675492105896861 0 -0.34919716985391253 0.2139312670886703 0 -0.35133167286781808 0.2424725474208298 0 -0.34919716985391253 0.2139312670886703 0 -0.33263854705848861 0.23202823018021829 0 -0.36607285963147418 0.22675492105896861 0 -0.34919716985391253 0.2139312670886703 0 -0.36299297022838201 0.19784055863173039 0 -0.37734930586523291 0.20993929110379289 0 -0.36607285963147418 0.22675492105896861 0 -0.36299297022838201 0.19784055863173039 0 -0.36607285963147418 0.22675492105896861 0 -0.36299297022838201 0.19784055863173039 0 -0.37672854268715572 0.19563282632865239 0 -0.37734930586523291 0.20993929110379289 0 -0.36299297022838201 0.19784055863173039 0 -0.37672854268715572 0.19563282632865239 0 -0.37097276692626829 0.18302760571807669 0 -0.36299297022838201 0.19784055863173039 0 -0.34639364136940681 0.1855935196272562 0 -0.34919716985391253 0.2139312670886703 0 -0.36299297022838201 0.19784055863173039 0 -0.32740649838934799 0.1777713126547506 0 -0.3300225227239183 0.20489977141748439 0 -0.34639364136940681 0.1855935196272562 0 -0.32740649838934799 0.1777713126547506 0 -0.3300225227239183 0.20489977141748439 0 -0.34639364136940681 0.1855935196272562 0 -0.34919716985391253 0.2139312670886703 0 -0.3300225227239183 0.20489977141748439 0 -0.32740649838934799 0.1777713126547506 0 -0.3300225227239183 0.20489977141748439 0 -0.30774210079585063 0.18595033612138689 0 -0.3300225227239183 0.20489977141748439 0 -0.30730395823845919 0.21196960038210019 0 -0.30774210079585063 0.18595033612138689 0 -0.3300225227239183 0.20489977141748439 0 -0.33263854705848861 0.23202823018021829 0 -0.30730395823845919 0.21196960038210019 0 -0.34919716985391253 0.2139312670886703 0 -0.3300225227239183 0.20489977141748439 0 -0.33263854705848861 0.23202823018021829 0 -0.3300225227239183 0.20489977141748439 0 -0.33263854705848861 0.23202823018021829 0 -0.33263854705848861 0.23202823018021829 0 -0.30686581568106769 0.23798886464281349 0 -0.30730395823845919 0.21196960038210019 0 -0.33263854705848861 0.23202823018021829 0 -0.30686581568106769 0.23798886464281349 0 -0.31789211441409582 0.25254709093973182 0 -0.35133167286781808 0.2424725474208298 0 -0.33263854705848861 0.23202823018021829 0 -0.33525457139305892 0.25915668894295218 0 -0.33263854705848861 0.23202823018021829 0 -0.33525457139305892 0.25915668894295218 0 -0.31789211441409582 0.25254709093973182 0 -0.33263854705848861 0.23202823018021829 0 -0.33525457139305892 0.25915668894295218 0 -0.2899989795542729 0.24486950085420761 0 -0.29408383653625902 0.2253321871639847 0 -0.2760619365235415 0.23659168646386519 0 -0.2899989795542729 0.24486950085420761 0 -0.30686581568106769 0.23798886464281349 0 -0.29408383653625902 0.2253321871639847 0 -0.2899989795542729 0.24486950085420761 0 -0.30686581568106769 0.23798886464281349 0 -0.2971181007736664 0.25582851233644582 0 -0.30686581568106769 0.23798886464281349 0 -0.30730395823845919 0.21196960038210019 0 -0.30686581568106769 0.23798886464281349 0 -0.29408383653625902 0.2253321871639847 0 -0.30730395823845919 0.21196960038210019 0 -0.29408383653625902 0.2253321871639847 0 -0.27819978129767292 0.22064927273689941 0 -0.2760619365235415 0.23659168646386519 0 -0.29408383653625902 0.2253321871639847 0 -0.30730395823845919 0.21196960038210019 0 -0.28732756943741011 0.2029025851974173 0 -0.29408383653625902 0.2253321871639847 0 -0.28732756943741011 0.2029025851974173 0 -0.27819978129767292 0.22064927273689941 0 -0.30730395823845919 0.21196960038210019 0 -0.29720485806895919 0.19578328764006919 0 -0.28732756943741011 0.2029025851974173 0 -0.30730395823845919 0.21196960038210019 0 -0.30774210079585063 0.18595033612138689 0 -0.29720485806895919 0.19578328764006919 0 -0.30774210079585063 0.18595033612138689 0 -0.28644580380411688 0.18231062885937249 0 -0.30730395823845919 0.21196960038210019 0 -0.29720485806895919 0.19578328764006919 0 -0.30774210079585063 0.18595033612138689 0 -0.29720485806895919 0.19578328764006919 0 -0.28732756943741011 0.2029025851974173 0 -0.28644580380411688 0.18231062885937249 0 -0.26727346867878482 0.19814451634305011 0 -0.28644580380411688 0.18231062885937249 0 -0.2722076947635087 0.18676127759427649 0 -0.28732756943741011 0.2029025851974173 0 -0.26727346867878482 0.19814451634305011 0 -0.28644580380411688 0.18231062885937249 0 -0.26727346867878482 0.19814451634305011 0 -0.28644580380411688 0.18231062885937249 0 -0.26727346867878482 0.19814451634305011 0 -0.25648073665227261 0.18687062157390491 0 -0.24367487473232161 0.19750531195026799 0 -0.26727346867878482 0.19814451634305011 0 -0.2722076947635087 0.18676127759427649 0 -0.25648073665227261 0.18687062157390491 0 -0.26727346867878482 0.19814451634305011 0 -0.24810113355345259 0.21397840382672759 0 -0.26727346867878482 0.19814451634305011 0 -0.24810113355345259 0.21397840382672759 0 -0.24367487473232161 0.19750531195026799 0 -0.26727346867878482 0.19814451634305011 0 -0.26557897206011832 0.21498081459262891 0 -0.24810113355345259 0.21397840382672759 0 -0.26727346867878482 0.19814451634305011 0 -0.26557897206011832 0.21498081459262891 0 -0.27507740570568279 0.20848650486883941 0 -0.28732756943741011 0.2029025851974173 0 -0.26727346867878482 0.19814451634305011 0 -0.27507740570568279 0.20848650486883941 0 -0.26557897206011832 0.21498081459262891 0 -0.27507740570568279 0.20848650486883941 0 -0.27819978129767292 0.22064927273689941 0 -0.28732756943741011 0.2029025851974173 0 -0.27507740570568279 0.20848650486883941 0 -0.27819978129767292 0.22064927273689941 0 -0.27819978129767292 0.22064927273689941 0 -0.26110012984312192 0.22817444719966359 0 -0.2760619365235415 0.23659168646386519 0 -0.26557897206011832 0.21498081459262891 0 -0.27819978129767292 0.22064927273689941 0 -0.26110012984312192 0.22817444719966359 0 -0.26557897206011832 0.21498081459262891 0 -0.26110012984312192 0.22817444719966359 0 -0.24810113355345259 0.21397840382672759 0 -0.26110012984312192 0.22817444719966359 0 -0.2760619365235415 0.23659168646386519 0 -0.25781088981188399 0.25136430228956153 0 -0.26110012984312192 0.22817444719966359 0 -0.25781088981188399 0.25136430228956153 0 -0.23952164582320559 0.2315480128826049 0 -0.2760619365235415 0.23659168646386519 0 -0.27664963471256893 0.25303831249354092 0 -0.25781088981188399 0.25136430228956153 0 -0.2899989795542729 0.24486950085420761 0 -0.2760619365235415 0.23659168646386519 0 -0.27664963471256893 0.25303831249354092 0 -0.29572016603304102 0.14536033227390621 0 -0.26730424598261487 0.14686388556341989 0 -0.29572016603304102 0.14536033227390621 0 -0.26730424598261487 0.14686388556341989 0 -0.28079554064874263 0.15518921445408199 0 -0.29572016603304102 0.14536033227390621 0 -0.29259464440369681 0.15860803806622381 0 -0.28079554064874263 0.15518921445408199 0 -0.29572016603304102 0.14536033227390621 0 -0.29083033965237148 0.13049642626536109 0 -0.27654702216108867 0.13688649240799031 0 -0.32413608608346739 0.14385677898440369 0 -0.29572016603304102 0.14536033227390621 0 -0.30622320745172521 0.12896916685240051 0 -0.29572016603304102 0.14536033227390621 0 -0.29083033965237148 0.13049642626536109 0 -0.30622320745172521 0.12896916685240051 0 -0.29083033965237148 0.13049642626536109 0 -0.30622320745172521 0.12896916685240051 0 -0.295109501307662 0.1163797382113573 0 -0.32413608608346739 0.14385677898440369 0 -0.29572016603304102 0.14536033227390621 0 -0.30957527900999621 0.15174393504622019 0 -0.32413608608346739 0.14385677898440369 0 -0.29572016603304102 0.14536033227390621 0 -0.29572016603304102 0.14536033227390621 0 -0.30957527900999621 0.15174393504622019 0 -0.29259464440369681 0.15860803806622381 0 -0.30957527900999621 0.15174393504622019 0 -0.305618138929449 0.16647674137569499 0 -0.29259464440369681 0.15860803806622381 0 -0.305618138929449 0.16647674137569499 0 -0.30774210079585063 0.18595033612138689 0 -0.28644580380411688 0.18231062885937249 0 -0.305618138929449 0.16647674137569499 0 -0.28644580380411688 0.18231062885937249 0 -0.2882435169675665 0.16920667394388669 0 -0.305618138929449 0.16647674137569499 0 -0.28644580380411688 0.18231062885937249 0 -0.28644580380411688 0.18231062885937249 0 -0.2882435169675665 0.16920667394388669 0 -0.27631513679009168 0.17490147752952259 0 -0.305618138929449 0.16647674137569499 0 -0.29259464440369681 0.15860803806622381 0 -0.2882435169675665 0.16920667394388669 0 -0.2882435169675665 0.16920667394388669 0 -0.28024386091047843 0.16373648388861961 0 -0.27631513679009168 0.17490147752952259 0 -0.29259464440369681 0.15860803806622381 0 -0.2882435169675665 0.16920667394388669 0 -0.28024386091047843 0.16373648388861961 0 -0.29259464440369681 0.15860803806622381 0 -0.28024386091047843 0.16373648388861961 0 -0.28079554064874263 0.15518921445408199 0 -0.28024386091047843 0.16373648388861961 0 -0.26811478591388171 0.16137733247823929 0 -0.28079554064874263 0.15518921445408199 0 -0.28024386091047843 0.16373648388861961 0 -0.26811478591388171 0.16137733247823929 0 -0.27631513679009168 0.17490147752952259 0 -0.26811478591388171 0.16137733247823929 0 -0.27631513679009168 0.17490147752952259 0 -0.26293249437346061 0.17417838828237939 0 -0.28644580380411688 0.18231062885937249 0 -0.27631513679009168 0.17490147752952259 0 -0.2722076947635087 0.18676127759427649 0 -0.27631513679009168 0.17490147752952259 0 -0.2722076947635087 0.18676127759427649 0 -0.26293249437346061 0.17417838828237939 0 -0.2722076947635087 0.18676127759427649 0 -0.26293249437346061 0.17417838828237939 0 -0.25648073665227261 0.18687062157390491 0 -0.26293249437346061 0.17417838828237939 0 -0.23781002699758311 0.17870230866743159 0 -0.2722076947635087 0.18676127759427649 0 -0.25648073665227261 0.18687062157390491 0 -0.26293249437346061 0.17417838828237939 0 -0.26293249437346061 0.17417838828237939 0 -0.2536572939834123 0.1615954989704822 0 -0.23781002699758311 0.17870230866743159 0 -0.26811478591388171 0.16137733247823929 0 -0.2536572939834123 0.1615954989704822 0 -0.26730424598261487 0.14686388556341989 0 -0.26293249437346061 0.17417838828237939 0 -0.2536572939834123 0.1615954989704822 0 -0.26811478591388171 0.16137733247823929 0 -0.26293249437346061 0.17417838828237939 0 -0.2536572939834123 0.1615954989704822 0 -0.26730424598261487 0.14686388556341989 0 -0.25476938840562069 0.1372802280036049 0 -0.24371814192234381 0.14811188190785471 0 -0.26730424598261487 0.14686388556341989 0 -0.24371814192234381 0.14811188190785471 0 -0.2536572939834123 0.1615954989704822 0 -0.26730424598261487 0.14686388556341989 0 -0.24371814192234381 0.14811188190785471 0 -0.2536572939834123 0.1615954989704822 0 -0.26730424598261487 0.14686388556341989 0 -0.26811478591388171 0.16137733247823929 0 -0.26730424598261487 0.14686388556341989 0 -0.28079554064874263 0.15518921445408199 0 -0.29572016603304102 0.14536033227390621 0 -0.26730424598261487 0.14686388556341989 0 -0.27654702216108867 0.13688649240799031 0 -0.26730424598261487 0.14686388556341989 0 -0.27654702216108867 0.13688649240799031 0 -0.27654702216108867 0.13688649240799031 0 -0.26500563460956889 0.13239003497903881 0 -0.27253433668972382 0.1173207152419086 0 -0.29083033965237148 0.13049642626536109 0 -0.27654702216108867 0.13688649240799031 0 -0.27253433668972382 0.1173207152419086 0 -0.26730424598261487 0.14686388556341989 0 -0.27654702216108867 0.13688649240799031 0 -0.26500563460956889 0.13239003497903881 0 -0.26500563460956889 0.13239003497903881 0 -0.25453811914305119 0.12576788457430249 0 -0.27253433668972382 0.1173207152419086 0 -0.26500563460956889 0.13239003497903881 0 -0.25476938840562069 0.1372802280036049 0 -0.25453811914305119 0.12576788457430249 0 -0.26730424598261487 0.14686388556341989 0 -0.26500563460956889 0.13239003497903881 0 -0.25476938840562069 0.1372802280036049 0 -0.25476938840562069 0.1372802280036049 0 -0.25453811914305119 0.12576788457430249 0 -0.2442444782567518 0.12789030222594441 0 -0.25453811914305119 0.12576788457430249 0 -0.27253433668972382 0.1173207152419086 0 -0.24892577662476259 0.1122456537265426 0 -0.25933948796623668 0.096857220817064382 0 -0.27253433668972382 0.1173207152419086 0 -0.24892577662476259 0.1122456537265426 0 -0.25933948796623668 0.096857220817064382 0 -0.27253433668972382 0.1173207152419086 0 -0.28385335015024971 0.10071131876226749 0 -0.29083033965237148 0.13049642626536109 0 -0.27253433668972382 0.1173207152419086 0 -0.295109501307662 0.1163797382113573 0 -0.27253433668972382 0.1173207152419086 0 -0.295109501307662 0.1163797382113573 0 -0.28385335015024971 0.10071131876226749 0 -0.295109501307662 0.1163797382113573 0 -0.28385335015024971 0.10071131876226749 0 -0.30369859037706359 0.1016576551961615 0 -0.28385335015024971 0.10071131876226749 0 -0.30369859037706359 0.1016576551961615 0 -0.29614563577855829 0.087169748212200054 0 -0.30369859037706359 0.1016576551961615 0 -0.30942989697779472 0.11418052106944331 0 -0.32003342847385929 0.1013117703967302 0 -0.30622320745172521 0.12896916685240051 0 -0.295109501307662 0.1163797382113573 0 -0.30942989697779472 0.11418052106944331 0 -0.295109501307662 0.1163797382113573 0 -0.30369859037706359 0.1016576551961615 0 -0.30942989697779472 0.11418052106944331 0 -0.30517264194619143 0.067092280553349995 0 -0.29614563577855829 0.087169748212200054 0 -0.31798209966905411 0.080039266102893442 0 -0.30369859037706359 0.1016576551961615 0 -0.29614563577855829 0.087169748212200054 0 -0.31798209966905411 0.080039266102893442 0 -0.29614563577855829 0.087169748212200054 0 -0.31798209966905411 0.080039266102893442 0 -0.28385335015024971 0.10071131876226749 0 -0.29614563577855829 0.087169748212200054 0 -0.27467601573054778 0.080119922530864585 0 -0.29614563577855829 0.087169748212200054 0 -0.28817896684886601 0.066893501114747608 0 -0.27467601573054778 0.080119922530864585 0 -0.30517264194619143 0.067092280553349995 0 -0.29614563577855829 0.087169748212200054 0 -0.28817896684886601 0.066893501114747608 0 -0.28817896684886601 0.066893501114747608 0 -0.27467601573054778 0.080119922530864585 0 -0.27055438399581078 0.057336971701907359 0 -0.25933948796623668 0.096857220817064382 0 -0.28385335015024971 0.10071131876226749 0 -0.27467601573054778 0.080119922530864585 0 -0.25933948796623668 0.096857220817064382 0 -0.27467601573054778 0.080119922530864585 0 -0.24905342308690939 0.07265575326688023 0 -0.27467601573054778 0.080119922530864585 0 -0.27055438399581078 0.057336971701907359 0 -0.24905342308690939 0.07265575326688023 0 -0.25295519749278128 0.046060126382706901 0 -0.27055438399581078 0.057336971701907359 0 -0.24905342308690939 0.07265575326688023 0 -0.25295519749278128 0.046060126382706901 0 -0.27148554486690663 0.037020516873759242 0 -0.25860103273555779 0.022298115928908981 0 -0.25295519749278128 0.046060126382706901 0 -0.27148554486690663 0.037020516873759242 0 -0.27055438399581078 0.057336971701907359 0 -0.27148554486690663 0.037020516873759242 0 -0.27055438399581078 0.057336971701907359 0 -0.29329849524067791 0.042322372724515951 0 -0.26649498000560651 -0.0041329229669573231 0 -0.25860103273555779 0.022298115928908981 0 -0.2436265138743488 0.0065037479392753318 0 -0.27148554486690663 0.037020516873759242 0 -0.25860103273555779 0.022298115928908981 0 -0.27982590590507278 0.01874199208089131 0 -0.26649498000560651 -0.0041329229669573231 0 -0.27982590590507278 0.01874199208089131 0 -0.28788476338416141 0.0020438274912654162 0 -0.26649498000560651 -0.0041329229669573231 0 -0.25860103273555779 0.022298115928908981 0 -0.27982590590507278 0.01874199208089131 0 -0.27982590590507278 0.01874199208089131 0 -0.28788476338416141 0.0020438274912654162 0 -0.29995924487435471 0.013897476485999869 0 -0.28788476338416141 0.0020438274912654162 0 -0.29995924487435471 0.013897476485999869 0 -0.29990889168979129 0.001231685760085421 0 -0.27982590590507278 0.01874199208089131 0 -0.29995924487435471 0.013897476485999869 0 -0.29329849524067791 0.042322372724515951 0 -0.29995924487435471 0.013897476485999869 0 -0.29329849524067791 0.042322372724515951 0 -0.31276357404145111 0.025922583998714749 0 -0.31015431122765103 -0.0011357570533747129 0 -0.29995924487435471 0.013897476485999869 0 -0.31276357404145111 0.025922583998714749 0 -0.31015431122765103 -0.0011357570533747129 0 -0.31276357404145111 0.025922583998714749 0 -0.31015431122765103 -0.0011357570533747129 0 -0.29995924487435471 0.013897476485999869 0 -0.29990889168979129 0.001231685760085421 0 -0.28817896684886601 0.066893501114747608 0 -0.27055438399581078 0.057336971701907359 0 -0.29329849524067791 0.042322372724515951 0 -0.30517264194619143 0.067092280553349995 0 -0.28817896684886601 0.066893501114747608 0 -0.29329849524067791 0.042322372724515951 0 -0.27148554486690663 0.037020516873759242 0 -0.27982590590507278 0.01874199208089131 0 -0.29329849524067791 0.042322372724515951 0 -0.29329849524067791 0.042322372724515951 0 -0.31537283685525319 0.052980925050804012 0 -0.31276357404145111 0.025922583998714749 0 -0.30517264194619143 0.067092280553349995 0 -0.29329849524067791 0.042322372724515951 0 -0.31537283685525319 0.052980925050804012 0 -0.31537283685525319 0.052980925050804012 0 -0.32994070918408352 0.050608272363797648 0 -0.32845745096709777 0.062868329836740899 0 -0.31537283685525319 0.052980925050804012 0 -0.32580092886811041 0.038670858767216897 0 -0.32994070918408352 0.050608272363797648 0 -0.31537283685525319 0.052980925050804012 0 -0.31276357404145111 0.025922583998714749 0 -0.31537283685525319 0.052980925050804012 0 -0.32580092886811041 0.038670858767216897 0 -0.31276357404145111 0.025922583998714749 0 -0.32580092886811041 0.038670858767216897 0 -0.33657588650589948 0.039208796625667793 0 -0.32994070918408352 0.050608272363797648 0 -0.33657588650589948 0.039208796625667793 0 -0.341200211733929 0.048399627327561839 0 -0.32994070918408352 0.050608272363797648 0 -0.33657588650589948 0.039208796625667793 0 -0.33435163775386478 0.024633715797100251 0 -0.35618221017345042 0.033204771868646253 0 -0.32580092886811041 0.038670858767216897 0 -0.33657588650589948 0.039208796625667793 0 -0.33435163775386478 0.024633715797100251 0 -0.33446751874597103 0.060820647257051663 0 -0.34883473406023902 0.058155648522645369 0 -0.341200211733929 0.048399627327561839 0 -0.33446751874597103 0.060820647257051663 0 -0.34883473406023902 0.058155648522645369 0 -0.33446751874597103 0.060820647257051663 0 -0.34883473406023902 0.058155648522645369 0 -0.33886889152693972 0.066889185511359639 0 -0.33446751874597103 0.060820647257051663 0 -0.32994070918408352 0.050608272363797648 0 -0.32845745096709777 0.062868329836740899 0 -0.341200211733929 0.048399627327561839 0 -0.33446751874597103 0.060820647257051663 0 -0.32994070918408352 0.050608272363797648 0 -0.31015431122765103 -0.0011357570533747129 0 -0.31276357404145111 0.025922583998714749 0 -0.32999606532842318 0.0078641208590209677 0 -0.31015431122765103 -0.0011357570533747129 0 -0.32999606532842318 0.0078641208590209677 0 -0.31276357404145111 0.025922583998714749 0 -0.33435163775386478 0.024633715797100251 0 -0.32999606532842318 0.0078641208590209677 0 -0.32580092886811041 0.038670858767216897 0 -0.31276357404145111 0.025922583998714749 0 -0.33435163775386478 0.024633715797100251 0 -0.33435163775386478 0.024633715797100251 0 -0.32999606532842318 0.0078641208590209677 0 -0.34983781942919512 0.016863998771417581 0 -0.32999606532842318 0.0078641208590209677 0 -0.34983781942919512 0.016863998771417581 0 -0.34000851592018583 -0.0084526036919412573 0 -0.32999606532842318 0.0078641208590209677 0 -0.34983781942919512 0.016863998771417581 0 -0.34000851592018583 -0.0084526036919412573 0 -0.35053270008252568 0.00024745909662373121 0 -0.34983781942919512 0.016863998771417581 0 -0.34000851592018583 -0.0084526036919412573 0 -0.34983781942919512 0.016863998771417581 0 -0.35053270008252568 0.00024745909662373121 0 -0.35568206354986281 0.01074396172471042 0 -0.34983781942919512 0.016863998771417581 0 -0.35707862334528662 0.002397725235558461 0 -0.35053270008252568 0.00024745909662373121 0 -0.35568206354986281 0.01074396172471042 0 -0.35568206354986281 0.01074396172471042 0 -0.34983781942919512 0.016863998771417581 0 -0.36081530526007588 0.017471507513447278 0 -0.35707862334528662 0.002397725235558461 0 -0.36081530526007588 0.017471507513447278 0 -0.35707862334528662 0.002397725235558461 0 -0.35568206354986281 0.01074396172471042 0 -0.36081530526007588 0.017471507513447278 0 -0.34983781942919512 0.016863998771417581 0 -0.35618221017345042 0.033204771868646253 0 -0.34983781942919512 0.016863998771417581 0 -0.35967963209551401 0.021328075484782268 0 -0.35618221017345042 0.033204771868646253 0 -0.33435163775386478 0.024633715797100251 0 -0.34983781942919512 0.016863998771417581 0 -0.35618221017345042 0.033204771868646253 0 -0.34983781942919512 0.016863998771417581 0 -0.35967963209551401 0.021328075484782268 0 -0.36081530526007588 0.017471507513447278 0 -0.34983781942919512 0.016863998771417581 0 -0.35967963209551401 0.021328075484782268 0 -0.35967963209551401 0.021328075484782268 0 -0.35618221017345042 0.033204771868646253 0 -0.36203630467332898 0.022397021575539001 0 -0.35967963209551401 0.021328075484782268 0 -0.35618221017345042 0.033204771868646253 0 -0.36203630467332898 0.022397021575539001 0 -0.36598344244587838 0.038319783202294663 0 -0.38481987753503039 0.032731257808996342 0 -0.36203630467332898 0.022397021575539001 0 -0.36598344244587838 0.038319783202294663 0 -0.38481987753503039 0.032731257808996342 0 -0.37124240922392238 0.0159546708235399 0 -0.36203630467332898 0.022397021575539001 0 -0.38481987753503039 0.032731257808996342 0 -0.36203630467332898 0.022397021575539001 0 -0.37124240922392238 0.0159546708235399 0 -0.36203630467332898 0.022397021575539001 0 -0.36081530526007588 0.017471507513447278 0 -0.36203630467332898 0.022397021575539001 0 -0.36081530526007588 0.017471507513447278 0 -0.36203630467332898 0.022397021575539001 0 -0.35967963209551401 0.021328075484782268 0 -0.36081530526007588 0.017471507513447278 0 -0.36203630467332898 0.022397021575539001 0 -0.35967963209551401 0.021328075484782268 0 -0.35967963209551401 0.021328075484782268 0 -0.36081530526007588 0.017471507513447278 0 -0.37124240922392238 0.0159546708235399 0 -0.36081530526007588 0.017471507513447278 0 -0.36302940953166712 0.0099527566215273158 0 -0.35707862334528662 0.002397725235558461 0 -0.36081530526007588 0.017471507513447278 0 -0.36302940953166712 0.0099527566215273158 0 -0.36081530526007588 0.017471507513447278 0 -0.36302940953166712 0.0099527566215273158 0 -0.37124240922392238 0.0159546708235399 0 -0.36302940953166712 0.0099527566215273158 0 -0.37105926560901481 0.0060949122395229484 0 -0.3726509171759278 -0.0042871194606509278 0 -0.37105926560901481 0.0060949122395229484 0 -0.36524667940101929 0.001494106089630491 0 -0.35707862334528662 0.002397725235558461 0 -0.36302940953166712 0.0099527566215273158 0 -0.36524667940101929 0.001494106089630491 0 -0.36302940953166712 0.0099527566215273158 0 -0.37105926560901481 0.0060949122395229484 0 -0.36524667940101929 0.001494106089630491 0 -0.34883473406023902 0.058155648522645369 0 -0.36472512292145498 0.05520811378622488 0 -0.34883473406023902 0.058155648522645369 0 -0.35618221017345042 0.033204771868646253 0 -0.36472512292145498 0.05520811378622488 0 -0.341200211733929 0.048399627327561839 0 -0.34883473406023902 0.058155648522645369 0 -0.35618221017345042 0.033204771868646253 0 -0.34883473406023902 0.058155648522645369 0 -0.35618221017345042 0.033204771868646253 0 -0.33657588650589948 0.039208796625667793 0 -0.341200211733929 0.048399627327561839 0 -0.35618221017345042 0.033204771868646253 0 -0.36203630467332898 0.022397021575539001 0 -0.35618221017345042 0.033204771868646253 0 -0.36598344244587838 0.038319783202294663 0 -0.36598344244587838 0.038319783202294663 0 -0.36993058021841713 0.054242544829053038 0 -0.35618221017345042 0.033204771868646253 0 -0.36472512292145498 0.05520811378622488 0 -0.35618221017345042 0.033204771868646253 0 -0.36598344244587838 0.038319783202294663 0 -0.36472512292145498 0.05520811378622488 0 -0.37682581693674783 0.044112443563187477 0 -0.36598344244587838 0.038319783202294663 0 -0.36993058021841713 0.054242544829053038 0 -0.36598344244587838 0.038319783202294663 0 -0.36993058021841713 0.054242544829053038 0 -0.36472512292145498 0.05520811378622488 0 -0.34883473406023902 0.058155648522645369 0 -0.36472512292145498 0.05520811378622488 0 -0.36802186081064481 0.063699275188457111 0 -0.36472512292145498 0.05520811378622488 0 -0.36802186081064481 0.063699275188457111 0 -0.36472512292145498 0.05520811378622488 0 -0.36865847862269169 0.058891110035255753 0 -0.36802186081064481 0.063699275188457111 0 -0.36993058021841713 0.054242544829053038 0 -0.37195635054025011 0.062414506337287262 0 -0.36865847862269169 0.058891110035255753 0 -0.37195635054025011 0.062414506337287262 0 -0.36802186081064481 0.063699275188457111 0 -0.36993058021841713 0.054242544829053038 0 -0.36865847862269169 0.058891110035255753 0 -0.37195635054025011 0.062414506337287262 0 -0.36993058021841713 0.054242544829053038 0 -0.36472512292145498 0.05520811378622488 0 -0.36865847862269169 0.058891110035255753 0 -0.36993058021841713 0.054242544829053038 0 -0.36472512292145498 0.05520811378622488 0 -0.37606216253438818 0.078977360089605125 0 -0.37195635054025011 0.062414506337287262 0 -0.37606216253438818 0.078977360089605125 0 -0.36802186081064481 0.063699275188457111 0 -0.37460000895301448 0.080642119746363317 0 -0.37606216253438818 0.078977360089605125 0 -0.37195635054025011 0.062414506337287262 0 -0.36802186081064481 0.063699275188457111 0 -0.36802186081064481 0.063699275188457111 0 -0.35843293601706139 0.068556018033569061 0 -0.37460000895301448 0.080642119746363317 0 -0.36802186081064481 0.063699275188457111 0 -0.37460000895301448 0.080642119746363317 0 -0.37195635054025011 0.062414506337287262 0 -0.36802186081064481 0.063699275188457111 0 -0.36802186081064481 0.063699275188457111 0 -0.35843293601706139 0.068556018033569061 0 -0.34498728279673668 0.071220989658678693 0 -0.36802186081064481 0.063699275188457111 0 -0.34498728279673668 0.071220989658678693 0 -0.34883473406023902 0.058155648522645369 0 -0.36802186081064481 0.063699275188457111 0 -0.34498728279673668 0.071220989658678693 0 -0.35843293601706139 0.068556018033569061 0 -0.35311566184740067 0.075054599765780064 0 -0.34498728279673668 0.071220989658678693 0 -0.35843293601706139 0.068556018033569061 0 -0.35311566184740067 0.075054599765780064 0 -0.35740598056362632 0.080684782047185377 0 -0.34498728279673668 0.071220989658678693 0 -0.35017187856026971 0.080543629712927695 0 -0.34194252599597419 0.081560506277269268 0 -0.35311566184740067 0.075054599765780064 0 -0.34498728279673668 0.071220989658678693 0 -0.35017187856026971 0.080543629712927695 0 -0.34883473406023902 0.058155648522645369 0 -0.34498728279673668 0.071220989658678693 0 -0.33886889152693972 0.066889185511359639 0 -0.34883473406023902 0.058155648522645369 0 -0.34498728279673668 0.071220989658678693 0 -0.3462452771292559 0.087524713609506255 0 -0.36374822244059729 0.092997604573309883 0 -0.3462452771292559 0.087524713609506255 0 -0.35852713286960403 0.087229661451186019 0 -0.36374822244059729 0.092997604573309883 0 -0.3462452771292559 0.087524713609506255 0 -0.34664907259206962 0.098001422197530524 0 -0.33860838109107422 0.092882739515861207 0 -0.3462452771292559 0.087524713609506255 0 -0.35017187856026971 0.080543629712927695 0 -0.34194252599597419 0.081560506277269268 0 -0.3462452771292559 0.087524713609506255 0 -0.34194252599597419 0.081560506277269268 0 -0.35017187856026971 0.080543629712927695 0 -0.35740598056362632 0.080684782047185377 0 -0.35852713286960403 0.087229661451186019 0 -0.3462452771292559 0.087524713609506255 0 -0.35017187856026971 0.080543629712927695 0 -0.35852713286960403 0.087229661451186019 0 -0.35311566184740067 0.075054599765780064 0 -0.35017187856026971 0.080543629712927695 0 -0.35740598056362632 0.080684782047185377 0 -0.35740598056362632 0.080684782047185377 0 -0.35852713286960403 0.087229661451186019 0 -0.36549176259878302 0.091012467476753789 0 -0.35843293601706139 0.068556018033569061 0 -0.36549176259878302 0.091012467476753789 0 -0.38155938747992491 0.098566870914757881 0 -0.37460000895301448 0.080642119746363317 0 -0.36637382163452348 0.093818587433476291 0 -0.35843293601706139 0.068556018033569061 0 -0.35740598056362632 0.080684782047185377 0 -0.36549176259878302 0.091012467476753789 0 -0.35843293601706139 0.068556018033569061 0 -0.36549176259878302 0.091012467476753789 0 -0.37460000895301448 0.080642119746363317 0 -0.35852713286960403 0.087229661451186019 0 -0.36549176259878302 0.091012467476753789 0 -0.36374822244059729 0.092997604573309883 0 -0.36549176259878302 0.091012467476753789 0 -0.36637382163452348 0.093818587433476291 0 -0.36374822244059729 0.092997604573309883 0 -0.36637382163452348 0.093818587433476291 0 -0.36549176259878302 0.091012467476753789 0 -0.36374822244059729 0.092997604573309883 0 -0.36637382163452348 0.093818587433476291 0 -0.36549176259878302 0.091012467476753789 0 -0.36374822244059729 0.092997604573309883 0 -0.36549176259878302 0.091012467476753789 0 -0.37460000895301448 0.080642119746363317 0 -0.36549176259878302 0.091012467476753789 0 -0.37460000895301448 0.080642119746363317 0 -0.36637382163452348 0.093818587433476291 0 -0.38155938747992491 0.098566870914757881 0 -0.36637382163452348 0.093818587433476291 0 -0.38155938747992491 0.098566870914757881 0 -0.36637382163452348 0.093818587433476291 0 -0.3719841621530966 0.1116669262127041 0 -0.36637382163452348 0.093818587433476291 0 -0.36355809500828329 0.10073924107767571 0 -0.3719841621530966 0.1116669262127041 0 -0.36637382163452348 0.093818587433476291 0 -0.3719841621530966 0.1116669262127041 0 -0.36676924979640702 0.1159737743328359 0 -0.35630631988763461 0.1014707084232316 0 -0.36355809500828329 0.10073924107767571 0 -0.36676924979640702 0.1159737743328359 0 -0.35630631988763461 0.1014707084232316 0 -0.36374822244059729 0.092997604573309883 0 -0.35630631988763461 0.1014707084232316 0 -0.36374822244059729 0.092997604573309883 0 -0.36355809500828329 0.10073924107767571 0 -0.35630631988763461 0.1014707084232316 0 -0.36374822244059729 0.092997604573309883 0 -0.36637382163452348 0.093818587433476291 0 -0.36355809500828329 0.10073924107767571 0 -0.37840990618325931 0.1321093317991919 0 -0.36676924979640702 0.1159737743328359 0 -0.37840990618325931 0.1321093317991919 0 -0.3719841621530966 0.1116669262127041 0 -0.36676924979640702 0.1159737743328359 0 -0.36355809500828329 0.10073924107767571 0 -0.3719841621530966 0.1116669262127041 0 -0.36676924979640702 0.1159737743328359 0 -0.3719841621530966 0.1116669262127041 0 -0.36676924979640702 0.1159737743328359 0 -0.35019193150792199 0.12966451105557139 0 -0.34855381493195198 0.1102974538850293 0 -0.33858927493192442 0.12089308754380949 0 -0.35019193150792199 0.12966451105557139 0 -0.36676924979640702 0.1159737743328359 0 -0.35019193150792199 0.12966451105557139 0 -0.36676924979640702 0.1159737743328359 0 -0.34855381493195198 0.1102974538850293 0 -0.36676924979640702 0.1159737743328359 0 -0.34855381493195198 0.1102974538850293 0 -0.35630631988763461 0.1014707084232316 0 -0.3462452771292559 0.087524713609506255 0 -0.36374822244059729 0.092997604573309883 0 -0.35630631988763461 0.1014707084232316 0 -0.34855381493195198 0.1102974538850293 0 -0.35630631988763461 0.1014707084232316 0 -0.34855381493195198 0.1102974538850293 0 -0.35630631988763461 0.1014707084232316 0 -0.34664907259206962 0.098001422197530524 0 -0.34855381493195198 0.1102974538850293 0 -0.34664907259206962 0.098001422197530524 0 -0.33926248694376732 0.1007309928542367 0 -0.3462452771292559 0.087524713609506255 0 -0.35630631988763461 0.1014707084232316 0 -0.3462452771292559 0.087524713609506255 0 -0.35630631988763461 0.1014707084232316 0 -0.34664907259206962 0.098001422197530524 0 -0.34855381493195198 0.1102974538850293 0 -0.33926248694376732 0.1007309928542367 0 -0.33289694241944268 0.1084897048636158 0 -0.34664907259206962 0.098001422197530524 0 -0.33926248694376732 0.1007309928542367 0 -0.33860838109107422 0.092882739515861207 0 -0.33926248694376732 0.1007309928542367 0 -0.32960422368429831 0.09398364380914645 0 -0.33860838109107422 0.092882739515861207 0 -0.33926248694376732 0.1007309928542367 0 -0.33289694241944268 0.1084897048636158 0 -0.32960422368429831 0.09398364380914645 0 -0.34855381493195198 0.1102974538850293 0 -0.33289694241944268 0.1084897048636158 0 -0.33858927493192442 0.12089308754380949 0 -0.33289694241944268 0.1084897048636158 0 -0.33858927493192442 0.12089308754380949 0 -0.32208475727866309 0.122584274690567 0 -0.33129204423798569 0.13105892619213061 0 -0.33858927493192442 0.12089308754380949 0 -0.32208475727866309 0.122584274690567 0 -0.33289694241944268 0.1084897048636158 0 -0.32208475727866309 0.122584274690567 0 -0.32003342847385929 0.1013117703967302 0 -0.30622320745172521 0.12896916685240051 0 -0.30942989697779472 0.11418052106944331 0 -0.32208475727866309 0.122584274690567 0 -0.30942989697779472 0.11418052106944331 0 -0.32208475727866309 0.122584274690567 0 -0.32003342847385929 0.1013117703967302 0 -0.32208475727866309 0.122584274690567 0 -0.32003342847385929 0.1013117703967302 0 -0.30369859037706359 0.1016576551961615 0 -0.32003342847385929 0.1013117703967302 0 -0.31798209966905411 0.080039266102893442 0 -0.33289694241944268 0.1084897048636158 0 -0.32960422368429831 0.09398364380914645 0 -0.32003342847385929 0.1013117703967302 0 -0.32960422368429831 0.09398364380914645 0 -0.32003342847385929 0.1013117703967302 0 -0.31798209966905411 0.080039266102893442 0 -0.32003342847385929 0.1013117703967302 0 -0.31798209966905411 0.080039266102893442 0 -0.32960422368429831 0.09398364380914645 0 -0.31798209966905411 0.080039266102893442 0 -0.33084667094457171 0.083359848560939503 0 -0.31798209966905411 0.080039266102893442 0 -0.33648599541655838 0.073997001281917427 0 -0.30517264194619143 0.067092280553349995 0 -0.31537283685525319 0.052980925050804012 0 -0.31798209966905411 0.080039266102893442 0 -0.31798209966905411 0.080039266102893442 0 -0.32845745096709777 0.062868329836740899 0 -0.33648599541655838 0.073997001281917427 0 -0.31537283685525319 0.052980925050804012 0 -0.31798209966905411 0.080039266102893442 0 -0.32845745096709777 0.062868329836740899 0 -0.31537283685525319 0.052980925050804012 0 -0.31798209966905411 0.080039266102893442 0 -0.32845745096709777 0.062868329836740899 0 -0.33648599541655838 0.073997001281917427 0 -0.32845745096709777 0.062868329836740899 0 -0.33886889152693972 0.066889185511359639 0 -0.33648599541655838 0.073997001281917427 0 -0.33446751874597103 0.060820647257051663 0 -0.32845745096709777 0.062868329836740899 0 -0.33886889152693972 0.066889185511359639 0 -0.34498728279673668 0.071220989658678693 0 -0.34194252599597419 0.081560506277269268 0 -0.34498728279673668 0.071220989658678693 0 -0.33648599541655838 0.073997001281917427 0 -0.34498728279673668 0.071220989658678693 0 -0.33648599541655838 0.073997001281917427 0 -0.34194252599597419 0.081560506277269268 0 -0.34498728279673668 0.071220989658678693 0 -0.33886889152693972 0.066889185511359639 0 -0.33648599541655838 0.073997001281917427 0 -0.33648599541655838 0.073997001281917427 0 -0.34194252599597419 0.081560506277269268 0 -0.31798209966905411 0.080039266102893442 0 -0.33648599541655838 0.073997001281917427 0 -0.33084667094457171 0.083359848560939503 0 -0.33648599541655838 0.073997001281917427 0 -0.34194252599597419 0.081560506277269268 0 -0.33641737633846791 0.081301658344528668 0 -0.34194252599597419 0.081560506277269268 0 -0.33641737633846791 0.081301658344528668 0 -0.33639431299676897 0.08628927725798799 0 -0.34194252599597419 0.081560506277269268 0 -0.34069588012699659 0.085793920150117886 0 -0.33639431299676897 0.08628927725798799 0 -0.34194252599597419 0.081560506277269268 0 -0.34069588012699659 0.085793920150117886 0 -0.3462452771292559 0.087524713609506255 0 -0.34194252599597419 0.081560506277269268 0 -0.34069588012699659 0.085793920150117886 0 -0.3462452771292559 0.087524713609506255 0 -0.34069588012699659 0.085793920150117886 0 -0.33860838109107422 0.092882739515861207 0 -0.3462452771292559 0.087524713609506255 0 -0.34069588012699659 0.085793920150117886 0 -0.34069588012699659 0.085793920150117886 0 -0.33860838109107422 0.092882739515861207 0 -0.33639431299676897 0.08628927725798799 0 -0.34069588012699659 0.085793920150117886 0 -0.33860838109107422 0.092882739515861207 0 -0.32960422368429831 0.09398364380914645 0 -0.33860838109107422 0.092882739515861207 0 -0.33639431299676897 0.08628927725798799 0 -0.32960422368429831 0.09398364380914645 0 -0.33639431299676897 0.08628927725798799 0 -0.33084667094457171 0.083359848560939503 0 -0.33648599541655838 0.073997001281917427 0 -0.33641737633846791 0.081301658344528668 0 -0.33084667094457171 0.083359848560939503 0 -0.33641737633846791 0.081301658344528668 0 -0.33639431299676897 0.08628927725798799 0 -0.33084667094457171 0.083359848560939503 0 -0.40591216649836243 0.47121853768263922 0 -0.3900851720938453 0.48412400869755129 0 -0.38366308331645249 0.4684977888528169 0 -0.40591216649836243 0.47121853768263922 0 -0.3900851720938453 0.48412400869755129 0 -0.41520775514121983 0.48527637178433558 0 -0.40591216649836243 0.47121853768263922 0 -0.38366308331645249 0.4684977888528169 0 -0.39540097155033882 0.5 0 -0.3900851720938453 0.48412400869755129 0 -0.41520775514121983 0.48527637178433558 0 -0.39540097155033882 0.5 0 -0.3900851720938453 0.48412400869755129 0 -0.36853100433466129 0.5 0 -0.3900851720938453 0.48412400869755129 0 -0.37179605172203728 0.47975135386551609 0 -0.36853100433466129 0.5 0 -0.3900851720938453 0.48412400869755129 0 -0.38366308331645249 0.4684977888528169 0 -0.37179605172203728 0.47975135386551609 0 -0.38366308331645249 0.4684977888528169 0 -0.39545293505028201 0.45177528771600378 0 -0.37450065770581231 0.45109209589174709 0 -0.39545293505028201 0.45177528771600378 0 -0.38180541721747591 0.43282878077640491 0 -0.37450065770581231 0.45109209589174709 0 -0.39545293505028201 0.45177528771600378 0 -0.40850377381563591 0.43336325322412173 0 -0.38180541721747591 0.43282878077640491 0 -0.40591216649836243 0.47121853768263922 0 -0.38366308331645249 0.4684977888528169 0 -0.39545293505028201 0.45177528771600378 0 -0.40591216649836243 0.47121853768263922 0 -0.39545293505028201 0.45177528771600378 0 -0.41833251174795311 0.45365126986829368 0 -0.40591216649836243 0.47121853768263922 0 -0.41833251174795311 0.45365126986829368 0 -0.42816124968027192 0.47393928651246497 0 -0.41833251174795311 0.45365126986829368 0 -0.42837119555779579 0.43942969728211262 0 -0.40850377381563591 0.43336325322412173 0 -0.41833251174795311 0.45365126986829368 0 -0.40850377381563591 0.43336325322412173 0 -0.39545293505028201 0.45177528771600378 0 -0.41833251174795311 0.45365126986829368 0 -0.40850377381563591 0.43336325322412173 0 -0.42837119555779579 0.43942969728211262 0 -0.43484073949466079 0.45479180843266398 0 -0.44417716625613662 0.4435113559056425 0 -0.41833251174795311 0.45365126986829368 0 -0.42837119555779579 0.43942969728211262 0 -0.43484073949466079 0.45479180843266398 0 -0.41833251174795311 0.45365126986829368 0 -0.43484073949466079 0.45479180843266398 0 -0.43433474310673847 0.46408147912960779 0 -0.41833251174795311 0.45365126986829368 0 -0.43433474310673847 0.46408147912960779 0 -0.42816124968027192 0.47393928651246497 0 -0.41833251174795311 0.45365126986829368 0 -0.42816124968027192 0.47393928651246497 0 -0.43297715062066688 0.48388004178626831 0 -0.42816124968027192 0.47393928651246497 0 -0.41520775514121983 0.48527637178433558 0 -0.43433474310673847 0.46408147912960779 0 -0.42816124968027192 0.47393928651246497 0 -0.43872169989084903 0.47523068051363909 0 -0.42816124968027192 0.47393928651246497 0 -0.43872169989084903 0.47523068051363909 0 -0.43297715062066688 0.48388004178626831 0 -0.43634305208890922 0.48095892224673231 0 -0.43872169989084903 0.47523068051363909 0 -0.43297715062066688 0.48388004178626831 0 -0.43872169989084903 0.47523068051363909 0 -0.43297715062066688 0.48388004178626831 0 -0.42816124968027192 0.47393928651246497 0 -0.43872169989084903 0.47523068051363909 0 -0.43297715062066688 0.48388004178626831 0 -0.42816124968027192 0.47393928651246497 0 -0.40591216649836243 0.47121853768263922 0 -0.42816124968027192 0.47393928651246497 0 -0.41520775514121983 0.48527637178433558 0 -0.40591216649836243 0.47121853768263922 0 -0.42816124968027192 0.47393928651246497 0 -0.39540097155033882 0.5 0 -0.41520775514121983 0.48527637178433558 0 -0.4222709387660164 0.49999999999999889 0 -0.43297715062066688 0.48388004178626831 0 -0.43634305208890922 0.48095892224673231 0 -0.44078662985866618 0.50000000000000633 0 -0.43297715062066688 0.48388004178626831 0 -0.4222709387660164 0.49999999999999889 0 -0.43297715062066688 0.48388004178626831 0 -0.4222709387660164 0.49999999999999889 0 -0.44078662985866618 0.50000000000000633 0 -0.43297715062066688 0.48388004178626831 0 -0.41520775514121983 0.48527637178433558 0 -0.4222709387660164 0.49999999999999889 0 -0.43297715062066688 0.48388004178626831 0 -0.44078662985866618 0.50000000000000633 0 -0.44078662985866618 0.50000000000000633 0 -0.4431703973245204 0.4757746934169082 0 -0.4715851986622599 0.47924942254876651 0 -0.43634305208890922 0.48095892224673231 0 -0.44078662985866618 0.50000000000000633 0 -0.4431703973245204 0.4757746934169082 0 -0.43872169989084903 0.47523068051363909 0 -0.4431703973245204 0.4757746934169082 0 -0.45170488629281008 0.45568236359985881 0 -0.43872169989084903 0.47523068051363909 0 -0.4431703973245204 0.4757746934169082 0 -0.43634305208890922 0.48095892224673231 0 -0.43872169989084903 0.47523068051363909 0 -0.4431703973245204 0.4757746934169082 0 -0.43634305208890922 0.48095892224673231 0 -0.4431703973245204 0.4757746934169082 0 -0.4431703973245204 0.4757746934169082 0 -0.4715851986622599 0.47924942254876651 0 -0.46211359821634712 0.4613904950493859 0 -0.4431703973245204 0.4757746934169082 0 -0.4715851986622599 0.47924942254876651 0 -0.44078662985866618 0.50000000000000633 0 -0.4715851986622599 0.47924942254876651 0 -0.5 0.5 0 -0.4715851986622599 0.47924942254876651 0 -0.49999999999999961 0.48272415168062321 0 -0.4715851986622599 0.47924942254876651 0 -0.49999999999999961 0.48272415168062321 0 -0.48329933889883148 0.46517778643250829 0 -0.4715851986622599 0.47924942254876651 0 -0.49999999999999961 0.48272415168062321 0 -0.5 0.5 0 -0.5 0.45767312499748258 0 -0.48105679910817428 0.44700629668186431 0 -0.50000000000000111 0.43262209831434217 0 -0.48105679910817428 0.44700629668186431 0 -0.50000000000000111 0.43262209831434217 0 -0.5 0.45767312499748258 0 -0.48329933889883148 0.46517778643250829 0 -0.48105679910817428 0.44700629668186431 0 -0.49999999999999961 0.48272415168062321 0 -0.5 0.45767312499748258 0 -0.48329933889883148 0.46517778643250829 0 -0.4715851986622599 0.47924942254876651 0 -0.48329933889883148 0.46517778643250829 0 -0.46211359821634712 0.4613904950493859 0 -0.48105679910817428 0.44700629668186431 0 -0.46211359821634712 0.4613904950493859 0 -0.48329933889883148 0.46517778643250829 0 -0.48105679910817428 0.44700629668186431 0 -0.46211359821634712 0.4613904950493859 0 -0.48105679910817428 0.44700629668186431 0 -0.46211359821634712 0.4613904950493859 0 -0.46468807269477119 0.43613404668607858 0 -0.48105679910817428 0.44700629668186431 0 -0.46468807269477119 0.43613404668607858 0 -0.47899128972181571 0.43148409700558282 0 -0.45170488629281008 0.45568236359985881 0 -0.44417716625613662 0.4435113559056425 0 -0.46468807269477119 0.43613404668607858 0 -0.46211359821634712 0.4613904950493859 0 -0.45170488629281008 0.45568236359985881 0 -0.46468807269477119 0.43613404668607858 0 -0.45170488629281008 0.45568236359985881 0 -0.46468807269477119 0.43613404668607858 0 -0.4431703973245204 0.4757746934169082 0 -0.46211359821634712 0.4613904950493859 0 -0.43872169989084903 0.47523068051363909 0 -0.45170488629281008 0.45568236359985881 0 -0.4431703973245204 0.4757746934169082 0 -0.46211359821634712 0.4613904950493859 0 -0.45170488629281008 0.45568236359985881 0 -0.43484073949466079 0.45479180843266398 0 -0.43433474310673847 0.46408147912960779 0 -0.45170488629281008 0.45568236359985881 0 -0.43433474310673847 0.46408147912960779 0 -0.43872169989084903 0.47523068051363909 0 -0.45170488629281008 0.45568236359985881 0 -0.43484073949466079 0.45479180843266398 0 -0.45170488629281008 0.45568236359985881 0 -0.44417716625613662 0.4435113559056425 0 -0.44417716625613662 0.4435113559056425 0 -0.4422128632567417 0.42871026723823069 0 -0.46468807269477119 0.43613404668607858 0 -0.42837119555779579 0.43942969728211262 0 -0.44417716625613662 0.4435113559056425 0 -0.4422128632567417 0.42871026723823069 0 -0.4422128632567417 0.42871026723823069 0 -0.44971882089930548 0.41289892947780732 0 -0.46334612709596462 0.42038438372650389 0 -0.4422128632567417 0.42871026723823069 0 -0.44971882089930548 0.41289892947780732 0 -0.43501187433954569 0.41182863643950668 0 -0.44971882089930548 0.41289892947780732 0 -0.44429813081581748 0.40236313553347852 0 -0.43501187433954569 0.41182863643950668 0 -0.44971882089930548 0.41289892947780732 0 -0.46334612709596462 0.42038438372650389 0 -0.46365337087312408 0.40116080503632928 0 -0.4422128632567417 0.42871026723823069 0 -0.46334612709596462 0.42038438372650389 0 -0.46468807269477119 0.43613404668607858 0 -0.46334612709596462 0.42038438372650389 0 -0.47899128972181571 0.43148409700558282 0 -0.48166686572257922 0.41517948732391707 0 -0.46334612709596462 0.42038438372650389 0 -0.46468807269477119 0.43613404668607858 0 -0.47899128972181571 0.43148409700558282 0 -0.46334612709596462 0.42038438372650389 0 -0.48166686572257922 0.41517948732391707 0 -0.46365337087312408 0.40116080503632928 0 -0.48166686572257922 0.41517948732391707 0 -0.50000000000000111 0.43262209831434217 0 -0.5 0.40572802950201581 0 -0.48105679910817428 0.44700629668186431 0 -0.47899128972181571 0.43148409700558282 0 -0.50000000000000111 0.43262209831434217 0 -0.47899128972181571 0.43148409700558282 0 -0.48166686572257922 0.41517948732391707 0 -0.50000000000000111 0.43262209831434217 0 -0.5 0.37883396068968928 0 -0.48447778377132522 0.39741124846539538 0 -0.4785944534045779 0.38243928681820288 0 -0.5 0.37883396068968928 0 -0.5 0.40572802950201581 0 -0.48447778377132522 0.39741124846539538 0 -0.48166686572257922 0.41517948732391707 0 -0.5 0.40572802950201581 0 -0.48447778377132522 0.39741124846539538 0 -0.48447778377132522 0.39741124846539538 0 -0.4785944534045779 0.38243928681820288 0 -0.46365337087312408 0.40116080503632928 0 -0.48166686572257922 0.41517948732391707 0 -0.48447778377132522 0.39741124846539538 0 -0.46365337087312408 0.40116080503632928 0 -0.4785944534045779 0.38243928681820288 0 -0.46142538730717558 0.38508218501067998 0 -0.46449132989062858 0.37211113705061261 0 -0.4785944534045779 0.38243928681820288 0 -0.46142538730717558 0.38508218501067998 0 -0.46365337087312408 0.40116080503632928 0 -0.46142538730717558 0.38508218501067998 0 -0.44916091054100932 0.39142123022997 0 -0.45162643522855522 0.37864538239231271 0 -0.46142538730717558 0.38508218501067998 0 -0.45162643522855522 0.37864538239231271 0 -0.46449132989062858 0.37211113705061261 0 -0.46142538730717558 0.38508218501067998 0 -0.46365337087312408 0.40116080503632928 0 -0.44916091054100932 0.39142123022997 0 -0.44916091054100932 0.39142123022997 0 -0.44429813081581748 0.40236313553347852 0 -0.43173107155441559 0.39905071990029978 0 -0.44971882089930548 0.41289892947780732 0 -0.46365337087312408 0.40116080503632928 0 -0.44429813081581748 0.40236313553347852 0 -0.46365337087312408 0.40116080503632928 0 -0.44916091054100932 0.39142123022997 0 -0.44429813081581748 0.40236313553347852 0 -0.44916091054100932 0.39142123022997 0 -0.44297707497458533 0.38582669377105228 0 -0.43173107155441559 0.39905071990029978 0 -0.44297707497458533 0.38582669377105228 0 -0.43173107155441559 0.39905071990029978 0 -0.43938988257436112 0.37418944256162678 0 -0.44916091054100932 0.39142123022997 0 -0.45162643522855522 0.37864538239231271 0 -0.44297707497458533 0.38582669377105228 0 -0.45162643522855522 0.37864538239231271 0 -0.44297707497458533 0.38582669377105228 0 -0.43938988257436112 0.37418944256162678 0 -0.41512661271195372 0.39381120006418457 0 -0.43173107155441559 0.39905071990029978 0 -0.43157818954058902 0.37454716354841938 0 -0.43173107155441559 0.39905071990029978 0 -0.43938988257436112 0.37418944256162678 0 -0.43173107155441559 0.39905071990029978 0 -0.43157818954058902 0.37454716354841938 0 -0.43938988257436112 0.37418944256162678 0 -0.41512661271195372 0.39381120006418457 0 -0.43157818954058902 0.37454716354841938 0 -0.41626840750436023 0.3769771343170904 0 -0.41512661271195372 0.39381120006418457 0 -0.43157818954058902 0.37454716354841938 0 -0.41626840750436023 0.3769771343170904 0 -0.41512661271195372 0.39381120006418457 0 -0.4029395702150117 0.38623427176189429 0 -0.41626840750436023 0.3769771343170904 0 -0.4029395702150117 0.38623427176189429 0 -0.40612886098313961 0.36857281422699001 0 -0.41512661271195372 0.39381120006418457 0 -0.42052873024311932 0.40739326102076062 0 -0.39867503588331848 0.41307523657994982 0 -0.41512661271195372 0.39381120006418457 0 -0.39867503588331848 0.41307523657994982 0 -0.43173107155441559 0.39905071990029978 0 -0.43501187433954569 0.41182863643950668 0 -0.42052873024311932 0.40739326102076062 0 -0.41512661271195372 0.39381120006418457 0 -0.43173107155441559 0.39905071990029978 0 -0.42052873024311932 0.40739326102076062 0 -0.44429813081581748 0.40236313553347852 0 -0.43173107155441559 0.39905071990029978 0 -0.43501187433954569 0.41182863643950668 0 -0.4422128632567417 0.42871026723823069 0 -0.43501187433954569 0.41182863643950668 0 -0.42216011877564702 0.42255022902372269 0 -0.43501187433954569 0.41182863643950668 0 -0.42216011877564702 0.42255022902372269 0 -0.42052873024311932 0.40739326102076062 0 -0.42837119555779579 0.43942969728211262 0 -0.4422128632567417 0.42871026723823069 0 -0.42216011877564702 0.42255022902372269 0 -0.42837119555779579 0.43942969728211262 0 -0.42216011877564702 0.42255022902372269 0 -0.40850377381563591 0.43336325322412173 0 -0.42216011877564702 0.42255022902372269 0 -0.40850377381563591 0.43336325322412173 0 -0.39867503588331848 0.41307523657994982 0 -0.42216011877564702 0.42255022902372269 0 -0.42052873024311932 0.40739326102076062 0 -0.39867503588331848 0.41307523657994982 0 -0.40850377381563591 0.43336325322412173 0 -0.39867503588331848 0.41307523657994982 0 -0.40850377381563591 0.43336325322412173 0 -0.39867503588331848 0.41307523657994982 0 -0.38180541721747591 0.43282878077640491 0 -0.39867503588331848 0.41307523657994982 0 -0.38180541721747591 0.43282878077640491 0 -0.39867503588331848 0.41307523657994982 0 -0.38180541721747591 0.43282878077640491 0 -0.37322190284057177 0.41294615564915438 0 -0.39867503588331848 0.41307523657994982 0 -0.38698459659072149 0.38894438391309227 0 -0.37322190284057177 0.41294615564915438 0 -0.38698459659072149 0.38894438391309227 0 -0.39433365626134448 0.37559608845177062 0 -0.38116287984602698 0.36833499497316619 0 -0.38698459659072149 0.38894438391309227 0 -0.38116287984602698 0.36833499497316619 0 -0.36713635541863471 0.37988805629222189 0 -0.4029395702150117 0.38623427176189429 0 -0.39433365626134448 0.37559608845177062 0 -0.40612886098313961 0.36857281422699001 0 -0.38698459659072149 0.38894438391309227 0 -0.4029395702150117 0.38623427176189429 0 -0.39433365626134448 0.37559608845177062 0 -0.41512661271195372 0.39381120006418457 0 -0.39867503588331848 0.41307523657994982 0 -0.4029395702150117 0.38623427176189429 0 -0.39867503588331848 0.41307523657994982 0 -0.38698459659072149 0.38894438391309227 0 -0.39867503588331848 0.41307523657994982 0 -0.38698459659072149 0.38894438391309227 0 -0.4029395702150117 0.38623427176189429 0 -0.4032683627576929 0.34866685780209689 0 -0.38137819733938588 0.34833620409166788 0 -0.4032683627576929 0.34866685780209689 0 -0.39274384241668442 0.35980197033986799 0 -0.38137819733938588 0.34833620409166788 0 -0.4032683627576929 0.34866685780209689 0 -0.39274384241668442 0.35980197033986799 0 -0.40612886098313961 0.36857281422699001 0 -0.39433365626134448 0.37559608845177062 0 -0.39274384241668442 0.35980197033986799 0 -0.40612886098313961 0.36857281422699001 0 -0.39433365626134448 0.37559608845177062 0 -0.39274384241668442 0.35980197033986799 0 -0.38116287984602698 0.36833499497316619 0 -0.39274384241668442 0.35980197033986799 0 -0.38116287984602698 0.36833499497316619 0 -0.38137819733938588 0.34833620409166788 0 -0.38116287984602698 0.36833499497316619 0 -0.38137819733938588 0.34833620409166788 0 -0.36483725395653382 0.35929071891222158 0 -0.38137819733938588 0.34833620409166788 0 -0.38527513293225618 0.334152126694921 0 -0.37322105660356142 0.33628553675524953 0 -0.4032683627576929 0.34866685780209689 0 -0.38137819733938588 0.34833620409166788 0 -0.38527513293225618 0.334152126694921 0 -0.38527513293225618 0.334152126694921 0 -0.38078229231771821 0.3219440365254439 0 -0.37322105660356142 0.33628553675524953 0 -0.38527513293225618 0.334152126694921 0 -0.38078229231771821 0.3219440365254439 0 -0.3925720668784608 0.31626176442936499 0 -0.38078229231771821 0.3219440365254439 0 -0.37792134358426438 0.30771882014354618 0 -0.36781009952186722 0.32097177295983498 0 -0.38078229231771821 0.3219440365254439 0 -0.3925720668784608 0.31626176442936499 0 -0.37792134358426438 0.30771882014354618 0 -0.38527513293225618 0.334152126694921 0 -0.3925720668784608 0.31626176442936499 0 -0.41051983945521231 0.32304432306400821 0 -0.3925720668784608 0.31626176442936499 0 -0.41051983945521231 0.32304432306400821 0 -0.40703820616053038 0.30544643295859092 0 -0.38527513293225618 0.334152126694921 0 -0.41051983945521231 0.32304432306400821 0 -0.4032683627576929 0.34866685780209689 0 -0.38527513293225618 0.334152126694921 0 -0.41051983945521231 0.32304432306400821 0 -0.4032683627576929 0.34866685780209689 0 -0.41689170458904851 0.33766218169010559 0 -0.41051983945521231 0.32304432306400821 0 -0.41689170458904851 0.33766218169010559 0 -0.41051983945521231 0.32304432306400821 0 -0.42862008796728912 0.32994003438179142 0 -0.41051983945521231 0.32304432306400821 0 -0.4250856902388806 0.31008113058805459 0 -0.40703820616053038 0.30544643295859092 0 -0.41051983945521231 0.32304432306400821 0 -0.4357645459781686 0.31193651943309542 0 -0.4250856902388806 0.31008113058805459 0 -0.42862008796728912 0.32994003438179142 0 -0.4412829481153272 0.32340545784990432 0 -0.4357645459781686 0.31193651943309542 0 -0.41051983945521231 0.32304432306400821 0 -0.42862008796728912 0.32994003438179142 0 -0.4357645459781686 0.31193651943309542 0 -0.41051983945521231 0.32304432306400821 0 -0.4357645459781686 0.31193651943309542 0 -0.42862008796728912 0.32994003438179142 0 -0.42515852817599981 0.34899751151252589 0 -0.4400278996268584 0.33515064130434041 0 -0.41689170458904851 0.33766218169010559 0 -0.42862008796728912 0.32994003438179142 0 -0.42515852817599981 0.34899751151252589 0 -0.42862008796728912 0.32994003438179142 0 -0.4400278996268584 0.33515064130434041 0 -0.4412829481153272 0.32340545784990432 0 -0.43213031830111609 0.35768466364857859 0 -0.42515852817599981 0.34899751151252589 0 -0.44704869359430682 0.34932816522295379 0 -0.42515852817599981 0.34899751151252589 0 -0.44704869359430682 0.34932816522295379 0 -0.42515852817599981 0.34899751151252589 0 -0.44704869359430682 0.34932816522295379 0 -0.4400278996268584 0.33515064130434041 0 -0.43213031830111609 0.35768466364857859 0 -0.42515852817599981 0.34899751151252589 0 -0.42177862879349443 0.36381835498956078 0 -0.4032683627576929 0.34866685780209689 0 -0.42515852817599981 0.34899751151252589 0 -0.42177862879349443 0.36381835498956078 0 -0.4032683627576929 0.34866685780209689 0 -0.41689170458904851 0.33766218169010559 0 -0.42515852817599981 0.34899751151252589 0 -0.4032683627576929 0.34866685780209689 0 -0.42515852817599981 0.34899751151252589 0 -0.4032683627576929 0.34866685780209689 0 -0.40612886098313961 0.36857281422699001 0 -0.42177862879349443 0.36381835498956078 0 -0.41626840750436023 0.3769771343170904 0 -0.40612886098313961 0.36857281422699001 0 -0.42177862879349443 0.36381835498956078 0 -0.41626840750436023 0.3769771343170904 0 -0.42177862879349443 0.36381835498956078 0 -0.43157818954058902 0.37454716354841938 0 -0.42177862879349443 0.36381835498956078 0 -0.43461310345090198 0.3650224228349338 0 -0.43157818954058902 0.37454716354841938 0 -0.43213031830111609 0.35768466364857859 0 -0.42177862879349443 0.36381835498956078 0 -0.43461310345090198 0.3650224228349338 0 -0.43461310345090198 0.3650224228349338 0 -0.43157818954058902 0.37454716354841938 0 -0.43938988257436112 0.37418944256162678 0 -0.43938988257436112 0.37418944256162678 0 -0.44704869359430682 0.34932816522295379 0 -0.43938988257436112 0.37418944256162678 0 -0.45221763785045532 0.36617762126325809 0 -0.44704869359430682 0.34932816522295379 0 -0.43461310345090198 0.3650224228349338 0 -0.43938988257436112 0.37418944256162678 0 -0.44704869359430682 0.34932816522295379 0 -0.45162643522855522 0.37864538239231271 0 -0.43938988257436112 0.37418944256162678 0 -0.45221763785045532 0.36617762126325809 0 -0.43213031830111609 0.35768466364857859 0 -0.43461310345090198 0.3650224228349338 0 -0.44704869359430682 0.34932816522295379 0 -0.44704869359430682 0.34932816522295379 0 -0.46365553375799862 0.34957901363883909 0 -0.46752354916830158 0.33413757493495111 0 -0.44704869359430682 0.34932816522295379 0 -0.46365553375799862 0.34957901363883909 0 -0.46185066032423122 0.36088787662225619 0 -0.46365553375799862 0.34957901363883909 0 -0.46185066032423122 0.36088787662225619 0 -0.47902853368919351 0.36215760387819229 0 -0.45221763785045532 0.36617762126325809 0 -0.44704869359430682 0.34932816522295379 0 -0.46185066032423122 0.36088787662225619 0 -0.44704869359430682 0.34932816522295379 0 -0.46365553375799862 0.34957901363883909 0 -0.46185066032423122 0.36088787662225619 0 -0.46449132989062858 0.37211113705061261 0 -0.47902853368919351 0.36215760387819229 0 -0.45162643522855522 0.37864538239231271 0 -0.45221763785045532 0.36617762126325809 0 -0.46449132989062858 0.37211113705061261 0 -0.45221763785045532 0.36617762126325809 0 -0.46185066032423122 0.36088787662225619 0 -0.46449132989062858 0.37211113705061261 0 -0.4785944534045779 0.38243928681820288 0 -0.46449132989062858 0.37211113705061261 0 -0.47902853368919351 0.36215760387819229 0 -0.46365553375799862 0.34957901363883909 0 -0.47902853368919351 0.36215760387819229 0 -0.48256992531721382 0.33933431788084861 0 -0.47902853368919351 0.36215760387819229 0 -0.5 0.35193989187736291 0 -0.48256992531721382 0.33933431788084861 0 -0.5 0.37883396068968928 0 -0.47902853368919351 0.36215760387819229 0 -0.5 0.35193989187736291 0 -0.5 0.37883396068968928 0 -0.4785944534045779 0.38243928681820288 0 -0.47902853368919351 0.36215760387819229 0 -0.5 0.32504582306503649 0 -0.47749265431530541 0.31904737632850422 0 -0.48166793777356648 0.30138378919958231 0 -0.5 0.32504582306503649 0 -0.48256992531721382 0.33933431788084861 0 -0.47749265431530541 0.31904737632850422 0 -0.5 0.35193989187736291 0 -0.5 0.32504582306503649 0 -0.48256992531721382 0.33933431788084861 0 -0.48256992531721382 0.33933431788084861 0 -0.47749265431530541 0.31904737632850422 0 -0.46752354916830158 0.33413757493495111 0 -0.46365553375799862 0.34957901363883909 0 -0.48256992531721382 0.33933431788084861 0 -0.46752354916830158 0.33413757493495111 0 -0.47749265431530541 0.31904737632850422 0 -0.46665445653490711 0.31715992860405601 0 -0.46752354916830158 0.33413757493495111 0 -0.47749265431530541 0.31904737632850422 0 -0.46665445653490711 0.31715992860405601 0 -0.47154937673120467 0.3073504917511039 0 -0.4545851320180101 0.32486412174289148 0 -0.46100925250112479 0.30082871580218251 0 -0.46665445653490711 0.31715992860405601 0 -0.4545851320180101 0.32486412174289148 0 -0.46100925250112479 0.30082871580218251 0 -0.4545851320180101 0.32486412174289148 0 -0.44816046965315759 0.31525870370701842 0 -0.46100925250112479 0.30082871580218251 0 -0.46665445653490711 0.31715992860405601 0 -0.4545851320180101 0.32486412174289148 0 -0.46752354916830158 0.33413757493495111 0 -0.44704869359430682 0.34932816522295379 0 -0.4545851320180101 0.32486412174289148 0 -0.46752354916830158 0.33413757493495111 0 -0.44704869359430682 0.34932816522295379 0 -0.4545851320180101 0.32486412174289148 0 -0.4400278996268584 0.33515064130434041 0 -0.44704869359430682 0.34932816522295379 0 -0.4545851320180101 0.32486412174289148 0 -0.4545851320180101 0.32486412174289148 0 -0.44816046965315759 0.31525870370701842 0 -0.4412829481153272 0.32340545784990432 0 -0.4545851320180101 0.32486412174289148 0 -0.4400278996268584 0.33515064130434041 0 -0.4412829481153272 0.32340545784990432 0 -0.44816046965315759 0.31525870370701842 0 -0.4412829481153272 0.32340545784990432 0 -0.4357645459781686 0.31193651943309542 0 -0.44820603211452831 0.30056229436997189 0 -0.46100925250112479 0.30082871580218251 0 -0.4357645459781686 0.31193651943309542 0 -0.46100925250112479 0.30082871580218251 0 -0.4357645459781686 0.31193651943309542 0 -0.44008703198068633 0.3019913432715049 0 -0.44820603211452831 0.30056229436997189 0 -0.4357645459781686 0.31193651943309542 0 -0.44816046965315759 0.31525870370701842 0 -0.46100925250112479 0.30082871580218251 0 -0.4357645459781686 0.31193651943309542 0 -0.44008703198068633 0.3019913432715049 0 -0.44403507263318359 0.29612230755904823 0 -0.43234247719686503 0.29934425172390422 0 -0.44008703198068633 0.3019913432715049 0 -0.44820603211452831 0.30056229436997189 0 -0.44403507263318359 0.29612230755904823 0 -0.43827218426695591 0.28983973378482292 0 -0.44780734442417591 0.28531657534392307 0 -0.44082270347382102 0.27939792036099581 0 -0.43827218426695591 0.28983973378482292 0 -0.44403507263318359 0.29612230755904823 0 -0.44780734442417591 0.28531657534392307 0 -0.43827218426695591 0.28983973378482292 0 -0.44403507263318359 0.29612230755904823 0 -0.43234247719686503 0.29934425172390422 0 -0.44820603211452831 0.30056229436997189 0 -0.44403507263318359 0.29612230755904823 0 -0.45175466328369412 0.29213998784508738 0 -0.44820603211452831 0.30056229436997189 0 -0.45175466328369412 0.29213998784508738 0 -0.45740584064973527 0.29791725979501887 0 -0.44403507263318359 0.29612230755904823 0 -0.45175466328369412 0.29213998784508738 0 -0.44780734442417591 0.28531657534392307 0 -0.45175466328369412 0.29213998784508738 0 -0.44780734442417591 0.28531657534392307 0 -0.45653249857900657 0.28328917510622958 0 -0.46100925250112479 0.30082871580218251 0 -0.47277878562644021 0.29425850393503478 0 -0.46965800886541709 0.27593603478276701 0 -0.46100925250112479 0.30082871580218251 0 -0.46965800886541709 0.27593603478276701 0 -0.45949451636391342 0.28993650715838643 0 -0.46100925250112479 0.30082871580218251 0 -0.46965800886541709 0.27593603478276701 0 -0.45175466328369412 0.29213998784508738 0 -0.45653249857900657 0.28328917510622958 0 -0.45949451636391342 0.28993650715838643 0 -0.45175466328369412 0.29213998784508738 0 -0.45949451636391342 0.28993650715838643 0 -0.45740584064973527 0.29791725979501887 0 -0.45949451636391342 0.28993650715838643 0 -0.45740584064973527 0.29791725979501887 0 -0.46100925250112479 0.30082871580218251 0 -0.45653249857900657 0.28328917510622958 0 -0.45949451636391342 0.28993650715838643 0 -0.46965800886541709 0.27593603478276701 0 -0.46665445653490711 0.31715992860405601 0 -0.46100925250112479 0.30082871580218251 0 -0.47154937673120467 0.3073504917511039 0 -0.44820603211452831 0.30056229436997189 0 -0.45740584064973527 0.29791725979501887 0 -0.46100925250112479 0.30082871580218251 0 -0.46100925250112479 0.30082871580218251 0 -0.47154937673120467 0.3073504917511039 0 -0.47277878562644021 0.29425850393503478 0 -0.47749265431530541 0.31904737632850422 0 -0.47154937673120467 0.3073504917511039 0 -0.48166793777356648 0.30138378919958231 0 -0.47154937673120467 0.3073504917511039 0 -0.48166793777356648 0.30138378919958231 0 -0.47277878562644021 0.29425850393503478 0 -0.47277878562644021 0.29425850393503478 0 -0.4837589705942873 0.28345670584996752 0 -0.46965800886541709 0.27593603478276701 0 -0.48166793777356648 0.30138378919958231 0 -0.47277878562644021 0.29425850393503478 0 -0.4837589705942873 0.28345670584996752 0 -0.4837589705942873 0.28345670584996752 0 -0.5 0.29815175425271012 0 -0.5 0.27125768544038392 0 -0.48166793777356648 0.30138378919958231 0 -0.4837589705942873 0.28345670584996752 0 -0.5 0.29815175425271012 0 -0.5 0.32504582306503649 0 -0.48166793777356648 0.30138378919958231 0 -0.5 0.29815175425271012 0 -0.5 0.24436361662805769 0 -0.5 0.27125768544038392 0 -0.4784490913002995 0.25975246748932668 0 -0.4837589705942873 0.28345670584996752 0 -0.5 0.27125768544038392 0 -0.4784490913002995 0.25975246748932668 0 -0.4837589705942873 0.28345670584996752 0 -0.46965800886541709 0.27593603478276701 0 -0.4784490913002995 0.25975246748932668 0 -0.46965800886541709 0.27593603478276701 0 -0.4784490913002995 0.25975246748932668 0 -0.45856876218142739 0.25899060087044001 0 -0.46399351030847469 0.24395188759928779 0 -0.4784490913002995 0.25975246748932668 0 -0.45856876218142739 0.25899060087044001 0 -0.46965800886541709 0.27593603478276701 0 -0.45856876218142739 0.25899060087044001 0 -0.45193563978493662 0.27220253966738178 0 -0.45653249857900657 0.28328917510622958 0 -0.46965800886541709 0.27593603478276701 0 -0.45193563978493662 0.27220253966738178 0 -0.44780734442417591 0.28531657534392307 0 -0.45193563978493662 0.27220253966738178 0 -0.44082270347382102 0.27939792036099581 0 -0.44780734442417591 0.28531657534392307 0 -0.45653249857900657 0.28328917510622958 0 -0.45193563978493662 0.27220253966738178 0 -0.45193563978493662 0.27220253966738178 0 -0.44214664549818938 0.27075152816123382 0 -0.4424056175277582 0.26089923819517552 0 -0.44214664549818938 0.27075152816123382 0 -0.4424056175277582 0.26089923819517552 0 -0.43191687615512547 0.27129659484580648 0 -0.44214664549818938 0.27075152816123382 0 -0.44082270347382102 0.27939792036099581 0 -0.43191687615512547 0.27129659484580648 0 -0.45193563978493662 0.27220253966738178 0 -0.44214664549818938 0.27075152816123382 0 -0.44082270347382102 0.27939792036099581 0 -0.45856876218142739 0.25899060087044001 0 -0.45193563978493662 0.27220253966738178 0 -0.4424056175277582 0.26089923819517552 0 -0.44784340792963268 0.24566193026528449 0 -0.45856876218142739 0.25899060087044001 0 -0.4424056175277582 0.26089923819517552 0 -0.44784340792963268 0.24566193026528449 0 -0.4424056175277582 0.26089923819517552 0 -0.43772017251073492 0.25071492700109782 0 -0.4424056175277582 0.26089923819517552 0 -0.43772017251073492 0.25071492700109782 0 -0.43001615246040198 0.25947397799694383 0 -0.4282964880421043 0.24988677976854409 0 -0.43772017251073492 0.25071492700109782 0 -0.43001615246040198 0.25947397799694383 0 -0.4424056175277582 0.26089923819517552 0 -0.43001615246040198 0.25947397799694383 0 -0.43191687615512547 0.27129659484580648 0 -0.43001615246040198 0.25947397799694383 0 -0.41967153679695962 0.26468207604811822 0 -0.43191687615512547 0.27129659484580648 0 -0.43001615246040198 0.25947397799694383 0 -0.41843448825728158 0.254975555924362 0 -0.41967153679695962 0.26468207604811822 0 -0.4282964880421043 0.24988677976854409 0 -0.43001615246040198 0.25947397799694383 0 -0.41843448825728158 0.254975555924362 0 -0.41859921477497491 0.24134678005994381 0 -0.41843448825728158 0.254975555924362 0 -0.40550594772209481 0.25500262474814189 0 -0.41843448825728158 0.254975555924362 0 -0.41967153679695962 0.26468207604811822 0 -0.4107147001949103 0.26209398175202903 0 -0.4107147001949103 0.26209398175202903 0 -0.40550594772209481 0.25500262474814189 0 -0.40283639188527243 0.26340634166972238 0 -0.41843448825728158 0.254975555924362 0 -0.4107147001949103 0.26209398175202903 0 -0.40550594772209481 0.25500262474814189 0 -0.40712513631294228 0.27240331036980098 0 -0.42080487865133398 0.27688443368837462 0 -0.41610541327591138 0.29124222047892789 0 -0.4107147001949103 0.26209398175202903 0 -0.40712513631294228 0.27240331036980098 0 -0.40283639188527243 0.26340634166972238 0 -0.41967153679695962 0.26468207604811822 0 -0.40712513631294228 0.27240331036980098 0 -0.41967153679695962 0.26468207604811822 0 -0.4107147001949103 0.26209398175202903 0 -0.40712513631294228 0.27240331036980098 0 -0.41967153679695962 0.26468207604811822 0 -0.40712513631294228 0.27240331036980098 0 -0.42080487865133398 0.27688443368837462 0 -0.42080487865133398 0.27688443368837462 0 -0.43191687615512547 0.27129659484580648 0 -0.42920543071573097 0.28479796669921931 0 -0.41967153679695962 0.26468207604811822 0 -0.42080487865133398 0.27688443368837462 0 -0.43191687615512547 0.27129659484580648 0 -0.44082270347382102 0.27939792036099581 0 -0.43191687615512547 0.27129659484580648 0 -0.42920543071573097 0.28479796669921931 0 -0.43827218426695591 0.28983973378482292 0 -0.44082270347382102 0.27939792036099581 0 -0.42920543071573097 0.28479796669921931 0 -0.42920543071573097 0.28479796669921931 0 -0.43234247719686503 0.29934425172390422 0 -0.41610541327591138 0.29124222047892789 0 -0.43827218426695591 0.28983973378482292 0 -0.42920543071573097 0.28479796669921931 0 -0.43234247719686503 0.29934425172390422 0 -0.42080487865133398 0.27688443368837462 0 -0.42920543071573097 0.28479796669921931 0 -0.41610541327591138 0.29124222047892789 0 -0.43234247719686503 0.29934425172390422 0 -0.4250856902388806 0.31008113058805459 0 -0.41610541327591138 0.29124222047892789 0 -0.4357645459781686 0.31193651943309542 0 -0.43234247719686503 0.29934425172390422 0 -0.4250856902388806 0.31008113058805459 0 -0.44008703198068633 0.3019913432715049 0 -0.4357645459781686 0.31193651943309542 0 -0.43234247719686503 0.29934425172390422 0 -0.4250856902388806 0.31008113058805459 0 -0.41610541327591138 0.29124222047892789 0 -0.4250856902388806 0.31008113058805459 0 -0.40703820616053038 0.30544643295859092 0 -0.41610541327591138 0.29124222047892789 0 -0.40712513631294228 0.27240331036980098 0 -0.41610541327591138 0.29124222047892789 0 -0.40712513631294228 0.27240331036980098 0 -0.41610541327591138 0.29124222047892789 0 -0.40324275153185302 0.2900184552669296 0 -0.40703820616053038 0.30544643295859092 0 -0.41610541327591138 0.29124222047892789 0 -0.40324275153185302 0.2900184552669296 0 -0.40324275153185302 0.2900184552669296 0 -0.39151238543678629 0.2990541237084165 0 -0.3982417198932261 0.27787029190295809 0 -0.39151238543678629 0.2990541237084165 0 -0.3982417198932261 0.27787029190295809 0 -0.3925720668784608 0.31626176442936499 0 -0.40703820616053038 0.30544643295859092 0 -0.39151238543678629 0.2990541237084165 0 -0.40703820616053038 0.30544643295859092 0 -0.40324275153185302 0.2900184552669296 0 -0.39151238543678629 0.2990541237084165 0 -0.3925720668784608 0.31626176442936499 0 -0.39151238543678629 0.2990541237084165 0 -0.37792134358426438 0.30771882014354618 0 -0.39151238543678629 0.2990541237084165 0 -0.37792134358426438 0.30771882014354618 0 -0.37899001994954862 0.28971806342477718 0 -0.37899001994954862 0.28971806342477718 0 -0.38275858679406499 0.27644437170279262 0 -0.3982417198932261 0.27787029190295809 0 -0.39151238543678629 0.2990541237084165 0 -0.37899001994954862 0.28971806342477718 0 -0.3982417198932261 0.27787029190295809 0 -0.37899001994954862 0.28971806342477718 0 -0.3982417198932261 0.27787029190295809 0 -0.38275858679406499 0.27644437170279262 0 -0.37847848403190032 0.26450052083218789 0 -0.3926090041139888 0.26845371057366191 0 -0.37847848403190032 0.26450052083218789 0 -0.37932103441474058 0.25298974324206969 0 -0.36915274903456652 0.25566928348620699 0 -0.37847848403190032 0.26450052083218789 0 -0.37932103441474058 0.25298974324206969 0 -0.38810223377704772 0.25551313542616172 0 -0.38451691437018648 0.2453191000558386 0 -0.37932103441474058 0.25298974324206969 0 -0.38810223377704772 0.25551313542616172 0 -0.37847848403190032 0.26450052083218789 0 -0.38810223377704772 0.25551313542616172 0 -0.3926090041139888 0.26845371057366191 0 -0.39005131953046379 0.23658569573373289 0 -0.38810223377704772 0.25551313542616172 0 -0.40104719784854448 0.25965295346525019 0 -0.40104719784854448 0.25965295346525019 0 -0.3926090041139888 0.26845371057366191 0 -0.38810223377704772 0.25551313542616172 0 -0.40104719784854448 0.25965295346525019 0 -0.3926090041139888 0.26845371057366191 0 -0.40242553196709552 0.24470377531646639 0 -0.40550594772209481 0.25500262474814189 0 -0.40104719784854448 0.25965295346525019 0 -0.40550594772209481 0.25500262474814189 0 -0.40104719784854448 0.25965295346525019 0 -0.40550594772209481 0.25500262474814189 0 -0.40283639188527243 0.26340634166972238 0 -0.40550594772209481 0.25500262474814189 0 -0.40104719784854448 0.25965295346525019 0 -0.40283639188527243 0.26340634166972238 0 -0.40104719784854448 0.25965295346525019 0 -0.40283639188527243 0.26340634166972238 0 -0.3926090041139888 0.26845371057366191 0 -0.40104719784854448 0.25965295346525019 0 -0.40283639188527243 0.26340634166972238 0 -0.40712513631294228 0.27240331036980098 0 -0.40283639188527243 0.26340634166972238 0 -0.3982417198932261 0.27787029190295809 0 -0.40712513631294228 0.27240331036980098 0 -0.40324275153185302 0.2900184552669296 0 -0.3982417198932261 0.27787029190295809 0 -0.40283639188527243 0.26340634166972238 0 -0.3982417198932261 0.27787029190295809 0 -0.40712513631294228 0.27240331036980098 0 -0.40283639188527243 0.26340634166972238 0 -0.40712513631294228 0.27240331036980098 0 -0.3982417198932261 0.27787029190295809 0 -0.38275858679406499 0.27644437170279262 0 -0.3982417198932261 0.27787029190295809 0 -0.3926090041139888 0.26845371057366191 0 -0.40283639188527243 0.26340634166972238 0 -0.3982417198932261 0.27787029190295809 0 -0.3926090041139888 0.26845371057366191 0 -0.35999054911729178 0.27483669957849599 0 -0.33787059572762917 0.28628514770568608 0 -0.33525457139305892 0.25915668894295218 0 -0.35393238560318391 0.25803380485712119 0 -0.35999054911729178 0.27483669957849599 0 -0.33525457139305892 0.25915668894295218 0 -0.35133167286781808 0.2424725474208298 0 -0.35393238560318391 0.25803380485712119 0 -0.36915274903456652 0.25566928348620699 0 -0.35133167286781808 0.2424725474208298 0 -0.35393238560318391 0.25803380485712119 0 -0.33525457139305892 0.25915668894295218 0 -0.35393238560318391 0.25803380485712119 0 -0.36915274903456652 0.25566928348620699 0 -0.35999054911729178 0.27483669957849599 0 -0.37847848403190032 0.26450052083218789 0 -0.36915274903456652 0.25566928348620699 0 -0.35999054911729178 0.27483669957849599 0 -0.38275858679406499 0.27644437170279262 0 -0.37847848403190032 0.26450052083218789 0 -0.35999054911729178 0.27483669957849599 0 -0.37899001994954862 0.28971806342477718 0 -0.38275858679406499 0.27644437170279262 0 -0.35999054911729178 0.27483669957849599 0 -0.37899001994954862 0.28971806342477718 0 -0.35973832000587103 0.30156583494659578 0 -0.37899001994954862 0.28971806342477718 0 -0.35999054911729178 0.27483669957849599 0 -0.35973832000587103 0.30156583494659578 0 -0.37792134358426438 0.30771882014354618 0 -0.35973832000587103 0.30156583494659578 0 -0.36781009952186722 0.32097177295983498 0 -0.37792134358426438 0.30771882014354618 0 -0.37899001994954862 0.28971806342477718 0 -0.35973832000587103 0.30156583494659578 0 -0.35973832000587103 0.30156583494659578 0 -0.33787059572762917 0.28628514770568608 0 -0.34048662006219671 0.3134136064684202 0 -0.35973832000587103 0.30156583494659578 0 -0.34048662006219671 0.3134136064684202 0 -0.35973832000587103 0.30156583494659578 0 -0.34048662006219671 0.3134136064684202 0 -0.35266291753924972 0.3185391377246074 0 -0.35999054911729178 0.27483669957849599 0 -0.35973832000587103 0.30156583494659578 0 -0.33787059572762917 0.28628514770568608 0 -0.33787059572762917 0.28628514770568608 0 -0.32433421784224181 0.29134577093735992 0 -0.32817968546683252 0.27406819037537378 0 -0.33787059572762917 0.28628514770568608 0 -0.32433421784224181 0.29134577093735992 0 -0.34048662006219671 0.3134136064684202 0 -0.33787059572762917 0.28628514770568608 0 -0.34048662006219671 0.3134136064684202 0 -0.32433421784224181 0.29134577093735992 0 -0.34048662006219671 0.3134136064684202 0 -0.33644986083349537 0.31589788583959227 0 -0.32433421784224181 0.29134577093735992 0 -0.33644986083349537 0.31589788583959227 0 -0.31738149316785341 0.31004209536526439 0 -0.32433421784224181 0.29134577093735992 0 -0.30598953056628492 0.2900273931642402 0 -0.31738149316785341 0.31004209536526439 0 -0.32433421784224181 0.29134577093735992 0 -0.33644986083349537 0.31589788583959227 0 -0.32433421784224181 0.29134577093735992 0 -0.31221857485098842 0.26679365603512772 0 -0.30598953056628492 0.2900273931642402 0 -0.32433421784224181 0.29134577093735992 0 -0.32206519125496191 0.27395963304979742 0 -0.32817968546683252 0.27406819037537378 0 -0.32433421784224181 0.29134577093735992 0 -0.31221857485098842 0.26679365603512772 0 -0.32433421784224181 0.29134577093735992 0 -0.32206519125496191 0.27395963304979742 0 -0.31221857485098842 0.26679365603512772 0 -0.32206519125496191 0.27395963304979742 0 -0.32352828685978502 0.263630914851328 0 -0.31221857485098842 0.26679365603512772 0 -0.32206519125496191 0.27395963304979742 0 -0.32817968546683252 0.27406819037537378 0 -0.32352828685978502 0.263630914851328 0 -0.33787059572762917 0.28628514770568608 0 -0.32817968546683252 0.27406819037537378 0 -0.33525457139305892 0.25915668894295218 0 -0.33787059572762917 0.28628514770568608 0 -0.33525457139305892 0.25915668894295218 0 -0.32817968546683252 0.27406819037537378 0 -0.33525457139305892 0.25915668894295218 0 -0.32352828685978502 0.263630914851328 0 -0.33525457139305892 0.25915668894295218 0 -0.32352828685978502 0.263630914851328 0 -0.31789211441409582 0.25254709093973182 0 -0.32352828685978502 0.263630914851328 0 -0.31789211441409582 0.25254709093973182 0 -0.31221857485098842 0.26679365603512772 0 -0.30686581568106769 0.23798886464281349 0 -0.3064276731236763 0.26400812890352687 0 -0.2971181007736664 0.25582851233644582 0 -0.30686581568106769 0.23798886464281349 0 -0.3064276731236763 0.26400812890352687 0 -0.30686581568106769 0.23798886464281349 0 -0.31789211441409582 0.25254709093973182 0 -0.3064276731236763 0.26400812890352687 0 -0.31789211441409582 0.25254709093973182 0 -0.3064276731236763 0.26400812890352687 0 -0.31221857485098842 0.26679365603512772 0 -0.3064276731236763 0.26400812890352687 0 -0.2971181007736664 0.25582851233644582 0 -0.29490124232272652 0.26763141306344801 0 -0.3064276731236763 0.26400812890352687 0 -0.30598953056628492 0.2900273931642402 0 -0.3064276731236763 0.26400812890352687 0 -0.31221857485098842 0.26679365603512772 0 -0.30598953056628492 0.2900273931642402 0 -0.3064276731236763 0.26400812890352687 0 -0.29711207390121108 0.27778464148948068 0 -0.30598953056628492 0.2900273931642402 0 -0.3064276731236763 0.26400812890352687 0 -0.29711207390121108 0.27778464148948068 0 -0.29490124232272652 0.26763141306344801 0 -0.29711207390121108 0.27778464148948068 0 -0.29490124232272652 0.26763141306344801 0 -0.28513065527621212 0.27663699291094179 0 -0.29490124232272652 0.26763141306344801 0 -0.28513065527621212 0.27663699291094179 0 -0.28678069731241562 0.26153799933722338 0 -0.2899989795542729 0.24486950085420761 0 -0.28678069731241562 0.26153799933722338 0 -0.27664963471256893 0.25303831249354092 0 -0.2899989795542729 0.24486950085420761 0 -0.2971181007736664 0.25582851233644582 0 -0.28678069731241562 0.26153799933722338 0 -0.2971181007736664 0.25582851233644582 0 -0.29490124232272652 0.26763141306344801 0 -0.28678069731241562 0.26153799933722338 0 -0.27664963471256893 0.25303831249354092 0 -0.27176687637781488 0.26594099933159138 0 -0.25781088981188399 0.25136430228956153 0 -0.28678069731241562 0.26153799933722338 0 -0.27664963471256893 0.25303831249354092 0 -0.27176687637781488 0.26594099933159138 0 -0.28513065527621212 0.27663699291094179 0 -0.28678069731241562 0.26153799933722338 0 -0.27176687637781488 0.26594099933159138 0 -0.28513065527621212 0.27663699291094179 0 -0.27061990551365378 0.28069100063582608 0 -0.27176687637781488 0.26594099933159138 0 -0.27061990551365378 0.28069100063582608 0 -0.27176687637781488 0.26594099933159138 0 -0.25885919139045821 0.27622043672910479 0 -0.27176687637781488 0.26594099933159138 0 -0.25885919139045821 0.27622043672910479 0 -0.25781088981188399 0.25136430228956153 0 -0.25885919139045821 0.27622043672910479 0 -0.25781088981188399 0.25136430228956153 0 -0.24318641540675509 0.26598013431611689 0 -0.26251024452234489 0.30755485671873128 0 -0.25390348537530832 0.30159134492517048 0 -0.25995098352454249 0.29289474249360747 0 -0.26251024452234489 0.30755485671873128 0 -0.25995098352454249 0.29289474249360747 0 -0.27193141681554911 0.30245577080898761 0 -0.26251024452234489 0.30755485671873128 0 -0.25390348537530832 0.30159134492517048 0 -0.24737018536420399 0.31005157005846951 0 -0.26251024452234489 0.30755485671873128 0 -0.26084625960972418 0.31826249304905613 0 -0.24737018536420399 0.31005157005846951 0 -0.25390348537530832 0.30159134492517048 0 -0.25995098352454249 0.29289474249360747 0 -0.24385652990653359 0.29412839460549112 0 -0.27061990551365378 0.28069100063582608 0 -0.25885919139045821 0.27622043672910479 0 -0.25995098352454249 0.29289474249360747 0 -0.25885919139045821 0.27622043672910479 0 -0.25995098352454249 0.29289474249360747 0 -0.24597402151468839 0.2806104838936751 0 -0.25995098352454249 0.29289474249360747 0 -0.27739182099924131 0.29176183171388498 0 -0.27193141681554911 0.30245577080898761 0 -0.27061990551365378 0.28069100063582608 0 -0.25995098352454249 0.29289474249360747 0 -0.27739182099924131 0.29176183171388498 0 -0.28513065527621212 0.27663699291094179 0 -0.27061990551365378 0.28069100063582608 0 -0.27739182099924131 0.29176183171388498 0 -0.27739182099924131 0.29176183171388498 0 -0.27193141681554911 0.30245577080898761 0 -0.2856150422979728 0.30669139364343001 0 -0.26251024452234489 0.30755485671873128 0 -0.27193141681554911 0.30245577080898761 0 -0.27487324674846247 0.31249061672592732 0 -0.27193141681554911 0.30245577080898761 0 -0.27487324674846247 0.31249061672592732 0 -0.2856150422979728 0.30669139364343001 0 -0.2856150422979728 0.30669139364343001 0 -0.29958878884994639 0.30401832503099713 0 -0.29793511300934611 0.3223945723609607 0 -0.2856150422979728 0.30669139364343001 0 -0.29102276520827491 0.29093617062109028 0 -0.29958878884994639 0.30401832503099713 0 -0.27739182099924131 0.29176183171388498 0 -0.2856150422979728 0.30669139364343001 0 -0.29102276520827491 0.29093617062109028 0 -0.28513065527621212 0.27663699291094179 0 -0.27739182099924131 0.29176183171388498 0 -0.29102276520827491 0.29093617062109028 0 -0.29711207390121108 0.27778464148948068 0 -0.28513065527621212 0.27663699291094179 0 -0.29102276520827491 0.29093617062109028 0 -0.29711207390121108 0.27778464148948068 0 -0.29102276520827491 0.29093617062109028 0 -0.30598953056628492 0.2900273931642402 0 -0.29102276520827491 0.29093617062109028 0 -0.30598953056628492 0.2900273931642402 0 -0.29958878884994639 0.30401832503099713 0 -0.31738149316785341 0.31004209536526439 0 -0.30598953056628492 0.2900273931642402 0 -0.29958878884994639 0.30401832503099713 0 -0.31738149316785341 0.31004209536526439 0 -0.29958878884994639 0.30401832503099713 0 -0.29793511300934611 0.3223945723609607 0 -0.31738149316785341 0.31004209536526439 0 -0.29793511300934611 0.3223945723609607 0 -0.31401678547693629 0.32970352129692032 0 -0.29793511300934611 0.3223945723609607 0 -0.2915837101203767 0.34350915675424731 0 -0.31401678547693629 0.32970352129692032 0 -0.2915837101203767 0.34350915675424731 0 -0.30603458392427202 0.35702152569242063 0 -0.31401678547693629 0.32970352129692032 0 -0.2915837101203767 0.34350915675424731 0 -0.31401678547693629 0.32970352129692032 0 -0.29793511300934611 0.3223945723609607 0 -0.2915837101203767 0.34350915675424731 0 -0.28346280420925851 0.33252340259441998 0 -0.2856150422979728 0.30669139364343001 0 -0.29793511300934611 0.3223945723609607 0 -0.28290465273333792 0.31968552479012452 0 -0.29793511300934611 0.3223945723609607 0 -0.28346280420925851 0.33252340259441998 0 -0.28290465273333792 0.31968552479012452 0 -0.27487324674846247 0.31249061672592732 0 -0.2856150422979728 0.30669139364343001 0 -0.28290465273333792 0.31968552479012452 0 -0.27487324674846247 0.31249061672592732 0 -0.28290465273333792 0.31968552479012452 0 -0.27263705740164962 0.32432763862588471 0 -0.26251024452234489 0.30755485671873128 0 -0.27487324674846247 0.31249061672592732 0 -0.26084625960972418 0.31826249304905613 0 -0.27487324674846247 0.31249061672592732 0 -0.27263705740164962 0.32432763862588471 0 -0.26084625960972418 0.31826249304905613 0 -0.28346280420925851 0.33252340259441998 0 -0.28290465273333792 0.31968552479012452 0 -0.27263705740164962 0.32432763862588471 0 -0.28346280420925851 0.33252340259441998 0 -0.25766285524255678 0.34553439931298741 0 -0.28346280420925851 0.33252340259441998 0 -0.26479619011372157 0.33996796101516841 0 -0.25766285524255678 0.34553439931298741 0 -0.28346280420925851 0.33252340259441998 0 -0.27005166362536392 0.33176600160764191 0 -0.26479619011372157 0.33996796101516841 0 -0.28346280420925851 0.33252340259441998 0 -0.27263705740164962 0.32432763862588471 0 -0.27005166362536392 0.33176600160764191 0 -0.27263705740164962 0.32432763862588471 0 -0.27005166362536392 0.33176600160764191 0 -0.25931060277682583 0.33024500419509423 0 -0.26479619011372157 0.33996796101516841 0 -0.2397708343022697 0.34145750503603151 0 -0.26479619011372157 0.33996796101516841 0 -0.25766285524255678 0.34553439931298741 0 -0.2397708343022697 0.34145750503603151 0 -0.27005166362536392 0.33176600160764191 0 -0.25931060277682583 0.33024500419509423 0 -0.26479619011372157 0.33996796101516841 0 -0.25931060277682583 0.33024500419509423 0 -0.26479619011372157 0.33996796101516841 0 -0.2397708343022697 0.34145750503603151 0 -0.25931060277682583 0.33024500419509423 0 -0.26084625960972418 0.31826249304905613 0 -0.24837622084485819 0.32490527197022989 0 -0.26084625960972418 0.31826249304905613 0 -0.24837622084485819 0.32490527197022989 0 -0.24737018536420399 0.31005157005846951 0 -0.27263705740164962 0.32432763862588471 0 -0.25931060277682583 0.33024500419509423 0 -0.26084625960972418 0.31826249304905613 0 -0.26915063476381701 0.35731479221157447 0 -0.24671755940725729 0.37112042766890158 0 -0.26398098492981259 0.37367706569449322 0 -0.26915063476381701 0.35731479221157447 0 -0.24671755940725729 0.37112042766890158 0 -0.25766285524255678 0.34553439931298741 0 -0.26915063476381701 0.35731479221157447 0 -0.24671755940725729 0.37112042766890158 0 -0.28346280420925851 0.33252340259441998 0 -0.25766285524255678 0.34553439931298741 0 -0.26915063476381701 0.35731479221157447 0 -0.2915837101203767 0.34350915675424731 0 -0.26915063476381701 0.35731479221157447 0 -0.26915063476381701 0.35731479221157447 0 -0.27615908899357527 0.37173649587748508 0 -0.28890843166976199 0.36444796072179098 0 -0.26398098492981259 0.37367706569449322 0 -0.26915063476381701 0.35731479221157447 0 -0.27615908899357527 0.37173649587748508 0 -0.27615908899357527 0.37173649587748508 0 -0.28890843166976199 0.36444796072179098 0 -0.28757894418701191 0.3827715702486516 0 -0.2915837101203767 0.34350915675424731 0 -0.28890843166976199 0.36444796072179098 0 -0.30603458392427202 0.35702152569242063 0 -0.2915837101203767 0.34350915675424731 0 -0.28346280420925851 0.33252340259441998 0 -0.26915063476381701 0.35731479221157447 0 -0.2915837101203767 0.34350915675424731 0 -0.26915063476381701 0.35731479221157447 0 -0.28890843166976199 0.36444796072179098 0 -0.30603458392427202 0.35702152569242063 0 -0.32008223165353078 0.37368509894745322 0 -0.30528003986584412 0.379000951453346 0 -0.28890843166976199 0.36444796072179098 0 -0.30603458392427202 0.35702152569242063 0 -0.30528003986584412 0.379000951453346 0 -0.32008223165353078 0.37368509894745322 0 -0.33147847271882702 0.36562248464096059 0 -0.32365196027875393 0.35225239339610892 0 -0.30603458392427202 0.35702152569242063 0 -0.32008223165353078 0.37368509894745322 0 -0.32365196027875393 0.35225239339610892 0 -0.34513611503776398 0.36162937841111992 0 -0.33306148272375008 0.38328087230433411 0 -0.33147847271882702 0.36562248464096059 0 -0.34513611503776398 0.36162937841111992 0 -0.33306148272375008 0.38328087230433411 0 -0.32008223165353078 0.37368509894745322 0 -0.33147847271882702 0.36562248464096059 0 -0.33306148272375008 0.38328087230433411 0 -0.33147847271882702 0.36562248464096059 0 -0.33569086692572658 0.3542304651413809 0 -0.34513611503776398 0.36162937841111992 0 -0.33419243784792457 0.34447992893214407 0 -0.32365196027875393 0.35225239339610892 0 -0.32976131032854278 0.33580240088629998 0 -0.34345045957638748 0.34414894672404239 0 -0.33569086692572658 0.3542304651413809 0 -0.34513611503776398 0.36162937841111992 0 -0.34345045957638748 0.34414894672404239 0 -0.33569086692572658 0.3542304651413809 0 -0.33419243784792457 0.34447992893214407 0 -0.33147847271882702 0.36562248464096059 0 -0.33569086692572658 0.3542304651413809 0 -0.32365196027875393 0.35225239339610892 0 -0.33569086692572658 0.3542304651413809 0 -0.33419243784792457 0.34447992893214407 0 -0.32365196027875393 0.35225239339610892 0 -0.30603458392427202 0.35702152569242063 0 -0.32365196027875393 0.35225239339610892 0 -0.31401678547693629 0.32970352129692032 0 -0.32365196027875393 0.35225239339610892 0 -0.31401678547693629 0.32970352129692032 0 -0.32976131032854278 0.33580240088629998 0 -0.31401678547693629 0.32970352129692032 0 -0.33644986083349537 0.31589788583959227 0 -0.31738149316785341 0.31004209536526439 0 -0.31401678547693629 0.32970352129692032 0 -0.33644986083349537 0.31589788583959227 0 -0.31401678547693629 0.32970352129692032 0 -0.33644986083349537 0.31589788583959227 0 -0.32976131032854278 0.33580240088629998 0 -0.3417648041150082 0.32666851503696498 0 -0.33644986083349537 0.31589788583959227 0 -0.32976131032854278 0.33580240088629998 0 -0.3417648041150082 0.32666851503696498 0 -0.33644986083349537 0.31589788583959227 0 -0.3417648041150082 0.32666851503696498 0 -0.34048662006219671 0.3134136064684202 0 -0.3417648041150082 0.32666851503696498 0 -0.34048662006219671 0.3134136064684202 0 -0.33644986083349537 0.31589788583959227 0 -0.34048662006219671 0.3134136064684202 0 -0.33644986083349537 0.31589788583959227 0 -0.34345045957638748 0.34414894672404239 0 -0.3417648041150082 0.32666851503696498 0 -0.34345045957638748 0.34414894672404239 0 -0.3417648041150082 0.32666851503696498 0 -0.33729225296696569 0.3377749478948629 0 -0.33419243784792457 0.34447992893214407 0 -0.32976131032854278 0.33580240088629998 0 -0.33729225296696569 0.3377749478948629 0 -0.3417648041150082 0.32666851503696498 0 -0.32976131032854278 0.33580240088629998 0 -0.33729225296696569 0.3377749478948629 0 -0.34345045957638748 0.34414894672404239 0 -0.33419243784792457 0.34447992893214407 0 -0.33729225296696569 0.3377749478948629 0 -0.34345045957638748 0.34414894672404239 0 -0.3417648041150082 0.32666851503696498 0 -0.34954956877772558 0.34244418923138231 0 -0.3417648041150082 0.32666851503696498 0 -0.34954956877772558 0.34244418923138231 0 -0.3417648041150082 0.32666851503696498 0 -0.34954956877772558 0.34244418923138231 0 -0.35351474399130278 0.33007595921122068 0 -0.35351474399130278 0.33007595921122068 0 -0.3564731072798149 0.34130057568547711 0 -0.36781009952186722 0.32097177295983498 0 -0.34954956877772558 0.34244418923138231 0 -0.35351474399130278 0.33007595921122068 0 -0.3564731072798149 0.34130057568547711 0 -0.3417648041150082 0.32666851503696498 0 -0.34048662006219671 0.3134136064684202 0 -0.35266291753924972 0.3185391377246074 0 -0.3417648041150082 0.32666851503696498 0 -0.35351474399130278 0.33007595921122068 0 -0.35266291753924972 0.3185391377246074 0 -0.35351474399130278 0.33007595921122068 0 -0.35266291753924972 0.3185391377246074 0 -0.36781009952186722 0.32097177295983498 0 -0.35973832000587103 0.30156583494659578 0 -0.35266291753924972 0.3185391377246074 0 -0.36781009952186722 0.32097177295983498 0 -0.38078229231771821 0.3219440365254439 0 -0.36781009952186722 0.32097177295983498 0 -0.37322105660356142 0.33628553675524953 0 -0.3564731072798149 0.34130057568547711 0 -0.36781009952186722 0.32097177295983498 0 -0.3564731072798149 0.34130057568547711 0 -0.36781009952186722 0.32097177295983498 0 -0.36600853586120952 0.33637378379081939 0 -0.3564731072798149 0.34130057568547711 0 -0.36600853586120952 0.33637378379081939 0 -0.36652988003959441 0.34693724976271623 0 -0.36781009952186722 0.32097177295983498 0 -0.36600853586120952 0.33637378379081939 0 -0.37322105660356142 0.33628553675524953 0 -0.36600853586120952 0.33637378379081939 0 -0.37322105660356142 0.33628553675524953 0 -0.36652988003959441 0.34693724976271623 0 -0.38137819733938588 0.34833620409166788 0 -0.37322105660356142 0.33628553675524953 0 -0.36652988003959441 0.34693724976271623 0 -0.3564731072798149 0.34130057568547711 0 -0.36483725395653382 0.35929071891222158 0 -0.36652988003959441 0.34693724976271623 0 -0.38137819733938588 0.34833620409166788 0 -0.36483725395653382 0.35929071891222158 0 -0.36652988003959441 0.34693724976271623 0 -0.36483725395653382 0.35929071891222158 0 -0.35618763568117179 0.37210289480082293 0 -0.36713635541863471 0.37988805629222189 0 -0.38116287984602698 0.36833499497316619 0 -0.36483725395653382 0.35929071891222158 0 -0.36713635541863471 0.37988805629222189 0 -0.34513611503776398 0.36162937841111992 0 -0.34764081831175481 0.38760342558772848 0 -0.36483725395653382 0.35929071891222158 0 -0.35618763568117179 0.37210289480082293 0 -0.34513611503776398 0.36162937841111992 0 -0.35618763568117179 0.37210289480082293 0 -0.34513611503776398 0.36162937841111992 0 -0.34764081831175481 0.38760342558772848 0 -0.34954956877772558 0.34244418923138231 0 -0.3564731072798149 0.34130057568547711 0 -0.34513611503776398 0.36162937841111992 0 -0.34345045957638748 0.34414894672404239 0 -0.34513611503776398 0.36162937841111992 0 -0.3564731072798149 0.34130057568547711 0 -0.36483725395653382 0.35929071891222158 0 -0.34513611503776398 0.36162937841111992 0 -0.3564731072798149 0.34130057568547711 0 -0.34513611503776398 0.36162937841111992 0 -0.34345045957638748 0.34414894672404239 0 -0.34954956877772558 0.34244418923138231 0 -0.34513611503776398 0.36162937841111992 0 -0.34764081831175481 0.38760342558772848 0 -0.35014552158574352 0.41357747276433732 0 -0.34764081831175481 0.38760342558772848 0 -0.36242802965926679 0.39718812340102672 0 -0.35014552158574352 0.41357747276433732 0 -0.34764081831175481 0.38760342558772848 0 -0.35014552158574352 0.41357747276433732 0 -0.33658262364515018 0.40185063564488721 0 -0.34764081831175481 0.38760342558772848 0 -0.36713635541863471 0.37988805629222189 0 -0.36242802965926679 0.39718812340102672 0 -0.35618763568117179 0.37210289480082293 0 -0.34764081831175481 0.38760342558772848 0 -0.36713635541863471 0.37988805629222189 0 -0.38698459659072149 0.38894438391309227 0 -0.36713635541863471 0.37988805629222189 0 -0.36242802965926679 0.39718812340102672 0 -0.38698459659072149 0.38894438391309227 0 -0.36242802965926679 0.39718812340102672 0 -0.37322190284057177 0.41294615564915438 0 -0.36242802965926679 0.39718812340102672 0 -0.37322190284057177 0.41294615564915438 0 -0.35014552158574352 0.41357747276433732 0 -0.38180541721747591 0.43282878077640491 0 -0.37322190284057177 0.41294615564915438 0 -0.35554383332002198 0.43972818678570819 0 -0.37322190284057177 0.41294615564915438 0 -0.35014552158574352 0.41357747276433732 0 -0.35554383332002198 0.43972818678570819 0 -0.35014552158574352 0.41357747276433732 0 -0.33173197296577361 0.42505038964415182 0 -0.35554383332002198 0.43972818678570819 0 -0.35014552158574352 0.41357747276433732 0 -0.33173197296577361 0.42505038964415182 0 -0.33658262364515018 0.40185063564488721 0 -0.33173197296577361 0.42505038964415182 0 -0.32098685040973768 0.40493236619754908 0 -0.33658262364515018 0.40185063564488721 0 -0.33173197296577361 0.42505038964415182 0 -0.30891221809572522 0.42658386009076421 0 -0.31650022702331299 0.44141374904889158 0 -0.33173197296577361 0.42505038964415182 0 -0.32098685040973768 0.40493236619754908 0 -0.30891221809572522 0.42658386009076421 0 -0.32098685040973768 0.40493236619754908 0 -0.30891221809572522 0.42658386009076421 0 -0.32098685040973768 0.40493236619754908 0 -0.33306148272375008 0.38328087230433411 0 -0.34764081831175481 0.38760342558772848 0 -0.33658262364515018 0.40185063564488721 0 -0.33306148272375008 0.38328087230433411 0 -0.32098685040973768 0.40493236619754908 0 -0.33658262364515018 0.40185063564488721 0 -0.33306148272375008 0.38328087230433411 0 -0.34513611503776398 0.36162937841111992 0 -0.34764081831175481 0.38760342558772848 0 -0.33306148272375008 0.38328087230433411 0 -0.32008223165353078 0.37368509894745322 0 -0.32098685040973768 0.40493236619754908 0 -0.30528003986584412 0.379000951453346 0 -0.32008223165353078 0.37368509894745322 0 -0.32098685040973768 0.40493236619754908 0 -0.33306148272375008 0.38328087230433411 0 -0.30528003986584412 0.379000951453346 0 -0.29639178158679103 0.40331696854082399 0 -0.32098685040973768 0.40493236619754908 0 -0.30528003986584412 0.379000951453346 0 -0.29639178158679103 0.40331696854082399 0 -0.29639178158679103 0.40331696854082399 0 -0.28757894418701191 0.3827715702486516 0 -0.27736753582445678 0.40532148389608319 0 -0.28890843166976199 0.36444796072179098 0 -0.30528003986584412 0.379000951453346 0 -0.28757894418701191 0.3827715702486516 0 -0.30528003986584412 0.379000951453346 0 -0.29639178158679103 0.40331696854082399 0 -0.28757894418701191 0.3827715702486516 0 -0.27615908899357527 0.37173649587748508 0 -0.28757894418701191 0.3827715702486516 0 -0.27114218936186107 0.38567972447071569 0 -0.26398098492981259 0.37367706569449322 0 -0.27615908899357527 0.37173649587748508 0 -0.27114218936186107 0.38567972447071569 0 -0.28757894418701191 0.3827715702486516 0 -0.27114218936186107 0.38567972447071569 0 -0.27736753582445678 0.40532148389608319 0 -0.27114218936186107 0.38567972447071569 0 -0.27736753582445678 0.40532148389608319 0 -0.25538148803559219 0.40700429440734032 0 -0.2561736030810719 0.38574787471070882 0 -0.25538148803559219 0.40700429440734032 0 -0.24364579367083641 0.391257861312093 0 -0.27114218936186107 0.38567972447071569 0 -0.2561736030810719 0.38574787471070882 0 -0.25538148803559219 0.40700429440734032 0 -0.26398098492981259 0.37367706569449322 0 -0.2561736030810719 0.38574787471070882 0 -0.24671755940725729 0.37112042766890158 0 -0.26398098492981259 0.37367706569449322 0 -0.27114218936186107 0.38567972447071569 0 -0.2561736030810719 0.38574787471070882 0 -0.25439072692998921 0.43735816918465492 0 -0.27028644385088563 0.42341681979000362 0 -0.27204136912890442 0.43838626340568948 0 -0.25439072692998921 0.43735816918465492 0 -0.25538148803559219 0.40700429440734032 0 -0.27028644385088563 0.42341681979000362 0 -0.27736753582445678 0.40532148389608319 0 -0.25538148803559219 0.40700429440734032 0 -0.27028644385088563 0.42341681979000362 0 -0.27736753582445678 0.40532148389608319 0 -0.27028644385088563 0.42341681979000362 0 -0.28750352330773787 0.42763298562830199 0 -0.27028644385088563 0.42341681979000362 0 -0.28750352330773787 0.42763298562830199 0 -0.27204136912890442 0.43838626340568948 0 -0.29639178158679103 0.40331696854082399 0 -0.27736753582445678 0.40532148389608319 0 -0.28750352330773787 0.42763298562830199 0 -0.29639178158679103 0.40331696854082399 0 -0.28750352330773787 0.42763298562830199 0 -0.29639178158679103 0.40331696854082399 0 -0.28750352330773787 0.42763298562830199 0 -0.30891221809572522 0.42658386009076421 0 -0.32098685040973768 0.40493236619754908 0 -0.29639178158679103 0.40331696854082399 0 -0.30891221809572522 0.42658386009076421 0 -0.28750352330773787 0.42763298562830199 0 -0.30891221809572522 0.42658386009076421 0 -0.29683758578171271 0.44823535398397929 0 -0.30891221809572522 0.42658386009076421 0 -0.29683758578171271 0.44823535398397929 0 -0.30891221809572522 0.42658386009076421 0 -0.29683758578171271 0.44823535398397929 0 -0.31650022702331299 0.44141374904889158 0 -0.29683758578171271 0.44823535398397929 0 -0.31359383579068889 0.45601195409579393 0 -0.31650022702331299 0.44141374904889158 0 -0.29906983941227921 0.46147488640095219 0 -0.29683758578171271 0.44823535398397929 0 -0.31359383579068889 0.45601195409579393 0 -0.29906983941227921 0.46147488640095219 0 -0.2892981220331125 0.47216667118746047 0 -0.3068368573637138 0.47213638860447199 0 -0.29906983941227921 0.46147488640095219 0 -0.3068368573637138 0.47213638860447199 0 -0.31359383579068889 0.45601195409579393 0 -0.29906983941227921 0.46147488640095219 0 -0.27861526502868478 0.45194900271577992 0 -0.2892981220331125 0.47216667118746047 0 -0.29906983941227921 0.46147488640095219 0 -0.29683758578171271 0.44823535398397929 0 -0.27861526502868478 0.45194900271577992 0 -0.28750352330773787 0.42763298562830199 0 -0.27861526502868478 0.45194900271577992 0 -0.28750352330773787 0.42763298562830199 0 -0.29683758578171271 0.44823535398397929 0 -0.27861526502868478 0.45194900271577992 0 -0.28750352330773787 0.42763298562830199 0 -0.27204136912890442 0.43838626340568948 0 -0.27861526502868478 0.45194900271577992 0 -0.27204136912890442 0.43838626340568948 0 -0.27861526502868478 0.45194900271577992 0 -0.26608919691189048 0.46115281194443059 0 -0.27861526502868478 0.45194900271577992 0 -0.26608919691189048 0.46115281194443059 0 -0.26972700674963129 0.47626501980325781 0 -0.27861526502868478 0.45194900271577992 0 -0.26972700674963129 0.47626501980325781 0 -0.27861526502868478 0.45194900271577992 0 -0.26972700674963129 0.47626501980325781 0 -0.2892981220331125 0.47216667118746047 0 -0.26608919691189048 0.46115281194443059 0 -0.25055130607769349 0.46158459338051833 0 -0.26972700674963129 0.47626501980325781 0 -0.25439072692998921 0.43735816918465492 0 -0.26608919691189048 0.46115281194443059 0 -0.25055130607769349 0.46158459338051833 0 -0.25439072692998921 0.43735816918465492 0 -0.27204136912890442 0.43838626340568948 0 -0.26608919691189048 0.46115281194443059 0 -0.26105113547195158 0.49999999999999872 0 -0.26972700674963129 0.47626501980325781 0 -0.26105113547195158 0.49999999999999872 0 -0.25242825451887929 0.4800797258947026 0 -0.26972700674963129 0.47626501980325781 0 -0.26105113547195158 0.49999999999999872 0 -0.25242825451887929 0.4800797258947026 0 -0.24368512317136681 0.48873686798064059 0 -0.25055130607769349 0.46158459338051833 0 -0.25242825451887929 0.4800797258947026 0 -0.26972700674963129 0.47626501980325781 0 -0.25055130607769349 0.46158459338051833 0 -0.26972700674963129 0.47626501980325781 0 -0.26972700674963129 0.47626501980325781 0 -0.283940359743723 0.48714639965059492 0 -0.2892981220331125 0.47216667118746047 0 -0.26972700674963129 0.47626501980325781 0 -0.283940359743723 0.48714639965059492 0 -0.26105113547195158 0.49999999999999872 0 -0.26972700674963129 0.47626501980325781 0 -0.283940359743723 0.48714639965059492 0 -0.26105113547195158 0.49999999999999872 0 -0.28792110268762899 0.5 0 -0.283940359743723 0.48714639965059492 0 -0.283940359743723 0.48714639965059492 0 -0.2977024742274752 0.4837874470098511 0 -0.29815371273781471 0.49802777949793192 0 -0.283940359743723 0.48714639965059492 0 -0.29815371273781471 0.49802777949793192 0 -0.28792110268762899 0.5 0 -0.283940359743723 0.48714639965059492 0 -0.29815371273781471 0.49802777949793192 0 -0.283940359743723 0.48714639965059492 0 -0.2892981220331125 0.47216667118746047 0 -0.2977024742274752 0.4837874470098511 0 -0.2892981220331125 0.47216667118746047 0 -0.2977024742274752 0.4837874470098511 0 -0.3068368573637138 0.47213638860447199 0 -0.2977024742274752 0.4837874470098511 0 -0.3068368573637138 0.47213638860447199 0 -0.31243653771451391 0.48682080416557633 0 -0.29815371273781471 0.49802777949793192 0 -0.31243653771451391 0.48682080416557633 0 -0.31479106990330641 0.5 0 -0.28792110268762899 0.5 0 -0.29815371273781471 0.49802777949793192 0 -0.31479106990330641 0.5 0 -0.2977024742274752 0.4837874470098511 0 -0.29815371273781471 0.49802777949793192 0 -0.31243653771451391 0.48682080416557633 0 -0.31243653771451391 0.48682080416557633 0 -0.31479106990330641 0.5 0 -0.32580198630172558 0.49028710366385242 0 -0.31243653771451391 0.48682080416557633 0 -0.32580198630172558 0.49028710366385242 0 -0.3313331257530473 0.47668610621735019 0 -0.31479106990330641 0.5 0 -0.32580198630172558 0.49028710366385242 0 -0.34166103711898388 0.5 0 -0.34166103711898388 0.5 0 -0.3313331257530473 0.47668610621735019 0 -0.35217744050578209 0.48159778823032279 0 -0.32580198630172558 0.49028710366385242 0 -0.34166103711898388 0.5 0 -0.3313331257530473 0.47668610621735019 0 -0.3313331257530473 0.47668610621735019 0 -0.34374424930373998 0.46398145180759248 0 -0.35217744050578209 0.48159778823032279 0 -0.3068368573637138 0.47213638860447199 0 -0.31243653771451391 0.48682080416557633 0 -0.3313331257530473 0.47668610621735019 0 -0.3313331257530473 0.47668610621735019 0 -0.31359383579068889 0.45601195409579393 0 -0.33142552248266471 0.45118718742976888 0 -0.3068368573637138 0.47213638860447199 0 -0.3313331257530473 0.47668610621735019 0 -0.31359383579068889 0.45601195409579393 0 -0.33173197296577361 0.42505038964415182 0 -0.31650022702331299 0.44141374904889158 0 -0.33142552248266471 0.45118718742976888 0 -0.31359383579068889 0.45601195409579393 0 -0.31650022702331299 0.44141374904889158 0 -0.33142552248266471 0.45118718742976888 0 -0.33173197296577361 0.42505038964415182 0 -0.33142552248266471 0.45118718742976888 0 -0.35554383332002198 0.43972818678570819 0 -0.33142552248266471 0.45118718742976888 0 -0.34374424930373998 0.46398145180759248 0 -0.35554383332002198 0.43972818678570819 0 -0.3313331257530473 0.47668610621735019 0 -0.33142552248266471 0.45118718742976888 0 -0.34374424930373998 0.46398145180759248 0 -0.34374424930373998 0.46398145180759248 0 -0.35554383332002198 0.43972818678570819 0 -0.3614140001345425 0.46577704002299458 0 -0.35554383332002198 0.43972818678570819 0 -0.37450065770581231 0.45109209589174709 0 -0.3614140001345425 0.46577704002299458 0 -0.38180541721747591 0.43282878077640491 0 -0.35554383332002198 0.43972818678570819 0 -0.37450065770581231 0.45109209589174709 0 -0.38366308331645249 0.4684977888528169 0 -0.37450065770581231 0.45109209589174709 0 -0.3614140001345425 0.46577704002299458 0 -0.38366308331645249 0.4684977888528169 0 -0.3614140001345425 0.46577704002299458 0 -0.3614140001345425 0.46577704002299458 0 -0.37179605172203728 0.47975135386551609 0 -0.35217744050578209 0.48159778823032279 0 -0.38366308331645249 0.4684977888528169 0 -0.3614140001345425 0.46577704002299458 0 -0.37179605172203728 0.47975135386551609 0 -0.37179605172203728 0.47975135386551609 0 -0.36853100433466129 0.5 0 -0.35217744050578209 0.48159778823032279 0 -0.34166103711898388 0.5 0 -0.36853100433466129 0.5 0 -0.35217744050578209 0.48159778823032279 0 -0.34374424930373998 0.46398145180759248 0 -0.3614140001345425 0.46577704002299458 0 -0.35217744050578209 0.48159778823032279 0 -0.1511546090444357 0.47065052989068928 0 -0.14890910936129981 0.49999999999999672 0 -0.16315296092408429 0.47561126680233762 0 -0.1511546090444357 0.47065052989068928 0 -0.14890910936129981 0.49999999999999672 0 -0.13288363243512979 0.48493883485054889 0 -0.1511546090444357 0.47065052989068928 0 -0.14890910936129981 0.49999999999999672 0 -0.14890910936129981 0.49999999999999672 0 -0.13288363243512979 0.48493883485054889 0 -0.12163651972145099 0.5 0 -0.13288363243512979 0.48493883485054889 0 -0.12527370250384759 0.47078387733216209 0 -0.1174442215446152 0.48325976702989631 0 -0.1511546090444357 0.47065052989068928 0 -0.13288363243512979 0.48493883485054889 0 -0.12527370250384759 0.47078387733216209 0 -0.1511546090444357 0.47065052989068928 0 -0.12527370250384759 0.47078387733216209 0 -0.13236885841004919 0.44889332693852801 0 -0.13236885841004919 0.44889332693852801 0 -0.15340010872757201 0.44130105978138201 0 -0.14546892619245869 0.42593361708303712 0 -0.1511546090444357 0.47065052989068928 0 -0.15340010872757201 0.44130105978138201 0 -0.1511546090444357 0.47065052989068928 0 -0.13236885841004919 0.44889332693852801 0 -0.15340010872757201 0.44130105978138201 0 -0.1511546090444357 0.47065052989068928 0 -0.1669351908150471 0.4512225336046784 0 -0.16315296092408429 0.47561126680233762 0 -0.1511546090444357 0.47065052989068928 0 -0.15340010872757201 0.44130105978138201 0 -0.1669351908150471 0.4512225336046784 0 -0.1669351908150471 0.4512225336046784 0 -0.16315296092408429 0.47561126680233762 0 -0.15340010872757201 0.44130105978138201 0 -0.1669351908150471 0.4512225336046784 0 -0.17071742070600859 0.42683380040701913 0 -0.1669351908150471 0.4512225336046784 0 -0.17071742070600859 0.42683380040701913 0 -0.1669351908150471 0.4512225336046784 0 -0.19119844805207409 0.44705717892716551 0 -0.17071742070600859 0.42683380040701913 0 -0.1669351908150471 0.4512225336046784 0 -0.19193063858030601 0.47500262008915889 0 -0.19119844805207409 0.44705717892716551 0 -0.1669351908150471 0.4512225336046784 0 -0.16315296092408429 0.47561126680233762 0 -0.19193063858030601 0.47500262008915889 0 -0.16315296092408429 0.47561126680233762 0 -0.18479083214282929 0.5 0 -0.19193063858030601 0.47500262008915889 0 -0.14890910936129981 0.49999999999999672 0 -0.16315296092408429 0.47561126680233762 0 -0.15937073103312191 0.49999999999999672 0 -0.16315296092408429 0.47561126680233762 0 -0.15937073103312191 0.49999999999999672 0 -0.18479083214282929 0.5 0 -0.16315296092408429 0.47561126680233762 0 -0.15937073103312191 0.49999999999999672 0 -0.18479083214282929 0.5 0 -0.19193063858030601 0.47500262008915889 0 -0.2102109332525367 0.5 0 -0.19193063858030601 0.47500262008915889 0 -0.215546629477429 0.48384680384262069 0 -0.2116794753981413 0.46728055744731012 0 -0.19193063858030601 0.47500262008915889 0 -0.215546629477429 0.48384680384262069 0 -0.2102109332525367 0.5 0 -0.215546629477429 0.48384680384262069 0 -0.2102109332525367 0.5 0 -0.23216050274420841 0.48750393596745489 0 -0.2102109332525367 0.5 0 -0.23216050274420841 0.48750393596745489 0 -0.23563103436224411 0.5 0 -0.215546629477429 0.48384680384262069 0 -0.23216050274420841 0.48750393596745489 0 -0.2116794753981413 0.46728055744731012 0 -0.23216050274420841 0.48750393596745489 0 -0.2116794753981413 0.46728055744731012 0 -0.23216050274420841 0.48750393596745489 0 -0.23709871348795661 0.47152361857714681 0 -0.2116794753981413 0.46728055744731012 0 -0.23216050274420841 0.48750393596745489 0 -0.23709871348795661 0.47152361857714681 0 -0.24368512317136681 0.48873686798064059 0 -0.25242825451887929 0.4800797258947026 0 -0.23709871348795661 0.47152361857714681 0 -0.24368512317136681 0.48873686798064059 0 -0.25055130607769349 0.46158459338051833 0 -0.25242825451887929 0.4800797258947026 0 -0.23709871348795661 0.47152361857714681 0 -0.26105113547195158 0.49999999999999872 0 -0.24368512317136681 0.48873686798064059 0 -0.23563103436224411 0.5 0 -0.23216050274420841 0.48750393596745489 0 -0.24368512317136681 0.48873686798064059 0 -0.23563103436224411 0.5 0 -0.25439072692998921 0.43735816918465492 0 -0.25055130607769349 0.46158459338051833 0 -0.23137560540575561 0.44690416695777863 0 -0.25055130607769349 0.46158459338051833 0 -0.23137560540575561 0.44690416695777863 0 -0.25055130607769349 0.46158459338051833 0 -0.23709871348795661 0.47152361857714681 0 -0.23137560540575561 0.44690416695777863 0 -0.23709871348795661 0.47152361857714681 0 -0.23137560540575561 0.44690416695777863 0 -0.2116794753981413 0.46728055744731012 0 -0.23137560540575561 0.44690416695777863 0 -0.21219990473381789 0.43222374053503892 0 -0.23137560540575561 0.44690416695777863 0 -0.2116794753981413 0.46728055744731012 0 -0.21219990473381789 0.43222374053503892 0 -0.2116794753981413 0.46728055744731012 0 -0.19119844805207409 0.44705717892716551 0 -0.21219990473381789 0.43222374053503892 0 -0.19193063858030601 0.47500262008915889 0 -0.2116794753981413 0.46728055744731012 0 -0.19119844805207409 0.44705717892716551 0 -0.2116794753981413 0.46728055744731012 0 -0.19119844805207409 0.44705717892716551 0 -0.19119844805207409 0.44705717892716551 0 -0.19603875288963629 0.43020876358935711 0 -0.21219990473381789 0.43222374053503892 0 -0.19603875288963629 0.43020876358935711 0 -0.20071960476155959 0.41567743311107069 0 -0.21219990473381789 0.43222374053503892 0 -0.18994597227098811 0.40759757381842932 0 -0.1878311249556556 0.41690644311094371 0 -0.20071960476155959 0.41567743311107069 0 -0.19603875288963629 0.43020876358935711 0 -0.1878311249556556 0.41690644311094371 0 -0.20071960476155959 0.41567743311107069 0 -0.18994597227098811 0.40759757381842932 0 -0.20071960476155959 0.41567743311107069 0 -0.19824147186975161 0.40220494357118219 0 -0.20071960476155959 0.41567743311107069 0 -0.2062792483181688 0.40644478584013649 0 -0.19824147186975161 0.40220494357118219 0 -0.20071960476155959 0.41567743311107069 0 -0.21448645356515009 0.41363927408699352 0 -0.21219990473381789 0.43222374053503892 0 -0.20071960476155959 0.41567743311107069 0 -0.2062792483181688 0.40644478584013649 0 -0.21448645356515009 0.41363927408699352 0 -0.2062792483181688 0.40644478584013649 0 -0.21448645356515009 0.41363927408699352 0 -0.21609730270024419 0.40197057984788098 0 -0.23137560540575561 0.44690416695777863 0 -0.21219990473381789 0.43222374053503892 0 -0.23500967909920281 0.4230582344068235 0 -0.21448645356515009 0.41363927408699352 0 -0.21219990473381789 0.43222374053503892 0 -0.23500967909920281 0.4230582344068235 0 -0.21448645356515009 0.41363927408699352 0 -0.23500967909920281 0.4230582344068235 0 -0.2314842001869539 0.40364271786456002 0 -0.21448645356515009 0.41363927408699352 0 -0.2314842001869539 0.40364271786456002 0 -0.21609730270024419 0.40197057984788098 0 -0.25538148803559219 0.40700429440734032 0 -0.23500967909920281 0.4230582344068235 0 -0.2314842001869539 0.40364271786456002 0 -0.25439072692998921 0.43735816918465492 0 -0.23137560540575561 0.44690416695777863 0 -0.23500967909920281 0.4230582344068235 0 -0.25439072692998921 0.43735816918465492 0 -0.25538148803559219 0.40700429440734032 0 -0.23500967909920281 0.4230582344068235 0 -0.2242844840506977 0.38492606312622868 0 -0.24671755940725729 0.37112042766890158 0 -0.24364579367083641 0.391257861312093 0 -0.2242844840506977 0.38492606312622868 0 -0.24671755940725729 0.37112042766890158 0 -0.2561736030810719 0.38574787471070882 0 -0.24364579367083641 0.391257861312093 0 -0.24671755940725729 0.37112042766890158 0 -0.25538148803559219 0.40700429440734032 0 -0.24364579367083641 0.391257861312093 0 -0.2314842001869539 0.40364271786456002 0 -0.2314842001869539 0.40364271786456002 0 -0.2242844840506977 0.38492606312622868 0 -0.21609730270024419 0.40197057984788098 0 -0.24364579367083641 0.391257861312093 0 -0.2314842001869539 0.40364271786456002 0 -0.2242844840506977 0.38492606312622868 0 -0.2242844840506977 0.38492606312622868 0 -0.21708600187296359 0.37563497947309987 0 -0.20874900078239991 0.38406486387092947 0 -0.2242844840506977 0.38492606312622868 0 -0.20874900078239991 0.38406486387092947 0 -0.2018514086941382 0.39873169858355578 0 -0.20874900078239991 0.38406486387092947 0 -0.19897164618784671 0.3796998223317965 0 -0.20606295730915339 0.37155639275012209 0 -0.21708600187296359 0.37563497947309987 0 -0.20874900078239991 0.38406486387092947 0 -0.20606295730915339 0.37155639275012209 0 -0.2242844840506977 0.38492606312622868 0 -0.2018514086941382 0.39873169858355578 0 -0.2242844840506977 0.38492606312622868 0 -0.21609730270024419 0.40197057984788098 0 -0.2018514086941382 0.39873169858355578 0 -0.20874900078239991 0.38406486387092947 0 -0.2018514086941382 0.39873169858355578 0 -0.19898257804050631 0.3900298340742942 0 -0.2062792483181688 0.40644478584013649 0 -0.21609730270024419 0.40197057984788098 0 -0.2018514086941382 0.39873169858355578 0 -0.19824147186975161 0.40220494357118219 0 -0.18887785000547699 0.38612947054885283 0 -0.19824147186975161 0.40220494357118219 0 -0.19083618562567159 0.39858494107959552 0 -0.18887785000547699 0.38612947054885283 0 -0.19824147186975161 0.40220494357118219 0 -0.19898257804050631 0.3900298340742942 0 -0.18887785000547699 0.38612947054885283 0 -0.2062792483181688 0.40644478584013649 0 -0.19824147186975161 0.40220494357118219 0 -0.2018514086941382 0.39873169858355578 0 -0.19824147186975161 0.40220494357118219 0 -0.2018514086941382 0.39873169858355578 0 -0.19898257804050631 0.3900298340742942 0 -0.19083618562567159 0.39858494107959552 0 -0.18887785000547699 0.38612947054885283 0 -0.1862794483564699 0.39840777637991748 0 -0.18994597227098811 0.40759757381842932 0 -0.19824147186975161 0.40220494357118219 0 -0.19083618562567159 0.39858494107959552 0 -0.18994597227098811 0.40759757381842932 0 -0.19083618562567159 0.39858494107959552 0 -0.1862794483564699 0.39840777637991748 0 -0.18887785000547699 0.38612947054885283 0 -0.19086272228137019 0.36787808732741428 0 -0.1975832296913779 0.37213942212584561 0 -0.20874900078239991 0.38406486387092947 0 -0.19897164618784671 0.3796998223317965 0 -0.19898257804050631 0.3900298340742942 0 -0.19897164618784671 0.3796998223317965 0 -0.19898257804050631 0.3900298340742942 0 -0.18887785000547699 0.38612947054885283 0 -0.19897164618784671 0.3796998223317965 0 -0.18887785000547699 0.38612947054885283 0 -0.19897164618784671 0.3796998223317965 0 -0.18887785000547699 0.38612947054885283 0 -0.1975832296913779 0.37213942212584561 0 -0.18887785000547699 0.38612947054885283 0 -0.17424489273100999 0.38219302825736362 0 -0.17244886726984709 0.39659456986785652 0 -0.18887785000547699 0.38612947054885283 0 -0.17424489273100999 0.38219302825736362 0 -0.17544961412908061 0.3630758651494348 0 -0.17424489273100999 0.38219302825736362 0 -0.1597046161021777 0.3836410258763413 0 -0.17544961412908061 0.3630758651494348 0 -0.17424489273100999 0.38219302825736362 0 -0.1597046161021777 0.3836410258763413 0 -0.17244886726984709 0.39659456986785652 0 -0.1567817272485961 0.39710211713657129 0 -0.17244886726984709 0.39659456986785652 0 -0.15601988453421539 0.40705966918685738 0 -0.17244886726984709 0.39659456986785652 0 -0.15601988453421539 0.40705966918685738 0 -0.1597046161021777 0.3836410258763413 0 -0.1567817272485961 0.39710211713657129 0 -0.17244886726984709 0.39659456986785652 0 -0.17244886726984709 0.39659456986785652 0 -0.16585993357214501 0.40901790321736298 0 -0.15601988453421539 0.40705966918685738 0 -0.1567817272485961 0.39710211713657129 0 -0.15601988453421539 0.40705966918685738 0 -0.17446788693994289 0.40264988695300741 0 -0.17244886726984709 0.39659456986785652 0 -0.16585993357214501 0.40901790321736298 0 -0.18887785000547699 0.38612947054885283 0 -0.17244886726984709 0.39659456986785652 0 -0.18887785000547699 0.38612947054885283 0 -0.17244886726984709 0.39659456986785652 0 -0.18031308354274589 0.39820632993495719 0 -0.17446788693994289 0.40264988695300741 0 -0.18031308354274589 0.39820632993495719 0 -0.18143086451427831 0.40834258208720758 0 -0.17446788693994289 0.40264988695300741 0 -0.17244886726984709 0.39659456986785652 0 -0.18031308354274589 0.39820632993495719 0 -0.18887785000547699 0.38612947054885283 0 -0.1862794483564699 0.39840777637991748 0 -0.18031308354274589 0.39820632993495719 0 -0.18994597227098811 0.40759757381842932 0 -0.1862794483564699 0.39840777637991748 0 -0.18143086451427831 0.40834258208720758 0 -0.1862794483564699 0.39840777637991748 0 -0.18031308354274589 0.39820632993495719 0 -0.18143086451427831 0.40834258208720758 0 -0.17446788693994289 0.40264988695300741 0 -0.18143086451427831 0.40834258208720758 0 -0.17071742070600859 0.42683380040701913 0 -0.18994597227098811 0.40759757381842932 0 -0.1878311249556556 0.41690644311094371 0 -0.18143086451427831 0.40834258208720758 0 -0.17446788693994289 0.40264988695300741 0 -0.17071742070600859 0.42683380040701913 0 -0.1878311249556556 0.41690644311094371 0 -0.18143086451427831 0.40834258208720758 0 -0.17071742070600859 0.42683380040701913 0 -0.19603875288963629 0.43020876358935711 0 -0.1878311249556556 0.41690644311094371 0 -0.17071742070600859 0.42683380040701913 0 -0.19119844805207409 0.44705717892716551 0 -0.19603875288963629 0.43020876358935711 0 -0.17071742070600859 0.42683380040701913 0 -0.19119844805207409 0.44705717892716551 0 -0.17071742070600859 0.42683380040701913 0 -0.15340010872757201 0.44130105978138201 0 -0.17071742070600859 0.42683380040701913 0 -0.1556456084107091 0.41195158967207468 0 -0.17071742070600859 0.42683380040701913 0 -0.16585993357214501 0.40901790321736298 0 -0.1556456084107091 0.41195158967207468 0 -0.17446788693994289 0.40264988695300741 0 -0.17071742070600859 0.42683380040701913 0 -0.16585993357214501 0.40901790321736298 0 -0.17071742070600859 0.42683380040701913 0 -0.1556456084107091 0.41195158967207468 0 -0.16585993357214501 0.40901790321736298 0 -0.15601988453421539 0.40705966918685738 0 -0.1556456084107091 0.41195158967207468 0 -0.15601988453421539 0.40705966918685738 0 -0.1527808700311036 0.40912288935186852 0 -0.15096559699279591 0.40733045222697228 0 -0.1527808700311036 0.40912288935186852 0 -0.12821462004837761 0.42477134733015898 0 -0.14395961807527691 0.40420618660324947 0 -0.1527808700311036 0.40912288935186852 0 -0.15096559699279591 0.40733045222697228 0 -0.14395961807527691 0.40420618660324947 0 -0.15601988453421539 0.40705966918685738 0 -0.1527808700311036 0.40912288935186852 0 -0.15601988453421539 0.40705966918685738 0 -0.1527808700311036 0.40912288935186852 0 -0.1556456084107091 0.41195158967207468 0 -0.1527808700311036 0.40912288935186852 0 -0.1556456084107091 0.41195158967207468 0 -0.14546892619245869 0.42593361708303712 0 -0.15601988453421539 0.40705966918685738 0 -0.1556456084107091 0.41195158967207468 0 -0.1527808700311036 0.40912288935186852 0 -0.14546892619245869 0.42593361708303712 0 -0.12821462004837761 0.42477134733015898 0 -0.1527808700311036 0.40912288935186852 0 -0.15096559699279591 0.40733045222697228 0 -0.1527808700311036 0.40912288935186852 0 -0.1556456084107091 0.41195158967207468 0 -0.15340010872757201 0.44130105978138201 0 -0.1556456084107091 0.41195158967207468 0 -0.15340010872757201 0.44130105978138201 0 -0.1556456084107091 0.41195158967207468 0 -0.14546892619245869 0.42593361708303712 0 -0.13236885841004919 0.44889332693852801 0 -0.14546892619245869 0.42593361708303712 0 -0.12821462004837761 0.42477134733015898 0 -0.1527808700311036 0.40912288935186852 0 -0.12821462004837761 0.42477134733015898 0 -0.12821462004837761 0.42477134733015898 0 -0.14395961807527691 0.40420618660324947 0 -0.12821462004837761 0.42477134733015898 0 -0.1262731161424494 0.41098458453742581 0 -0.14395961807527691 0.40420618660324947 0 -0.1262731161424494 0.41098458453742581 0 -0.13816492322289389 0.38391863095226642 0 -0.14395961807527691 0.40420618660324947 0 -0.1262731161424494 0.41098458453742581 0 -0.13816492322289389 0.38391863095226642 0 -0.122032766010996 0.38150440727375001 0 -0.1262731161424494 0.41098458453742581 0 -0.13816492322289389 0.38391863095226642 0 -0.13816492322289389 0.38391863095226642 0 -0.1290658169321201 0.36495796629032212 0 -0.122032766010996 0.38150440727375001 0 -0.1597046161021777 0.3836410258763413 0 -0.13816492322289389 0.38391863095226642 0 -0.1607513297849115 0.36813252104814131 0 -0.1597046161021777 0.3836410258763413 0 -0.13816492322289389 0.38391863095226642 0 -0.14395961807527691 0.40420618660324947 0 -0.1597046161021777 0.3836410258763413 0 -0.14395961807527691 0.40420618660324947 0 -0.1597046161021777 0.3836410258763413 0 -0.1567817272485961 0.39710211713657129 0 -0.14395961807527691 0.40420618660324947 0 -0.1567817272485961 0.39710211713657129 0 -0.15601988453421539 0.40705966918685738 0 -0.15096559699279591 0.40733045222697228 0 -0.1567817272485961 0.39710211713657129 0 -0.15096559699279591 0.40733045222697228 0 -0.14395961807527691 0.40420618660324947 0 -0.14908148329927451 0.34685546147510238 0 -0.1500567303033371 0.35685267736710657 0 -0.13842036534356561 0.35166003176750132 0 -0.14191127326869721 0.3445779631257424 0 -0.14908148329927451 0.34685546147510238 0 -0.13842036534356561 0.35166003176750132 0 -0.14191127326869721 0.3445779631257424 0 -0.14908148329927451 0.34685546147510238 0 -0.14578397102900689 0.34020051894764602 0 -0.14908148329927451 0.34685546147510238 0 -0.15526578015964401 0.34499679199327132 0 -0.14578397102900689 0.34020051894764602 0 -0.15459328994518681 0.34652739106941172 0 -0.1500567303033371 0.35685267736710657 0 -0.1562533125524618 0.34645673416805328 0 -0.14908148329927451 0.34685546147510238 0 -0.15459328994518681 0.34652739106941172 0 -0.1500567303033371 0.35685267736710657 0 -0.14908148329927451 0.34685546147510238 0 -0.15459328994518681 0.34652739106941172 0 -0.14908148329927451 0.34685546147510238 0 -0.15459328994518681 0.34652739106941172 0 -0.15526578015964401 0.34499679199327132 0 -0.15459328994518681 0.34652739106941172 0 -0.15526578015964401 0.34499679199327132 0 -0.1562533125524618 0.34645673416805328 0 -0.15459328994518681 0.34652739106941172 0 -0.1562533125524618 0.34645673416805328 0 -0.15526578015964401 0.34499679199327132 0 -0.1562533125524618 0.34645673416805328 0 -0.15459328994518681 0.34652739106941172 0 -0.15526578015964401 0.34499679199327132 0 -0.15459328994518681 0.34652739106941172 0 -0.1500567303033371 0.35685267736710657 0 -0.13816492322289389 0.38391863095226642 0 -0.1500567303033371 0.35685267736710657 0 -0.13816492322289389 0.38391863095226642 0 -0.1500567303033371 0.35685267736710657 0 -0.1607513297849115 0.36813252104814131 0 -0.13816492322289389 0.38391863095226642 0 -0.1500567303033371 0.35685267736710657 0 -0.1290658169321201 0.36495796629032212 0 -0.1500567303033371 0.35685267736710657 0 -0.1290658169321201 0.36495796629032212 0 -0.1290658169321201 0.36495796629032212 0 -0.12872796564695019 0.35422374996017819 0 -0.13842036534356561 0.35166003176750132 0 -0.1500567303033371 0.35685267736710657 0 -0.1290658169321201 0.36495796629032212 0 -0.13842036534356561 0.35166003176750132 0 -0.1290658169321201 0.36495796629032212 0 -0.12872796564695019 0.35422374996017819 0 -0.12127429260353501 0.35545287990242752 0 -0.13842036534356561 0.35166003176750132 0 -0.130052656455029 0.34584555208888018 0 -0.1364338911989057 0.34288096057973388 0 -0.14191127326869721 0.3445779631257424 0 -0.13842036534356561 0.35166003176750132 0 -0.1364338911989057 0.34288096057973388 0 -0.130052656455029 0.34584555208888018 0 -0.1228238987695868 0.33949768061628921 0 -0.1224637287728801 0.34854477401553458 0 -0.12872796564695019 0.35422374996017819 0 -0.13842036534356561 0.35166003176750132 0 -0.130052656455029 0.34584555208888018 0 -0.12872796564695019 0.35422374996017819 0 -0.130052656455029 0.34584555208888018 0 -0.1224637287728801 0.34854477401553458 0 -0.130052656455029 0.34584555208888018 0 -0.13302956064605331 0.33760289982824132 0 -0.1228238987695868 0.33949768061628921 0 -0.13302956064605331 0.33760289982824132 0 -0.13180756484683989 0.32749830201113239 0 -0.1228238987695868 0.33949768061628921 0 -0.13687461097757789 0.332418394995872 0 -0.1397340550145201 0.33781652803634588 0 -0.1429272634028983 0.32675585010776842 0 -0.13687461097757789 0.332418394995872 0 -0.13302956064605331 0.33760289982824132 0 -0.13180756484683989 0.32749830201113239 0 -0.13687461097757789 0.332418394995872 0 -0.13180756484683989 0.32749830201113239 0 -0.1429272634028983 0.32675585010776842 0 -0.130052656455029 0.34584555208888018 0 -0.1364338911989057 0.34288096057973388 0 -0.13302956064605331 0.33760289982824132 0 -0.14191127326869721 0.3445779631257424 0 -0.1397340550145201 0.33781652803634588 0 -0.1364338911989057 0.34288096057973388 0 -0.1397340550145201 0.33781652803634588 0 -0.1364338911989057 0.34288096057973388 0 -0.13302956064605331 0.33760289982824132 0 -0.13687461097757789 0.332418394995872 0 -0.1397340550145201 0.33781652803634588 0 -0.13302956064605331 0.33760289982824132 0 -0.12686481346268949 0.32037137393547221 0 -0.1429272634028983 0.32675585010776842 0 -0.13058874664615211 0.30851490822226579 0 -0.1429272634028983 0.32675585010776842 0 -0.13058874664615211 0.30851490822226579 0 -0.1429272634028983 0.32675585010776842 0 -0.1467750539168142 0.31115915167834979 0 -0.13058874664615211 0.30851490822226579 0 -0.12686481346268949 0.32037137393547221 0 -0.13180756484683989 0.32749830201113239 0 -0.1429272634028983 0.32675585010776842 0 -0.12686481346268949 0.32037137393547221 0 -0.13058874664615211 0.30851490822226579 0 -0.1249871204044478 0.31179850293020489 0 -0.1429272634028983 0.32675585010776842 0 -0.15366720224144401 0.3205281219140535 0 -0.1467750539168142 0.31115915167834979 0 -0.1429272634028983 0.32675585010776842 0 -0.15366720224144401 0.3205281219140535 0 -0.1523394303107817 0.33113409600751559 0 -0.15366720224144401 0.3205281219140535 0 -0.1523394303107817 0.33113409600751559 0 -0.15749747543914031 0.33225562001496978 0 -0.15366720224144401 0.3205281219140535 0 -0.15869479675611001 0.30981759603412529 0 -0.1467750539168142 0.31115915167834979 0 -0.15526578015964401 0.34499679199327132 0 -0.1429272634028983 0.32675585010776842 0 -0.1523394303107817 0.33113409600751559 0 -0.15526578015964401 0.34499679199327132 0 -0.1429272634028983 0.32675585010776842 0 -0.15526578015964401 0.34499679199327132 0 -0.1429272634028983 0.32675585010776842 0 -0.14578397102900689 0.34020051894764602 0 -0.14191127326869721 0.3445779631257424 0 -0.1397340550145201 0.33781652803634588 0 -0.14578397102900689 0.34020051894764602 0 -0.1397340550145201 0.33781652803634588 0 -0.1429272634028983 0.32675585010776842 0 -0.14578397102900689 0.34020051894764602 0 -0.15526578015964401 0.34499679199327132 0 -0.1523394303107817 0.33113409600751559 0 -0.15749747543914031 0.33225562001496978 0 -0.15526578015964401 0.34499679199327132 0 -0.15749747543914031 0.33225562001496978 0 -0.15941636996096159 0.33554997956572408 0 -0.15526578015964401 0.34499679199327132 0 -0.15941636996096159 0.33554997956572408 0 -0.15526578015964401 0.34499679199327132 0 -0.15941636996096159 0.33554997956572408 0 -0.16543461114720109 0.3458821005370285 0 -0.15941636996096159 0.33554997956572408 0 -0.16543461114720109 0.3458821005370285 0 -0.15749747543914031 0.33225562001496978 0 -0.15941636996096159 0.33554997956572408 0 -0.15941636996096159 0.33554997956572408 0 -0.1739160139182897 0.33255295366919918 0 -0.16543461114720109 0.3458821005370285 0 -0.15366720224144401 0.3205281219140535 0 -0.1693274482682107 0.3129921980924586 0 -0.15869479675611001 0.30981759603412529 0 -0.15941636996096159 0.33554997956572408 0 -0.1693274482682107 0.3129921980924586 0 -0.1739160139182897 0.33255295366919918 0 -0.15366720224144401 0.3205281219140535 0 -0.15749747543914031 0.33225562001496978 0 -0.1693274482682107 0.3129921980924586 0 -0.15941636996096159 0.33554997956572408 0 -0.1693274482682107 0.3129921980924586 0 -0.15749747543914031 0.33225562001496978 0 -0.15941636996096159 0.33554997956572408 0 -0.1693274482682107 0.3129921980924586 0 -0.1693274482682107 0.3129921980924586 0 -0.18487538969692671 0.32172445498253649 0 -0.1739160139182897 0.33255295366919918 0 -0.1693274482682107 0.3129921980924586 0 -0.18487538969692671 0.32172445498253649 0 -0.1712157713371375 0.30869434292279468 0 -0.1693274482682107 0.3129921980924586 0 -0.18487538969692671 0.32172445498253649 0 -0.1739160139182897 0.33255295366919918 0 -0.18084331905695539 0.3449649527885954 0 -0.16543461114720109 0.3458821005370285 0 -0.18487538969692671 0.32172445498253649 0 -0.1739160139182897 0.33255295366919918 0 -0.1843764759982891 0.33415194175978957 0 -0.1843764759982891 0.33415194175978957 0 -0.18084331905695539 0.3449649527885954 0 -0.19287148122563119 0.34032047982697361 0 -0.18084331905695539 0.3449649527885954 0 -0.19287148122563119 0.34032047982697361 0 -0.1739160139182897 0.33255295366919918 0 -0.1843764759982891 0.33415194175978957 0 -0.18084331905695539 0.3449649527885954 0 -0.17544961412908061 0.3630758651494348 0 -0.18972012267936569 0.34443659307775848 0 -0.18084331905695539 0.3449649527885954 0 -0.17544961412908061 0.3630758651494348 0 -0.18972012267936569 0.34443659307775848 0 -0.18084331905695539 0.3449649527885954 0 -0.1678277753166168 0.34999068657361931 0 -0.17544961412908061 0.3630758651494348 0 -0.17544961412908061 0.3630758651494348 0 -0.18972012267936569 0.34443659307775848 0 -0.192683118888576 0.35701328452959752 0 -0.18084331905695539 0.3449649527885954 0 -0.18972012267936569 0.34443659307775848 0 -0.18084331905695539 0.3449649527885954 0 -0.1678277753166168 0.34999068657361931 0 -0.18084331905695539 0.3449649527885954 0 -0.16543461114720109 0.3458821005370285 0 -0.18084331905695539 0.3449649527885954 0 -0.16543461114720109 0.3458821005370285 0 -0.1678277753166168 0.34999068657361931 0 -0.1500567303033371 0.35685267736710657 0 -0.1678277753166168 0.34999068657361931 0 -0.1562533125524618 0.34645673416805328 0 -0.1500567303033371 0.35685267736710657 0 -0.1678277753166168 0.34999068657361931 0 -0.1500567303033371 0.35685267736710657 0 -0.1678277753166168 0.34999068657361931 0 -0.1607513297849115 0.36813252104814131 0 -0.16543461114720109 0.3458821005370285 0 -0.1678277753166168 0.34999068657361931 0 -0.1678277753166168 0.34999068657361931 0 -0.17544961412908061 0.3630758651494348 0 -0.15526578015964401 0.34499679199327132 0 -0.16543461114720109 0.3458821005370285 0 -0.1562533125524618 0.34645673416805328 0 -0.16543461114720109 0.3458821005370285 0 -0.1562533125524618 0.34645673416805328 0 -0.16543461114720109 0.3458821005370285 0 -0.1678277753166168 0.34999068657361931 0 -0.1562533125524618 0.34645673416805328 0 -0.1597046161021777 0.3836410258763413 0 -0.1607513297849115 0.36813252104814131 0 -0.17544961412908061 0.3630758651494348 0 -0.1678277753166168 0.34999068657361931 0 -0.1607513297849115 0.36813252104814131 0 -0.17544961412908061 0.3630758651494348 0 -0.1597046161021777 0.3836410258763413 0 -0.17544961412908061 0.3630758651494348 0 -0.17544961412908061 0.3630758651494348 0 -0.19086272228137019 0.36787808732741428 0 -0.192683118888576 0.35701328452959752 0 -0.18887785000547699 0.38612947054885283 0 -0.17544961412908061 0.3630758651494348 0 -0.18887785000547699 0.38612947054885283 0 -0.17544961412908061 0.3630758651494348 0 -0.19086272228137019 0.36787808732741428 0 -0.19086272228137019 0.36787808732741428 0 -0.19956114265848451 0.36379483255704659 0 -0.192683118888576 0.35701328452959752 0 -0.19086272228137019 0.36787808732741428 0 -0.19956114265848451 0.36379483255704659 0 -0.1975832296913779 0.37213942212584561 0 -0.19897164618784671 0.3796998223317965 0 -0.1975832296913779 0.37213942212584561 0 -0.20606295730915339 0.37155639275012209 0 -0.19956114265848451 0.36379483255704659 0 -0.1975832296913779 0.37213942212584561 0 -0.20606295730915339 0.37155639275012209 0 -0.18972012267936569 0.34443659307775848 0 -0.20307972867182639 0.3491579142826845 0 -0.21474547849081771 0.34294704905689449 0 -0.18972012267936569 0.34443659307775848 0 -0.192683118888576 0.35701328452959752 0 -0.1973619709950957 0.35109231525788698 0 -0.19956114265848451 0.36379483255704659 0 -0.192683118888576 0.35701328452959752 0 -0.2025188031450299 0.35480596512635038 0 -0.192683118888576 0.35701328452959752 0 -0.2025188031450299 0.35480596512635038 0 -0.1973619709950957 0.35109231525788698 0 -0.2025188031450299 0.35480596512635038 0 -0.1973619709950957 0.35109231525788698 0 -0.20307972867182639 0.3491579142826845 0 -0.18972012267936569 0.34443659307775848 0 -0.1973619709950957 0.35109231525788698 0 -0.20307972867182639 0.3491579142826845 0 -0.20307972867182639 0.3491579142826845 0 -0.21105226804882271 0.35250764889453179 0 -0.21474547849081771 0.34294704905689449 0 -0.2025188031450299 0.35480596512635038 0 -0.21105226804882271 0.35250764889453179 0 -0.2074040658787438 0.35996434959823748 0 -0.2025188031450299 0.35480596512635038 0 -0.20307972867182639 0.3491579142826845 0 -0.21105226804882271 0.35250764889453179 0 -0.21731484030645609 0.35731886141561991 0 -0.21105226804882271 0.35250764889453179 0 -0.2074040658787438 0.35996434959823748 0 -0.21731484030645609 0.35731886141561991 0 -0.21105226804882271 0.35250764889453179 0 -0.21686853622897789 0.35068047991815271 0 -0.21105226804882271 0.35250764889453179 0 -0.21686853622897789 0.35068047991815271 0 -0.21474547849081771 0.34294704905689449 0 -0.21686853622897789 0.35068047991815271 0 -0.22436155806981509 0.34994836030556481 0 -0.21474547849081771 0.34294704905689449 0 -0.21731484030645609 0.35731886141561991 0 -0.20606295730915339 0.37155639275012209 0 -0.23186290627585529 0.35854539603155472 0 -0.21708600187296359 0.37563497947309987 0 -0.20606295730915339 0.37155639275012209 0 -0.23186290627585529 0.35854539603155472 0 -0.19956114265848451 0.36379483255704659 0 -0.20606295730915339 0.37155639275012209 0 -0.2074040658787438 0.35996434959823748 0 -0.19956114265848451 0.36379483255704659 0 -0.2025188031450299 0.35480596512635038 0 -0.2074040658787438 0.35996434959823748 0 -0.21731484030645609 0.35731886141561991 0 -0.20606295730915339 0.37155639275012209 0 -0.2074040658787438 0.35996434959823748 0 -0.2242844840506977 0.38492606312622868 0 -0.21708600187296359 0.37563497947309987 0 -0.23186290627585529 0.35854539603155472 0 -0.2242844840506977 0.38492606312622868 0 -0.23186290627585529 0.35854539603155472 0 -0.24671755940725729 0.37112042766890158 0 -0.20606295730915339 0.37155639275012209 0 -0.23186290627585529 0.35854539603155472 0 -0.22436155806981509 0.34994836030556481 0 -0.23186290627585529 0.35854539603155472 0 -0.2397708343022697 0.34145750503603151 0 -0.22436155806981509 0.34994836030556481 0 -0.2397708343022697 0.34145750503603151 0 -0.21474547849081771 0.34294704905689449 0 -0.21731484030645609 0.35731886141561991 0 -0.22436155806981509 0.34994836030556481 0 -0.23186290627585529 0.35854539603155472 0 -0.21731484030645609 0.35731886141561991 0 -0.21686853622897789 0.35068047991815271 0 -0.22436155806981509 0.34994836030556481 0 -0.25766285524255678 0.34553439931298741 0 -0.23186290627585529 0.35854539603155472 0 -0.2397708343022697 0.34145750503603151 0 -0.25766285524255678 0.34553439931298741 0 -0.23186290627585529 0.35854539603155472 0 -0.24671755940725729 0.37112042766890158 0 -0.25766285524255678 0.34553439931298741 0 -0.23186290627585529 0.35854539603155472 0 -0.23311087986532561 0.32478271135051789 0 -0.2311113264311421 0.30768563759304102 0 -0.24737018536420399 0.31005157005846951 0 -0.24837622084485819 0.32490527197022989 0 -0.23311087986532561 0.32478271135051789 0 -0.24737018536420399 0.31005157005846951 0 -0.25931060277682583 0.33024500419509423 0 -0.24837622084485819 0.32490527197022989 0 -0.2397708343022697 0.34145750503603151 0 -0.24837622084485819 0.32490527197022989 0 -0.2397708343022697 0.34145750503603151 0 -0.23311087986532561 0.32478271135051789 0 -0.2255439334354685 0.33689429486020489 0 -0.23311087986532561 0.32478271135051789 0 -0.214548541083461 0.33838991399737578 0 -0.2397708343022697 0.34145750503603151 0 -0.2255439334354685 0.33689429486020489 0 -0.23311087986532561 0.32478271135051789 0 -0.2397708343022697 0.34145750503603151 0 -0.21474547849081771 0.34294704905689449 0 -0.23311087986532561 0.32478271135051789 0 -0.20775397695291259 0.33457385386387711 0 -0.2397708343022697 0.34145750503603151 0 -0.2255439334354685 0.33689429486020489 0 -0.21474547849081771 0.34294704905689449 0 -0.23311087986532561 0.32478271135051789 0 -0.21765664721451361 0.31965622881232081 0 -0.20775397695291259 0.33457385386387711 0 -0.23311087986532561 0.32478271135051789 0 -0.21765664721451361 0.31965622881232081 0 -0.2311113264311421 0.30768563759304102 0 -0.21765664721451361 0.31965622881232081 0 -0.20560126308134999 0.32369361144414172 0 -0.21947990143239071 0.30556617644083489 0 -0.20560126308134999 0.32369361144414172 0 -0.21947990143239071 0.30556617644083489 0 -0.21765664721451361 0.31965622881232081 0 -0.20611286055041811 0.32542727859168308 0 -0.20775397695291259 0.33457385386387711 0 -0.21765664721451361 0.31965622881232081 0 -0.20611286055041811 0.32542727859168308 0 -0.20560126308134999 0.32369361144414172 0 -0.20611286055041811 0.32542727859168308 0 -0.20560126308134999 0.32369361144414172 0 -0.20042333112564101 0.33045671187261749 0 -0.20611286055041811 0.32542727859168308 0 -0.20560126308134999 0.32369361144414172 0 -0.23311087986532561 0.32478271135051789 0 -0.214548541083461 0.33838991399737578 0 -0.20775397695291259 0.33457385386387711 0 -0.21474547849081771 0.34294704905689449 0 -0.20775397695291259 0.33457385386387711 0 -0.19287148122563119 0.34032047982697361 0 -0.21474547849081771 0.34294704905689449 0 -0.214548541083461 0.33838991399737578 0 -0.20775397695291259 0.33457385386387711 0 -0.2255439334354685 0.33689429486020489 0 -0.21474547849081771 0.34294704905689449 0 -0.214548541083461 0.33838991399737578 0 -0.214548541083461 0.33838991399737578 0 -0.20775397695291259 0.33457385386387711 0 -0.20611286055041811 0.32542727859168308 0 -0.20775397695291259 0.33457385386387711 0 -0.20042333112564101 0.33045671187261749 0 -0.20775397695291259 0.33457385386387711 0 -0.20042333112564101 0.33045671187261749 0 -0.18487538969692671 0.32172445498253649 0 -0.1843764759982891 0.33415194175978957 0 -0.20042333112564101 0.33045671187261749 0 -0.18972012267936569 0.34443659307775848 0 -0.21474547849081771 0.34294704905689449 0 -0.18972012267936569 0.34443659307775848 0 -0.21474547849081771 0.34294704905689449 0 -0.19287148122563119 0.34032047982697361 0 -0.1843764759982891 0.33415194175978957 0 -0.20042333112564101 0.33045671187261749 0 -0.19287148122563119 0.34032047982697361 0 -0.20775397695291259 0.33457385386387711 0 -0.19287148122563119 0.34032047982697361 0 -0.20042333112564101 0.33045671187261749 0 -0.19287148122563119 0.34032047982697361 0 -0.20775397695291259 0.33457385386387711 0 -0.20042333112564101 0.33045671187261749 0 -0.19287148122563119 0.34032047982697361 0 -0.18084331905695539 0.3449649527885954 0 -0.18972012267936569 0.34443659307775848 0 -0.19287148122563119 0.34032047982697361 0 -0.18972012267936569 0.34443659307775848 0 -0.19287148122563119 0.34032047982697361 0 -0.18487538969692671 0.32172445498253649 0 -0.20560126308134999 0.32369361144414172 0 -0.20042333112564101 0.33045671187261749 0 -0.18487538969692671 0.32172445498253649 0 -0.20560126308134999 0.32369361144414172 0 -0.19816086107332509 0.2984800767692935 0 -0.20560126308134999 0.32369361144414172 0 -0.20042333112564101 0.33045671187261749 0 -0.18487538969692671 0.32172445498253649 0 -0.20042333112564101 0.33045671187261749 0 -0.20560126308134999 0.32369361144414172 0 -0.19816086107332509 0.2984800767692935 0 -0.18487538969692671 0.32172445498253649 0 -0.19816086107332509 0.2984800767692935 0 -0.1847732194029568 0.30381118328155282 0 -0.19816086107332509 0.2984800767692935 0 -0.18352807862801501 0.29137716181417889 0 -0.1847732194029568 0.30381118328155282 0 -0.19816086107332509 0.2984800767692935 0 -0.19072045906529689 0.27326654209444612 0 -0.19816086107332509 0.2984800767692935 0 -0.19072045906529689 0.27326654209444612 0 -0.18352807862801501 0.29137716181417889 0 -0.19816086107332509 0.2984800767692935 0 -0.2007089780434983 0.28054732028121382 0 -0.19072045906529689 0.27326654209444612 0 -0.19816086107332509 0.2984800767692935 0 -0.2127021967223672 0.28334979342423933 0 -0.2007089780434983 0.28054732028121382 0 -0.19816086107332509 0.2984800767692935 0 -0.2127021967223672 0.28334979342423933 0 -0.21947990143239071 0.30556617644083489 0 -0.20560126308134999 0.32369361144414172 0 -0.19816086107332509 0.2984800767692935 0 -0.21947990143239071 0.30556617644083489 0 -0.21765664721451361 0.31965622881232081 0 -0.21947990143239071 0.30556617644083489 0 -0.2311113264311421 0.30768563759304102 0 -0.2311113264311421 0.30768563759304102 0 -0.22519381480388551 0.29192874429061211 0 -0.24385652990653359 0.29412839460549112 0 -0.21947990143239071 0.30556617644083489 0 -0.2311113264311421 0.30768563759304102 0 -0.22519381480388551 0.29192874429061211 0 -0.22519381480388551 0.29192874429061211 0 -0.24385652990653359 0.29412839460549112 0 -0.23135965527792329 0.27759169268623762 0 -0.2127021967223672 0.28334979342423933 0 -0.21947990143239071 0.30556617644083489 0 -0.22519381480388551 0.29192874429061211 0 -0.2127021967223672 0.28334979342423933 0 -0.22519381480388551 0.29192874429061211 0 -0.23135965527792329 0.27759169268623762 0 -0.25995098352454249 0.29289474249360747 0 -0.24385652990653359 0.29412839460549112 0 -0.24597402151468839 0.2806104838936751 0 -0.24385652990653359 0.29412839460549112 0 -0.24597402151468839 0.2806104838936751 0 -0.23135965527792329 0.27759169268623762 0 -0.2311113264311421 0.30768563759304102 0 -0.24385652990653359 0.29412839460549112 0 -0.24737018536420399 0.31005157005846951 0 -0.25390348537530832 0.30159134492517048 0 -0.24385652990653359 0.29412839460549112 0 -0.24737018536420399 0.31005157005846951 0 -0.25781088981188399 0.25136430228956153 0 -0.24318641540675509 0.26598013431611689 0 -0.23372259705565049 0.24851436387078391 0 -0.24318641540675509 0.26598013431611689 0 -0.23149713267528779 0.26237681172678717 0 -0.23372259705565049 0.24851436387078391 0 -0.25885919139045821 0.27622043672910479 0 -0.24318641540675509 0.26598013431611689 0 -0.24597402151468839 0.2806104838936751 0 -0.24318641540675509 0.26598013431611689 0 -0.24597402151468839 0.2806104838936751 0 -0.23135965527792329 0.27759169268623762 0 -0.24318641540675509 0.26598013431611689 0 -0.23135965527792329 0.27759169268623762 0 -0.23149713267528779 0.26237681172678717 0 -0.2127021967223672 0.28334979342423933 0 -0.23135965527792329 0.27759169268623762 0 -0.2184523100715052 0.26298291828296338 0 -0.23135965527792329 0.27759169268623762 0 -0.23149713267528779 0.26237681172678717 0 -0.2184523100715052 0.26298291828296338 0 -0.2184523100715052 0.26298291828296338 0 -0.22277595510907569 0.24180466171435519 0 -0.23372259705565049 0.24851436387078391 0 -0.23149713267528779 0.26237681172678717 0 -0.2184523100715052 0.26298291828296338 0 -0.23372259705565049 0.24851436387078391 0 -0.2184523100715052 0.26298291828296338 0 -0.2080355030213131 0.25794714878442282 0 -0.21118785677136451 0.24749749729373921 0 -0.2184523100715052 0.26298291828296338 0 -0.22277595510907569 0.24180466171435519 0 -0.21118785677136451 0.24749749729373921 0 -0.2184523100715052 0.26298291828296338 0 -0.2080355030213131 0.25794714878442282 0 -0.20125239531300429 0.26709286883687622 0 -0.2080355030213131 0.25794714878442282 0 -0.20125239531300429 0.26709286883687622 0 -0.20046331167089321 0.25247574909317411 0 -0.2080355030213131 0.25794714878442282 0 -0.20046331167089321 0.25247574909317411 0 -0.21118785677136451 0.24749749729373921 0 -0.2127021967223672 0.28334979342423933 0 -0.2184523100715052 0.26298291828296338 0 -0.20125239531300429 0.26709286883687622 0 -0.2127021967223672 0.28334979342423933 0 -0.2007089780434983 0.28054732028121382 0 -0.20125239531300429 0.26709286883687622 0 -0.2007089780434983 0.28054732028121382 0 -0.20125239531300429 0.26709286883687622 0 -0.19072045906529689 0.27326654209444612 0 -0.20125239531300429 0.26709286883687622 0 -0.19072045906529689 0.27326654209444612 0 -0.19072045906529689 0.27326654209444612 0 -0.1857497979664898 0.25642229956071261 0 -0.20125239531300429 0.26709286883687622 0 -0.19072045906529689 0.27326654209444612 0 -0.1857497979664898 0.25642229956071261 0 -0.20125239531300429 0.26709286883687622 0 -0.20046331167089321 0.25247574909317411 0 -0.1857497979664898 0.25642229956071261 0 -0.1857497979664898 0.25642229956071261 0 -0.17088819938583719 0.25139470107571699 0 -0.16788710449019381 0.26688902485965399 0 -0.17088819938583719 0.25139470107571699 0 -0.1579895210430797 0.25382037719868611 0 -0.16788710449019381 0.26688902485965399 0 -0.1579895210430797 0.25382037719868611 0 -0.16788710449019381 0.26688902485965399 0 -0.15256521181676849 0.2673322447420417 0 -0.16579833362209251 0.2878755423534507 0 -0.15256521181676849 0.2673322447420417 0 -0.16788710449019381 0.26688902485965399 0 -0.16579833362209251 0.2878755423534507 0 -0.15256521181676849 0.2673322447420417 0 -0.16788710449019381 0.26688902485965399 0 -0.1727726625909177 0.2837872885669035 0 -0.16579833362209251 0.2878755423534507 0 -0.1857497979664898 0.25642229956071261 0 -0.1727726625909177 0.2837872885669035 0 -0.1857497979664898 0.25642229956071261 0 -0.16788710449019381 0.26688902485965399 0 -0.1727726625909177 0.2837872885669035 0 -0.19072045906529689 0.27326654209444612 0 -0.1857497979664898 0.25642229956071261 0 -0.1727726625909177 0.2837872885669035 0 -0.19072045906529689 0.27326654209444612 0 -0.1727726625909177 0.2837872885669035 0 -0.19072045906529689 0.27326654209444612 0 -0.18352807862801501 0.29137716181417889 0 -0.1727726625909177 0.2837872885669035 0 -0.18352807862801501 0.29137716181417889 0 -0.17516386798026831 0.29249972778452182 0 -0.17854264770397371 0.29789962764795741 0 -0.18352807862801501 0.29137716181417889 0 -0.17516386798026831 0.29249972778452182 0 -0.1727726625909177 0.2837872885669035 0 -0.17516386798026831 0.29249972778452182 0 -0.1727726625909177 0.2837872885669035 0 -0.1686986921373258 0.29237810259847652 0 -0.17516386798026831 0.29249972778452182 0 -0.17854264770397371 0.29789962764795741 0 -0.1718966102883574 0.29734259890403658 0 -0.17516386798026831 0.29249972778452182 0 -0.1718966102883574 0.29734259890403658 0 -0.1686986921373258 0.29237810259847652 0 -0.18487538969692671 0.32172445498253649 0 -0.1773514622202709 0.30446746645549672 0 -0.1712157713371375 0.30869434292279468 0 -0.18487538969692671 0.32172445498253649 0 -0.1847732194029568 0.30381118328155282 0 -0.1773514622202709 0.30446746645549672 0 -0.18352807862801501 0.29137716181417889 0 -0.1847732194029568 0.30381118328155282 0 -0.17854264770397371 0.29789962764795741 0 -0.1847732194029568 0.30381118328155282 0 -0.17854264770397371 0.29789962764795741 0 -0.1773514622202709 0.30446746645549672 0 -0.17854264770397371 0.29789962764795741 0 -0.1718966102883574 0.29734259890403658 0 -0.1773514622202709 0.30446746645549672 0 -0.1718966102883574 0.29734259890403658 0 -0.1773514622202709 0.30446746645549672 0 -0.17120131600681229 0.30301768126317769 0 -0.1773514622202709 0.30446746645549672 0 -0.1712157713371375 0.30869434292279468 0 -0.17120131600681229 0.30301768126317769 0 -0.16434142018148321 0.30156631677038298 0 -0.16579833362209251 0.2878755423534507 0 -0.1491292133175362 0.30164817694830409 0 -0.1693274482682107 0.3129921980924586 0 -0.15869479675611001 0.30981759603412529 0 -0.1491292133175362 0.30164817694830409 0 -0.1693274482682107 0.3129921980924586 0 -0.1491292133175362 0.30164817694830409 0 -0.1693274482682107 0.3129921980924586 0 -0.16434142018148321 0.30156631677038298 0 -0.1491292133175362 0.30164817694830409 0 -0.1693274482682107 0.3129921980924586 0 -0.1712157713371375 0.30869434292279468 0 -0.16434142018148321 0.30156631677038298 0 -0.1693274482682107 0.3129921980924586 0 -0.1712157713371375 0.30869434292279468 0 -0.16434142018148321 0.30156631677038298 0 -0.1686986921373258 0.29237810259847652 0 -0.1718966102883574 0.29734259890403658 0 -0.16434142018148321 0.30156631677038298 0 -0.1686986921373258 0.29237810259847652 0 -0.1712157713371375 0.30869434292279468 0 -0.16434142018148321 0.30156631677038298 0 -0.17120131600681229 0.30301768126317769 0 -0.1718966102883574 0.29734259890403658 0 -0.16434142018148321 0.30156631677038298 0 -0.17120131600681229 0.30301768126317769 0 -0.1727726625909177 0.2837872885669035 0 -0.16579833362209251 0.2878755423534507 0 -0.1686986921373258 0.29237810259847652 0 -0.1727726625909177 0.2837872885669035 0 -0.1686986921373258 0.29237810259847652 0 -0.1727726625909177 0.2837872885669035 0 -0.16579833362209251 0.2878755423534507 0 -0.16434142018148321 0.30156631677038298 0 -0.16579833362209251 0.2878755423534507 0 -0.1686986921373258 0.29237810259847652 0 -0.1718966102883574 0.29734259890403658 0 -0.1686986921373258 0.29237810259847652 0 -0.16579833362209251 0.2878755423534507 0 -0.1686986921373258 0.29237810259847652 0 -0.16579833362209251 0.2878755423534507 0 -0.1491292133175362 0.30164817694830409 0 -0.14564310113674489 0.29969025684358203 0 -0.16579833362209251 0.2878755423534507 0 -0.14564310113674489 0.29969025684358203 0 -0.16579833362209251 0.2878755423534507 0 -0.1462896056576696 0.28333727742209941 0 -0.14564310113674489 0.29969025684358203 0 -0.1462896056576696 0.28333727742209941 0 -0.14564310113674489 0.29969025684358203 0 -0.1311784050374501 0.28631741571340918 0 -0.14564310113674489 0.29969025684358203 0 -0.1467750539168142 0.31115915167834979 0 -0.13058874664615211 0.30851490822226579 0 -0.15869479675611001 0.30981759603412529 0 -0.1491292133175362 0.30164817694830409 0 -0.1467750539168142 0.31115915167834979 0 -0.15869479675611001 0.30981759603412529 0 -0.1491292133175362 0.30164817694830409 0 -0.1491292133175362 0.30164817694830409 0 -0.14564310113674489 0.29969025684358203 0 -0.1467750539168142 0.31115915167834979 0 -0.1491292133175362 0.30164817694830409 0 -0.14564310113674489 0.29969025684358203 0 -0.14564310113674489 0.29969025684358203 0 -0.12520465146527859 0.30055520210551251 0 -0.13058874664615211 0.30851490822226579 0 -0.14564310113674489 0.29969025684358203 0 -0.12520465146527859 0.30055520210551251 0 -0.1293960864909712 0.29056537647056352 0 -0.14564310113674489 0.29969025684358203 0 -0.13058874664615211 0.30851490822226579 0 -0.12520465146527859 0.30055520210551251 0 -0.13058874664615211 0.30851490822226579 0 -0.12520465146527859 0.30055520210551251 0 -0.13058874664615211 0.30851490822226579 0 -0.1249871204044478 0.31179850293020489 0 -0.13058874664615211 0.30851490822226579 0 -0.1249871204044478 0.31179850293020489 0 -0.14564310113674489 0.29969025684358203 0 -0.1293960864909712 0.29056537647056352 0 -0.14564310113674489 0.29969025684358203 0 -0.1293960864909712 0.29056537647056352 0 -0.1311784050374501 0.28631741571340918 0 -0.1462896056576696 0.28333727742209941 0 -0.1311784050374501 0.28631741571340918 0 -0.13555519376042829 0.27588581987199517 0 -0.14564310113674489 0.29969025684358203 0 -0.1311784050374501 0.28631741571340918 0 -0.12520465146527859 0.30055520210551251 0 -0.1293960864909712 0.29056537647056352 0 -0.1293960864909712 0.29056537647056352 0 -0.1311784050374501 0.28631741571340918 0 -0.1311784050374501 0.28631741571340918 0 -0.12705740691669151 0.27441748871378518 0 -0.13555519376042829 0.27588581987199517 0 -0.1311784050374501 0.28631741571340918 0 -0.13555519376042829 0.27588581987199517 0 -0.13555519376042829 0.27588581987199517 0 -0.12695895990637571 0.26336171928790891 0 -0.13860286387375431 0.26334218275814458 0 -0.12705740691669151 0.27441748871378518 0 -0.13555519376042829 0.27588581987199517 0 -0.12695895990637571 0.26336171928790891 0 -0.12695895990637571 0.26336171928790891 0 -0.11823488744769579 0.25092633060682701 0 -0.1393320900114447 0.24678894713063271 0 -0.12695895990637571 0.26336171928790891 0 -0.13860286387375431 0.26334218275814458 0 -0.1393320900114447 0.24678894713063271 0 -0.13860286387375431 0.26334218275814458 0 -0.15256521181676849 0.2673322447420417 0 -0.1393320900114447 0.24678894713063271 0 -0.1579895210430797 0.25382037719868611 0 -0.15256521181676849 0.2673322447420417 0 -0.1393320900114447 0.24678894713063271 0 -0.15256521181676849 0.2673322447420417 0 -0.1393320900114447 0.24678894713063271 0 -0.1462896056576696 0.28333727742209941 0 -0.13555519376042829 0.27588581987199517 0 -0.15256521181676849 0.2673322447420417 0 -0.16579833362209251 0.2878755423534507 0 -0.1462896056576696 0.28333727742209941 0 -0.15256521181676849 0.2673322447420417 0 -0.13555519376042829 0.27588581987199517 0 -0.13860286387375431 0.26334218275814458 0 -0.15256521181676849 0.2673322447420417 0 -0.10423742952929969 0.27643541228167678 0 -0.092707684156425052 0.28318632630892249 0 -0.085552412738088612 0.27208796664488177 0 -0.10423742952929969 0.27643541228167678 0 -0.09789573288757461 0.25789258425024503 0 -0.085552412738088612 0.27208796664488177 0 -0.10423742952929969 0.27643541228167678 0 -0.09789573288757461 0.25789258425024503 0 -0.1145370689625122 0.2721049999818273 0 -0.10423742952929969 0.27643541228167678 0 -0.1117622716700207 0.28068233784781449 0 -0.10380643213930479 0.2858565710296081 0 -0.10423742952929969 0.27643541228167678 0 -0.1117622716700207 0.28068233784781449 0 -0.09789573288757461 0.25789258425024503 0 -0.1145370689625122 0.2721049999818273 0 -0.09789573288757461 0.25789258425024503 0 -0.11823488744769579 0.25092633060682701 0 -0.1145370689625122 0.2721049999818273 0 -0.12695895990637571 0.26336171928790891 0 -0.11823488744769579 0.25092633060682701 0 -0.1145370689625122 0.2721049999818273 0 -0.1311784050374501 0.28631741571340918 0 -0.12705740691669151 0.27441748871378518 0 -0.1145370689625122 0.2721049999818273 0 -0.1311784050374501 0.28631741571340918 0 -0.1145370689625122 0.2721049999818273 0 -0.1311784050374501 0.28631741571340918 0 -0.1145370689625122 0.2721049999818273 0 -0.1117622716700207 0.28068233784781449 0 -0.12705740691669151 0.27441748871378518 0 -0.12695895990637571 0.26336171928790891 0 -0.1145370689625122 0.2721049999818273 0 -0.10423742952929969 0.27643541228167678 0 -0.1145370689625122 0.2721049999818273 0 -0.1117622716700207 0.28068233784781449 0 -0.12520465146527859 0.30055520210551251 0 -0.1117622716700207 0.28068233784781449 0 -0.1102903171838598 0.29366253947088389 0 -0.12520465146527859 0.30055520210551251 0 -0.1117622716700207 0.28068233784781449 0 -0.1293960864909712 0.29056537647056352 0 -0.1117622716700207 0.28068233784781449 0 -0.1293960864909712 0.29056537647056352 0 -0.1311784050374501 0.28631741571340918 0 -0.1117622716700207 0.28068233784781449 0 -0.12520465146527859 0.30055520210551251 0 -0.1293960864909712 0.29056537647056352 0 -0.1117622716700207 0.28068233784781449 0 -0.12520465146527859 0.30055520210551251 0 -0.1102343850254253 0.30649537274910321 0 -0.1186942789803616 0.31607196081566019 0 -0.12520465146527859 0.30055520210551251 0 -0.1186942789803616 0.31607196081566019 0 -0.12520465146527859 0.30055520210551251 0 -0.1249871204044478 0.31179850293020489 0 -0.1186942789803616 0.31607196081566019 0 -0.12520465146527859 0.30055520210551251 0 -0.1102903171838598 0.29366253947088389 0 -0.1102343850254253 0.30649537274910321 0 -0.1102903171838598 0.29366253947088389 0 -0.1102343850254253 0.30649537274910321 0 -0.10003445815691871 0.29531623923874267 0 -0.1102343850254253 0.30649537274910321 0 -0.09792429575500744 0.30992211272751269 0 -0.10003445815691871 0.29531623923874267 0 -0.1117622716700207 0.28068233784781449 0 -0.1102903171838598 0.29366253947088389 0 -0.10380643213930479 0.2858565710296081 0 -0.1102903171838598 0.29366253947088389 0 -0.10380643213930479 0.2858565710296081 0 -0.10003445815691871 0.29531623923874267 0 -0.10380643213930479 0.2858565710296081 0 -0.10003445815691871 0.29531623923874267 0 -0.092707684156425052 0.28318632630892249 0 -0.10423742952929969 0.27643541228167678 0 -0.10380643213930479 0.2858565710296081 0 -0.092707684156425052 0.28318632630892249 0 -0.10003445815691871 0.29531623923874267 0 -0.092707684156425052 0.28318632630892249 0 -0.081798475142581359 0.29946938126670619 0 -0.092707684156425052 0.28318632630892249 0 -0.081798475142581359 0.29946938126670619 0 -0.07414382223800918 0.28528008582003161 0 -0.09792429575500744 0.30992211272751269 0 -0.081798475142581359 0.29946938126670619 0 -0.070590858673911197 0.32055724092449073 0 -0.09792429575500744 0.30992211272751269 0 -0.10003445815691871 0.29531623923874267 0 -0.081798475142581359 0.29946938126670619 0 -0.081798475142581359 0.29946938126670619 0 -0.063035229320694788 0.30163295666733109 0 -0.070590858673911197 0.32055724092449073 0 -0.063035229320694788 0.30163295666733109 0 -0.07414382223800918 0.28528008582003161 0 -0.051741149937484597 0.28655091637347307 0 -0.081798475142581359 0.29946938126670619 0 -0.063035229320694788 0.30163295666733109 0 -0.07414382223800918 0.28528008582003161 0 -0.07414382223800918 0.28528008582003161 0 -0.065511558334821196 0.26748830257642009 0 -0.051741149937484597 0.28655091637347307 0 -0.07414382223800918 0.28528008582003161 0 -0.065511558334821196 0.26748830257642009 0 -0.085552412738088612 0.27208796664488177 0 -0.092707684156425052 0.28318632630892249 0 -0.07414382223800918 0.28528008582003161 0 -0.085552412738088612 0.27208796664488177 0 -0.09789573288757461 0.25789258425024503 0 -0.079453131267273241 0.2572859628985697 0 -0.084512925013609158 0.23954854694493499 0 -0.09789573288757461 0.25789258425024503 0 -0.085552412738088612 0.27208796664488177 0 -0.079453131267273241 0.2572859628985697 0 -0.065511558334821196 0.26748830257642009 0 -0.085552412738088612 0.27208796664488177 0 -0.079453131267273241 0.2572859628985697 0 -0.065511558334821196 0.26748830257642009 0 -0.079453131267273241 0.2572859628985697 0 -0.063793027362272589 0.24941241407636661 0 -0.065511558334821196 0.26748830257642009 0 -0.040169454585322457 0.2728121738197144 0 -0.044386290936714409 0.25359228382257271 0 -0.065511558334821196 0.26748830257642009 0 -0.044386290936714409 0.25359228382257271 0 -0.063793027362272589 0.24941241407636661 0 -0.065511558334821196 0.26748830257642009 0 -0.040169454585322457 0.2728121738197144 0 -0.051741149937484597 0.28655091637347307 0 -0.040169454585322457 0.2728121738197144 0 -0.044386290936714409 0.25359228382257271 0 -0.02290087045232821 0.26206178737561919 0 -0.044386290936714409 0.25359228382257271 0 -0.02290087045232821 0.26206178737561919 0 -0.02914888987534385 0.24174449408076551 0 -0.040169454585322457 0.2728121738197144 0 -0.02290087045232821 0.26206178737561919 0 -0.018947801064055751 0.29622408540376988 0 -0.02290087045232821 0.26206178737561919 0 -0.0046185520507155808 0.27097983876130521 0 -0.018947801064055751 0.29622408540376988 0 -0.02290087045232821 0.26206178737561919 0 -0.0046185520507155808 0.27097983876130521 0 -0.01212773407442894 0.2433893394835768 0 -0.0046185520507155808 0.27097983876130521 0 -0.01212773407442894 0.2433893394835768 0 0.009710696962624589 0.24573559211884061 0 -0.003114773589655063 0.30739282621521957 0 -0.018947801064055751 0.29622408540376988 0 0.0051691312004334532 0.28902472209096208 0 -0.003114773589655063 0.30739282621521957 0 -0.018947801064055751 0.29622408540376988 0 -0.018501941473524151 0.31294191789729542 0 -0.0046185520507155808 0.27097983876130521 0 -0.018947801064055751 0.29622408540376988 0 0.0051691312004334532 0.28902472209096208 0 -0.0046185520507155808 0.27097983876130521 0 -0.018947801064055751 0.29622408540376988 0 -0.018947801064055751 0.29622408540376988 0 -0.035003005170033623 0.31440891787164488 0 -0.018501941473524151 0.31294191789729542 0 -0.018947801064055751 0.29622408540376988 0 -0.047533057840261947 0.30359657267684959 0 -0.035003005170033623 0.31440891787164488 0 -0.040169454585322457 0.2728121738197144 0 -0.018947801064055751 0.29622408540376988 0 -0.051741149937484597 0.28655091637347307 0 -0.047533057840261947 0.30359657267684959 0 -0.052339143928342338 0.31479684851695211 0 -0.035003005170033623 0.31440891787164488 0 -0.018947801064055751 0.29622408540376988 0 -0.051741149937484597 0.28655091637347307 0 -0.047533057840261947 0.30359657267684959 0 -0.063035229320694788 0.30163295666733109 0 -0.051741149937484597 0.28655091637347307 0 -0.047533057840261947 0.30359657267684959 0 -0.063035229320694788 0.30163295666733109 0 -0.052339143928342338 0.31479684851695211 0 -0.070590858673911197 0.32055724092449073 0 -0.063035229320694788 0.30163295666733109 0 -0.047533057840261947 0.30359657267684959 0 -0.052339143928342338 0.31479684851695211 0 -0.052339143928342338 0.31479684851695211 0 -0.043257421592815003 0.33119236912146871 0 -0.070590858673911197 0.32055724092449073 0 -0.043257421592815003 0.33119236912146871 0 -0.070590858673911197 0.32055724092449073 0 -0.043257421592815003 0.33119236912146871 0 -0.040938388586196701 0.34643936098516059 0 -0.064686894555943508 0.34148914716537432 0 -0.043257421592815003 0.33119236912146871 0 -0.064686894555943508 0.34148914716537432 0 -0.070590858673911197 0.32055724092449073 0 -0.043257421592815003 0.33119236912146871 0 -0.015923984511718801 0.34182749731844658 0 -0.040938388586196701 0.34643936098516059 0 -0.052339143928342338 0.31479684851695211 0 -0.043257421592815003 0.33119236912146871 0 -0.035003005170033623 0.31440891787164488 0 -0.043257421592815003 0.33119236912146871 0 -0.035003005170033623 0.31440891787164488 0 -0.025356584840526931 0.32562778853951968 0 -0.035003005170033623 0.31440891787164488 0 -0.018501941473524151 0.31294191789729542 0 -0.025356584840526931 0.32562778853951968 0 -0.018501941473524151 0.31294191789729542 0 -0.025356584840526931 0.32562778853951968 0 -0.01008754270334938 0.32105597145632259 0 -0.025356584840526931 0.32562778853951968 0 -0.01523252004345889 0.33057886518561153 0 -0.01008754270334938 0.32105597145632259 0 -0.043257421592815003 0.33119236912146871 0 -0.015923984511718801 0.34182749731844658 0 -0.025356584840526931 0.32562778853951968 0 -0.015923984511718801 0.34182749731844658 0 -0.01523252004345889 0.33057886518561153 0 -0.043257421592815003 0.33119236912146871 0 -0.025356584840526931 0.32562778853951968 0 -0.015923984511718801 0.34182749731844658 0 -0.01523252004345889 0.33057886518561153 0 -0.008383304618223994 0.33748981764053099 0 -0.003615850522113911 0.33278336917249962 0 -0.015923984511718801 0.34182749731844658 0 -0.008383304618223994 0.33748981764053099 0 0.0012391366043956341 0.34476953888556638 0 -0.01523252004345889 0.33057886518561153 0 -0.003615850522113911 0.33278336917249962 0 -0.01008754270334938 0.32105597145632259 0 -0.015923984511718801 0.34182749731844658 0 -0.01523252004345889 0.33057886518561153 0 -0.008383304618223994 0.33748981764053099 0 -0.008383304618223994 0.33748981764053099 0 -0.003615850522113911 0.33278336917249962 0 0.0012391366043956341 0.34476953888556638 0 -0.003615850522113911 0.33278336917249962 0 -0.01008754270334938 0.32105597145632259 0 0.0045161698998515626 0.32060316832622621 0 -0.003114773589655063 0.30739282621521957 0 -0.01008754270334938 0.32105597145632259 0 0.0045161698998515626 0.32060316832622621 0 -0.003114773589655063 0.30739282621521957 0 -0.018501941473524151 0.31294191789729542 0 -0.01008754270334938 0.32105597145632259 0 -0.010954278063915499 0.37033747279110729 0 0.0065586233532973284 0.35633978862473098 0 -0.01718988261644994 0.35138957480494692 0 0.0065586233532973284 0.35633978862473098 0 -0.015923984511718801 0.34182749731844658 0 -0.01718988261644994 0.35138957480494692 0 0.0065586233532973284 0.35633978862473098 0 -0.015923984511718801 0.34182749731844658 0 0.01140945256937767 0.35246262551542368 0 -0.015923984511718801 0.34182749731844658 0 0.01140945256937767 0.35246262551542368 0 0.0012391366043956341 0.34476953888556638 0 -0.010954278063915499 0.37033747279110729 0 -0.01718988261644994 0.35138957480494692 0 0.0065586233532973284 0.35633978862473098 0 -0.01718988261644994 0.35138957480494692 0 -0.040938388586196701 0.34643936098516059 0 -0.015923984511718801 0.34182749731844658 0 -0.01718988261644994 0.35138957480494692 0 -0.040938388586196701 0.34643936098516059 0 -0.01718988261644994 0.35138957480494692 0 -0.027443601079069801 0.3644786794351218 0 -0.040938388586196701 0.34643936098516059 0 -0.010954278063915499 0.37033747279110729 0 -0.027443601079069801 0.3644786794351218 0 -0.028467179481127439 0.3843351569574846 0 -0.010954278063915499 0.37033747279110729 0 -0.01718988261644994 0.35138957480494692 0 -0.027443601079069801 0.3644786794351218 0 -0.027443601079069801 0.3644786794351218 0 -0.043173694451059827 0.36947482329391279 0 -0.028467179481127439 0.3843351569574846 0 -0.027443601079069801 0.3644786794351218 0 -0.043173694451059827 0.36947482329391279 0 -0.040938388586196701 0.34643936098516059 0 -0.040938388586196701 0.34643936098516059 0 -0.058339399132582091 0.35905233331470982 0 -0.064686894555943508 0.34148914716537432 0 -0.043173694451059827 0.36947482329391279 0 -0.040938388586196701 0.34643936098516059 0 -0.058339399132582091 0.35905233331470982 0 -0.040938388586196701 0.34643936098516059 0 -0.064686894555943508 0.34148914716537432 0 -0.058339399132582091 0.35905233331470982 0 -0.067114711103181818 0.36798499447345517 0 -0.058752093590522712 0.37772278829444161 0 -0.043173694451059827 0.36947482329391279 0 -0.058339399132582091 0.35905233331470982 0 -0.058752093590522712 0.37772278829444161 0 -0.058339399132582091 0.35905233331470982 0 -0.067114711103181818 0.36798499447345517 0 -0.076842724802886508 0.36157882198566121 0 -0.067114711103181818 0.36798499447345517 0 -0.069190165400850281 0.3768181674638208 0 -0.058752093590522712 0.37772278829444161 0 -0.067114711103181818 0.36798499447345517 0 -0.076842724802886508 0.36157882198566121 0 -0.076172817777349647 0.37170506831921402 0 -0.067114711103181818 0.36798499447345517 0 -0.076172817777349647 0.37170506831921402 0 -0.069190165400850281 0.3768181674638208 0 -0.098881300543857673 0.36329402167942948 0 -0.087083990189687474 0.38116854413675633 0 -0.092019777066918509 0.36666573699979821 0 -0.098881300543857673 0.36329402167942948 0 -0.087083990189687474 0.38116854413675633 0 -0.076172817777349647 0.37170506831921402 0 -0.085297082696017948 0.36930492118839231 0 -0.081382964510692907 0.37725096997131152 0 -0.076842724802886508 0.36157882198566121 0 -0.076172817777349647 0.37170506831921402 0 -0.085297082696017948 0.36930492118839231 0 -0.076842724802886508 0.36157882198566121 0 -0.085297082696017948 0.36930492118839231 0 -0.089073558681350626 0.35930476984493259 0 -0.085297082696017948 0.36930492118839231 0 -0.092019777066918509 0.36666573699979821 0 -0.089073558681350626 0.35930476984493259 0 -0.092019777066918509 0.36666573699979821 0 -0.089073558681350626 0.35930476984493259 0 -0.094712610892292118 0.36140891867821839 0 -0.085297082696017948 0.36930492118839231 0 -0.092019777066918509 0.36666573699979821 0 -0.087083990189687474 0.38116854413675633 0 -0.090332785152182252 0.34974267026082762 0 -0.088435400525690294 0.33653893334558788 0 -0.095078286566869535 0.34702914396245232 0 -0.090332785152182252 0.34974267026082762 0 -0.089073558681350626 0.35930476984493259 0 -0.096012357069954771 0.35439360164077499 0 -0.089073558681350626 0.35930476984493259 0 -0.094712610892292118 0.36140891867821839 0 -0.096012357069954771 0.35439360164077499 0 -0.090332785152182252 0.34974267026082762 0 -0.089073558681350626 0.35930476984493259 0 -0.077678436564552394 0.34841774024015443 0 -0.076842724802886508 0.36157882198566121 0 -0.089073558681350626 0.35930476984493259 0 -0.077678436564552394 0.34841774024015443 0 -0.090332785152182252 0.34974267026082762 0 -0.077678436564552394 0.34841774024015443 0 -0.088435400525690294 0.33653893334558788 0 -0.058339399132582091 0.35905233331470982 0 -0.077678436564552394 0.34841774024015443 0 -0.064686894555943508 0.34148914716537432 0 -0.058339399132582091 0.35905233331470982 0 -0.076842724802886508 0.36157882198566121 0 -0.077678436564552394 0.34841774024015443 0 -0.064686894555943508 0.34148914716537432 0 -0.070590858673911197 0.32055724092449073 0 -0.088435400525690294 0.33653893334558788 0 -0.077678436564552394 0.34841774024015443 0 -0.064686894555943508 0.34148914716537432 0 -0.088435400525690294 0.33653893334558788 0 -0.064686894555943508 0.34148914716537432 0 -0.088435400525690294 0.33653893334558788 0 -0.09792429575500744 0.30992211272751269 0 -0.070590858673911197 0.32055724092449073 0 -0.098442600443441899 0.32510669397140579 0 -0.070590858673911197 0.32055724092449073 0 -0.088435400525690294 0.33653893334558788 0 -0.098442600443441899 0.32510669397140579 0 -0.09792429575500744 0.30992211272751269 0 -0.070590858673911197 0.32055724092449073 0 -0.088435400525690294 0.33653893334558788 0 -0.1121839064954379 0.33158871952580532 0 -0.1055326035196508 0.34744137060261859 0 -0.088435400525690294 0.33653893334558788 0 -0.095078286566869535 0.34702914396245232 0 -0.1055326035196508 0.34744137060261859 0 -0.088435400525690294 0.33653893334558788 0 -0.1121839064954379 0.33158871952580532 0 -0.088435400525690294 0.33653893334558788 0 -0.098442600443441899 0.32510669397140579 0 -0.1121839064954379 0.33158871952580532 0 -0.1121839064954379 0.33158871952580532 0 -0.1055326035196508 0.34744137060261859 0 -0.1102343850254253 0.30649537274910321 0 -0.09792429575500744 0.30992211272751269 0 -0.098442600443441899 0.32510669397140579 0 -0.1102343850254253 0.30649537274910321 0 -0.098442600443441899 0.32510669397140579 0 -0.1186942789803616 0.31607196081566019 0 -0.12686481346268949 0.32037137393547221 0 -0.13180756484683989 0.32749830201113239 0 -0.1121839064954379 0.33158871952580532 0 -0.098442600443441899 0.32510669397140579 0 -0.1186942789803616 0.31607196081566019 0 -0.1121839064954379 0.33158871952580532 0 -0.1186942789803616 0.31607196081566019 0 -0.1121839064954379 0.33158871952580532 0 -0.12686481346268949 0.32037137393547221 0 -0.1186942789803616 0.31607196081566019 0 -0.1121839064954379 0.33158871952580532 0 -0.12686481346268949 0.32037137393547221 0 -0.1249871204044478 0.31179850293020489 0 -0.1186942789803616 0.31607196081566019 0 -0.1121839064954379 0.33158871952580532 0 -0.11302727532836319 0.34775738954463498 0 -0.1055326035196508 0.34744137060261859 0 -0.1121839064954379 0.33158871952580532 0 -0.1228238987695868 0.33949768061628921 0 -0.11302727532836319 0.34775738954463498 0 -0.13180756484683989 0.32749830201113239 0 -0.1121839064954379 0.33158871952580532 0 -0.13180756484683989 0.32749830201113239 0 -0.1121839064954379 0.33158871952580532 0 -0.1228238987695868 0.33949768061628921 0 -0.1228238987695868 0.33949768061628921 0 -0.1224637287728801 0.34854477401553458 0 -0.11302727532836319 0.34775738954463498 0 -0.1224637287728801 0.34854477401553458 0 -0.11302727532836319 0.34775738954463498 0 -0.12127429260353501 0.35545287990242752 0 -0.11302727532836319 0.34775738954463498 0 -0.12127429260353501 0.35545287990242752 0 -0.11259439131077351 0.3608101976730872 0 -0.12872796564695019 0.35422374996017819 0 -0.1224637287728801 0.34854477401553458 0 -0.12127429260353501 0.35545287990242752 0 -0.1290658169321201 0.36495796629032212 0 -0.10807490356090391 0.37306325521353928 0 -0.1290658169321201 0.36495796629032212 0 -0.12127429260353501 0.35545287990242752 0 -0.11259439131077351 0.3608101976730872 0 -0.1290658169321201 0.36495796629032212 0 -0.10807490356090391 0.37306325521353928 0 -0.122032766010996 0.38150440727375001 0 -0.1290658169321201 0.36495796629032212 0 -0.11259439131077351 0.3608101976730872 0 -0.10807490356090391 0.37306325521353928 0 -0.11259439131077351 0.3608101976730872 0 -0.10807490356090391 0.37306325521353928 0 -0.098881300543857673 0.36329402167942948 0 -0.10807490356090391 0.37306325521353928 0 -0.098881300543857673 0.36329402167942948 0 -0.087083990189687474 0.38116854413675633 0 -0.092019777066918509 0.36666573699979821 0 -0.098881300543857673 0.36329402167942948 0 -0.096417330315523381 0.3639579110495354 0 -0.092019777066918509 0.36666573699979821 0 -0.096417330315523381 0.3639579110495354 0 -0.094712610892292118 0.36140891867821839 0 -0.098881300543857673 0.36329402167942948 0 -0.096417330315523381 0.3639579110495354 0 -0.094712610892292118 0.36140891867821839 0 -0.098881300543857673 0.36329402167942948 0 -0.094712610892292118 0.36140891867821839 0 -0.098784718006438843 0.35663447815026039 0 -0.098881300543857673 0.36329402167942948 0 -0.1055326035196508 0.34744137060261859 0 -0.098784718006438843 0.35663447815026039 0 -0.096012357069954771 0.35439360164077499 0 -0.1055326035196508 0.34744137060261859 0 -0.11302727532836319 0.34775738954463498 0 -0.098881300543857673 0.36329402167942948 0 -0.1055326035196508 0.34744137060261859 0 -0.098881300543857673 0.36329402167942948 0 -0.098784718006438843 0.35663447815026039 0 -0.1055326035196508 0.34744137060261859 0 -0.094712610892292118 0.36140891867821839 0 -0.098784718006438843 0.35663447815026039 0 -0.096012357069954771 0.35439360164077499 0 -0.096012357069954771 0.35439360164077499 0 -0.095078286566869535 0.34702914396245232 0 -0.1055326035196508 0.34744137060261859 0 -0.090332785152182252 0.34974267026082762 0 -0.096012357069954771 0.35439360164077499 0 -0.095078286566869535 0.34702914396245232 0 -0.11302727532836319 0.34775738954463498 0 -0.11259439131077351 0.3608101976730872 0 -0.098881300543857673 0.36329402167942948 0 -0.11302727532836319 0.34775738954463498 0 -0.098881300543857673 0.36329402167942948 0 -0.1121125111107924 0.39445290197368699 0 -0.10087673053248231 0.41260920951270391 0 -0.093143840664603961 0.39644475912066129 0 -0.10050239583344089 0.38468569378737999 0 -0.1121125111107924 0.39445290197368699 0 -0.093143840664603961 0.39644475912066129 0 -0.1121125111107924 0.39445290197368699 0 -0.11301603810985229 0.40882789566496669 0 -0.10087673053248231 0.41260920951270391 0 -0.10807490356090391 0.37306325521353928 0 -0.087083990189687474 0.38116854413675633 0 -0.10807490356090391 0.37306325521353928 0 -0.10050239583344089 0.38468569378737999 0 -0.087083990189687474 0.38116854413675633 0 -0.10050239583344089 0.38468569378737999 0 -0.122032766010996 0.38150440727375001 0 -0.1121125111107924 0.39445290197368699 0 -0.10807490356090391 0.37306325521353928 0 -0.10050239583344089 0.38468569378737999 0 -0.122032766010996 0.38150440727375001 0 -0.1262731161424494 0.41098458453742581 0 -0.122032766010996 0.38150440727375001 0 -0.1121125111107924 0.39445290197368699 0 -0.1262731161424494 0.41098458453742581 0 -0.1121125111107924 0.39445290197368699 0 -0.11301603810985229 0.40882789566496669 0 -0.1262731161424494 0.41098458453742581 0 -0.11280179465368501 0.41726488663605033 0 -0.11301603810985229 0.40882789566496669 0 -0.12821462004837761 0.42477134733015898 0 -0.1262731161424494 0.41098458453742581 0 -0.11280179465368501 0.41726488663605033 0 -0.12821462004837761 0.42477134733015898 0 -0.1121811897595958 0.44571324077016239 0 -0.12821462004837761 0.42477134733015898 0 -0.1183548661446933 0.43105191293323952 0 -0.1121811897595958 0.44571324077016239 0 -0.1183548661446933 0.43105191293323952 0 -0.1084687133128505 0.42702197682461862 0 -0.1121811897595958 0.44571324077016239 0 -0.12821462004837761 0.42477134733015898 0 -0.11280179465368501 0.41726488663605033 0 -0.1183548661446933 0.43105191293323952 0 -0.12821462004837761 0.42477134733015898 0 -0.1183548661446933 0.43105191293323952 0 -0.11280179465368501 0.41726488663605033 0 -0.1183548661446933 0.43105191293323952 0 -0.1084687133128505 0.42702197682461862 0 -0.097144229395107445 0.43078677648785008 0 -0.1084687133128505 0.42702197682461862 0 -0.1121811897595958 0.44571324077016239 0 -0.097144229395107445 0.43078677648785008 0 -0.1084687133128505 0.42702197682461862 0 -0.10087673053248231 0.41260920951270391 0 -0.097144229395107445 0.43078677648785008 0 -0.10087673053248231 0.41260920951270391 0 -0.089318864857090202 0.42005097307992678 0 -0.11280179465368501 0.41726488663605033 0 -0.11301603810985229 0.40882789566496669 0 -0.10087673053248231 0.41260920951270391 0 -0.11280179465368501 0.41726488663605033 0 -0.1084687133128505 0.42702197682461862 0 -0.10087673053248231 0.41260920951270391 0 -0.10087673053248231 0.41260920951270391 0 -0.082804407347877279 0.40955799157020922 0 -0.089318864857090202 0.42005097307992678 0 -0.082804407347877279 0.40955799157020922 0 -0.089318864857090202 0.42005097307992678 0 -0.076450092152893778 0.42724991474894441 0 -0.097144229395107445 0.43078677648785008 0 -0.076450092152893778 0.42724991474894441 0 -0.086298925811852931 0.44695252447955602 0 -0.097144229395107445 0.43078677648785008 0 -0.089318864857090202 0.42005097307992678 0 -0.076450092152893778 0.42724991474894441 0 -0.076450092152893778 0.42724991474894441 0 -0.086298925811852931 0.44695252447955602 0 -0.076450092152893778 0.42724991474894441 0 -0.0517036111859513 0.42673329455687081 0 -0.065985674566322233 0.4396882970943734 0 -0.076450092152893778 0.42724991474894441 0 -0.066601258493934806 0.40754730501833247 0 -0.0517036111859513 0.42673329455687081 0 -0.082804407347877279 0.40955799157020922 0 -0.076450092152893778 0.42724991474894441 0 -0.066601258493934806 0.40754730501833247 0 -0.076450092152893778 0.42724991474894441 0 -0.066601258493934806 0.40754730501833247 0 -0.066601258493934806 0.40754730501833247 0 -0.064481472138903678 0.40330666854180341 0 -0.076842624341811161 0.39435792457754443 0 -0.082804407347877279 0.40955799157020922 0 -0.066601258493934806 0.40754730501833247 0 -0.076842624341811161 0.39435792457754443 0 -0.066601258493934806 0.40754730501833247 0 -0.064481472138903678 0.40330666854180341 0 -0.064481472138903678 0.40330666854180341 0 -0.066293182289212021 0.39440876345830489 0 -0.076842624341811161 0.39435792457754443 0 -0.064481472138903678 0.40330666854180341 0 -0.066293182289212021 0.39440876345830489 0 -0.061074169294915312 0.39722859185827192 0 -0.066293182289212021 0.39440876345830489 0 -0.076842624341811161 0.39435792457754443 0 -0.067974919712441809 0.38556934130802373 0 -0.066601258493934806 0.40754730501833247 0 -0.076842624341811161 0.39435792457754443 0 -0.10087673053248231 0.41260920951270391 0 -0.082804407347877279 0.40955799157020922 0 -0.093143840664603961 0.39644475912066129 0 -0.076842624341811161 0.39435792457754443 0 -0.093143840664603961 0.39644475912066129 0 -0.087083990189687474 0.38116854413675633 0 -0.082804407347877279 0.40955799157020922 0 -0.076842624341811161 0.39435792457754443 0 -0.093143840664603961 0.39644475912066129 0 -0.10050239583344089 0.38468569378737999 0 -0.093143840664603961 0.39644475912066129 0 -0.087083990189687474 0.38116854413675633 0 -0.076842624341811161 0.39435792457754443 0 -0.082424647069653911 0.38296767128822512 0 -0.075936284820755443 0.3811086449239694 0 -0.076842624341811161 0.39435792457754443 0 -0.087083990189687474 0.38116854413675633 0 -0.076842624341811161 0.39435792457754443 0 -0.087083990189687474 0.38116854413675633 0 -0.082424647069653911 0.38296767128822512 0 -0.085297082696017948 0.36930492118839231 0 -0.087083990189687474 0.38116854413675633 0 -0.081382964510692907 0.37725096997131152 0 -0.082424647069653911 0.38296767128822512 0 -0.081382964510692907 0.37725096997131152 0 -0.075936284820755443 0.3811086449239694 0 -0.087083990189687474 0.38116854413675633 0 -0.082424647069653911 0.38296767128822512 0 -0.081382964510692907 0.37725096997131152 0 -0.087083990189687474 0.38116854413675633 0 -0.082424647069653911 0.38296767128822512 0 -0.076172817777349647 0.37170506831921402 0 -0.075936284820755443 0.3811086449239694 0 -0.069190165400850281 0.3768181674638208 0 -0.076172817777349647 0.37170506831921402 0 -0.081382964510692907 0.37725096997131152 0 -0.075936284820755443 0.3811086449239694 0 -0.075936284820755443 0.3811086449239694 0 -0.067974919712441809 0.38556934130802373 0 -0.069190165400850281 0.3768181674638208 0 -0.076842624341811161 0.39435792457754443 0 -0.075936284820755443 0.3811086449239694 0 -0.067974919712441809 0.38556934130802373 0 -0.066293182289212021 0.39440876345830489 0 -0.067974919712441809 0.38556934130802373 0 -0.058083410261434848 0.39115227831731297 0 -0.067974919712441809 0.38556934130802373 0 -0.069190165400850281 0.3768181674638208 0 -0.058752093590522712 0.37772278829444161 0 -0.067974919712441809 0.38556934130802373 0 -0.058752093590522712 0.37772278829444161 0 -0.058083410261434848 0.39115227831731297 0 -0.058752093590522712 0.37772278829444161 0 -0.046891291736496837 0.38420357759740281 0 -0.058083410261434848 0.39115227831731297 0 -0.043173694451059827 0.36947482329391279 0 -0.058752093590522712 0.37772278829444161 0 -0.046891291736496837 0.38420357759740281 0 -0.064481472138903678 0.40330666854180341 0 -0.055438612490110707 0.40004665711566628 0 -0.061074169294915312 0.39722859185827192 0 -0.064481472138903678 0.40330666854180341 0 -0.055438612490110707 0.40004665711566628 0 -0.052188240142402767 0.4095027834779903 0 -0.055438612490110707 0.40004665711566628 0 -0.058083410261434848 0.39115227831731297 0 -0.061074169294915312 0.39722859185827192 0 -0.066293182289212021 0.39440876345830489 0 -0.058083410261434848 0.39115227831731297 0 -0.061074169294915312 0.39722859185827192 0 -0.055438612490110707 0.40004665711566628 0 -0.058083410261434848 0.39115227831731297 0 -0.045980080898339368 0.39833284112386191 0 -0.046891291736496837 0.38420357759740281 0 -0.058083410261434848 0.39115227831731297 0 -0.045980080898339368 0.39833284112386191 0 -0.055438612490110707 0.40004665711566628 0 -0.045980080898339368 0.39833284112386191 0 -0.052188240142402767 0.4095027834779903 0 -0.045980080898339368 0.39833284112386191 0 -0.028467179481127439 0.3843351569574846 0 -0.02316083955968434 0.39721755620085841 0 -0.045980080898339368 0.39833284112386191 0 -0.028467179481127439 0.3843351569574846 0 -0.045980080898339368 0.39833284112386191 0 -0.02316083955968434 0.39721755620085841 0 -0.02823023306316667 0.4151591151711303 0 -0.043173694451059827 0.36947482329391279 0 -0.046891291736496837 0.38420357759740281 0 -0.028467179481127439 0.3843351569574846 0 -0.046891291736496837 0.38420357759740281 0 -0.045980080898339368 0.39833284112386191 0 -0.028467179481127439 0.3843351569574846 0 -0.028467179481127439 0.3843351569574846 0 -0.02316083955968434 0.39721755620085841 0 -0.01211447001889495 0.38713196162391839 0 -0.010954278063915499 0.37033747279110729 0 -0.028467179481127439 0.3843351569574846 0 -0.010954278063915499 0.37033747279110729 0 -0.028467179481127439 0.3843351569574846 0 -0.01211447001889495 0.38713196162391839 0 -0.02316083955968434 0.39721755620085841 0 -0.0010122343368932541 0.40112870612789647 0 -0.02823023306316667 0.4151591151711303 0 -0.02316083955968434 0.39721755620085841 0 -0.0010122343368932541 0.40112870612789647 0 -0.01211447001889495 0.38713196162391839 0 -0.0010122343368932541 0.40112870612789647 0 -0.01211447001889495 0.38713196162391839 0 0.01034740095667388 0.38009490616324237 0 -0.010954278063915499 0.37033747279110729 0 -0.01211447001889495 0.38713196162391839 0 0.01034740095667388 0.38009490616324237 0 -0.0010122343368932541 0.40112870612789647 0 -0.0080186453672848532 0.42893127256557118 0 -0.0010122343368932541 0.40112870612789647 0 -0.0080186453672848532 0.42893127256557118 0 -0.02823023306316667 0.4151591151711303 0 -0.0080186453672848532 0.42893127256557118 0 -0.02823023306316667 0.4151591151711303 0 -0.031749237617660707 0.43995667333040062 0 -0.02823023306316667 0.4151591151711303 0 -0.0517036111859513 0.42673329455687081 0 -0.031749237617660707 0.43995667333040062 0 -0.02823023306316667 0.4151591151711303 0 -0.052188240142402767 0.4095027834779903 0 -0.0517036111859513 0.42673329455687081 0 -0.045980080898339368 0.39833284112386191 0 -0.02823023306316667 0.4151591151711303 0 -0.052188240142402767 0.4095027834779903 0 -0.066601258493934806 0.40754730501833247 0 -0.052188240142402767 0.4095027834779903 0 -0.0517036111859513 0.42673329455687081 0 -0.066601258493934806 0.40754730501833247 0 -0.0517036111859513 0.42673329455687081 0 -0.066601258493934806 0.40754730501833247 0 -0.064481472138903678 0.40330666854180341 0 -0.052188240142402767 0.4095027834779903 0 -0.0517036111859513 0.42673329455687081 0 -0.05234396499474709 0.45140140094962777 0 -0.065985674566322233 0.4396882970943734 0 -0.05234396499474709 0.45140140094962777 0 -0.064437130842654511 0.46674117540456789 0 -0.069403293087356821 0.45368359392228552 0 -0.05234396499474709 0.45140140094962777 0 -0.049789519804618841 0.47322379930157182 0 -0.064437130842654511 0.46674117540456789 0 -0.05234396499474709 0.45140140094962777 0 -0.035662241103750339 0.46185266499253352 0 -0.049789519804618841 0.47322379930157182 0 -0.0517036111859513 0.42673329455687081 0 -0.05234396499474709 0.45140140094962777 0 -0.031749237617660707 0.43995667333040062 0 -0.05234396499474709 0.45140140094962777 0 -0.035662241103750339 0.46185266499253352 0 -0.031749237617660707 0.43995667333040062 0 -0.035662241103750339 0.46185266499253352 0 -0.031749237617660707 0.43995667333040062 0 -0.015025056397676449 0.45673383900324588 0 -0.0080186453672848532 0.42893127256557118 0 -0.031749237617660707 0.43995667333040062 0 -0.015025056397676449 0.45673383900324588 0 -0.035662241103750339 0.46185266499253352 0 -0.015025056397676449 0.45673383900324588 0 -0.027343812887595659 0.4697634224915912 0 -0.015025056397676449 0.45673383900324588 0 -0.0068561275227281646 0.48291830256328661 0 0.0089292086152718345 0.46542327678520612 0 -0.015025056397676449 0.45673383900324588 0 0.0032429327191542219 0.44588261561992137 0 0.0089292086152718345 0.46542327678520612 0 -0.0080186453672848532 0.42893127256557118 0 -0.015025056397676449 0.45673383900324588 0 0.0032429327191542219 0.44588261561992137 0 -0.0080186453672848532 0.42893127256557118 0 -0.015025056397676449 0.45673383900324588 0 -0.01254616116205531 0.5 0 -0.0068561275227281646 0.48291830256328661 0 -0.0178678027101755 0.49512263825686748 0 -0.01254616116205531 0.5 0 -0.0068561275227281646 0.48291830256328661 0 0.014726428477793711 0.5 0 -0.0068561275227281646 0.48291830256328661 0 -0.0220314674280679 0.48453640544092069 0 -0.0178678027101755 0.49512263825686748 0 -0.0068561275227281646 0.48291830256328661 0 -0.0178678027101755 0.49512263825686748 0 -0.015025056397676449 0.45673383900324588 0 -0.0068561275227281646 0.48291830256328661 0 -0.0220314674280679 0.48453640544092069 0 -0.0068561275227281646 0.48291830256328661 0 -0.0220314674280679 0.48453640544092069 0 -0.015025056397676449 0.45673383900324588 0 -0.027343812887595659 0.4697634224915912 0 -0.0220314674280679 0.48453640544092069 0 -0.015025056397676449 0.45673383900324588 0 -0.0220314674280679 0.48453640544092069 0 -0.027343812887595659 0.4697634224915912 0 -0.0220314674280679 0.48453640544092069 0 -0.036656486620887961 0.47593078052966481 0 -0.01254616116205531 0.5 0 -0.024788340737123198 0.4954761223662883 0 -0.039818750801904328 0.5 0 -0.0220314674280679 0.48453640544092069 0 -0.024788340737123198 0.4954761223662883 0 -0.0220314674280679 0.48453640544092069 0 -0.0178678027101755 0.49512263825686748 0 -0.024788340737123198 0.4954761223662883 0 -0.01254616116205531 0.5 0 -0.0178678027101755 0.49512263825686748 0 -0.024788340737123198 0.4954761223662883 0 -0.024788340737123198 0.4954761223662883 0 -0.039818750801904328 0.5 0 -0.048999331444829868 0.48741191127086042 0 -0.0220314674280679 0.48453640544092069 0 -0.048999331444829868 0.48741191127086042 0 -0.0220314674280679 0.48453640544092069 0 -0.024788340737123198 0.4954761223662883 0 -0.048999331444829868 0.48741191127086042 0 -0.0220314674280679 0.48453640544092069 0 -0.036656486620887961 0.47593078052966481 0 -0.048999331444829868 0.48741191127086042 0 -0.035662241103750339 0.46185266499253352 0 -0.027343812887595659 0.4697634224915912 0 -0.036656486620887961 0.47593078052966481 0 -0.036656486620887961 0.47593078052966481 0 -0.049789519804618841 0.47322379930157182 0 -0.048999331444829868 0.48741191127086042 0 -0.035662241103750339 0.46185266499253352 0 -0.036656486620887961 0.47593078052966481 0 -0.049789519804618841 0.47322379930157182 0 -0.049789519804618841 0.47322379930157182 0 -0.048999331444829868 0.48741191127086042 0 -0.062540451367922814 0.47893819029993151 0 -0.049789519804618841 0.47322379930157182 0 -0.062540451367922814 0.47893819029993151 0 -0.064437130842654511 0.46674117540456789 0 -0.039818750801904328 0.5 0 -0.048999331444829868 0.48741191127086042 0 -0.067091340441753244 0.5 0 -0.048999331444829868 0.48741191127086042 0 -0.075967195461592016 0.49028741710079959 0 -0.048999331444829868 0.48741191127086042 0 -0.067091340441753244 0.5 0 -0.075967195461592016 0.49028741710079959 0 -0.048999331444829868 0.48741191127086042 0 -0.075967195461592016 0.49028741710079959 0 -0.062540451367922814 0.47893819029993151 0 -0.075967195461592016 0.49028741710079959 0 -0.086319205879252833 0.4794925943342131 0 -0.094363930081602043 0.5 0 -0.067091340441753244 0.5 0 -0.075967195461592016 0.49028741710079959 0 -0.094363930081602043 0.5 0 -0.086319205879252833 0.4794925943342131 0 -0.079257334721455464 0.4652135806802643 0 -0.096147759470814678 0.46665513421016641 0 -0.086319205879252833 0.4794925943342131 0 -0.096147759470814678 0.46665513421016641 0 -0.075967195461592016 0.49028741710079959 0 -0.086319205879252833 0.4794925943342131 0 -0.073509079285918821 0.4770266484218576 0 -0.086319205879252833 0.4794925943342131 0 -0.073509079285918821 0.4770266484218576 0 -0.079257334721455464 0.4652135806802643 0 -0.073509079285918821 0.4770266484218576 0 -0.064437130842654511 0.46674117540456789 0 -0.079257334721455464 0.4652135806802643 0 -0.075967195461592016 0.49028741710079959 0 -0.073509079285918821 0.4770266484218576 0 -0.062540451367922814 0.47893819029993151 0 -0.073509079285918821 0.4770266484218576 0 -0.062540451367922814 0.47893819029993151 0 -0.064437130842654511 0.46674117540456789 0 -0.064437130842654511 0.46674117540456789 0 -0.069403293087356821 0.45368359392228552 0 -0.079257334721455464 0.4652135806802643 0 -0.076450092152893778 0.42724991474894441 0 -0.065985674566322233 0.4396882970943734 0 -0.086298925811852931 0.44695252447955602 0 -0.05234396499474709 0.45140140094962777 0 -0.069403293087356821 0.45368359392228552 0 -0.065985674566322233 0.4396882970943734 0 -0.069403293087356821 0.45368359392228552 0 -0.065985674566322233 0.4396882970943734 0 -0.086298925811852931 0.44695252447955602 0 -0.086298925811852931 0.44695252447955602 0 -0.096147759470814678 0.46665513421016641 0 -0.069403293087356821 0.45368359392228552 0 -0.086298925811852931 0.44695252447955602 0 -0.079257334721455464 0.4652135806802643 0 -0.086298925811852931 0.44695252447955602 0 -0.079257334721455464 0.4652135806802643 0 -0.096147759470814678 0.46665513421016641 0 -0.096147759470814678 0.46665513421016641 0 -0.1121811897595958 0.44571324077016239 0 -0.1108888525940587 0.46309961638210573 0 -0.096147759470814678 0.46665513421016641 0 -0.1121811897595958 0.44571324077016239 0 -0.096147759470814678 0.46665513421016641 0 -0.1108888525940587 0.46309961638210573 0 -0.099197844109434413 0.47275683410286962 0 -0.086298925811852931 0.44695252447955602 0 -0.096147759470814678 0.46665513421016641 0 -0.1121811897595958 0.44571324077016239 0 -0.097144229395107445 0.43078677648785008 0 -0.086298925811852931 0.44695252447955602 0 -0.1121811897595958 0.44571324077016239 0 -0.13236885841004919 0.44889332693852801 0 -0.1121811897595958 0.44571324077016239 0 -0.1108888525940587 0.46309961638210573 0 -0.13236885841004919 0.44889332693852801 0 -0.12821462004837761 0.42477134733015898 0 -0.1121811897595958 0.44571324077016239 0 -0.12527370250384759 0.47078387733216209 0 -0.13236885841004919 0.44889332693852801 0 -0.1108888525940587 0.46309961638210573 0 -0.12527370250384759 0.47078387733216209 0 -0.11074996269016819 0.47464969688835501 0 -0.1174442215446152 0.48325976702989631 0 -0.12527370250384759 0.47078387733216209 0 -0.1108888525940587 0.46309961638210573 0 -0.11074996269016819 0.47464969688835501 0 -0.11074996269016819 0.47464969688835501 0 -0.1174442215446152 0.48325976702989631 0 -0.1029218808243297 0.48536747574233369 0 -0.13288363243512979 0.48493883485054889 0 -0.1174442215446152 0.48325976702989631 0 -0.12163651972145099 0.5 0 -0.1174442215446152 0.48325976702989631 0 -0.12163651972145099 0.5 0 -0.1029218808243297 0.48536747574233369 0 -0.12163651972145099 0.5 0 -0.1029218808243297 0.48536747574233369 0 -0.094363930081602043 0.5 0 -0.086319205879252833 0.4794925943342131 0 -0.1029218808243297 0.48536747574233369 0 -0.094363930081602043 0.5 0 -0.086319205879252833 0.4794925943342131 0 -0.1029218808243297 0.48536747574233369 0 -0.099197844109434413 0.47275683410286962 0 -0.086319205879252833 0.4794925943342131 0 -0.096147759470814678 0.46665513421016641 0 -0.099197844109434413 0.47275683410286962 0 -0.096147759470814678 0.46665513421016641 0 -0.099197844109434413 0.47275683410286962 0 -0.1108888525940587 0.46309961638210573 0 -0.11074996269016819 0.47464969688835501 0 -0.099197844109434413 0.47275683410286962 0 -0.11074996269016819 0.47464969688835501 0 -0.1029218808243297 0.48536747574233369 0 -0.099197844109434413 0.47275683410286962 0 -0.16370888638691411 0.075802750630241209 0 -0.17114726203359029 0.10144930866055581 0 -0.1454883385722196 0.1013617490471926 0 -0.16370888638691411 0.075802750630241209 0 -0.18828380872556369 0.083211985006550054 0 -0.1902937906571768 0.063123741571656039 0 -0.16370888638691411 0.075802750630241209 0 -0.17114726203359029 0.10144930866055581 0 -0.18828380872556369 0.083211985006550054 0 -0.17114726203359029 0.10144930866055581 0 -0.18807497235121851 0.11104803042481109 0 -0.19744038054594151 0.098274150272661287 0 -0.17114726203359029 0.10144930866055581 0 -0.18828380872556369 0.083211985006550054 0 -0.19744038054594151 0.098274150272661287 0 -0.1754553970277172 0.12033603672573789 0 -0.17114726203359029 0.10144930866055581 0 -0.18807497235121851 0.11104803042481109 0 -0.1754553970277172 0.12033603672573789 0 -0.19212583708804479 0.1243415970786777 0 -0.18807497235121851 0.11104803042481109 0 -0.1754553970277172 0.12033603672573789 0 -0.15662730128622021 0.1201098577388274 0 -0.17114726203359029 0.10144930866055581 0 -0.17114726203359029 0.10144930866055581 0 -0.1454883385722196 0.1013617490471926 0 -0.15662730128622021 0.1201098577388274 0 -0.17114726203359029 0.10144930866055581 0 -0.1454883385722196 0.1013617490471926 0 -0.15662730128622021 0.1201098577388274 0 -0.1454883385722196 0.1013617490471926 0 -0.13525827670093529 0.1213048707276082 0 -0.1454883385722196 0.1013617490471926 0 -0.13269411571008291 0.0814134514373486 0 -0.1198294151108488 0.1012741894338294 0 -0.1454883385722196 0.1013617490471926 0 -0.1198294151108488 0.1012741894338294 0 -0.1454883385722196 0.1013617490471926 0 -0.13525827670093529 0.1213048707276082 0 -0.1198294151108488 0.1012741894338294 0 -0.16370888638691411 0.075802750630241209 0 -0.1454883385722196 0.1013617490471926 0 -0.13269411571008291 0.0814134514373486 0 -0.16370888638691411 0.075802750630241209 0 -0.13269411571008291 0.0814134514373486 0 -0.14318432961239319 0.052194176919895093 0 -0.13269411571008291 0.0814134514373486 0 -0.14318432961239319 0.052194176919895093 0 -0.1143827619903883 0.06642533080049022 0 -0.14318432961239319 0.052194176919895093 0 -0.13842431561494539 0.027441210035773659 0 -0.1155815900124991 0.038046831391001068 0 -0.14318432961239319 0.052194176919895093 0 -0.13842431561494539 0.027441210035773659 0 -0.1593143481152508 0.03174481861334523 0 -0.13518087730504541 0.0058338015274088072 0 -0.13842431561494539 0.027441210035773659 0 -0.1167804180346098 0.0096683319815117214 0 -0.13842431561494539 0.027441210035773659 0 -0.15716480579668429 0.0096173806601869243 0 -0.1593143481152508 0.03174481861334523 0 -0.14179680904898881 -0.01103102019700854 0 -0.13518087730504541 0.0058338015274088072 0 -0.15716480579668429 0.0096173806601869243 0 -0.13518087730504541 0.0058338015274088072 0 -0.13842431561494539 0.027441210035773659 0 -0.15716480579668429 0.0096173806601869243 0 -0.15716480579668429 0.0096173806601869243 0 -0.1845974065193681 0.020887203464375632 0 -0.1593143481152508 0.03174481861334523 0 -0.17618077961913581 -0.0035985267045714349 0 -0.19893365398983109 -0.0041071238595800259 0 -0.1845974065193681 0.020887203464375632 0 -0.17618077961913581 -0.0035985267045714349 0 -0.15716480579668429 0.0096173806601869243 0 -0.1845974065193681 0.020887203464375632 0 -0.14318432961239319 0.052194176919895093 0 -0.1593143481152508 0.03174481861334523 0 -0.1748705593973722 0.047864841768490159 0 -0.16370888638691411 0.075802750630241209 0 -0.14318432961239319 0.052194176919895093 0 -0.1748705593973722 0.047864841768490159 0 -0.1845974065193681 0.020887203464375632 0 -0.1593143481152508 0.03174481861334523 0 -0.1748705593973722 0.047864841768490159 0 -0.16370888638691411 0.075802750630241209 0 -0.1748705593973722 0.047864841768490159 0 -0.1902937906571768 0.063123741571656039 0 -0.1845974065193681 0.020887203464375632 0 -0.1748705593973722 0.047864841768490159 0 -0.20742001979030911 0.047084692655145838 0 -0.1748705593973722 0.047864841768490159 0 -0.20742001979030911 0.047084692655145838 0 -0.1902937906571768 0.063123741571656039 0 -0.19893365398983109 -0.0041071238595800259 0 -0.1845974065193681 0.020887203464375632 0 -0.21769789989898911 0.01431085616150183 0 -0.1845974065193681 0.020887203464375632 0 -0.20742001979030911 0.047084692655145838 0 -0.21769789989898911 0.01431085616150183 0 -0.19893365398983109 -0.0041071238595800259 0 -0.21769789989898911 0.01431085616150183 0 -0.2342347475845421 -0.01565714949806642 0 -0.21769789989898911 0.01431085616150183 0 -0.2436265138743488 0.0065037479392753318 0 -0.21769789989898911 0.01431085616150183 0 -0.2364621458081472 0.032728836182583682 0 -0.21769789989898911 0.01431085616150183 0 -0.2436265138743488 0.0065037479392753318 0 -0.2364621458081472 0.032728836182583682 0 -0.25860103273555779 0.022298115928908981 0 -0.2436265138743488 0.0065037479392753318 0 -0.2364621458081472 0.032728836182583682 0 -0.20742001979030911 0.047084692655145838 0 -0.21769789989898911 0.01431085616150183 0 -0.2364621458081472 0.032728836182583682 0 -0.20742001979030911 0.047084692655145838 0 -0.23047829998104019 0.055149061567269092 0 -0.2184589209980792 0.078765536940044983 0 -0.20742001979030911 0.047084692655145838 0 -0.23047829998104019 0.055149061567269092 0 -0.2364621458081472 0.032728836182583682 0 -0.25295519749278128 0.046060126382706901 0 -0.23047829998104019 0.055149061567269092 0 -0.2364621458081472 0.032728836182583682 0 -0.25295519749278128 0.046060126382706901 0 -0.25860103273555779 0.022298115928908981 0 -0.2364621458081472 0.032728836182583682 0 -0.25295519749278128 0.046060126382706901 0 -0.23047829998104019 0.055149061567269092 0 -0.24905342308690939 0.07265575326688023 0 -0.24905342308690939 0.07265575326688023 0 -0.2184589209980792 0.078765536940044983 0 -0.2376984033185271 0.096277969671681424 0 -0.25933948796623668 0.096857220817064382 0 -0.24905342308690939 0.07265575326688023 0 -0.2376984033185271 0.096277969671681424 0 -0.2184589209980792 0.078765536940044983 0 -0.2237555238899808 0.10083682662498709 0 -0.2376984033185271 0.096277969671681424 0 -0.23047829998104019 0.055149061567269092 0 -0.24905342308690939 0.07265575326688023 0 -0.2184589209980792 0.078765536940044983 0 -0.20742001979030911 0.047084692655145838 0 -0.2184589209980792 0.078765536940044983 0 -0.1902937906571768 0.063123741571656039 0 -0.2184589209980792 0.078765536940044983 0 -0.21261321834377109 0.1035301336204818 0 -0.2184589209980792 0.078765536940044983 0 -0.19744038054594151 0.098274150272661287 0 -0.21261321834377109 0.1035301336204818 0 -0.2184589209980792 0.078765536940044983 0 -0.18828380872556369 0.083211985006550054 0 -0.19744038054594151 0.098274150272661287 0 -0.2184589209980792 0.078765536940044983 0 -0.18828380872556369 0.083211985006550054 0 -0.1902937906571768 0.063123741571656039 0 -0.1994043848036878 0.1130977283395101 0 -0.19212583708804479 0.1243415970786777 0 -0.206767515689463 0.1282947303009187 0 -0.1994043848036878 0.1130977283395101 0 -0.19212583708804479 0.1243415970786777 0 -0.18807497235121851 0.11104803042481109 0 -0.1994043848036878 0.1130977283395101 0 -0.18807497235121851 0.11104803042481109 0 -0.19744038054594151 0.098274150272661287 0 -0.2184589209980792 0.078765536940044983 0 -0.21261321834377109 0.1035301336204818 0 -0.2237555238899808 0.10083682662498709 0 -0.1994043848036878 0.1130977283395101 0 -0.19744038054594151 0.098274150272661287 0 -0.21261321834377109 0.1035301336204818 0 -0.21261321834377109 0.1035301336204818 0 -0.21670140861193149 0.111460537406586 0 -0.2237555238899808 0.10083682662498709 0 -0.21261321834377109 0.1035301336204818 0 -0.21670140861193149 0.111460537406586 0 -0.206767515689463 0.1282947303009187 0 -0.1994043848036878 0.1130977283395101 0 -0.21261321834377109 0.1035301336204818 0 -0.206767515689463 0.1282947303009187 0 -0.21670140861193149 0.111460537406586 0 -0.23020977526713751 0.12978620965722029 0 -0.206767515689463 0.1282947303009187 0 -0.21261321834377109 0.1035301336204818 0 -0.206767515689463 0.1282947303009187 0 -0.21670140861193149 0.111460537406586 0 -0.2333056681775951 0.11414995548614131 0 -0.23020977526713751 0.12978620965722029 0 -0.21670140861193149 0.111460537406586 0 -0.23020977526713751 0.12978620965722029 0 -0.21670140861193149 0.111460537406586 0 -0.2333056681775951 0.11414995548614131 0 -0.2237555238899808 0.10083682662498709 0 -0.2333056681775951 0.11414995548614131 0 -0.2237555238899808 0.10083682662498709 0 -0.2376984033185271 0.096277969671681424 0 -0.25933948796623668 0.096857220817064382 0 -0.2376984033185271 0.096277969671681424 0 -0.24892577662476259 0.1122456537265426 0 -0.2333056681775951 0.11414995548614131 0 -0.2376984033185271 0.096277969671681424 0 -0.24892577662476259 0.1122456537265426 0 -0.25453811914305119 0.12576788457430249 0 -0.24892577662476259 0.1122456537265426 0 -0.2442444782567518 0.12789030222594441 0 -0.2333056681775951 0.11414995548614131 0 -0.2442444782567518 0.12789030222594441 0 -0.23020977526713751 0.12978620965722029 0 -0.2333056681775951 0.11414995548614131 0 -0.24892577662476259 0.1122456537265426 0 -0.2442444782567518 0.12789030222594441 0 -0.23020977526713751 0.12978620965722029 0 -0.24371814192234381 0.14811188190785471 0 -0.25476938840562069 0.1372802280036049 0 -0.2442444782567518 0.12789030222594441 0 -0.24371814192234381 0.14811188190785471 0 -0.2442444782567518 0.12789030222594441 0 -0.23020977526713751 0.12978620965722029 0 -0.24371814192234381 0.14811188190785471 0 -0.23020977526713751 0.12978620965722029 0 -0.22428597385317489 0.1491400837106098 0 -0.21652926764844529 0.13934732729552851 0 -0.23020977526713751 0.12978620965722029 0 -0.22428597385317489 0.1491400837106098 0 -0.24371814192234381 0.14811188190785471 0 -0.22428597385317489 0.1491400837106098 0 -0.24371814192234381 0.14811188190785471 0 -0.2308657170905162 0.16391246460332479 0 -0.22428597385317489 0.1491400837106098 0 -0.24371814192234381 0.14811188190785471 0 -0.2536572939834123 0.1615954989704822 0 -0.24371814192234381 0.14811188190785471 0 -0.2536572939834123 0.1615954989704822 0 -0.23781002699758311 0.17870230866743159 0 -0.2536572939834123 0.1615954989704822 0 -0.24371814192234381 0.14811188190785471 0 -0.2308657170905162 0.16391246460332479 0 -0.2536572939834123 0.1615954989704822 0 -0.23781002699758311 0.17870230866743159 0 -0.2308657170905162 0.16391246460332479 0 -0.23781002699758311 0.17870230866743159 0 -0.2223374722570419 0.18026012050165141 0 -0.221962760011754 0.195809118364381 0 -0.23781002699758311 0.17870230866743159 0 -0.221962760011754 0.195809118364381 0 -0.23781002699758311 0.17870230866743159 0 -0.2223374722570419 0.18026012050165141 0 -0.2308657170905162 0.16391246460332479 0 -0.2308657170905162 0.16391246460332479 0 -0.21636775043803971 0.15857299379113371 0 -0.21470599432576751 0.16926409218562899 0 -0.2223374722570419 0.18026012050165141 0 -0.2308657170905162 0.16391246460332479 0 -0.21470599432576751 0.16926409218562899 0 -0.22428597385317489 0.1491400837106098 0 -0.2308657170905162 0.16391246460332479 0 -0.21636775043803971 0.15857299379113371 0 -0.21636775043803971 0.15857299379113371 0 -0.21470599432576751 0.16926409218562899 0 -0.20712726113673369 0.1603800429427398 0 -0.21470599432576751 0.16926409218562899 0 -0.20712726113673369 0.1603800429427398 0 -0.2012524579172334 0.1696737238621906 0 -0.21636775043803971 0.15857299379113371 0 -0.20712726113673369 0.1603800429427398 0 -0.20485380578400589 0.15016828551336511 0 -0.2223374722570419 0.18026012050165141 0 -0.20928714055013001 0.18206802434580449 0 -0.221962760011754 0.195809118364381 0 -0.2223374722570419 0.18026012050165141 0 -0.21470599432576751 0.16926409218562899 0 -0.20928714055013001 0.18206802434580449 0 -0.21470599432576751 0.16926409218562899 0 -0.20928714055013001 0.18206802434580449 0 -0.2012524579172334 0.1696737238621906 0 -0.19642049273232279 0.1813540608711384 0 -0.18382793315299331 0.1876569488741093 0 -0.18510512116445399 0.1711182689090899 0 -0.19642049273232279 0.1813540608711384 0 -0.2012524579172334 0.1696737238621906 0 -0.18510512116445399 0.1711182689090899 0 -0.20928714055013001 0.18206802434580449 0 -0.19642049273232279 0.1813540608711384 0 -0.2003336104961139 0.19384034462240371 0 -0.20928714055013001 0.18206802434580449 0 -0.19642049273232279 0.1813540608711384 0 -0.2012524579172334 0.1696737238621906 0 -0.2012524579172334 0.1696737238621906 0 -0.19309310732031401 0.1606228952257015 0 -0.18510512116445399 0.1711182689090899 0 -0.20712726113673369 0.1603800429427398 0 -0.200598659852359 0.1609339972529969 0 -0.2012524579172334 0.1696737238621906 0 -0.200598659852359 0.1609339972529969 0 -0.2012524579172334 0.1696737238621906 0 -0.19309310732031401 0.1606228952257015 0 -0.200598659852359 0.1609339972529969 0 -0.19309310732031401 0.1606228952257015 0 -0.20092181303515491 0.15305932698135569 0 -0.20712726113673369 0.1603800429427398 0 -0.200598659852359 0.1609339972529969 0 -0.20092181303515491 0.15305932698135569 0 -0.19309310732031401 0.1606228952257015 0 -0.1869585438686692 0.14946788246332571 0 -0.18279220707304569 0.16025901001241549 0 -0.19479198079359661 0.14856222422402099 0 -0.19421338885225181 0.15264283761407199 0 -0.1869585438686692 0.14946788246332571 0 -0.19309310732031401 0.1606228952257015 0 -0.19421338885225181 0.15264283761407199 0 -0.1869585438686692 0.14946788246332571 0 -0.19309310732031401 0.1606228952257015 0 -0.19421338885225181 0.15264283761407199 0 -0.20092181303515491 0.15305932698135569 0 -0.19479198079359661 0.14856222422402099 0 -0.19421338885225181 0.15264283761407199 0 -0.20092181303515491 0.15305932698135569 0 -0.19479198079359661 0.14856222422402099 0 -0.20092181303515491 0.15305932698135569 0 -0.19707417741831049 0.13907884983733079 0 -0.19479198079359661 0.14856222422402099 0 -0.19707417741831049 0.13907884983733079 0 -0.1869585438686692 0.14946788246332571 0 -0.19707417741831049 0.13907884983733079 0 -0.18249198004016079 0.13743482787919281 0 -0.1869585438686692 0.14946788246332571 0 -0.20092181303515491 0.15305932698135569 0 -0.19707417741831049 0.13907884983733079 0 -0.206767515689463 0.1282947303009187 0 -0.19212583708804479 0.1243415970786777 0 -0.19707417741831049 0.13907884983733079 0 -0.18249198004016079 0.13743482787919281 0 -0.19212583708804479 0.1243415970786777 0 -0.19707417741831049 0.13907884983733079 0 -0.206767515689463 0.1282947303009187 0 -0.21652926764844529 0.13934732729552851 0 -0.206767515689463 0.1282947303009187 0 -0.20485380578400589 0.15016828551336511 0 -0.23020977526713751 0.12978620965722029 0 -0.21652926764844529 0.13934732729552851 0 -0.206767515689463 0.1282947303009187 0 -0.20092181303515491 0.15305932698135569 0 -0.206767515689463 0.1282947303009187 0 -0.20485380578400589 0.15016828551336511 0 -0.22428597385317489 0.1491400837106098 0 -0.20485380578400589 0.15016828551336511 0 -0.22428597385317489 0.1491400837106098 0 -0.21652926764844529 0.13934732729552851 0 -0.20485380578400589 0.15016828551336511 0 -0.20092181303515491 0.15305932698135569 0 -0.206767515689463 0.1282947303009187 0 -0.22428597385317489 0.1491400837106098 0 -0.21636775043803971 0.15857299379113371 0 -0.20485380578400589 0.15016828551336511 0 -0.20712726113673369 0.1603800429427398 0 -0.20092181303515491 0.15305932698135569 0 -0.20485380578400589 0.15016828551336511 0 -0.22277595510907569 0.24180466171435519 0 -0.23372259705565049 0.24851436387078391 0 -0.23952164582320559 0.2315480128826049 0 -0.25781088981188399 0.25136430228956153 0 -0.23372259705565049 0.24851436387078391 0 -0.23952164582320559 0.2315480128826049 0 -0.26110012984312192 0.22817444719966359 0 -0.23952164582320559 0.2315480128826049 0 -0.24810113355345259 0.21397840382672759 0 -0.23952164582320559 0.2315480128826049 0 -0.2304211225000827 0.21152690292611309 0 -0.24810113355345259 0.21397840382672759 0 -0.22277595510907569 0.24180466171435519 0 -0.23952164582320559 0.2315480128826049 0 -0.222519743973569 0.22623374850487771 0 -0.23952164582320559 0.2315480128826049 0 -0.222519743973569 0.22623374850487771 0 -0.2304211225000827 0.21152690292611309 0 -0.22277595510907569 0.24180466171435519 0 -0.222519743973569 0.22623374850487771 0 -0.21125157695915939 0.2340514294511625 0 -0.2304211225000827 0.21152690292611309 0 -0.221962760011754 0.195809118364381 0 -0.20611549302592491 0.21291592806133039 0 -0.222519743973569 0.22623374850487771 0 -0.2304211225000827 0.21152690292611309 0 -0.20611549302592491 0.21291592806133039 0 -0.2304211225000827 0.21152690292611309 0 -0.24810113355345259 0.21397840382672759 0 -0.24367487473232161 0.19750531195026799 0 -0.25648073665227261 0.18687062157390491 0 -0.23781002699758311 0.17870230866743159 0 -0.24367487473232161 0.19750531195026799 0 -0.23781002699758311 0.17870230866743159 0 -0.24367487473232161 0.19750531195026799 0 -0.221962760011754 0.195809118364381 0 -0.2304211225000827 0.21152690292611309 0 -0.24367487473232161 0.19750531195026799 0 -0.221962760011754 0.195809118364381 0 -0.20928714055013001 0.18206802434580449 0 -0.221962760011754 0.195809118364381 0 -0.2003336104961139 0.19384034462240371 0 -0.221962760011754 0.195809118364381 0 -0.2003336104961139 0.19384034462240371 0 -0.20611549302592491 0.21291592806133039 0 -0.2003336104961139 0.19384034462240371 0 -0.18683081466198309 0.20362583398079809 0 -0.18382793315299331 0.1876569488741093 0 -0.19642049273232279 0.1813540608711384 0 -0.2003336104961139 0.19384034462240371 0 -0.18382793315299331 0.1876569488741093 0 -0.2003336104961139 0.19384034462240371 0 -0.20611549302592491 0.21291592806133039 0 -0.18683081466198309 0.20362583398079809 0 -0.18822134577153571 0.2176104325969169 0 -0.20611549302592491 0.21291592806133039 0 -0.18683081466198309 0.20362583398079809 0 -0.221962760011754 0.195809118364381 0 -0.20611549302592491 0.21291592806133039 0 -0.222519743973569 0.22623374850487771 0 -0.20611549302592491 0.21291592806133039 0 -0.21125157695915939 0.2340514294511625 0 -0.20611549302592491 0.21291592806133039 0 -0.21125157695915939 0.2340514294511625 0 -0.1981212573248321 0.2303345044091884 0 -0.18822134577153571 0.2176104325969169 0 -0.20611549302592491 0.21291592806133039 0 -0.1981212573248321 0.2303345044091884 0 -0.18822134577153571 0.2176104325969169 0 -0.1981212573248321 0.2303345044091884 0 -0.17679012993229179 0.22606037820060459 0 -0.1857497979664898 0.25642229956071261 0 -0.1981212573248321 0.2303345044091884 0 -0.18126996394939029 0.24124133888065871 0 -0.20046331167089321 0.25247574909317411 0 -0.1857497979664898 0.25642229956071261 0 -0.1981212573248321 0.2303345044091884 0 -0.1857497979664898 0.25642229956071261 0 -0.1981212573248321 0.2303345044091884 0 -0.20046331167089321 0.25247574909317411 0 -0.1981212573248321 0.2303345044091884 0 -0.21118785677136451 0.24749749729373921 0 -0.21125157695915939 0.2340514294511625 0 -0.1981212573248321 0.2303345044091884 0 -0.21118785677136451 0.24749749729373921 0 -0.22277595510907569 0.24180466171435519 0 -0.21125157695915939 0.2340514294511625 0 -0.21118785677136451 0.24749749729373921 0 -0.17088819938583719 0.25139470107571699 0 -0.16154460948003191 0.23860046487887329 0 -0.18126996394939029 0.24124133888065871 0 -0.17088819938583719 0.25139470107571699 0 -0.1579895210430797 0.25382037719868611 0 -0.16154460948003191 0.23860046487887329 0 -0.16154460948003191 0.23860046487887329 0 -0.18126996394939029 0.24124133888065871 0 -0.17679012993229179 0.22606037820060459 0 -0.1857497979664898 0.25642229956071261 0 -0.17088819938583719 0.25139470107571699 0 -0.18126996394939029 0.24124133888065871 0 -0.1857497979664898 0.25642229956071261 0 -0.18126996394939029 0.24124133888065871 0 -0.18126996394939029 0.24124133888065871 0 -0.17679012993229179 0.22606037820060459 0 -0.1981212573248321 0.2303345044091884 0 -0.18126996394939029 0.24124133888065871 0 -0.17679012993229179 0.22606037820060459 0 -0.16154460948003191 0.23860046487887329 0 -0.17679012993229179 0.22606037820060459 0 -0.156763639745061 0.21851577920012649 0 -0.17679012993229179 0.22606037820060459 0 -0.156763639745061 0.21851577920012649 0 -0.1712831847482835 0.211394945695667 0 -0.156763639745061 0.21851577920012649 0 -0.1712831847482835 0.211394945695667 0 -0.1514910981309214 0.20080049225832561 0 -0.18822134577153571 0.2176104325969169 0 -0.1712831847482835 0.211394945695667 0 -0.18683081466198309 0.20362583398079809 0 -0.18822134577153571 0.2176104325969169 0 -0.17679012993229179 0.22606037820060459 0 -0.1712831847482835 0.211394945695667 0 -0.1712831847482835 0.211394945695667 0 -0.18683081466198309 0.20362583398079809 0 -0.16772410192977569 0.19320153366723941 0 -0.18683081466198309 0.20362583398079809 0 -0.18382793315299331 0.1876569488741093 0 -0.16772410192977569 0.19320153366723941 0 -0.1712831847482835 0.211394945695667 0 -0.16772410192977569 0.19320153366723941 0 -0.1514910981309214 0.20080049225832561 0 -0.1514910981309214 0.20080049225832561 0 -0.14717572861377709 0.1807084670668517 0 -0.13010954049247381 0.18671478833220739 0 -0.1514910981309214 0.20080049225832561 0 -0.13010954049247381 0.18671478833220739 0 -0.16772410192977569 0.19320153366723941 0 -0.1514910981309214 0.20080049225832561 0 -0.14717572861377709 0.1807084670668517 0 -0.1362316186626826 0.2073040340304417 0 -0.13010954049247381 0.18671478833220739 0 -0.1175259083851323 0.20447534247552571 0 -0.1514910981309214 0.20080049225832561 0 -0.1362316186626826 0.2073040340304417 0 -0.13010954049247381 0.18671478833220739 0 -0.1362316186626826 0.2073040340304417 0 -0.12609896820612071 0.22624564951922349 0 -0.1175259083851323 0.20447534247552571 0 -0.156763639745061 0.21851577920012649 0 -0.1514910981309214 0.20080049225832561 0 -0.1362316186626826 0.2073040340304417 0 -0.156763639745061 0.21851577920012649 0 -0.1362316186626826 0.2073040340304417 0 -0.14496681372551201 0.23063192408172389 0 -0.16154460948003191 0.23860046487887329 0 -0.156763639745061 0.21851577920012649 0 -0.14496681372551201 0.23063192408172389 0 -0.1362316186626826 0.2073040340304417 0 -0.14496681372551201 0.23063192408172389 0 -0.12609896820612071 0.22624564951922349 0 -0.11823488744769579 0.25092633060682701 0 -0.12609896820612071 0.22624564951922349 0 -0.1393320900114447 0.24678894713063271 0 -0.14496681372551201 0.23063192408172389 0 -0.12609896820612071 0.22624564951922349 0 -0.1393320900114447 0.24678894713063271 0 -0.12609896820612071 0.22624564951922349 0 -0.1393320900114447 0.24678894713063271 0 -0.16154460948003191 0.23860046487887329 0 -0.14496681372551201 0.23063192408172389 0 -0.1393320900114447 0.24678894713063271 0 -0.1579895210430797 0.25382037719868611 0 -0.16154460948003191 0.23860046487887329 0 -0.1393320900114447 0.24678894713063271 0 -0.16119777415788331 0.15605993714616559 0 -0.16665653722895429 0.13840318380028149 0 -0.14821682194926239 0.1430007822828932 0 -0.16119777415788331 0.15605993714616559 0 -0.16665653722895429 0.13840318380028149 0 -0.17510919268122219 0.1509700316657292 0 -0.1754553970277172 0.12033603672573789 0 -0.15662730128622021 0.1201098577388274 0 -0.16665653722895429 0.13840318380028149 0 -0.15662730128622021 0.1201098577388274 0 -0.16665653722895429 0.13840318380028149 0 -0.14821682194926239 0.1430007822828932 0 -0.1754553970277172 0.12033603672573789 0 -0.16665653722895429 0.13840318380028149 0 -0.18249198004016079 0.13743482787919281 0 -0.1754553970277172 0.12033603672573789 0 -0.19212583708804479 0.1243415970786777 0 -0.18249198004016079 0.13743482787919281 0 -0.16665653722895429 0.13840318380028149 0 -0.18249198004016079 0.13743482787919281 0 -0.17510919268122219 0.1509700316657292 0 -0.18249198004016079 0.13743482787919281 0 -0.17510919268122219 0.1509700316657292 0 -0.1869585438686692 0.14946788246332571 0 -0.17510919268122219 0.1509700316657292 0 -0.1869585438686692 0.14946788246332571 0 -0.18279220707304569 0.16025901001241549 0 -0.19309310732031401 0.1606228952257015 0 -0.18279220707304569 0.16025901001241549 0 -0.18510512116445399 0.1711182689090899 0 -0.18510512116445399 0.1711182689090899 0 -0.1725489899316609 0.16363140358517961 0 -0.1658006600236078 0.17462983993289469 0 -0.18279220707304569 0.16025901001241549 0 -0.18510512116445399 0.1711182689090899 0 -0.1725489899316609 0.16363140358517961 0 -0.17510919268122219 0.1509700316657292 0 -0.18279220707304569 0.16025901001241549 0 -0.1725489899316609 0.16363140358517961 0 -0.18382793315299331 0.1876569488741093 0 -0.16772410192977569 0.19320153366723941 0 -0.1658006600236078 0.17462983993289469 0 -0.18382793315299331 0.1876569488741093 0 -0.18510512116445399 0.1711182689090899 0 -0.1658006600236078 0.17462983993289469 0 -0.16772410192977569 0.19320153366723941 0 -0.1658006600236078 0.17462983993289469 0 -0.14717572861377709 0.1807084670668517 0 -0.16119777415788331 0.15605993714616559 0 -0.1725489899316609 0.16363140358517961 0 -0.1658006600236078 0.17462983993289469 0 -0.16119777415788331 0.15605993714616559 0 -0.17510919268122219 0.1509700316657292 0 -0.1725489899316609 0.16363140358517961 0 -0.16119777415788331 0.15605993714616559 0 -0.1658006600236078 0.17462983993289469 0 -0.14133466985692059 0.162968191625805 0 -0.1658006600236078 0.17462983993289469 0 -0.14133466985692059 0.162968191625805 0 -0.14717572861377709 0.1807084670668517 0 -0.14133466985692059 0.162968191625805 0 -0.14717572861377709 0.1807084670668517 0 -0.1294561438266193 0.17195529458951769 0 -0.14717572861377709 0.1807084670668517 0 -0.13010954049247381 0.18671478833220739 0 -0.1294561438266193 0.17195529458951769 0 -0.14133466985692059 0.162968191625805 0 -0.1294561438266193 0.17195529458951769 0 -0.1199327973158998 0.15675594151663391 0 -0.14133466985692059 0.162968191625805 0 -0.12953502497488101 0.140992887301783 0 -0.1199327973158998 0.15675594151663391 0 -0.14133466985692059 0.162968191625805 0 -0.12953502497488101 0.140992887301783 0 -0.14821682194926239 0.1430007822828932 0 -0.16119777415788331 0.15605993714616559 0 -0.14133466985692059 0.162968191625805 0 -0.14821682194926239 0.1430007822828932 0 -0.15662730128622021 0.1201098577388274 0 -0.13525827670093529 0.1213048707276082 0 -0.14821682194926239 0.1430007822828932 0 -0.13525827670093529 0.1213048707276082 0 -0.12953502497488101 0.140992887301783 0 -0.1118527583121799 0.1210897585611234 0 -0.13525827670093529 0.1213048707276082 0 -0.12953502497488101 0.140992887301783 0 -0.14821682194926239 0.1430007822828932 0 -0.12953502497488101 0.140992887301783 0 -0.1118527583121799 0.1210897585611234 0 -0.12953502497488101 0.140992887301783 0 -0.11197979591548191 0.1392515461470559 0 -0.1118527583121799 0.1210897585611234 0 -0.11197979591548191 0.1392515461470559 0 -0.096919953399380337 0.1298870139061426 0 -0.1118527583121799 0.1210897585611234 0 -0.11197979591548191 0.1392515461470559 0 -0.096919953399380337 0.1298870139061426 0 -0.1028239681267013 0.1512580491561171 0 -0.096919953399380337 0.1298870139061426 0 -0.1028239681267013 0.1512580491561171 0 -0.096919953399380337 0.1298870139061426 0 -0.1028239681267013 0.1512580491561171 0 -0.086769469438017804 0.1423613123004854 0 -0.12953502497488101 0.140992887301783 0 -0.11197979591548191 0.1392515461470559 0 -0.1199327973158998 0.15675594151663391 0 -0.11197979591548191 0.1392515461470559 0 -0.1028239681267013 0.1512580491561171 0 -0.1199327973158998 0.15675594151663391 0 -0.1028239681267013 0.1512580491561171 0 -0.1199327973158998 0.15675594151663391 0 -0.108727982854025 0.17262908440609079 0 -0.1294561438266193 0.17195529458951769 0 -0.1199327973158998 0.15675594151663391 0 -0.108727982854025 0.17262908440609079 0 -0.108727982854025 0.17262908440609079 0 -0.1131269456195773 0.18855221344080861 0 -0.13010954049247381 0.18671478833220739 0 -0.1294561438266193 0.17195529458951769 0 -0.108727982854025 0.17262908440609079 0 -0.13010954049247381 0.18671478833220739 0 -0.108727982854025 0.17262908440609079 0 -0.1131269456195773 0.18855221344080861 0 -0.13010954049247381 0.18671478833220739 0 -0.108727982854025 0.17262908440609079 0 -0.108727982854025 0.17262908440609079 0 -0.091406841854779791 0.18166999720331359 0 -0.1131269456195773 0.18855221344080861 0 -0.108727982854025 0.17262908440609079 0 -0.087186764884325169 0.15843819973529299 0 -0.1028239681267013 0.1512580491561171 0 -0.108727982854025 0.17262908440609079 0 -0.108727982854025 0.17262908440609079 0 -0.087186764884325169 0.15843819973529299 0 -0.091406841854779791 0.18166999720331359 0 -0.1028239681267013 0.1512580491561171 0 -0.108727982854025 0.17262908440609079 0 -0.087186764884325169 0.15843819973529299 0 -0.087186764884325169 0.15843819973529299 0 -0.091406841854779791 0.18166999720331359 0 -0.07354276525200272 0.1705049952588869 0 -0.091406841854779791 0.18166999720331359 0 -0.07354276525200272 0.1705049952588869 0 -0.070292852622092672 0.1968074681980469 0 -0.07354276525200272 0.1705049952588869 0 -0.070292852622092672 0.1968074681980469 0 -0.053998276837012603 0.1792871329677572 0 -0.07354276525200272 0.1705049952588869 0 -0.070292852622092672 0.1968074681980469 0 -0.07354276525200272 0.1705049952588869 0 -0.064450501199886392 0.15999635115773231 0 -0.053998276837012603 0.1792871329677572 0 -0.087186764884325169 0.15843819973529299 0 -0.07354276525200272 0.1705049952588869 0 -0.064450501199886392 0.15999635115773231 0 -0.087186764884325169 0.15843819973529299 0 -0.064450501199886392 0.15999635115773231 0 -0.065645546914624209 0.14424731506449709 0 -0.087186764884325169 0.15843819973529299 0 -0.065645546914624209 0.14424731506449709 0 -0.065645546914624209 0.14424731506449709 0 -0.07813283263880999 0.12879484813772171 0 -0.061768589919067869 0.12659298458602891 0 -0.065645546914624209 0.14424731506449709 0 -0.07813283263880999 0.12879484813772171 0 -0.086769469438017804 0.1423613123004854 0 -0.096919953399380337 0.1298870139061426 0 -0.07813283263880999 0.12879484813772171 0 -0.086769469438017804 0.1423613123004854 0 -0.096919953399380337 0.1298870139061426 0 -0.07813283263880999 0.12879484813772171 0 -0.088091985792771277 0.118503916156941 0 -0.1028239681267013 0.1512580491561171 0 -0.087186764884325169 0.15843819973529299 0 -0.086769469438017804 0.1423613123004854 0 -0.087186764884325169 0.15843819973529299 0 -0.065645546914624209 0.14424731506449709 0 -0.086769469438017804 0.1423613123004854 0 -0.09789573288757461 0.25789258425024503 0 -0.11823488744769579 0.25092633060682701 0 -0.1051678422620468 0.23792273631104341 0 -0.09789573288757461 0.25789258425024503 0 -0.1051678422620468 0.23792273631104341 0 -0.084512925013609158 0.23954854694493499 0 -0.11823488744769579 0.25092633060682701 0 -0.12609896820612071 0.22624564951922349 0 -0.1051678422620468 0.23792273631104341 0 -0.12609896820612071 0.22624564951922349 0 -0.1051678422620468 0.23792273631104341 0 -0.11151873583086221 0.21941411484770801 0 -0.1051678422620468 0.23792273631104341 0 -0.09653718458850695 0.22531378979276559 0 -0.084512925013609158 0.23954854694493499 0 -0.1051678422620468 0.23792273631104341 0 -0.11151873583086221 0.21941411484770801 0 -0.09653718458850695 0.22531378979276559 0 -0.11151873583086221 0.21941411484770801 0 -0.1175259083851323 0.20447534247552571 0 -0.095563739896656022 0.20308802218075539 0 -0.11151873583086221 0.21941411484770801 0 -0.09653718458850695 0.22531378979276559 0 -0.095563739896656022 0.20308802218075539 0 -0.12609896820612071 0.22624564951922349 0 -0.11151873583086221 0.21941411484770801 0 -0.1175259083851323 0.20447534247552571 0 -0.1175259083851323 0.20447534247552571 0 -0.1131269456195773 0.18855221344080861 0 -0.13010954049247381 0.18671478833220739 0 -0.1175259083851323 0.20447534247552571 0 -0.1131269456195773 0.18855221344080861 0 -0.091406841854779791 0.18166999720331359 0 -0.1131269456195773 0.18855221344080861 0 -0.095563739896656022 0.20308802218075539 0 -0.1175259083851323 0.20447534247552571 0 -0.1131269456195773 0.18855221344080861 0 -0.095563739896656022 0.20308802218075539 0 -0.091406841854779791 0.18166999720331359 0 -0.095563739896656022 0.20308802218075539 0 -0.070292852622092672 0.1968074681980469 0 -0.070292852622092672 0.1968074681980469 0 -0.067042939992182624 0.22310994113720681 0 -0.070292852622092672 0.1968074681980469 0 -0.082482444092426069 0.21494567644010881 0 -0.067042939992182624 0.22310994113720681 0 -0.09653718458850695 0.22531378979276559 0 -0.095563739896656022 0.20308802218075539 0 -0.082482444092426069 0.21494567644010881 0 -0.095563739896656022 0.20308802218075539 0 -0.070292852622092672 0.1968074681980469 0 -0.082482444092426069 0.21494567644010881 0 -0.09653718458850695 0.22531378979276559 0 -0.082482444092426069 0.21494567644010881 0 -0.084512925013609158 0.23954854694493499 0 -0.082482444092426069 0.21494567644010881 0 -0.067042939992182624 0.22310994113720681 0 -0.084512925013609158 0.23954854694493499 0 -0.079453131267273241 0.2572859628985697 0 -0.063793027362272589 0.24941241407636661 0 -0.084512925013609158 0.23954854694493499 0 -0.067042939992182624 0.22310994113720681 0 -0.063793027362272589 0.24941241407636661 0 -0.067042939992182624 0.22310994113720681 0 -0.063793027362272589 0.24941241407636661 0 -0.084512925013609158 0.23954854694493499 0 -0.044386290936714409 0.25359228382257271 0 -0.046896008305284023 0.23267294425450061 0 -0.02914888987534385 0.24174449408076551 0 -0.067042939992182624 0.22310994113720681 0 -0.063793027362272589 0.24941241407636661 0 -0.046896008305284023 0.23267294425450061 0 -0.044386290936714409 0.25359228382257271 0 -0.063793027362272589 0.24941241407636661 0 -0.046896008305284023 0.23267294425450061 0 -0.067042939992182624 0.22310994113720681 0 -0.046896008305284023 0.23267294425450061 0 -0.046701834982941982 0.20637870382643039 0 -0.046896008305284023 0.23267294425450061 0 -0.046701834982941982 0.20637870382643039 0 -0.02532064660254953 0.2225768129891065 0 -0.046896008305284023 0.23267294425450061 0 -0.02532064660254953 0.2225768129891065 0 -0.02914888987534385 0.24174449408076551 0 -0.070292852622092672 0.1968074681980469 0 -0.067042939992182624 0.22310994113720681 0 -0.046701834982941982 0.20637870382643039 0 -0.070292852622092672 0.1968074681980469 0 -0.046701834982941982 0.20637870382643039 0 -0.053998276837012603 0.1792871329677572 0 -0.046701834982941982 0.20637870382643039 0 -0.034846359881975528 0.18866265169937721 0 -0.020355470694717569 0.2004758844278417 0 -0.046701834982941982 0.20637870382643039 0 -0.034846359881975528 0.18866265169937721 0 -0.053998276837012603 0.1792871329677572 0 -0.034846359881975528 0.18866265169937721 0 -0.020355470694717569 0.2004758844278417 0 -0.014991354609794699 0.17948178895510611 0 -0.020355470694717569 0.2004758844278417 0 -0.00048814242826103899 0.21723751157582399 0 0.0042412746412692189 0.18989592029497029 0 -0.020355470694717569 0.2004758844278417 0 -0.014991354609794699 0.17948178895510611 0 0.0042412746412692189 0.18989592029497029 0 -0.020355470694717569 0.2004758844278417 0 -0.00048814242826103899 0.21723751157582399 0 -0.02532064660254953 0.2225768129891065 0 -0.046701834982941982 0.20637870382643039 0 -0.020355470694717569 0.2004758844278417 0 -0.02532064660254953 0.2225768129891065 0 -0.00048814242826103899 0.21723751157582399 0 -0.02532064660254953 0.2225768129891065 0 -0.01212773407442894 0.2433893394835768 0 -0.00048814242826103899 0.21723751157582399 0 -0.01212773407442894 0.2433893394835768 0 0.009710696962624589 0.24573559211884061 0 -0.02290087045232821 0.26206178737561919 0 -0.01212773407442894 0.2433893394835768 0 -0.02914888987534385 0.24174449408076551 0 -0.02532064660254953 0.2225768129891065 0 -0.01212773407442894 0.2433893394835768 0 -0.02914888987534385 0.24174449408076551 0 -0.042345233689464752 0.15394517702541161 0 -0.03432092813925091 0.14069121093775419 0 -0.026676530171916329 0.15952906589542129 0 -0.042345233689464752 0.15394517702541161 0 -0.03432092813925091 0.14069121093775419 0 -0.049552486746319083 0.1388536016433935 0 -0.049552486746319083 0.1388536016433935 0 -0.024405707955745828 0.1289837093156366 0 -0.049552486746319083 0.1388536016433935 0 -0.037644943143971848 0.12316619797238069 0 -0.04788051183926726 0.1198166198789002 0 -0.03432092813925091 0.14069121093775419 0 -0.049552486746319083 0.1388536016433935 0 -0.024405707955745828 0.1289837093156366 0 -0.049552486746319083 0.1388536016433935 0 -0.02828894468120283 0.1260212842434664 0 -0.037644943143971848 0.12316619797238069 0 -0.049552486746319083 0.1388536016433935 0 -0.024405707955745828 0.1289837093156366 0 -0.02828894468120283 0.1260212842434664 0 -0.065645546914624209 0.14424731506449709 0 -0.049552486746319083 0.1388536016433935 0 -0.061768589919067869 0.12659298458602891 0 -0.049552486746319083 0.1388536016433935 0 -0.061768589919067869 0.12659298458602891 0 -0.04788051183926726 0.1198166198789002 0 -0.064450501199886392 0.15999635115773231 0 -0.065645546914624209 0.14424731506449709 0 -0.054955403313377567 0.15143430367820351 0 -0.065645546914624209 0.14424731506449709 0 -0.049552486746319083 0.1388536016433935 0 -0.054955403313377567 0.15143430367820351 0 -0.042345233689464752 0.15394517702541161 0 -0.049552486746319083 0.1388536016433935 0 -0.054955403313377567 0.15143430367820351 0 -0.042345233689464752 0.15394517702541161 0 -0.054955403313377567 0.15143430367820351 0 -0.050416069503565149 0.16298200179957781 0 -0.064450501199886392 0.15999635115773231 0 -0.050416069503565149 0.16298200179957781 0 -0.053998276837012603 0.1792871329677572 0 -0.050416069503565149 0.16298200179957781 0 -0.053998276837012603 0.1792871329677572 0 -0.037656822072145241 0.1707752382605349 0 -0.064450501199886392 0.15999635115773231 0 -0.054955403313377567 0.15143430367820351 0 -0.050416069503565149 0.16298200179957781 0 -0.034846359881975528 0.18866265169937721 0 -0.053998276837012603 0.1792871329677572 0 -0.037656822072145241 0.1707752382605349 0 -0.042345233689464752 0.15394517702541161 0 -0.050416069503565149 0.16298200179957781 0 -0.037656822072145241 0.1707752382605349 0 -0.042345233689464752 0.15394517702541161 0 -0.037656822072145241 0.1707752382605349 0 -0.026676530171916329 0.15952906589542129 0 -0.026676530171916329 0.15952906589542129 0 -0.01182080676009792 0.16417551145435541 0 -0.019697580841174959 0.14533178194993851 0 -0.037656822072145241 0.1707752382605349 0 -0.026676530171916329 0.15952906589542129 0 -0.014991354609794699 0.17948178895510611 0 -0.026676530171916329 0.15952906589542129 0 -0.014991354609794699 0.17948178895510611 0 -0.01182080676009792 0.16417551145435541 0 -0.034846359881975528 0.18866265169937721 0 -0.037656822072145241 0.1707752382605349 0 -0.014991354609794699 0.17948178895510611 0 -0.014991354609794699 0.17948178895510611 0 0.0050070707957726238 0.16765803364862131 0 0.0042412746412692189 0.18989592029497029 0 -0.01182080676009792 0.16417551145435541 0 -0.0036681157307635868 0.1524260454369869 0 0.0050070707957726238 0.16765803364862131 0 -0.014991354609794699 0.17948178895510611 0 -0.01182080676009792 0.16417551145435541 0 0.0050070707957726238 0.16765803364862131 0 -0.0036681157307635868 0.1524260454369869 0 -0.0096102303011759461 0.14218213131791471 0 -0.019697580841174959 0.14533178194993851 0 -0.0036681157307635868 0.1524260454369869 0 -0.0096102303011759461 0.14218213131791471 0 0.006713219380602424 0.1383015912013329 0 -0.01182080676009792 0.16417551145435541 0 -0.0036681157307635868 0.1524260454369869 0 -0.019697580841174959 0.14533178194993851 0 -0.03432092813925091 0.14069121093775419 0 -0.026676530171916329 0.15952906589542129 0 -0.019697580841174959 0.14533178194993851 0 -0.0096102303011759461 0.14218213131791471 0 -0.019697580841174959 0.14533178194993851 0 -0.01775132540299491 0.13738045819216541 0 -0.03432092813925091 0.14069121093775419 0 -0.019697580841174959 0.14533178194993851 0 -0.024652064448042049 0.13793764762966179 0 -0.024405707955745828 0.1289837093156366 0 -0.01775132540299491 0.13738045819216541 0 -0.0085089402991380403 0.13251615622957449 0 -0.03432092813925091 0.14069121093775419 0 -0.024405707955745828 0.1289837093156366 0 -0.024652064448042049 0.13793764762966179 0 -0.024405707955745828 0.1289837093156366 0 -0.024652064448042049 0.13793764762966179 0 -0.01775132540299491 0.13738045819216541 0 -0.019697580841174959 0.14533178194993851 0 -0.024652064448042049 0.13793764762966179 0 -0.01775132540299491 0.13738045819216541 0 -0.024405707955745828 0.1289837093156366 0 -0.0085089402991380403 0.13251615622957449 0 0.0007410708348276028 0.11911381698787971 0 -0.0096102303011759461 0.14218213131791471 0 -0.0085089402991380403 0.13251615622957449 0 0.006713219380602424 0.1383015912013329 0 -0.0096102303011759461 0.14218213131791471 0 -0.01775132540299491 0.13738045819216541 0 -0.0085089402991380403 0.13251615622957449 0 -0.0085089402991380403 0.13251615622957449 0 0.00056212382691866059 0.12881435641206609 0 0.006713219380602424 0.1383015912013329 0 -0.0085089402991380403 0.13251615622957449 0 0.0007410708348276028 0.11911381698787971 0 0.00056212382691866059 0.12881435641206609 0 -0.024405707955745828 0.1289837093156366 0 -0.0074465128385103234 0.1152613033256259 0 0.0007410708348276028 0.11911381698787971 0 -0.024405707955745828 0.1289837093156366 0 0.0007410708348276028 0.11911381698787971 0 -0.0074465128385103234 0.1152613033256259 0 -0.011225002387721041 0.1065841442885854 0 -0.01598236591708423 0.1132846731781179 0 -0.00085215776453518373 0.1058897622738819 0 -0.0031273369336706478 0.1010262542884455 0 -0.011225002387721041 0.1065841442885854 0 -0.0074465128385103234 0.1152613033256259 0 -0.00085215776453518373 0.1058897622738819 0 -0.011225002387721041 0.1065841442885854 0 -0.0031273369336706478 0.1010262542884455 0 -0.0069860965502948971 0.095520655059115667 0 0.0098686901731930184 0.09436412890815235 0 -0.0031273369336706478 0.1010262542884455 0 -0.0069860965502948971 0.095520655059115667 0 -0.0098413164082908691 0.1002637507916788 0 -0.0069860965502948971 0.095520655059115667 0 -0.0098413164082908691 0.1002637507916788 0 -0.0170928090131648 0.096480550664196141 0 -0.0098413164082908691 0.1002637507916788 0 -0.011225002387721041 0.1065841442885854 0 -0.0170928090131648 0.096480550664196141 0 -0.0031273369336706478 0.1010262542884455 0 -0.0098413164082908691 0.1002637507916788 0 -0.011225002387721041 0.1065841442885854 0 -0.011225002387721041 0.1065841442885854 0 -0.018751327420817931 0.1059759144271802 0 -0.01598236591708423 0.1132846731781179 0 -0.018751327420817931 0.1059759144271802 0 -0.027096309761066611 0.10095774299902011 0 -0.022406278534759041 0.11359895097498091 0 -0.011225002387721041 0.1065841442885854 0 -0.018751327420817931 0.1059759144271802 0 -0.0170928090131648 0.096480550664196141 0 -0.018751327420817931 0.1059759144271802 0 -0.0170928090131648 0.096480550664196141 0 -0.027096309761066611 0.10095774299902011 0 -0.027096309761066611 0.10095774299902011 0 -0.022406278534759041 0.11359895097498091 0 -0.034756563499140532 0.11286584235413979 0 -0.030774182464768561 0.11891306888624199 0 -0.022406278534759041 0.11359895097498091 0 -0.034756563499140532 0.11286584235413979 0 -0.024405707955745828 0.1289837093156366 0 -0.02828894468120283 0.1260212842434664 0 -0.0074465128385103234 0.1152613033256259 0 -0.02828894468120283 0.1260212842434664 0 -0.0074465128385103234 0.1152613033256259 0 -0.01598236591708423 0.1132846731781179 0 -0.02828894468120283 0.1260212842434664 0 -0.0074465128385103234 0.1152613033256259 0 -0.02828894468120283 0.1260212842434664 0 -0.030774182464768561 0.11891306888624199 0 -0.022406278534759041 0.11359895097498091 0 -0.02828894468120283 0.1260212842434664 0 -0.01598236591708423 0.1132846731781179 0 -0.022406278534759041 0.11359895097498091 0 -0.018751327420817931 0.1059759144271802 0 -0.01598236591708423 0.1132846731781179 0 -0.022406278534759041 0.11359895097498091 0 -0.017041114139938991 0.069291930274799532 0 -0.0037825856943133661 0.055130602642442419 0 0.0013331037480066789 0.06983300394548736 0 -0.010464629370286921 0.086457433232338371 0 -0.017041114139938991 0.069291930274799532 0 0.0013331037480066789 0.06983300394548736 0 -0.0069860965502948971 0.095520655059115667 0 -0.010464629370286921 0.086457433232338371 0 0.0098686901731930184 0.09436412890815235 0 -0.010464629370286921 0.086457433232338371 0 0.0013331037480066789 0.06983300394548736 0 -0.010464629370286921 0.086457433232338371 0 0.0098686901731930184 0.09436412890815235 0 -0.0069860965502948971 0.095520655059115667 0 -0.0170928090131648 0.096480550664196141 0 -0.010464629370286921 0.086457433232338371 0 -0.0170928090131648 0.096480550664196141 0 -0.010464629370286921 0.086457433232338371 0 -0.031959384403173433 0.080032035305190763 0 -0.010464629370286921 0.086457433232338371 0 -0.017041114139938991 0.069291930274799532 0 -0.031959384403173433 0.080032035305190763 0 -0.0170928090131648 0.096480550664196141 0 -0.027096309761066611 0.10095774299902011 0 -0.031959384403173433 0.080032035305190763 0 -0.010464629370286921 0.086457433232338371 0 -0.031959384403173433 0.080032035305190763 0 -0.017041114139938991 0.069291930274799532 0 -0.031959384403173433 0.080032035305190763 0 -0.040516101631821622 0.051015801456774729 0 -0.052624013436015707 0.07605098692390759 0 -0.040516101631821622 0.051015801456774729 0 -0.031959384403173433 0.080032035305190763 0 -0.052624013436015707 0.07605098692390759 0 -0.040516101631821622 0.051015801456774729 0 -0.031959384403173433 0.080032035305190763 0 -0.052624013436015707 0.07605098692390759 0 -0.045914117500638077 0.10102195769503031 0 -0.052624013436015707 0.07605098692390759 0 -0.064731925240209612 0.1010861723910404 0 -0.052624013436015707 0.07605098692390759 0 -0.064731925240209612 0.1010861723910404 0 -0.069058810763592313 0.086966886578907637 0 -0.052624013436015707 0.07605098692390759 0 -0.045914117500638077 0.10102195769503031 0 -0.064731925240209612 0.1010861723910404 0 -0.034756563499140532 0.11286584235413979 0 -0.045914117500638077 0.10102195769503031 0 -0.04788051183926726 0.1198166198789002 0 -0.037644943143971848 0.12316619797238069 0 -0.034756563499140532 0.11286584235413979 0 -0.04788051183926726 0.1198166198789002 0 -0.02828894468120283 0.1260212842434664 0 -0.030774182464768561 0.11891306888624199 0 -0.037644943143971848 0.12316619797238069 0 -0.030774182464768561 0.11891306888624199 0 -0.037644943143971848 0.12316619797238069 0 -0.034756563499140532 0.11286584235413979 0 -0.027096309761066611 0.10095774299902011 0 -0.045914117500638077 0.10102195769503031 0 -0.027096309761066611 0.10095774299902011 0 -0.034756563499140532 0.11286584235413979 0 -0.045914117500638077 0.10102195769503031 0 -0.027096309761066611 0.10095774299902011 0 -0.031959384403173433 0.080032035305190763 0 -0.045914117500638077 0.10102195769503031 0 -0.045914117500638077 0.10102195769503031 0 -0.058345504687738539 0.1126916489630761 0 -0.064731925240209612 0.1010861723910404 0 -0.045914117500638077 0.10102195769503031 0 -0.064731925240209612 0.1010861723910404 0 -0.045914117500638077 0.10102195769503031 0 -0.058345504687738539 0.1126916489630761 0 -0.04788051183926726 0.1198166198789002 0 -0.061768589919067869 0.12659298458602891 0 -0.058345504687738539 0.1126916489630761 0 -0.04788051183926726 0.1198166198789002 0 -0.061768589919067869 0.12659298458602891 0 -0.058345504687738539 0.1126916489630761 0 -0.071432378939509864 0.114940510264381 0 -0.07813283263880999 0.12879484813772171 0 -0.061768589919067869 0.12659298458602891 0 -0.071432378939509864 0.114940510264381 0 -0.058345504687738539 0.1126916489630761 0 -0.071432378939509864 0.114940510264381 0 -0.064731925240209612 0.1010861723910404 0 -0.07813283263880999 0.12879484813772171 0 -0.071432378939509864 0.114940510264381 0 -0.071432378939509864 0.114940510264381 0 -0.088091985792771277 0.118503916156941 0 -0.094170491649478105 0.1011866298204646 0 -0.088091985792771277 0.118503916156941 0 -0.097758797288452395 0.11766682961116789 0 -0.094170491649478105 0.1011866298204646 0 -0.07813283263880999 0.12879484813772171 0 -0.071432378939509864 0.114940510264381 0 -0.088091985792771277 0.118503916156941 0 -0.064731925240209612 0.1010861723910404 0 -0.083480206903481097 0.089153663819406939 0 -0.094170491649478105 0.1011866298204646 0 -0.064731925240209612 0.1010861723910404 0 -0.094170491649478105 0.1011866298204646 0 -0.083480206903481097 0.089153663819406939 0 -0.094170491649478105 0.1011866298204646 0 -0.071432378939509864 0.114940510264381 0 -0.064731925240209612 0.1010861723910404 0 -0.094170491649478105 0.1011866298204646 0 -0.071432378939509864 0.114940510264381 0 -0.064731925240209612 0.1010861723910404 0 -0.052624013436015707 0.07605098692390759 0 -0.069058810763592313 0.086966886578907637 0 -0.072789922157483283 0.077120697818350029 0 -0.064731925240209612 0.1010861723910404 0 -0.069058810763592313 0.086966886578907637 0 -0.083480206903481097 0.089153663819406939 0 -0.069058810763592313 0.086966886578907637 0 -0.072789922157483283 0.077120697818350029 0 -0.083480206903481097 0.089153663819406939 0 -0.052624013436015707 0.07605098692390759 0 -0.072789922157483283 0.077120697818350029 0 -0.062752654984247772 0.057653373950896938 0 -0.072789922157483283 0.077120697818350029 0 -0.078571823351542947 0.062483828144281162 0 -0.062752654984247772 0.057653373950896938 0 -0.08537360698586581 0.076396642145524052 0 -0.094444592832663141 0.067413449075391638 0 -0.078571823351542947 0.062483828144281162 0 -0.08537360698586581 0.076396642145524052 0 -0.099123267583345373 0.085203814295893271 0 -0.094444592832663141 0.067413449075391638 0 -0.072789922157483283 0.077120697818350029 0 -0.08537360698586581 0.076396642145524052 0 -0.078571823351542947 0.062483828144281162 0 -0.08537360698586581 0.076396642145524052 0 -0.083480206903481097 0.089153663819406939 0 -0.099123267583345373 0.085203814295893271 0 -0.083480206903481097 0.089153663819406939 0 -0.099123267583345373 0.085203814295893271 0 -0.094170491649478105 0.1011866298204646 0 -0.072789922157483283 0.077120697818350029 0 -0.08537360698586581 0.076396642145524052 0 -0.083480206903481097 0.089153663819406939 0 -0.072789922157483283 0.077120697818350029 0 -0.083480206903481097 0.089153663819406939 0 -0.099123267583345373 0.085203814295893271 0 -0.1143827619903883 0.06642533080049022 0 -0.1131839339682776 0.09480383020997929 0 -0.099123267583345373 0.085203814295893271 0 -0.1131839339682776 0.09480383020997929 0 -0.1055078094663405 0.095580100587896663 0 -0.099123267583345373 0.085203814295893271 0 -0.094444592832663141 0.067413449075391638 0 -0.1143827619903883 0.06642533080049022 0 -0.1143827619903883 0.06642533080049022 0 -0.1131839339682776 0.09480383020997929 0 -0.13269411571008291 0.0814134514373486 0 -0.1198294151108488 0.1012741894338294 0 -0.1131839339682776 0.09480383020997929 0 -0.13269411571008291 0.0814134514373486 0 -0.1143827619903883 0.06642533080049022 0 -0.1131839339682776 0.09480383020997929 0 -0.1198294151108488 0.1012741894338294 0 -0.1131839339682776 0.09480383020997929 0 -0.1055078094663405 0.095580100587896663 0 -0.13525827670093529 0.1213048707276082 0 -0.1198294151108488 0.1012741894338294 0 -0.1118527583121799 0.1210897585611234 0 -0.1118527583121799 0.1210897585611234 0 -0.097758797288452395 0.11766682961116789 0 -0.094170491649478105 0.1011866298204646 0 -0.1118527583121799 0.1210897585611234 0 -0.094170491649478105 0.1011866298204646 0 -0.096919953399380337 0.1298870139061426 0 -0.1118527583121799 0.1210897585611234 0 -0.097758797288452395 0.11766682961116789 0 -0.096919953399380337 0.1298870139061426 0 -0.088091985792771277 0.118503916156941 0 -0.097758797288452395 0.11766682961116789 0 -0.1198294151108488 0.1012741894338294 0 -0.094170491649478105 0.1011866298204646 0 -0.1198294151108488 0.1012741894338294 0 -0.1118527583121799 0.1210897585611234 0 -0.094170491649478105 0.1011866298204646 0 -0.1198294151108488 0.1012741894338294 0 -0.094170491649478105 0.1011866298204646 0 -0.1055078094663405 0.095580100587896663 0 -0.099123267583345373 0.085203814295893271 0 -0.094170491649478105 0.1011866298204646 0 -0.1055078094663405 0.095580100587896663 0 -0.093781696071152901 0.024090392313075651 0 -0.1167804180346098 0.0096683319815117214 0 -0.1155815900124991 0.038046831391001068 0 -0.097274239274747376 -0.0046019085417796646 0 -0.093781696071152901 0.024090392313075651 0 -0.1167804180346098 0.0096683319815117214 0 -0.13842431561494539 0.027441210035773659 0 -0.1167804180346098 0.0096683319815117214 0 -0.1155815900124991 0.038046831391001068 0 -0.1167804180346098 0.0096683319815117214 0 -0.1155815900124991 0.038046831391001068 0 -0.14318432961239319 0.052194176919895093 0 -0.1143827619903883 0.06642533080049022 0 -0.1155815900124991 0.038046831391001068 0 -0.1143827619903883 0.06642533080049022 0 -0.1155815900124991 0.038046831391001068 0 -0.1143827619903883 0.06642533080049022 0 -0.1155815900124991 0.038046831391001068 0 -0.095561869308206773 0.047655195898222411 0 -0.094444592832663141 0.067413449075391638 0 -0.1143827619903883 0.06642533080049022 0 -0.095561869308206773 0.047655195898222411 0 -0.093781696071152901 0.024090392313075651 0 -0.1155815900124991 0.038046831391001068 0 -0.095561869308206773 0.047655195898222411 0 -0.093781696071152901 0.024090392313075651 0 -0.095561869308206773 0.047655195898222411 0 -0.076641457777881963 0.042304034719855187 0 -0.095561869308206773 0.047655195898222411 0 -0.078571823351542947 0.062483828144281162 0 -0.076641457777881963 0.042304034719855187 0 -0.094444592832663141 0.067413449075391638 0 -0.095561869308206773 0.047655195898222411 0 -0.078571823351542947 0.062483828144281162 0 -0.078571823351542947 0.062483828144281162 0 -0.062752654984247772 0.057653373950896938 0 -0.076641457777881963 0.042304034719855187 0 -0.076641457777881963 0.042304034719855187 0 -0.070167799237903949 0.023626666910915271 0 -0.056818265718601879 0.03664441848159055 0 -0.062752654984247772 0.057653373950896938 0 -0.076641457777881963 0.042304034719855187 0 -0.056818265718601879 0.03664441848159055 0 -0.058869682475428689 -0.0077817525749057908 0 -0.070167799237903949 0.023626666910915271 0 -0.081981731323709672 0.0092292092104944434 0 -0.093781696071152901 0.024090392313075651 0 -0.076641457777881963 0.042304034719855187 0 -0.070167799237903949 0.023626666910915271 0 -0.093781696071152901 0.024090392313075651 0 -0.070167799237903949 0.023626666910915271 0 -0.081981731323709672 0.0092292092104944434 0 -0.097274239274747376 -0.0046019085417796646 0 -0.093781696071152901 0.024090392313075651 0 -0.081981731323709672 0.0092292092104944434 0 -0.058869682475428689 -0.0077817525749057908 0 -0.049742620471238078 0.015900509578415989 0 -0.058869682475428689 -0.0077817525749057908 0 -0.040135715836543677 -0.0043694999882779141 0 -0.049742620471238078 0.015900509578415989 0 -0.058869682475428689 -0.0077817525749057908 0 -0.070167799237903949 0.023626666910915271 0 -0.049742620471238078 0.015900509578415989 0 -0.070167799237903949 0.023626666910915271 0 -0.049742620471238078 0.015900509578415989 0 -0.056818265718601879 0.03664441848159055 0 -0.049742620471238078 0.015900509578415989 0 -0.056818265718601879 0.03664441848159055 0 -0.039450089038901293 0.034605149463275441 0 -0.049742620471238078 0.015900509578415989 0 -0.027208590888315939 0.0084929312031133842 0 -0.028578309293241989 0.024187646623798981 0 -0.049742620471238078 0.015900509578415989 0 -0.039450089038901293 0.034605149463275441 0 -0.028578309293241989 0.024187646623798981 0 -0.040135715836543677 -0.0043694999882779141 0 -0.049742620471238078 0.015900509578415989 0 -0.027208590888315939 0.0084929312031133842 0 -0.052624013436015707 0.07605098692390759 0 -0.062752654984247772 0.057653373950896938 0 -0.040516101631821622 0.051015801456774729 0 -0.062752654984247772 0.057653373950896938 0 -0.056818265718601879 0.03664441848159055 0 -0.040516101631821622 0.051015801456774729 0 -0.039450089038901293 0.034605149463275441 0 -0.040516101631821622 0.051015801456774729 0 -0.024768851542285589 0.037657965931397343 0 -0.056818265718601879 0.03664441848159055 0 -0.039450089038901293 0.034605149463275441 0 -0.040516101631821622 0.051015801456774729 0 -0.017041114139938991 0.069291930274799532 0 -0.040516101631821622 0.051015801456774729 0 -0.01925178640572044 0.051376550916156102 0 -0.01925178640572044 0.051376550916156102 0 -0.024768851542285589 0.037657965931397343 0 -0.0088982751366374208 0.040428201339398853 0 -0.040516101631821622 0.051015801456774729 0 -0.01925178640572044 0.051376550916156102 0 -0.024768851542285589 0.037657965931397343 0 -0.039450089038901293 0.034605149463275441 0 -0.024768851542285589 0.037657965931397343 0 -0.028578309293241989 0.024187646623798981 0 -0.024768851542285589 0.037657965931397343 0 -0.0088982751366374208 0.040428201339398853 0 -0.011918547747390811 0.024334445788979909 0 -0.0088982751366374208 0.040428201339398853 0 -0.0037825856943133661 0.055130602642442419 0 0.0057302808675212353 0.037209221645991768 0 -0.0088982751366374208 0.040428201339398853 0 -0.011918547747390811 0.024334445788979909 0 0.0057302808675212353 0.037209221645991768 0 -0.017041114139938991 0.069291930274799532 0 -0.01925178640572044 0.051376550916156102 0 -0.0037825856943133661 0.055130602642442419 0 -0.01925178640572044 0.051376550916156102 0 -0.0088982751366374208 0.040428201339398853 0 -0.0037825856943133661 0.055130602642442419 0 -0.0088982751366374208 0.040428201339398853 0 -0.0037825856943133661 0.055130602642442419 0 -0.0037825856943133661 0.055130602642442419 0 0.0013331037480066789 0.06983300394548736 0 -0.027208590888315939 0.0084929312031133842 0 -0.011918547747390811 0.024334445788979909 0 -0.01042188962313418 0.0033145873257822219 0 -0.024768851542285589 0.037657965931397343 0 -0.028578309293241989 0.024187646623798981 0 -0.011918547747390811 0.024334445788979909 0 -0.027208590888315939 0.0084929312031133842 0 -0.028578309293241989 0.024187646623798981 0 -0.011918547747390811 0.024334445788979909 0 -0.011918547747390811 0.024334445788979909 0 0.0057730275692631453 0.01927876013167381 0 0.0057302808675212353 0.037209221645991768 0 -0.011918547747390811 0.024334445788979909 0 -0.01042188962313418 0.0033145873257822219 0 0.0057730275692631453 0.01927876013167381 0 0.0057730275692631453 0.01927876013167381 0 0.02034891951406631 0.012404285822207961 0 0.005904608835726727 -0.00024378440871443069 0 -0.01042188962313418 0.0033145873257822219 0 0.0057730275692631453 0.01927876013167381 0 0.005904608835726727 -0.00024378440871443069 0 0.0057730275692631453 0.01927876013167381 0 0.0057302808675212353 0.037209221645991768 0 0.025348416658753651 0.03599253075598953 0 0.02034891951406631 0.012404285822207961 0 0.025348416658753651 0.03599253075598953 0 0.037356073114122583 0.019072294161237419 0 0.0057730275692631453 0.01927876013167381 0 0.02034891951406631 0.012404285822207961 0 0.025348416658753651 0.03599253075598953 0 0.02034891951406631 0.012404285822207961 0 0.02504876253596517 -0.0076388332716327279 0 0.005904608835726727 -0.00024378440871443069 0 0.02034891951406631 0.012404285822207961 0 0.037356073114122583 0.019072294161237419 0 0.02504876253596517 -0.0076388332716327279 0 0.037356073114122583 0.019072294161237419 0 0.02504876253596517 -0.0076388332716327279 0 -0.0037825856943133661 0.055130602642442419 0 0.01334076020337915 0.052912767350737758 0 0.0057302808675212353 0.037209221645991768 0 -0.0037825856943133661 0.055130602642442419 0 0.01334076020337915 0.052912767350737758 0 0.0013331037480066789 0.06983300394548736 0 0.01334076020337915 0.052912767350737758 0 0.0013331037480066789 0.06983300394548736 0 0.01334076020337915 0.052912767350737758 0 0.0057302808675212353 0.037209221645991768 0 0.025348416658753651 0.03599253075598953 0 0.01334076020337915 0.052912767350737758 0 0.025348416658753651 0.03599253075598953 0 0.01334076020337915 0.052912767350737758 0 0.035033638511915301 0.054704627333407918 0 0.02611931296442729 0.07101701423444258 0 0.01334076020337915 0.052912767350737758 0 0.025348416658753651 0.03599253075598953 0 0.035033638511915301 0.054704627333407918 0 0.035033638511915301 0.054704627333407918 0 0.046420753482894803 0.038745790733137088 0 0.055485433851670138 0.058419287305035428 0 0.035033638511915301 0.054704627333407918 0 0.055485433851670138 0.058419287305035428 0 0.044295671270877843 0.070645022008273259 0 0.025348416658753651 0.03599253075598953 0 0.046420753482894803 0.038745790733137088 0 0.037356073114122583 0.019072294161237419 0 0.025348416658753651 0.03599253075598953 0 0.035033638511915301 0.054704627333407918 0 0.046420753482894803 0.038745790733137088 0 0.046420753482894803 0.038745790733137088 0 0.055725210896024002 0.049526270596602633 0 0.055858467317662072 0.023364974990402399 0 0.055725210896024002 0.049526270596602633 0 0.055858467317662072 0.023364974990402399 0 0.073941000657911218 0.02912411665209794 0 0.046420753482894803 0.038745790733137088 0 0.055725210896024002 0.049526270596602633 0 0.055485433851670138 0.058419287305035428 0 0.055725210896024002 0.049526270596602633 0 0.055485433851670138 0.058419287305035428 0 0.072522627417362678 0.051528449608179039 0 0.046420753482894803 0.038745790733137088 0 0.055485433851670138 0.058419287305035428 0 0.037356073114122583 0.019072294161237419 0 0.050151009438654581 0.0010426852504346359 0 0.02504876253596517 -0.0076388332716327279 0 0.037356073114122583 0.019072294161237419 0 0.050151009438654581 0.0010426852504346359 0 0.046420753482894803 0.038745790733137088 0 0.037356073114122583 0.019072294161237419 0 0.055858467317662072 0.023364974990402399 0 0.046420753482894803 0.038745790733137088 0 0.037356073114122583 0.019072294161237419 0 0.025348416658753651 0.03599253075598953 0 0.037356073114122583 0.019072294161237419 0 0.037356073114122583 0.019072294161237419 0 0.055858467317662072 0.023364974990402399 0 0.050151009438654581 0.0010426852504346359 0 0.055858467317662072 0.023364974990402399 0 0.050151009438654581 0.0010426852504346359 0 0.070155026607187643 0.0048614903205909579 0 0.092156790419798434 0.0087219627075932581 0 0.073941000657911218 0.02912411665209794 0 0.093722426825215505 0.041748078793696568 0 0.070155026607187643 0.0048614903205909579 0 0.092156790419798434 0.0087219627075932581 0 0.073941000657911218 0.02912411665209794 0 0.092156790419798434 0.0087219627075932581 0 0.073941000657911218 0.02912411665209794 0 0.055858467317662072 0.023364974990402399 0 0.070155026607187643 0.0048614903205909579 0 0.073941000657911218 0.02912411665209794 0 0.055725210896024002 0.049526270596602633 0 0.073941000657911218 0.02912411665209794 0 0.072522627417362678 0.051528449608179039 0 0.055725210896024002 0.049526270596602633 0 0.073941000657911218 0.02912411665209794 0 0.072522627417362678 0.051528449608179039 0 0.089646058435828374 0.065136911792963256 0 0.070551058481326645 0.063294358145777843 0 0.055485433851670138 0.058419287305035428 0 0.072522627417362678 0.051528449608179039 0 0.070551058481326645 0.063294358145777843 0 0.072522627417362678 0.051528449608179039 0 0.093722426825215505 0.041748078793696568 0 0.089646058435828374 0.065136911792963256 0 0.073941000657911218 0.02912411665209794 0 0.072522627417362678 0.051528449608179039 0 0.093722426825215505 0.041748078793696568 0 0.093722426825215505 0.041748078793696568 0 0.11474200265121311 0.05218103970899602 0 0.1159414042888644 0.02438483761899482 0 0.11474200265121311 0.05218103970899602 0 0.089646058435828374 0.065136911792963256 0 0.093722426825215505 0.041748078793696568 0 0.11474200265121311 0.05218103970899602 0 0.089646058435828374 0.065136911792963256 0 0.11474200265121311 0.05218103970899602 0 0.123273405455276 0.071939874845635993 0 0.13291151280292901 0.057182010238565097 0 0.11474200265121311 0.05218103970899602 0 0.1159414042888644 0.02438483761899482 0 0.13983794686659781 0.039225167625028791 0 0.092156790419798434 0.0087219627075932581 0 0.093722426825215505 0.041748078793696568 0 0.1159414042888644 0.02438483761899482 0 0.1159414042888644 0.02438483761899482 0 0.1116446037739722 0.0061415384342651189 0 0.13309451229529609 0.009536296927083663 0 0.1116446037739722 0.0061415384342651189 0 0.13309451229529609 0.009536296927083663 0 0.12546205171341571 -0.0034538947084765959 0 0.092156790419798434 0.0087219627075932581 0 0.1159414042888644 0.02438483761899482 0 0.1116446037739722 0.0061415384342651189 0 0.092156790419798434 0.0087219627075932581 0 0.1116446037739722 0.0061415384342651189 0 0.11037258018168571 -0.01168019123691148 0 0.10933971890238491 0.095098874189737725 0 0.093864407723658075 0.1016135218941448 0 0.088041246006302573 0.085859826960768104 0 0.10933971890238491 0.095098874189737725 0 0.093864407723658075 0.1016135218941448 0 0.1095106900313416 0.11714285620299621 0 0.10933971890238491 0.095098874189737725 0 0.093864407723658075 0.1016135218941448 0 0.093864407723658075 0.1016135218941448 0 0.095030326296870915 0.1179583786793718 0 0.1095106900313416 0.11714285620299621 0 0.095030326296870915 0.1179583786793718 0 0.1095106900313416 0.11714285620299621 0 0.1045412814489695 0.13208373514194599 0 0.1095106900313416 0.11714285620299621 0 0.12968998538624341 0.13206281451736329 0 0.13370195957752121 0.1172790119602122 0 0.1095106900313416 0.11714285620299621 0 0.1208337936217098 0.10600116734878511 0 0.13370195957752121 0.1172790119602122 0 0.10933971890238491 0.095098874189737725 0 0.1208337936217098 0.10600116734878511 0 0.125672499204592 0.096152775552308861 0 0.10933971890238491 0.095098874189737725 0 0.1095106900313416 0.11714285620299621 0 0.1208337936217098 0.10600116734878511 0 0.10933971890238491 0.095098874189737725 0 0.1192795670199716 0.084806347150453792 0 0.125672499204592 0.096152775552308861 0 0.10933971890238491 0.095098874189737725 0 0.1192795670199716 0.084806347150453792 0 0.1073573182404059 0.076306758877513842 0 0.1192795670199716 0.084806347150453792 0 0.123273405455276 0.071939874845635993 0 0.13075489329719889 0.084533452287072569 0 0.11474200265121311 0.05218103970899602 0 0.123273405455276 0.071939874845635993 0 0.1073573182404059 0.076306758877513842 0 0.1192795670199716 0.084806347150453792 0 0.123273405455276 0.071939874845635993 0 0.1073573182404059 0.076306758877513842 0 0.1073573182404059 0.076306758877513842 0 0.088041246006302573 0.085859826960768104 0 0.089646058435828374 0.065136911792963256 0 0.11474200265121311 0.05218103970899602 0 0.1073573182404059 0.076306758877513842 0 0.089646058435828374 0.065136911792963256 0 0.10933971890238491 0.095098874189737725 0 0.1073573182404059 0.076306758877513842 0 0.088041246006302573 0.085859826960768104 0 0.088041246006302573 0.085859826960768104 0 0.071469605382686721 0.093110476737738479 0 0.082941088914393779 0.097177998797798704 0 0.088041246006302573 0.085859826960768104 0 0.089646058435828374 0.065136911792963256 0 0.064550114220445265 0.078092783876933719 0 0.089646058435828374 0.065136911792963256 0 0.064550114220445265 0.078092783876933719 0 0.055485433851670138 0.058419287305035428 0 0.070551058481326645 0.063294358145777843 0 0.064550114220445265 0.078092783876933719 0 0.089646058435828374 0.065136911792963256 0 0.070551058481326645 0.063294358145777843 0 0.064550114220445265 0.078092783876933719 0 0.064550114220445265 0.078092783876933719 0 0.071469605382686721 0.093110476737738479 0 0.057966146734014568 0.09679335803864908 0 0.088041246006302573 0.085859826960768104 0 0.064550114220445265 0.078092783876933719 0 0.071469605382686721 0.093110476737738479 0 0.064550114220445265 0.078092783876933719 0 0.071469605382686721 0.093110476737738479 0 0.067008356948569742 0.1024111849547913 0 0.078389096544927761 0.1081281695985435 0 0.060208579132649938 0.11161273544423431 0 0.071469605382686721 0.093110476737738479 0 0.067008356948569742 0.1024111849547913 0 0.057966146734014568 0.09679335803864908 0 0.071469605382686721 0.093110476737738479 0 0.078389096544927761 0.1081281695985435 0 0.071469605382686721 0.093110476737738479 0 0.082941088914393779 0.097177998797798704 0 0.078389096544927761 0.1081281695985435 0 0.071469605382686721 0.093110476737738479 0 0.067008356948569742 0.1024111849547913 0 0.078389096544927761 0.1081281695985435 0 0.093864407723658075 0.1016135218941448 0 0.088041246006302573 0.085859826960768104 0 0.082941088914393779 0.097177998797798704 0 0.093864407723658075 0.1016135218941448 0 0.095030326296870915 0.1179583786793718 0 0.078389096544927761 0.1081281695985435 0 0.093864407723658075 0.1016135218941448 0 0.082941088914393779 0.097177998797798704 0 0.078389096544927761 0.1081281695985435 0 0.093864407723658075 0.1016135218941448 0 0.078389096544927761 0.1081281695985435 0 0.095030326296870915 0.1179583786793718 0 0.078389096544927761 0.1081281695985435 0 0.088846155735457719 0.13082361055922859 0 0.078389096544927761 0.1081281695985435 0 0.088846155735457719 0.13082361055922859 0 0.078389096544927761 0.1081281695985435 0 0.07096094267982371 0.1165915153497734 0 0.088846155735457719 0.13082361055922859 0 0.078389096544927761 0.1081281695985435 0 0.054497137490154939 0.1181859767994788 0 0.078389096544927761 0.1081281695985435 0 0.054497137490154939 0.1181859767994788 0 0.060208579132649938 0.11161273544423431 0 0.078389096544927761 0.1081281695985435 0 0.07096094267982371 0.1165915153497734 0 0.054497137490154939 0.1181859767994788 0 0.07096094267982371 0.1165915153497734 0 0.054497137490154939 0.1181859767994788 0 0.054634124027646683 0.1300610800624572 0 0.060208579132649938 0.11161273544423431 0 0.04199997259248707 0.1053736853336044 0 0.045597993738048979 0.11436520010584229 0 0.054497137490154939 0.1181859767994788 0 0.060208579132649938 0.11161273544423431 0 0.045597993738048979 0.11436520010584229 0 0.067008356948569742 0.1024111849547913 0 0.060208579132649938 0.11161273544423431 0 0.057966146734014568 0.09679335803864908 0 0.060208579132649938 0.11161273544423431 0 0.057966146734014568 0.09679335803864908 0 0.04199997259248707 0.1053736853336044 0 0.060208579132649938 0.11161273544423431 0 0.04199997259248707 0.1053736853336044 0 0.057966146734014568 0.09679335803864908 0 0.04199997259248707 0.1053736853336044 0 0.044170740136384078 0.088613709549953429 0 0.04199997259248707 0.1053736853336044 0 0.023791366052323921 0.099134635222975317 0 0.044170740136384078 0.088613709549953429 0 0.023791366052323921 0.099134635222975317 0 0.04199997259248707 0.1053736853336044 0 0.044170740136384078 0.088613709549953429 0 0.023791366052323921 0.099134635222975317 0 0.054497137490154939 0.1181859767994788 0 0.045597993738048979 0.11436520010584229 0 0.030605178435378591 0.1282437840004059 0 0.054497137490154939 0.1181859767994788 0 0.030605178435378591 0.1282437840004059 0 0.04199997259248707 0.1053736853336044 0 0.034023883034387442 0.1153042323455588 0 0.02588784962540092 0.10924392466012291 0 0.034023883034387442 0.1153042323455588 0 0.045597993738048979 0.11436520010584229 0 0.030605178435378591 0.1282437840004059 0 0.04199997259248707 0.1053736853336044 0 0.034023883034387442 0.1153042323455588 0 0.045597993738048979 0.11436520010584229 0 0.055485433851670138 0.058419287305035428 0 0.064550114220445265 0.078092783876933719 0 0.044295671270877843 0.070645022008273259 0 0.055485433851670138 0.058419287305035428 0 0.064550114220445265 0.078092783876933719 0 0.064550114220445265 0.078092783876933719 0 0.044170740136384078 0.088613709549953429 0 0.044295671270877843 0.070645022008273259 0 0.064550114220445265 0.078092783876933719 0 0.057966146734014568 0.09679335803864908 0 0.044170740136384078 0.088613709549953429 0 0.064550114220445265 0.078092783876933719 0 0.044170740136384078 0.088613709549953429 0 0.044170740136384078 0.088613709549953429 0 0.044295671270877843 0.070645022008273259 0 0.02611931296442729 0.07101701423444258 0 0.035033638511915301 0.054704627333407918 0 0.044295671270877843 0.070645022008273259 0 0.02611931296442729 0.07101701423444258 0 0.02611931296442729 0.07101701423444258 0 0.021056642614866641 0.084592498372201785 0 0.0013331037480066789 0.06983300394548736 0 0.044170740136384078 0.088613709549953429 0 0.021056642614866641 0.084592498372201785 0 0.023791366052323921 0.099134635222975317 0 0.044170740136384078 0.088613709549953429 0 0.02611931296442729 0.07101701423444258 0 0.021056642614866641 0.084592498372201785 0 0.021056642614866641 0.084592498372201785 0 0.023791366052323921 0.099134635222975317 0 0.0098686901731930184 0.09436412890815235 0 0.0013331037480066789 0.06983300394548736 0 0.0098686901731930184 0.09436412890815235 0 -0.010464629370286921 0.086457433232338371 0 0.0013331037480066789 0.06983300394548736 0 0.0098686901731930184 0.09436412890815235 0 0.021056642614866641 0.084592498372201785 0 0.0013331037480066789 0.06983300394548736 0 0.0098686901731930184 0.09436412890815235 0 0.01334076020337915 0.052912767350737758 0 0.02611931296442729 0.07101701423444258 0 0.0013331037480066789 0.06983300394548736 0 0.016355381591438359 0.1129853355937675 0 0.016213278026203939 0.1236320205270825 0 0.02588784962540092 0.10924392466012291 0 0.016355381591438359 0.1129853355937675 0 0.02588784962540092 0.10924392466012291 0 0.01959063221335507 0.1070076206644901 0 0.016355381591438359 0.1129853355937675 0 0.02588784962540092 0.10924392466012291 0 0.016213278026203939 0.1236320205270825 0 0.026682547280342719 0.1191059903832925 0 0.02588784962540092 0.10924392466012291 0 0.016213278026203939 0.1236320205270825 0 0.026682547280342719 0.1191059903832925 0 0.030605178435378591 0.1282437840004059 0 0.034023883034387442 0.1153042323455588 0 0.026682547280342719 0.1191059903832925 0 0.030605178435378591 0.1282437840004059 0 0.034023883034387442 0.1153042323455588 0 0.026682547280342719 0.1191059903832925 0 0.02588784962540092 0.10924392466012291 0 0.04199997259248707 0.1053736853336044 0 0.02588784962540092 0.10924392466012291 0 0.023791366052323921 0.099134635222975317 0 0.023791366052323921 0.099134635222975317 0 0.0098686901731930184 0.09436412890815235 0 0.023791366052323921 0.099134635222975317 0 0.01339591900418245 0.1045013224077857 0 0.0098686901731930184 0.09436412890815235 0 0.016355381591438359 0.1129853355937675 0 0.01959063221335507 0.1070076206644901 0 0.01339591900418245 0.1045013224077857 0 0.023791366052323921 0.099134635222975317 0 0.01959063221335507 0.1070076206644901 0 0.01339591900418245 0.1045013224077857 0 0.02588784962540092 0.10924392466012291 0 0.023791366052323921 0.099134635222975317 0 0.01959063221335507 0.1070076206644901 0 0.023791366052323921 0.099134635222975317 0 0.01339591900418245 0.1045013224077857 0 0.016355381591438359 0.1129853355937675 0 0.01339591900418245 0.1045013224077857 0 -0.0074465128385103234 0.1152613033256259 0 -0.00085215776453518373 0.1058897622738819 0 0.01339591900418245 0.1045013224077857 0 0.01339591900418245 0.1045013224077857 0 0.0098686901731930184 0.09436412890815235 0 0.01339591900418245 0.1045013224077857 0 0.0098686901731930184 0.09436412890815235 0 0.0041421443330435827 0.10207578705896719 0 -0.0031273369336706478 0.1010262542884455 0 0.0098686901731930184 0.09436412890815235 0 0.0041421443330435827 0.10207578705896719 0 -0.00085215776453518373 0.1058897622738819 0 0.01339591900418245 0.1045013224077857 0 0.0041421443330435827 0.10207578705896719 0 -0.00085215776453518373 0.1058897622738819 0 -0.0031273369336706478 0.1010262542884455 0 0.0041421443330435827 0.10207578705896719 0 -0.0074465128385103234 0.1152613033256259 0 0.01339591900418245 0.1045013224077857 0 -0.0074465128385103234 0.1152613033256259 0 0.01339591900418245 0.1045013224077857 0 0.0007410708348276028 0.11911381698787971 0 0.016355381591438359 0.1129853355937675 0 0.0007410708348276028 0.11911381698787971 0 0.016355381591438359 0.1129853355937675 0 0.01339591900418245 0.1045013224077857 0 0.0007410708348276028 0.11911381698787971 0 0.016355381591438359 0.1129853355937675 0 0.016213278026203939 0.1236320205270825 0 0.0007410708348276028 0.11911381698787971 0 0.016213278026203939 0.1236320205270825 0 0.0007410708348276028 0.11911381698787971 0 0.0064195210494593889 0.12736598853478259 0 0.0007410708348276028 0.11911381698787971 0 0.0064195210494593889 0.12736598853478259 0 0.00056212382691866059 0.12881435641206609 0 0.0064195210494593889 0.12736598853478259 0 0.00056212382691866059 0.12881435641206609 0 0.006713219380602424 0.1383015912013329 0 0.016213278026203939 0.1236320205270825 0 0.0064195210494593889 0.12736598853478259 0 0.006713219380602424 0.1383015912013329 0 0.006713219380602424 0.1383015912013329 0 0.030605178435378591 0.1282437840004059 0 0.016213278026203939 0.1236320205270825 0 0.006713219380602424 0.1383015912013329 0 0.030605178435378591 0.1282437840004059 0 0.006713219380602424 0.1383015912013329 0 0.030605178435378591 0.1282437840004059 0 0.025370041052057781 0.14921405161054579 0 0.030605178435378591 0.1282437840004059 0 0.025370041052057781 0.14921405161054579 0 0.036513289676064667 0.1396814590985313 0 0.025370041052057781 0.14921405161054579 0 0.010505623843013999 0.15463744584166711 0 0.019255125730490961 0.16296368672759329 0 0.006713219380602424 0.1383015912013329 0 0.025370041052057781 0.14921405161054579 0 0.010505623843013999 0.15463744584166711 0 -0.0036681157307635868 0.1524260454369869 0 0.006713219380602424 0.1383015912013329 0 0.010505623843013999 0.15463744584166711 0 -0.0036681157307635868 0.1524260454369869 0 0.010505623843013999 0.15463744584166711 0 0.0050070707957726238 0.16765803364862131 0 0.0050070707957726238 0.16765803364862131 0 0.02211762158487441 0.17924966404178999 0 0.019255125730490961 0.16296368672759329 0 0.010505623843013999 0.15463744584166711 0 0.0050070707957726238 0.16765803364862131 0 0.019255125730490961 0.16296368672759329 0 0.0050070707957726238 0.16765803364862131 0 0.02211762158487441 0.17924966404178999 0 0.0050070707957726238 0.16765803364862131 0 0.02211762158487441 0.17924966404178999 0 0.0042412746412692189 0.18989592029497029 0 0.02211762158487441 0.17924966404178999 0 0.039228172373977938 0.19084129443495609 0 0.02211762158487441 0.17924966404178999 0 0.0042412746412692189 0.18989592029497029 0 0.02477909734260491 0.19186626437858589 0 0.02211762158487441 0.17924966404178999 0 0.02477909734260491 0.19186626437858589 0 0.039228172373977938 0.19084129443495609 0 0.02211762158487441 0.17924966404178999 0 0.033275271376735999 0.16405923849534229 0 0.036360114802090553 0.1744674560514165 0 0.02211762158487441 0.17924966404178999 0 0.019255125730490961 0.16296368672759329 0 0.033275271376735999 0.16405923849534229 0 0.025370041052057781 0.14921405161054579 0 0.019255125730490961 0.16296368672759329 0 0.033275271376735999 0.16405923849534229 0 0.033275271376735999 0.16405923849534229 0 0.050819393872772872 0.16371962723357719 0 0.046965777696531541 0.14832920933891691 0 0.033275271376735999 0.16405923849534229 0 0.036360114802090553 0.1744674560514165 0 0.050819393872772872 0.16371962723357719 0 0.02211762158487441 0.17924966404178999 0 0.036360114802090553 0.1744674560514165 0 0.039228172373977938 0.19084129443495609 0 0.050819393872772872 0.16371962723357719 0 0.039228172373977938 0.19084129443495609 0 0.036360114802090553 0.1744674560514165 0 0.050819393872772872 0.16371962723357719 0 0.039228172373977938 0.19084129443495609 0 0.056092461592787107 0.1847789938353227 0 0.050819393872772872 0.16371962723357719 0 0.056092461592787107 0.1847789938353227 0 0.050819393872772872 0.16371962723357719 0 0.072887212838098278 0.17816813705570311 0 0.056092461592787107 0.1847789938353227 0 0.050819393872772872 0.16371962723357719 0 0.039228172373977938 0.19084129443495609 0 0.050819393872772872 0.16371962723357719 0 0.046965777696531541 0.14832920933891691 0 0.060890168276298492 0.14015557129167541 0 0.050819393872772872 0.16371962723357719 0 0.060890168276298492 0.14015557129167541 0 0.050819393872772872 0.16371962723357719 0 0.060890168276298492 0.14015557129167541 0 0.075414248171067136 0.16029689789389759 0 0.050819393872772872 0.16371962723357719 0 0.046965777696531541 0.14832920933891691 0 0.07096094267982371 0.1165915153497734 0 0.060890168276298492 0.14015557129167541 0 0.054634124027646683 0.1300610800624572 0 0.046965777696531541 0.14832920933891691 0 0.054634124027646683 0.1300610800624572 0 0.043112161520290751 0.1329387914442566 0 0.046965777696531541 0.14832920933891691 0 0.060890168276298492 0.14015557129167541 0 0.054634124027646683 0.1300610800624572 0 0.054497137490154939 0.1181859767994788 0 0.054634124027646683 0.1300610800624572 0 0.043112161520290751 0.1329387914442566 0 0.054497137490154939 0.1181859767994788 0 0.030605178435378591 0.1282437840004059 0 0.043112161520290751 0.1329387914442566 0 0.046965777696531541 0.14832920933891691 0 0.043112161520290751 0.1329387914442566 0 0.036513289676064667 0.1396814590985313 0 0.030605178435378591 0.1282437840004059 0 0.043112161520290751 0.1329387914442566 0 0.036513289676064667 0.1396814590985313 0 0.025370041052057781 0.14921405161054579 0 0.046965777696531541 0.14832920933891691 0 0.036513289676064667 0.1396814590985313 0 0.025370041052057781 0.14921405161054579 0 0.033275271376735999 0.16405923849534229 0 0.046965777696531541 0.14832920933891691 0 0.046965777696531541 0.14832920933891691 0 0.043112161520290751 0.1329387914442566 0 0.009710696962624589 0.24573559211884061 0 0.02403994597596476 0.22049134547637589 0 0.032913974457118397 0.24825870951913431 0 -0.00048814242826103899 0.21723751157582399 0 0.009710696962624589 0.24573559211884061 0 0.02403994597596476 0.22049134547637589 0 0.009710696962624589 0.24573559211884061 0 0.02403994597596476 0.22049134547637589 0 0.02403994597596476 0.22049134547637589 0 0.027517850333767559 0.2046320803553498 0 0.015924431701734919 0.20430790772202581 0 -0.00048814242826103899 0.21723751157582399 0 0.02403994597596476 0.22049134547637589 0 0.015924431701734919 0.20430790772202581 0 -0.00048814242826103899 0.21723751157582399 0 0.015924431701734919 0.20430790772202581 0 0.0042412746412692189 0.18989592029497029 0 0.015924431701734919 0.20430790772202581 0 0.0042412746412692189 0.18989592029497029 0 0.02477909734260491 0.19186626437858589 0 0.027517850333767559 0.2046320803553498 0 0.015924431701734919 0.20430790772202581 0 0.02477909734260491 0.19186626437858589 0 0.027517850333767559 0.2046320803553498 0 0.02477909734260491 0.19186626437858589 0 0.036831094036191073 0.19645008734257741 0 0.036831094036191073 0.19645008734257741 0 0.039228172373977938 0.19084129443495609 0 0.061365529312804597 0.20583836043706741 0 0.02477909734260491 0.19186626437858589 0 0.036831094036191073 0.19645008734257741 0 0.039228172373977938 0.19084129443495609 0 0.036831094036191073 0.19645008734257741 0 0.039228172373977938 0.19084129443495609 0 0.056092461592787107 0.1847789938353227 0 0.061365529312804597 0.20583836043706741 0 0.039228172373977938 0.19084129443495609 0 0.061365529312804597 0.20583836043706741 0 0.056092461592787107 0.1847789938353227 0 0.039228172373977938 0.19084129443495609 0 0.061365529312804597 0.20583836043706741 0 0.061365529312804597 0.20583836043706741 0 0.044187775312527142 0.21456956559146309 0 0.066731256590113461 0.22726778706646339 0 0.036831094036191073 0.19645008734257741 0 0.061365529312804597 0.20583836043706741 0 0.044187775312527142 0.21456956559146309 0 0.02403994597596476 0.22049134547637589 0 0.027517850333767559 0.2046320803553498 0 0.044187775312527142 0.21456956559146309 0 0.027517850333767559 0.2046320803553498 0 0.036831094036191073 0.19645008734257741 0 0.044187775312527142 0.21456956559146309 0 0.02403994597596476 0.22049134547637589 0 0.044187775312527142 0.21456956559146309 0 0.049216221452628363 0.23305619913884351 0 0.02403994597596476 0.22049134547637589 0 0.049216221452628363 0.23305619913884351 0 0.032913974457118397 0.24825870951913431 0 0.044187775312527142 0.21456956559146309 0 0.049216221452628363 0.23305619913884351 0 0.066731256590113461 0.22726778706646339 0 0.049216221452628363 0.23305619913884351 0 0.064629992886827539 0.23970192726429701 0 0.066731256590113461 0.22726778706646339 0 0.049216221452628363 0.23305619913884351 0 0.064629992886827539 0.23970192726429701 0 0.053830772677006637 0.251528665263758 0 0.049216221452628363 0.23305619913884351 0 0.032913974457118397 0.24825870951913431 0 0.053830772677006637 0.251528665263758 0 0.081619819198608015 0.24230997661115911 0 0.070364450115838459 0.25098671079286661 0 0.091132763279519829 0.25396422720250672 0 0.081619819198608015 0.24230997661115911 0 0.078390634282387864 0.23109912953554451 0 0.1001754642490533 0.23213034991822501 0 0.081619819198608015 0.24230997661115911 0 0.1001754642490533 0.23213034991822501 0 0.091132763279519829 0.25396422720250672 0 0.081619819198608015 0.24230997661115911 0 0.064629992886827539 0.23970192726429701 0 0.078390634282387864 0.23109912953554451 0 0.064629992886827539 0.23970192726429701 0 0.053830772677006637 0.251528665263758 0 0.070364450115838459 0.25098671079286661 0 0.081619819198608015 0.24230997661115911 0 0.064629992886827539 0.23970192726429701 0 0.070364450115838459 0.25098671079286661 0 0.064629992886827539 0.23970192726429701 0 0.066731256590113461 0.22726778706646339 0 0.078390634282387864 0.23109912953554451 0 0.066731256590113461 0.22726778706646339 0 0.080770496780929568 0.21898435517764539 0 0.078390634282387864 0.23109912953554451 0 0.080770496780929568 0.21898435517764539 0 0.1001754642490533 0.23213034991822501 0 0.080770496780929568 0.21898435517764539 0 0.078390634282387864 0.23109912953554451 0 0.1001754642490533 0.23213034991822501 0 0.080770496780929568 0.21898435517764539 0 0.097290185885891195 0.20798320297700379 0 0.1001754642490533 0.23213034991822501 0 0.080770496780929568 0.21898435517764539 0 0.076246718277870121 0.199517248914408 0 0.097290185885891195 0.20798320297700379 0 0.061365529312804597 0.20583836043706741 0 0.080770496780929568 0.21898435517764539 0 0.061365529312804597 0.20583836043706741 0 0.066731256590113461 0.22726778706646339 0 0.061365529312804597 0.20583836043706741 0 0.080770496780929568 0.21898435517764539 0 0.076246718277870121 0.199517248914408 0 0.061365529312804597 0.20583836043706741 0 0.066731256590113461 0.22726778706646339 0 0.080770496780929568 0.21898435517764539 0 0.056092461592787107 0.1847789938353227 0 0.061365529312804597 0.20583836043706741 0 0.076246718277870121 0.199517248914408 0 0.076246718277870121 0.199517248914408 0 0.087691428122200127 0.19079248304898791 0 0.072887212838098278 0.17816813705570311 0 0.076246718277870121 0.199517248914408 0 0.087691428122200127 0.19079248304898791 0 0.097290185885891195 0.20798320297700379 0 0.087691428122200127 0.19079248304898791 0 0.1023392023780556 0.1912661583956573 0 0.097290185885891195 0.20798320297700379 0 0.1023392023780556 0.1912661583956573 0 0.1202173333070469 0.19890993344128491 0 0.097290185885891195 0.20798320297700379 0 0.1202173333070469 0.19890993344128491 0 0.1097602741165172 0.17621449248059939 0 0.1023392023780556 0.1912661583956573 0 0.1202173333070469 0.19890993344128491 0 0.1097602741165172 0.17621449248059939 0 0.1202173333070469 0.19890993344128491 0 0.1123646243437232 0.22085362539682471 0 0.1306743924975767 0.2216053744019704 0 0.1202173333070469 0.19890993344128491 0 0.097290185885891195 0.20798320297700379 0 0.1123646243437232 0.22085362539682471 0 0.097290185885891195 0.20798320297700379 0 0.1001754642490533 0.23213034991822501 0 0.1123646243437232 0.22085362539682471 0 0.1001754642490533 0.23213034991822501 0 0.1123646243437232 0.22085362539682471 0 0.11346574577904781 0.24363926624563939 0 0.1123646243437232 0.22085362539682471 0 0.11346574577904781 0.24363926624563939 0 0.1306743924975767 0.2216053744019704 0 0.1001754642490533 0.23213034991822501 0 0.11346574577904781 0.24363926624563939 0 0.091132763279519829 0.25396422720250672 0 0.08198544501442849 0.1454942839192932 0 0.088846155735457719 0.13082361055922859 0 0.099303214925987426 0.15351905151991399 0 0.08198544501442849 0.1454942839192932 0 0.075414248171067136 0.16029689789389759 0 0.099303214925987426 0.15351905151991399 0 0.07096094267982371 0.1165915153497734 0 0.088846155735457719 0.13082361055922859 0 0.075074929679763119 0.1328036795735498 0 0.08198544501442849 0.1454942839192932 0 0.088846155735457719 0.13082361055922859 0 0.075074929679763119 0.1328036795735498 0 0.07096094267982371 0.1165915153497734 0 0.060890168276298492 0.14015557129167541 0 0.07096094267982371 0.1165915153497734 0 0.060890168276298492 0.14015557129167541 0 0.075074929679763119 0.1328036795735498 0 0.060890168276298492 0.14015557129167541 0 0.08198544501442849 0.1454942839192932 0 0.075074929679763119 0.1328036795735498 0 0.060890168276298492 0.14015557129167541 0 0.08198544501442849 0.1454942839192932 0 0.075414248171067136 0.16029689789389759 0 0.050819393872772872 0.16371962723357719 0 0.075414248171067136 0.16029689789389759 0 0.072887212838098278 0.17816813705570311 0 0.056092461592787107 0.1847789938353227 0 0.076246718277870121 0.199517248914408 0 0.072887212838098278 0.17816813705570311 0 0.087691428122200127 0.19079248304898791 0 0.072887212838098278 0.17816813705570311 0 0.091232596758654277 0.17504287006579319 0 0.075414248171067136 0.16029689789389759 0 0.091232596758654277 0.17504287006579319 0 0.099303214925987426 0.15351905151991399 0 0.075414248171067136 0.16029689789389759 0 0.072887212838098278 0.17816813705570311 0 0.091232596758654277 0.17504287006579319 0 0.091232596758654277 0.17504287006579319 0 0.1097602741165172 0.17621449248059939 0 0.099303214925987426 0.15351905151991399 0 0.1097602741165172 0.17621449248059939 0 0.11731776907422441 0.15764673846292651 0 0.099303214925987426 0.15351905151991399 0 0.1097602741165172 0.17621449248059939 0 0.099303214925987426 0.15351905151991399 0 0.1023392023780556 0.1912661583956573 0 0.091232596758654277 0.17504287006579319 0 0.1097602741165172 0.17621449248059939 0 0.087691428122200127 0.19079248304898791 0 0.1023392023780556 0.1912661583956573 0 0.091232596758654277 0.17504287006579319 0 0.1202173333070469 0.19890993344128491 0 0.1097602741165172 0.17621449248059939 0 0.129175941386688 0.17729428950783291 0 0.1097602741165172 0.17621449248059939 0 0.11731776907422441 0.15764673846292651 0 0.129175941386688 0.17729428950783291 0 0.11731776907422441 0.15764673846292651 0 0.099303214925987426 0.15351905151991399 0 0.11737105234340731 0.13998227704061181 0 0.11731776907422441 0.15764673846292651 0 0.11737105234340731 0.13998227704061181 0 0.13502266012128819 0.15659894750972569 0 0.088846155735457719 0.13082361055922859 0 0.099303214925987426 0.15351905151991399 0 0.099303214925987426 0.15351905151991399 0 0.1045412814489695 0.13208373514194599 0 0.11737105234340731 0.13998227704061181 0 0.095030326296870915 0.1179583786793718 0 0.088846155735457719 0.13082361055922859 0 0.1045412814489695 0.13208373514194599 0 0.088846155735457719 0.13082361055922859 0 0.099303214925987426 0.15351905151991399 0 0.1045412814489695 0.13208373514194599 0 0.1095106900313416 0.11714285620299621 0 0.1045412814489695 0.13208373514194599 0 0.11737105234340731 0.13998227704061181 0 0.1095106900313416 0.11714285620299621 0 0.11737105234340731 0.13998227704061181 0 0.12968998538624341 0.13206281451736329 0 0.12968998538624341 0.13206281451736329 0 0.1438045009248167 0.13640432297486199 0 0.13370195957752121 0.1172790119602122 0 0.1438045009248167 0.13640432297486199 0 0.13370195957752121 0.1172790119602122 0 0.14931491928294019 0.1234726129541123 0 0.1438045009248167 0.13640432297486199 0 0.15514197246110231 0.13287913137048321 0 0.15378412009743839 0.14348234096096221 0 0.1438045009248167 0.13640432297486199 0 0.15514197246110231 0.13287913137048321 0 0.14931491928294019 0.1234726129541123 0 0.15514197246110231 0.13287913137048321 0 0.14931491928294019 0.1234726129541123 0 0.15961716160753031 0.122859133032495 0 0.1438045009248167 0.13640432297486199 0 0.15378412009743839 0.14348234096096221 0 0.1475281017976775 0.15288682183773569 0 0.1438045009248167 0.13640432297486199 0 0.1475281017976775 0.15288682183773569 0 0.13502266012128819 0.15659894750972569 0 0.15378412009743839 0.14348234096096221 0 0.1475281017976775 0.15288682183773569 0 0.16049101095451199 0.1554110053237269 0 0.11737105234340731 0.13998227704061181 0 0.12968998538624341 0.13206281451736329 0 0.13502266012128819 0.15659894750972569 0 0.12968998538624341 0.13206281451736329 0 0.1438045009248167 0.13640432297486199 0 0.13502266012128819 0.15659894750972569 0 0.13502266012128819 0.15659894750972569 0 0.14558757626151789 0.1743596851258549 0 0.13502266012128819 0.15659894750972569 0 0.129175941386688 0.17729428950783291 0 0.14558757626151789 0.1743596851258549 0 0.11731776907422441 0.15764673846292651 0 0.13502266012128819 0.15659894750972569 0 0.129175941386688 0.17729428950783291 0 0.129175941386688 0.17729428950783291 0 0.14558757626151789 0.1743596851258549 0 0.14314188446850451 0.18617060984090941 0 0.129175941386688 0.17729428950783291 0 0.14314188446850451 0.18617060984090941 0 0.13346874167660519 0.1922417822599746 0 0.14558757626151789 0.1743596851258549 0 0.15706193977944591 0.1915978578459995 0 0.14558757626151789 0.1743596851258549 0 0.1586007060565269 0.17813563213127989 0 0.15706193977944591 0.1915978578459995 0 0.14558757626151789 0.1743596851258549 0 0.14314188446850451 0.18617060984090941 0 0.15706193977944591 0.1915978578459995 0 0.1475281017976775 0.15288682183773569 0 0.14558757626151789 0.1743596851258549 0 0.16049101095451199 0.1554110053237269 0 0.1475281017976775 0.15288682183773569 0 0.13502266012128819 0.15659894750972569 0 0.14558757626151789 0.1743596851258549 0 0.14558757626151789 0.1743596851258549 0 0.1586007060565269 0.17813563213127989 0 0.16049101095451199 0.1554110053237269 0 0.17146154094558749 0.1738696915777965 0 0.1729850295203354 0.15802950436412519 0 0.16049101095451199 0.1554110053237269 0 0.17146154094558749 0.1738696915777965 0 0.1586007060565269 0.17813563213127989 0 0.16049101095451199 0.1554110053237269 0 0.17146154094558749 0.1738696915777965 0 0.15706193977944591 0.1915978578459995 0 0.17146154094558749 0.1738696915777965 0 0.17518689295258769 0.1811833308465603 0 0.15706193977944591 0.1915978578459995 0 0.17518689295258769 0.1811833308465603 0 0.15706193977944591 0.1915978578459995 0 0.17146154094558749 0.1738696915777965 0 0.1586007060565269 0.17813563213127989 0 0.15706193977944591 0.1915978578459995 0 0.17146154094558749 0.1738696915777965 0 0.17518689295258769 0.1811833308465603 0 0.19331184612573091 0.1707688038471237 0 0.17518689295258769 0.1811833308465603 0 0.19331184612573091 0.1707688038471237 0 0.17518689295258769 0.1811833308465603 0 0.1884661859246676 0.19222639657974441 0 0.19331184612573091 0.1707688038471237 0 0.17146154094558749 0.1738696915777965 0 0.1729850295203354 0.15802950436412519 0 0.1858611421117301 0.15614152530959441 0 0.17146154094558749 0.1738696915777965 0 0.1858611421117301 0.15614152530959441 0 0.19331184612573091 0.1707688038471237 0 0.17146154094558749 0.1738696915777965 0 0.1858611421117301 0.15614152530959441 0 0.1858611421117301 0.15614152530959441 0 0.18208311562145041 0.148724475096395 0 0.18772122273126821 0.1538514744870072 0 0.1858611421117301 0.15614152530959441 0 0.18772122273126821 0.1538514744870072 0 0.1729850295203354 0.15802950436412519 0 0.1858611421117301 0.15614152530959441 0 0.18208311562145041 0.148724475096395 0 0.1858611421117301 0.15614152530959441 0 0.18208311562145041 0.148724475096395 0 0.18208311562145041 0.148724475096395 0 0.18772122273126821 0.1538514744870072 0 0.1729850295203354 0.15802950436412519 0 0.18208311562145041 0.148724475096395 0 0.16932298969345319 0.1462324833423243 0 0.18208311562145041 0.148724475096395 0 0.1858915578374325 0.13471991915655601 0 0.17232435567747939 0.1295660036803836 0 0.18208311562145041 0.148724475096395 0 0.17232435567747939 0.1295660036803836 0 0.16410262899810779 0.13237396203142579 0 0.18208311562145041 0.148724475096395 0 0.17232435567747939 0.1295660036803836 0 0.18208311562145041 0.148724475096395 0 0.16410262899810779 0.13237396203142579 0 0.1858915578374325 0.13471991915655601 0 0.17232435567747939 0.1295660036803836 0 0.18207676088177391 0.1245133883559869 0 0.1858915578374325 0.13471991915655601 0 0.1944913365898609 0.12431010188622001 0 0.18207676088177391 0.1245133883559869 0 0.16410262899810779 0.13237396203142579 0 0.16185165873762031 0.14137765091414631 0 0.16932298969345319 0.1462324833423243 0 0.17232435567747939 0.1295660036803836 0 0.16410262899810779 0.13237396203142579 0 0.15961716160753031 0.122859133032495 0 0.15514197246110231 0.13287913137048321 0 0.16410262899810779 0.13237396203142579 0 0.15961716160753031 0.122859133032495 0 0.15514197246110231 0.13287913137048321 0 0.16410262899810779 0.13237396203142579 0 0.16185165873762031 0.14137765091414631 0 0.15514197246110231 0.13287913137048321 0 0.15378412009743839 0.14348234096096221 0 0.16185165873762031 0.14137765091414631 0 0.15378412009743839 0.14348234096096221 0 0.16185165873762031 0.14137765091414631 0 0.16049101095451199 0.1554110053237269 0 0.18208311562145041 0.148724475096395 0 0.16410262899810779 0.13237396203142579 0 0.16932298969345319 0.1462324833423243 0 0.16185165873762031 0.14137765091414631 0 0.16049101095451199 0.1554110053237269 0 0.16932298969345319 0.1462324833423243 0 0.1729850295203354 0.15802950436412519 0 0.16049101095451199 0.1554110053237269 0 0.16932298969345319 0.1462324833423243 0 0.14427708077002729 0.2415946305782159 0 0.1310625925440391 0.2490093817752059 0 0.14683181586188079 0.2572377035261933 0 0.14427708077002729 0.2415946305782159 0 0.15706625914255179 0.2474196668040588 0 0.14683181586188079 0.2572377035261933 0 0.14427708077002729 0.2415946305782159 0 0.1557503438040882 0.23270102638365081 0 0.15706625914255179 0.2474196668040588 0 0.11346574577904781 0.24363926624563939 0 0.1310625925440391 0.2490093817752059 0 0.1306743924975767 0.2216053744019704 0 0.14427708077002729 0.2415946305782159 0 0.1310625925440391 0.2490093817752059 0 0.1306743924975767 0.2216053744019704 0 0.1557503438040882 0.23270102638365081 0 0.15526989285845119 0.21102695436639851 0 0.14455774620894829 0.2151252335563292 0 0.14427708077002729 0.2415946305782159 0 0.1306743924975767 0.2216053744019704 0 0.1557503438040882 0.23270102638365081 0 0.1306743924975767 0.2216053744019704 0 0.1557503438040882 0.23270102638365081 0 0.14455774620894829 0.2151252335563292 0 0.15526989285845119 0.21102695436639851 0 0.14624907919518201 0.20542549668484561 0 0.1507959489302004 0.19931227481691111 0 0.15526989285845119 0.21102695436639851 0 0.14624907919518201 0.20542549668484561 0 0.14455774620894829 0.2151252335563292 0 0.14624907919518201 0.20542549668484561 0 0.14455774620894829 0.2151252335563292 0 0.1369849356021472 0.20513921513661049 0 0.1202173333070469 0.19890993344128491 0 0.1306743924975767 0.2216053744019704 0 0.1306743924975767 0.2216053744019704 0 0.14455774620894829 0.2151252335563292 0 0.1369849356021472 0.20513921513661049 0 0.1202173333070469 0.19890993344128491 0 0.1306743924975767 0.2216053744019704 0 0.1369849356021472 0.20513921513661049 0 0.1202173333070469 0.19890993344128491 0 0.129175941386688 0.17729428950783291 0 0.13346874167660519 0.1922417822599746 0 0.1369849356021472 0.20513921513661049 0 0.13346874167660519 0.1922417822599746 0 0.14674232072752419 0.19752747047525829 0 0.1202173333070469 0.19890993344128491 0 0.1369849356021472 0.20513921513661049 0 0.13346874167660519 0.1922417822599746 0 0.15526989285845119 0.21102695436639851 0 0.1507959489302004 0.19931227481691111 0 0.15706193977944591 0.1915978578459995 0 0.14314188446850451 0.18617060984090941 0 0.13346874167660519 0.1922417822599746 0 0.14674232072752419 0.19752747047525829 0 0.14624907919518201 0.20542549668484561 0 0.14674232072752419 0.19752747047525829 0 0.1507959489302004 0.19931227481691111 0 0.14624907919518201 0.20542549668484561 0 0.1369849356021472 0.20513921513661049 0 0.14674232072752419 0.19752747047525829 0 0.14674232072752419 0.19752747047525829 0 0.1507959489302004 0.19931227481691111 0 0.15706193977944591 0.1915978578459995 0 0.1507959489302004 0.19931227481691111 0 0.15706193977944591 0.1915978578459995 0 0.14674232072752419 0.19752747047525829 0 0.15706193977944591 0.1915978578459995 0 0.14314188446850451 0.18617060984090941 0 0.14674232072752419 0.19752747047525829 0 0.15706193977944591 0.1915978578459995 0 0.17518689295258769 0.1811833308465603 0 0.15706193977944591 0.1915978578459995 0 0.1730869825904815 0.1985079172731998 0 0.15706193977944591 0.1915978578459995 0 0.1730869825904815 0.1985079172731998 0 0.17018882217828049 0.2157169725816164 0 0.17518689295258769 0.1811833308465603 0 0.1730869825904815 0.1985079172731998 0 0.1884661859246676 0.19222639657974441 0 0.1730869825904815 0.1985079172731998 0 0.19253459587037561 0.21530030575622611 0 0.1884661859246676 0.19222639657974441 0 0.1730869825904815 0.1985079172731998 0 0.17018882217828049 0.2157169725816164 0 0.19253459587037561 0.21530030575622611 0 0.15526989285845119 0.21102695436639851 0 0.15706193977944591 0.1915978578459995 0 0.17018882217828049 0.2157169725816164 0 0.15706193977944591 0.1915978578459995 0 0.17018882217828049 0.2157169725816164 0 0.1557503438040882 0.23270102638365081 0 0.17018882217828049 0.2157169725816164 0 0.1840201197994239 0.2389688417568275 0 0.1557503438040882 0.23270102638365081 0 0.15526989285845119 0.21102695436639851 0 0.17018882217828049 0.2157169725816164 0 0.17018882217828049 0.2157169725816164 0 0.1840201197994239 0.2389688417568275 0 0.19253459587037561 0.21530030575622611 0 0.17018882217828049 0.2157169725816164 0 0.1840201197994239 0.2389688417568275 0 0.18551140280300901 0.24943314608306449 0 0.18605553154242191 0.24501017323853599 0 0.18003979482582949 0.24492117431349819 0 0.1840201197994239 0.2389688417568275 0 0.18605553154242191 0.24501017323853599 0 0.18003979482582949 0.24492117431349819 0 0.18003979482582949 0.24492117431349819 0 0.17262296461252361 0.24598002663571639 0 0.17959405283110921 0.25593233694228879 0 0.1840201197994239 0.2389688417568275 0 0.18003979482582949 0.24492117431349819 0 0.17262296461252361 0.24598002663571639 0 0.1557503438040882 0.23270102638365081 0 0.1840201197994239 0.2389688417568275 0 0.17262296461252361 0.24598002663571639 0 0.1557503438040882 0.23270102638365081 0 0.17262296461252361 0.24598002663571639 0 0.15706625914255179 0.2474196668040588 0 0.1557503438040882 0.23270102638365081 0 0.1840201197994239 0.2389688417568275 0 0.2052185662472745 0.243668841804765 0 0.22641701269512471 0.2483688418527038 0 0.2052185662472745 0.243668841804765 0 0.2194625814231897 0.22210812539827449 0 0.22641701269512471 0.2483688418527038 0 0.21472772664601869 0.24949759380759701 0 0.2052185662472745 0.243668841804765 0 0.22641701269512471 0.2483688418527038 0 0.1840201197994239 0.2389688417568275 0 0.2052185662472745 0.243668841804765 0 0.19412740356769359 0.24583763153471019 0 0.2052185662472745 0.243668841804765 0 0.19412740356769359 0.24583763153471019 0 0.1976370905295432 0.25658005378983773 0 0.1840201197994239 0.2389688417568275 0 0.2052185662472745 0.243668841804765 0 0.18551140280300901 0.24943314608306449 0 0.18605553154242191 0.24501017323853599 0 0.19412740356769359 0.24583763153471019 0 0.1840201197994239 0.2389688417568275 0 0.18605553154242191 0.24501017323853599 0 0.19412740356769359 0.24583763153471019 0 0.1840201197994239 0.2389688417568275 0 0.2052185662472745 0.243668841804765 0 0.19253459587037561 0.21530030575622611 0 0.2052185662472745 0.243668841804765 0 0.19253459587037561 0.21530030575622611 0 0.2194625814231897 0.22210812539827449 0 0.2063872137744604 0.19643846462269909 0 0.22087938362966619 0.20552533776198911 0 0.2194625814231897 0.22210812539827449 0 0.2063872137744604 0.19643846462269909 0 0.2194625814231897 0.22210812539827449 0 0.19253459587037561 0.21530030575622611 0 0.2063872137744604 0.19643846462269909 0 0.2194625814231897 0.22210812539827449 0 0.19253459587037561 0.21530030575622611 0 0.1884661859246676 0.19222639657974441 0 0.2063872137744604 0.19643846462269909 0 0.2063872137744604 0.19643846462269909 0 0.22268287517001381 0.1960442731624506 0 0.21900189351488961 0.18229647862080181 0 0.2063872137744604 0.19643846462269909 0 0.22268287517001381 0.1960442731624506 0 0.22087938362966619 0.20552533776198911 0 0.22268287517001381 0.1960442731624506 0 0.23682968213640779 0.19771741623476249 0 0.21900189351488961 0.18229647862080181 0 0.23682968213640779 0.19771741623476249 0 0.21900189351488961 0.18229647862080181 0 0.22268287517001381 0.1960442731624506 0 0.2285474454865106 0.2029894267051045 0 0.22087938362966619 0.20552533776198911 0 0.2285474454865106 0.2029894267051045 0 0.23682968213640779 0.19771741623476249 0 0.23383079528880099 0.20675131170476441 0 0.22268287517001381 0.1960442731624506 0 0.2285474454865106 0.2029894267051045 0 0.23682968213640779 0.19771741623476249 0 0.24548936342069699 0.19231342481619851 0 0.23682968213640779 0.19771741623476249 0 0.2474019298591503 0.17387946955918709 0 0.24760788764735389 0.19903277919595219 0 0.24110040210048889 0.19872724996041921 0 0.25057929885876817 0.2057594910493151 0 0.23682968213640779 0.19771741623476249 0 0.24110040210048889 0.19872724996041921 0 0.25057929885876817 0.2057594910493151 0 0.24548936342069699 0.19231342481619851 0 0.24760788764735389 0.19903277919595219 0 0.25304543763118209 0.19749312617351619 0 0.24548936342069699 0.19231342481619851 0 0.24760788764735389 0.19903277919595219 0 0.24110040210048889 0.19872724996041921 0 0.24548936342069699 0.19231342481619851 0 0.23682968213640779 0.19771741623476249 0 0.24110040210048889 0.19872724996041921 0 0.23682968213640779 0.19771741623476249 0 0.25443325784045501 0.21451590612855209 0 0.25057929885876817 0.2057594910493151 0 0.23682968213640779 0.19771741623476249 0 0.2418409932789107 0.2096759307525165 0 0.25443325784045501 0.21451590612855209 0 0.2418409932789107 0.2096759307525165 0 0.25801040321428848 0.21976354130464401 0 0.2418409932789107 0.2096759307525165 0 0.2335136115975559 0.21475946029052931 0 0.23383079528880099 0.20675131170476441 0 0.23682968213640779 0.19771741623476249 0 0.2418409932789107 0.2096759307525165 0 0.23383079528880099 0.20675131170476441 0 0.2418409932789107 0.2096759307525165 0 0.24751370097796499 0.22007352975431149 0 0.25801040321428848 0.21976354130464401 0 0.23682968213640779 0.19771741623476249 0 0.25443325784045501 0.21451590612855209 0 0.2418409932789107 0.2096759307525165 0 0.23941287662296609 0.22236608446423309 0 0.24751370097796499 0.22007352975431149 0 0.2418409932789107 0.2096759307525165 0 0.2335136115975559 0.21475946029052931 0 0.23941287662296609 0.22236608446423309 0 0.22731680229415671 0.21004639892141699 0 0.22087938362966619 0.20552533776198911 0 0.2194625814231897 0.22210812539827449 0 0.2335136115975559 0.21475946029052931 0 0.22800358219992689 0.21921040547035131 0 0.2320828297155432 0.22086548084001159 0 0.2335136115975559 0.21475946029052931 0 0.22731680229415671 0.21004639892141699 0 0.22800358219992689 0.21921040547035131 0 0.2335136115975559 0.21475946029052931 0 0.23383079528880099 0.20675131170476441 0 0.22731680229415671 0.21004639892141699 0 0.2285474454865106 0.2029894267051045 0 0.23383079528880099 0.20675131170476441 0 0.22731680229415671 0.21004639892141699 0 0.2285474454865106 0.2029894267051045 0 0.22731680229415671 0.21004639892141699 0 0.22087938362966619 0.20552533776198911 0 0.22731680229415671 0.21004639892141699 0 0.2194625814231897 0.22210812539827449 0 0.22800358219992689 0.21921040547035131 0 0.2194625814231897 0.22210812539827449 0 0.22740124844172371 0.2271259731349328 0 0.2325379490719196 0.2477777861738498 0 0.2194625814231897 0.22210812539827449 0 0.22740124844172371 0.2271259731349328 0 0.22800358219992689 0.21921040547035131 0 0.22740124844172371 0.2271259731349328 0 0.22800358219992689 0.21921040547035131 0 0.2320828297155432 0.22086548084001159 0 0.22740124844172371 0.2271259731349328 0 0.2320828297155432 0.22086548084001159 0 0.23941287662296609 0.22236608446423309 0 0.2335136115975559 0.21475946029052931 0 0.2320828297155432 0.22086548084001159 0 0.23941287662296609 0.22236608446423309 0 0.22740124844172371 0.2271259731349328 0 0.23941287662296609 0.22236608446423309 0 0.25079053079569491 0.2284885624958525 0 0.22740124844172371 0.2271259731349328 0 0.2386599483339866 0.2352903394513341 0 0.25079053079569491 0.2284885624958525 0 0.22740124844172371 0.2271259731349328 0 0.25079053079569491 0.2284885624958525 0 0.23941287662296609 0.22236608446423309 0 0.24751370097796499 0.22007352975431149 0 0.25079053079569491 0.2284885624958525 0 0.2386599483339866 0.2352903394513341 0 0.24793550767579481 0.23761478161865879 0 0.25079053079569491 0.2284885624958525 0 0.2325379490719196 0.2477777861738498 0 0.25285246646408488 0.245816156428219 0 0.24793550767579481 0.23761478161865879 0 0.2325379490719196 0.2477777861738498 0 0.25285246646408488 0.245816156428219 0 0.23365661848589789 0.24997396643801059 0 0.2325379490719196 0.2477777861738498 0 0.25285246646408488 0.245816156428219 0 0.2386599483339866 0.2352903394513341 0 0.24793550767579481 0.23761478161865879 0 0.2325379490719196 0.2477777861738498 0 0.2194625814231897 0.22210812539827449 0 0.2325379490719196 0.2477777861738498 0 0.23365661848589789 0.24997396643801059 0 0.2325379490719196 0.2477777861738498 0 0.23365661848589789 0.24997396643801059 0 0.2325379490719196 0.2477777861738498 0 0.22641701269512471 0.2483688418527038 0 0.22740124844172371 0.2271259731349328 0 0.2386599483339866 0.2352903394513341 0 0.2325379490719196 0.2477777861738498 0 0.2194625814231897 0.22210812539827449 0 0.2325379490719196 0.2477777861738498 0 0.22641701269512471 0.2483688418527038 0 0.2325379490719196 0.2477777861738498 0 0.22641701269512471 0.2483688418527038 0 0.23365661848589789 0.24997396643801059 0 0.22641701269512471 0.2483688418527038 0 0.21472772664601869 0.24949759380759701 0 0.22641701269512471 0.2483688418527038 0 0.2053364082297599 0.1505752734750046 0 0.2164688249130188 0.13761012785930929 0 0.22229613437108101 0.15411454551016299 0 0.2053364082297599 0.1505752734750046 0 0.2164688249130188 0.13761012785930929 0 0.1997437625616974 0.13904984334314671 0 0.2164688249130188 0.13761012785930929 0 0.1997437625616974 0.13904984334314671 0 0.2117663023921266 0.12424821219928631 0 0.2164688249130188 0.13761012785930929 0 0.22467911501244259 0.1245726420611219 0 0.2117663023921266 0.12424821219928631 0 0.1997437625616974 0.13904984334314671 0 0.2117663023921266 0.12424821219928631 0 0.1997437625616974 0.13904984334314671 0 0.2117663023921266 0.12424821219928631 0 0.1944913365898609 0.12431010188622001 0 0.1858915578374325 0.13471991915655601 0 0.1997437625616974 0.13904984334314671 0 0.1944913365898609 0.12431010188622001 0 0.18208311562145041 0.148724475096395 0 0.1858915578374325 0.13471991915655601 0 0.1997437625616974 0.13904984334314671 0 0.2053364082297599 0.1505752734750046 0 0.1997437625616974 0.13904984334314671 0 0.18772122273126821 0.1538514744870072 0 0.18208311562145041 0.148724475096395 0 0.1997437625616974 0.13904984334314671 0 0.18772122273126821 0.1538514744870072 0 0.1997437625616974 0.13904984334314671 0 0.18772122273126821 0.1538514744870072 0 0.1858611421117301 0.15614152530959441 0 0.19331184612573091 0.1707688038471237 0 0.2053364082297599 0.1505752734750046 0 0.18772122273126821 0.1538514744870072 0 0.20128621135210659 0.16618676486692679 0 0.1858611421117301 0.15614152530959441 0 0.18772122273126821 0.1538514744870072 0 0.20128621135210659 0.16618676486692679 0 0.18772122273126821 0.1538514744870072 0 0.20128621135210659 0.16618676486692679 0 0.1858611421117301 0.15614152530959441 0 0.19331184612573091 0.1707688038471237 0 0.20128621135210659 0.16618676486692679 0 0.19331184612573091 0.1707688038471237 0 0.20128621135210659 0.16618676486692679 0 0.1884661859246676 0.19222639657974441 0 0.2063872137744604 0.19643846462269909 0 0.19331184612573091 0.1707688038471237 0 0.2063872137744604 0.19643846462269909 0 0.19331184612573091 0.1707688038471237 0 0.2063872137744604 0.19643846462269909 0 0.19331184612573091 0.1707688038471237 0 0.21900189351488961 0.18229647862080181 0 0.19331184612573091 0.1707688038471237 0 0.20128621135210659 0.16618676486692679 0 0.21900189351488961 0.18229647862080181 0 0.20128621135210659 0.16618676486692679 0 0.21611492713802141 0.1676755138591921 0 0.21900189351488961 0.18229647862080181 0 0.20128621135210659 0.16618676486692679 0 0.21900189351488961 0.18229647862080181 0 0.2053364082297599 0.1505752734750046 0 0.20128621135210659 0.16618676486692679 0 0.22229613437108101 0.15411454551016299 0 0.20128621135210659 0.16618676486692679 0 0.21611492713802141 0.1676755138591921 0 0.22229613437108101 0.15411454551016299 0 0.20128621135210659 0.16618676486692679 0 0.22229613437108101 0.15411454551016299 0 0.21611492713802141 0.1676755138591921 0 0.2303921353308078 0.1676739091078949 0 0.22229613437108101 0.15411454551016299 0 0.2303921353308078 0.1676739091078949 0 0.23992294290485591 0.15021913287623359 0 0.22229613437108101 0.15411454551016299 0 0.23682968213640779 0.19771741623476249 0 0.21900189351488961 0.18229647862080181 0 0.23380344549206239 0.18015280855435309 0 0.21611492713802141 0.1676755138591921 0 0.2303921353308078 0.1676739091078949 0 0.21900189351488961 0.18229647862080181 0 0.2303921353308078 0.1676739091078949 0 0.21900189351488961 0.18229647862080181 0 0.23380344549206239 0.18015280855435309 0 0.23682968213640779 0.19771741623476249 0 0.2474019298591503 0.17387946955918709 0 0.24548936342069699 0.19231342481619851 0 0.2474019298591503 0.17387946955918709 0 0.25474503326088982 0.1861184732965159 0 0.2303921353308078 0.1676739091078949 0 0.23380344549206239 0.18015280855435309 0 0.2474019298591503 0.17387946955918709 0 0.23682968213640779 0.19771741623476249 0 0.23380344549206239 0.18015280855435309 0 0.2474019298591503 0.17387946955918709 0 0.2474019298591503 0.17387946955918709 0 0.23992294290485591 0.15021913287623359 0 0.25797417758189278 0.15004152288361169 0 0.2303921353308078 0.1676739091078949 0 0.2474019298591503 0.17387946955918709 0 0.23992294290485591 0.15021913287623359 0 0.23992294290485591 0.15021913287623359 0 0.25061981405273631 0.12899540641112561 0 0.25797417758189278 0.15004152288361169 0 0.23992294290485591 0.15021913287623359 0 0.22229613437108101 0.15411454551016299 0 0.23492447015194151 0.13287283964645941 0 0.2164688249130188 0.13761012785930929 0 0.22229613437108101 0.15411454551016299 0 0.23492447015194151 0.13287283964645941 0 0.2164688249130188 0.13761012785930929 0 0.23492447015194151 0.13287283964645941 0 0.22467911501244259 0.1245726420611219 0 0.23992294290485591 0.15021913287623359 0 0.23492447015194151 0.13287283964645941 0 0.25061981405273631 0.12899540641112561 0 0.23492447015194151 0.13287283964645941 0 0.2386627856131423 0.1147532752348412 0 0.25061981405273631 0.12899540641112561 0 0.2386627856131423 0.1147532752348412 0 0.25937949052831832 0.1074303572544361 0 0.25061981405273631 0.12899540641112561 0 0.2386627856131423 0.1147532752348412 0 0.24283763363987129 0.095528518601897372 0 0.22868131209133119 0.099567461337718793 0 0.2386627856131423 0.1147532752348412 0 0.24283763363987129 0.095528518601897372 0 0.25937949052831832 0.1074303572544361 0 0.2386627856131423 0.1147532752348412 0 0.22868131209133119 0.099567461337718793 0 0.22125275954847851 0.1122871829464797 0 0.22868131209133119 0.099567461337718793 0 0.22125275954847851 0.1122871829464797 0 0.21507435397964891 0.098827665868541373 0 0.22868131209133119 0.099567461337718793 0 0.21507435397964891 0.098827665868541373 0 0.22157032101221941 0.088583271434062638 0 0.23492447015194151 0.13287283964645941 0 0.2386627856131423 0.1147532752348412 0 0.22467911501244259 0.1245726420611219 0 0.2386627856131423 0.1147532752348412 0 0.22125275954847851 0.1122871829464797 0 0.22467911501244259 0.1245726420611219 0 0.22125275954847851 0.1122871829464797 0 0.22467911501244259 0.1245726420611219 0 0.2117663023921266 0.12424821219928631 0 0.22125275954847851 0.1122871829464797 0 0.2117663023921266 0.12424821219928631 0 0.19843745162883189 0.1052744755804393 0 0.21507435397964891 0.098827665868541373 0 0.19843745162883189 0.1052744755804393 0 0.20542992561738341 0.088425938044006475 0 0.22125275954847851 0.1122871829464797 0 0.21507435397964891 0.098827665868541373 0 0.19843745162883189 0.1052744755804393 0 0.22125275954847851 0.1122871829464797 0 0.19843745162883189 0.1052744755804393 0 0.19843745162883189 0.1052744755804393 0 0.18863279083125661 0.08692275546202613 0 0.1756221437091853 0.098261768214399026 0 0.2117663023921266 0.12424821219928631 0 0.19843745162883189 0.1052744755804393 0 0.1944913365898609 0.12431010188622001 0 0.19843745162883189 0.1052744755804393 0 0.1944913365898609 0.12431010188622001 0 0.18492498166591601 0.1144178775791536 0 0.1974475775842445 0.075524515013366142 0 0.18863279083125661 0.08692275546202613 0 0.18055666207174831 0.067242596343277103 0 0.1974475775842445 0.075524515013366142 0 0.19566357000761569 0.05998428209482496 0 0.18055666207174831 0.067242596343277103 0 0.1974475775842445 0.075524515013366142 0 0.21087156430215639 0.071291919188861061 0 0.19566357000761569 0.05998428209482496 0 0.1974475775842445 0.075524515013366142 0 0.18863279083125661 0.08692275546202613 0 0.20542992561738341 0.088425938044006475 0 0.19843745162883189 0.1052744755804393 0 0.18863279083125661 0.08692275546202613 0 0.20542992561738341 0.088425938044006475 0 0.21507435397964891 0.098827665868541373 0 0.20542992561738341 0.088425938044006475 0 0.22157032101221941 0.088583271434062638 0 0.1974475775842445 0.075524515013366142 0 0.20542992561738341 0.088425938044006475 0 0.21087156430215639 0.071291919188861061 0 0.20542992561738341 0.088425938044006475 0 0.21087156430215639 0.071291919188861061 0 0.22157032101221941 0.088583271434062638 0 0.21087156430215639 0.071291919188861061 0 0.22771163054630289 0.072598457492362989 0 0.21214969921666529 0.053685741932211213 0 0.21087156430215639 0.071291919188861061 0 0.22771163054630289 0.072598457492362989 0 0.22157032101221941 0.088583271434062638 0 0.22771163054630289 0.072598457492362989 0 0.22157032101221941 0.088583271434062638 0 0.23444887093892511 0.084723935195998745 0 0.22868131209133119 0.099567461337718793 0 0.22157032101221941 0.088583271434062638 0 0.23444887093892511 0.084723935195998745 0 0.24283763363987129 0.095528518601897372 0 0.23444887093892511 0.084723935195998745 0 0.24696601928917619 0.076776904553700356 0 0.24283763363987129 0.095528518601897372 0 0.24696601928917619 0.076776904553700356 0 0.25731853712911512 0.092848459011842521 0 0.24283763363987129 0.095528518601897372 0 0.22868131209133119 0.099567461337718793 0 0.23444887093892511 0.084723935195998745 0 0.24696601928917619 0.076776904553700356 0 0.2388873701332716 0.058022005438154063 0 0.26302529382698681 0.056584333474032002 0 0.22771163054630289 0.072598457492362989 0 0.24696601928917619 0.076776904553700356 0 0.2388873701332716 0.058022005438154063 0 0.22771163054630289 0.072598457492362989 0 0.23444887093892511 0.084723935195998745 0 0.24696601928917619 0.076776904553700356 0 0.2388873701332716 0.058022005438154063 0 0.24968230040100081 0.04538417143822867 0 0.23238867143006381 0.040750262375138069 0 0.24968230040100081 0.04538417143822867 0 0.24534079437703801 0.033006220773063581 0 0.23238867143006381 0.040750262375138069 0 0.24534079437703801 0.033006220773063581 0 0.23238867143006381 0.040750262375138069 0 0.236243059452937 0.02688188934608458 0 0.23238867143006381 0.040750262375138069 0 0.236243059452937 0.02688188934608458 0 0.21001509539203619 0.028582370422055341 0 0.22771163054630289 0.072598457492362989 0 0.2388873701332716 0.058022005438154063 0 0.21214969921666529 0.053685741932211213 0 0.2388873701332716 0.058022005438154063 0 0.23238867143006381 0.040750262375138069 0 0.21214969921666529 0.053685741932211213 0 0.23716813797051731 0.0073742097263363804 0 0.2469899307744319 0.0074925096759543008 0 0.248186192367364 -0.0029083560372354569 0 0.2469899307744319 0.0074925096759543008 0 0.24036217039978069 0.01498835319363997 0 0.2482519118440181 0.019735389054711491 0 0.23716813797051731 0.0073742097263363804 0 0.2469899307744319 0.0074925096759543008 0 0.24036217039978069 0.01498835319363997 0 0.23716813797051731 0.0073742097263363804 0 0.24036217039978069 0.01498835319363997 0 0.23315781195699939 0.01345776816511309 0 0.24036217039978069 0.01498835319363997 0 0.236243059452937 0.02688188934608458 0 0.23315781195699939 0.01345776816511309 0 0.24036217039978069 0.01498835319363997 0 0.2482519118440181 0.019735389054711491 0 0.236243059452937 0.02688188934608458 0 0.24534079437703801 0.033006220773063581 0 0.2482519118440181 0.019735389054711491 0 0.236243059452937 0.02688188934608458 0 0.23315781195699939 0.01345776816511309 0 0.21569159781210159 0.014286098011058431 0 0.21001509539203619 0.028582370422055341 0 0.23315781195699939 0.01345776816511309 0 0.21001509539203619 0.028582370422055341 0 0.236243059452937 0.02688188934608458 0 0.23315781195699939 0.01345776816511309 0 0.21001509539203619 0.028582370422055341 0 0.23315781195699939 0.01345776816511309 0 0.22764494036157859 0.0046275227758226962 0 0.21569159781210159 0.014286098011058431 0 0.23716813797051731 0.0073742097263363804 0 0.23315781195699939 0.01345776816511309 0 0.22764494036157859 0.0046275227758226962 0 0.22764494036157859 0.0046275227758226962 0 0.21512577951275161 0.0003575513731272871 0 0.21569159781210159 0.014286098011058431 0 0.21512577951275161 0.0003575513731272871 0 0.21569159781210159 0.014286098011058431 0 0.19002983529736711 0.013313423457094461 0 0.21569159781210159 0.014286098011058431 0 0.21001509539203619 0.028582370422055341 0 0.19002983529736711 0.013313423457094461 0 0.21001509539203619 0.028582370422055341 0 0.19002983529736711 0.013313423457094461 0 0.186872378827073 0.04370697267899766 0 0.21512577951275161 0.0003575513731272871 0 0.19002983529736711 0.013313423457094461 0 0.21512577951275161 0.0003575513731272871 0 0.19002983529736711 0.013313423457094461 0 0.19323724650424601 -0.0056727131426336716 0 0.21087156430215639 0.071291919188861061 0 0.21214969921666529 0.053685741932211213 0 0.19566357000761569 0.05998428209482496 0 0.23238867143006381 0.040750262375138069 0 0.21001509539203619 0.028582370422055341 0 0.21214969921666529 0.053685741932211213 0 0.21001509539203619 0.028582370422055341 0 0.21214969921666529 0.053685741932211213 0 0.186872378827073 0.04370697267899766 0 0.21001509539203619 0.028582370422055341 0 0.186872378827073 0.04370697267899766 0 0.21214969921666529 0.053685741932211213 0 0.19566357000761569 0.05998428209482496 0 0.186872378827073 0.04370697267899766 0 0.19566357000761569 0.05998428209482496 0 0.186872378827073 0.04370697267899766 0 0.18055666207174831 0.067242596343277103 0 0.186872378827073 0.04370697267899766 0 0.16372966226210989 0.058831574935939858 0 0.186872378827073 0.04370697267899766 0 0.16372966226210989 0.058831574935939858 0 0.18055666207174831 0.067242596343277103 0 0.186872378827073 0.04370697267899766 0 0.16372966226210989 0.058831574935939858 0 0.16493389108198239 0.02626929554106161 0 0.19002983529736711 0.013313423457094461 0 0.16493389108198239 0.02626929554106161 0 0.17155948924044981 0.0029446891077993861 0 0.19002983529736711 0.013313423457094461 0 0.17155948924044981 0.0029446891077993861 0 0.19323724650424601 -0.0056727131426336716 0 0.19002983529736711 0.013313423457094461 0 0.186872378827073 0.04370697267899766 0 0.16493389108198239 0.02626929554106161 0 0.19002983529736711 0.013313423457094461 0 0.16493389108198239 0.02626929554106161 0 0.17155948924044981 0.0029446891077993861 0 0.15307386238851481 0.01116058996460848 0 0.16113444179630981 -0.0069783374875720203 0 0.16493389108198239 0.02626929554106161 0 0.17155948924044981 0.0029446891077993861 0 0.15307386238851481 0.01116058996460848 0 0.15307386238851481 0.01116058996460848 0 0.13309451229529609 0.009536296927083663 0 0.14820201300634539 -0.003718295740844159 0 0.15307386238851481 0.01116058996460848 0 0.14820201300634539 -0.003718295740844159 0 0.16113444179630981 -0.0069783374875720203 0 0.15307386238851481 0.01116058996460848 0 0.13309451229529609 0.009536296927083663 0 0.13983794686659781 0.039225167625028791 0 0.16493389108198239 0.02626929554106161 0 0.15307386238851481 0.01116058996460848 0 0.13983794686659781 0.039225167625028791 0 0.1159414042888644 0.02438483761899482 0 0.13309451229529609 0.009536296927083663 0 0.13983794686659781 0.039225167625028791 0 0.16372966226210989 0.058831574935939858 0 0.16493389108198239 0.02626929554106161 0 0.13983794686659781 0.039225167625028791 0 0.16372966226210989 0.058831574935939858 0 0.13983794686659781 0.039225167625028791 0 0.13291151280292901 0.057182010238565097 0 0.16372966226210989 0.058831574935939858 0 0.13291151280292901 0.057182010238565097 0 0.1473607706316773 0.069279933762429705 0 0.16493389108198239 0.02626929554106161 0 0.13983794686659781 0.039225167625028791 0 0.11474200265121311 0.05218103970899602 0 0.13983794686659781 0.039225167625028791 0 0.11474200265121311 0.05218103970899602 0 0.13983794686659781 0.039225167625028791 0 0.13291151280292901 0.057182010238565097 0 0.13291151280292901 0.057182010238565097 0 0.13676460935753601 0.074008285790642489 0 0.1473607706316773 0.069279933762429705 0 0.123273405455276 0.071939874845635993 0 0.13291151280292901 0.057182010238565097 0 0.13676460935753601 0.074008285790642489 0 0.123273405455276 0.071939874845635993 0 0.13676460935753601 0.074008285790642489 0 0.13075489329719889 0.084533452287072569 0 0.16372966226210989 0.058831574935939858 0 0.1473607706316773 0.069279933762429705 0 0.1572719476738422 0.075609930362782213 0 0.13676460935753601 0.074008285790642489 0 0.1473607706316773 0.069279933762429705 0 0.14711835672307499 0.079246211156749805 0 0.1473607706316773 0.069279933762429705 0 0.14711835672307499 0.079246211156749805 0 0.1572719476738422 0.075609930362782213 0 0.1513021462035796 0.088295042859596246 0 0.15280683578953799 0.091249060848360625 0 0.1424995781019785 0.088080934335939998 0 0.1513021462035796 0.088295042859596246 0 0.15280683578953799 0.091249060848360625 0 0.1601039383478188 0.085671900924556149 0 0.1513021462035796 0.088295042859596246 0 0.15280683578953799 0.091249060848360625 0 0.1513021462035796 0.088295042859596246 0 0.15394909723707889 0.082205771325921106 0 0.14711835672307499 0.079246211156749805 0 0.1513021462035796 0.088295042859596246 0 0.15394909723707889 0.082205771325921106 0 0.1601039383478188 0.085671900924556149 0 0.15394909723707889 0.082205771325921106 0 0.14711835672307499 0.079246211156749805 0 0.1572719476738422 0.075609930362782213 0 0.13676460935753601 0.074008285790642489 0 0.14711835672307499 0.079246211156749805 0 0.1424995781019785 0.088080934335939998 0 0.1513021462035796 0.088295042859596246 0 0.14711835672307499 0.079246211156749805 0 0.1424995781019785 0.088080934335939998 0 0.15280683578953799 0.091249060848360625 0 0.1424995781019785 0.088080934335939998 0 0.1424995781019785 0.088080934335939998 0 0.13625629738450501 0.095091664892346578 0 0.14557345573306271 0.096680917353582252 0 0.15280683578953799 0.091249060848360625 0 0.1424995781019785 0.088080934335939998 0 0.14557345573306271 0.096680917353582252 0 0.1424995781019785 0.088080934335939998 0 0.13075489329719889 0.084533452287072569 0 0.13625629738450501 0.095091664892346578 0 0.13676460935753601 0.074008285790642489 0 0.1424995781019785 0.088080934335939998 0 0.13075489329719889 0.084533452287072569 0 0.1192795670199716 0.084806347150453792 0 0.13075489329719889 0.084533452287072569 0 0.125672499204592 0.096152775552308861 0 0.13075489329719889 0.084533452287072569 0 0.125672499204592 0.096152775552308861 0 0.13625629738450501 0.095091664892346578 0 0.125672499204592 0.096152775552308861 0 0.13224429508570859 0.1040110137220422 0 0.13625629738450501 0.095091664892346578 0 0.1208337936217098 0.10600116734878511 0 0.125672499204592 0.096152775552308861 0 0.13224429508570859 0.1040110137220422 0 0.1208337936217098 0.10600116734878511 0 0.13224429508570859 0.1040110137220422 0 0.13370195957752121 0.1172790119602122 0 0.13224429508570859 0.1040110137220422 0 0.13370195957752121 0.1172790119602122 0 0.14254661395905011 0.10512756453148681 0 0.13224429508570859 0.1040110137220422 0 0.13625629738450501 0.095091664892346578 0 0.14254661395905011 0.10512756453148681 0 0.13370195957752121 0.1172790119602122 0 0.14933386822454789 0.1126060166048168 0 0.14931491928294019 0.1234726129541123 0 0.13370195957752121 0.1172790119602122 0 0.14933386822454789 0.1126060166048168 0 0.14254661395905011 0.10512756453148681 0 0.14933386822454789 0.1126060166048168 0 0.14931491928294019 0.1234726129541123 0 0.15961716160753031 0.122859133032495 0 0.15280683578953799 0.091249060848360625 0 0.15056527388794139 0.1032142183205238 0 0.16256559573350809 0.1104075322643724 0 0.13625629738450501 0.095091664892346578 0 0.14557345573306271 0.096680917353582252 0 0.14254661395905011 0.10512756453148681 0 0.14933386822454789 0.1126060166048168 0 0.14254661395905011 0.10512756453148681 0 0.15056527388794139 0.1032142183205238 0 0.14557345573306271 0.096680917353582252 0 0.14254661395905011 0.10512756453148681 0 0.15056527388794139 0.1032142183205238 0 0.14933386822454789 0.1126060166048168 0 0.15056527388794139 0.1032142183205238 0 0.16256559573350809 0.1104075322643724 0 0.15280683578953799 0.091249060848360625 0 0.14557345573306271 0.096680917353582252 0 0.15056527388794139 0.1032142183205238 0 0.15280683578953799 0.091249060848360625 0 0.1756221437091853 0.098261768214399026 0 0.15280683578953799 0.091249060848360625 0 0.16256559573350809 0.1104075322643724 0 0.1756221437091853 0.098261768214399026 0 0.15280683578953799 0.091249060848360625 0 0.16256559573350809 0.1104075322643724 0 0.16256559573350809 0.1104075322643724 0 0.1740460282748742 0.1165165598742475 0 0.1756221437091853 0.098261768214399026 0 0.17232435567747939 0.1295660036803836 0 0.16256559573350809 0.1104075322643724 0 0.17232435567747939 0.1295660036803836 0 0.15961716160753031 0.122859133032495 0 0.16256559573350809 0.1104075322643724 0 0.17232435567747939 0.1295660036803836 0 0.16256559573350809 0.1104075322643724 0 0.1740460282748742 0.1165165598742475 0 0.14933386822454789 0.1126060166048168 0 0.15961716160753031 0.122859133032495 0 0.16256559573350809 0.1104075322643724 0 0.1740460282748742 0.1165165598742475 0 0.18492498166591601 0.1144178775791536 0 0.1756221437091853 0.098261768214399026 0 0.17232435567747939 0.1295660036803836 0 0.1740460282748742 0.1165165598742475 0 0.18207676088177391 0.1245133883559869 0 0.1944913365898609 0.12431010188622001 0 0.18492498166591601 0.1144178775791536 0 0.18207676088177391 0.1245133883559869 0 0.1740460282748742 0.1165165598742475 0 0.18492498166591601 0.1144178775791536 0 0.18207676088177391 0.1245133883559869 0 0.19843745162883189 0.1052744755804393 0 0.18492498166591601 0.1144178775791536 0 0.1756221437091853 0.098261768214399026 0 0.19843745162883189 0.1052744755804393 0 0.1756221437091853 0.098261768214399026 0 0.18863279083125661 0.08692275546202613 0 0.1756221437091853 0.098261768214399026 0 0.17124377436232921 0.079108669225725042 0 0.18863279083125661 0.08692275546202613 0 0.18055666207174831 0.067242596343277103 0 0.17124377436232921 0.079108669225725042 0 0.16372966226210989 0.058831574935939858 0 0.18055666207174831 0.067242596343277103 0 0.17124377436232921 0.079108669225725042 0 0.16372966226210989 0.058831574935939858 0 0.1572719476738422 0.075609930362782213 0 0.17124377436232921 0.079108669225725042 0 0.15280683578953799 0.091249060848360625 0 0.1756221437091853 0.098261768214399026 0 0.1601039383478188 0.085671900924556149 0 0.1572719476738422 0.075609930362782213 0 0.1601039383478188 0.085671900924556149 0 0.17124377436232921 0.079108669225725042 0 0.1756221437091853 0.098261768214399026 0 0.1601039383478188 0.085671900924556149 0 0.17124377436232921 0.079108669225725042 0 0.15394909723707889 0.082205771325921106 0 0.1572719476738422 0.075609930362782213 0 0.1601039383478188 0.085671900924556149 0 0.098637243337517111 0.47198055329829658 0 0.1132003623853813 0.48296788376105532 0 0.1134257047395352 0.46151749508085382 0 0.098637243337517111 0.47198055329829658 0 0.098075618047146984 0.5 0 0.1132003623853813 0.48296788376105532 0 0.098075618047146984 0.5 0 0.1132003623853813 0.48296788376105532 0 0.1268796283368023 0.5 0 0.1132003623853813 0.48296788376105532 0 0.12704858122339069 0.47639866836220968 0 0.1268796283368023 0.5 0 0.1132003623853813 0.48296788376105532 0 0.1134257047395352 0.46151749508085382 0 0.12704858122339069 0.47639866836220968 0 0.1134257047395352 0.46151749508085382 0 0.12732762568223649 0.45427249207276249 0 0.12704858122339069 0.47639866836220968 0 0.11257114482495589 0.43557742458635162 0 0.13386762170456001 0.4297873695656203 0 0.12732762568223649 0.45427249207276249 0 0.11257114482495589 0.43557742458635162 0 0.12732762568223649 0.45427249207276249 0 0.1134257047395352 0.46151749508085382 0 0.11257114482495589 0.43557742458635162 0 0.12732762568223649 0.45427249207276249 0 0.10031218128496459 0.45363210883008742 0 0.092196008472032465 0.43849183100859501 0 0.11257114482495589 0.43557742458635162 0 0.1134257047395352 0.46151749508085382 0 0.10031218128496459 0.45363210883008742 0 0.11257114482495589 0.43557742458635162 0 0.098637243337517111 0.47198055329829658 0 0.1134257047395352 0.46151749508085382 0 0.10031218128496459 0.45363210883008742 0 0.098637243337517111 0.47198055329829658 0 0.10031218128496459 0.45363210883008742 0 0.084176197507672815 0.45765596060776309 0 0.084176197507672815 0.45765596060776309 0 0.072987317404394556 0.46702010413852141 0 0.082902588522914614 0.47777614886672948 0 0.084176197507672815 0.45765596060776309 0 0.092196008472032465 0.43849183100859501 0 0.075654459853943326 0.44155983020632378 0 0.10031218128496459 0.45363210883008742 0 0.084176197507672815 0.45765596060776309 0 0.092196008472032465 0.43849183100859501 0 0.075654459853943326 0.44155983020632378 0 0.068267950439062794 0.45391040584005138 0 0.059022027855971222 0.43679178638555149 0 0.084176197507672815 0.45765596060776309 0 0.075654459853943326 0.44155983020632378 0 0.068267950439062794 0.45391040584005138 0 0.084176197507672815 0.45765596060776309 0 0.072987317404394556 0.46702010413852141 0 0.068267950439062794 0.45391040584005138 0 0.072987317404394556 0.46702010413852141 0 0.068267950439062794 0.45391040584005138 0 0.062537926437964797 0.46584335605705279 0 0.062537926437964797 0.46584335605705279 0 0.068680038528260323 0.477814204849701 0 0.057993399539775323 0.47600358388104103 0 0.072987317404394556 0.46702010413852141 0 0.062537926437964797 0.46584335605705279 0 0.068680038528260323 0.477814204849701 0 0.068680038528260323 0.477814204849701 0 0.082902588522914614 0.47777614886672948 0 0.075664335866439503 0.488808863375082 0 0.072987317404394556 0.46702010413852141 0 0.068680038528260323 0.477814204849701 0 0.082902588522914614 0.47777614886672948 0 0.098637243337517111 0.47198055329829658 0 0.084176197507672815 0.45765596060776309 0 0.082902588522914614 0.47777614886672948 0 0.098637243337517111 0.47198055329829658 0 0.098075618047146984 0.5 0 0.082902588522914614 0.47777614886672948 0 0.098075618047146984 0.5 0 0.082902588522914614 0.47777614886672948 0 0.075664335866439503 0.488808863375082 0 0.098075618047146984 0.5 0 0.075664335866439503 0.488808863375082 0 0.069271607757491749 0.49999999999999989 0 0.075664335866439503 0.488808863375082 0 0.069271607757491749 0.49999999999999989 0 0.059391826476383719 0.48845396315897949 0 0.068680038528260323 0.477814204849701 0 0.075664335866439503 0.488808863375082 0 0.059391826476383719 0.48845396315897949 0 0.069271607757491749 0.49999999999999989 0 0.059391826476383719 0.48845396315897949 0 0.059391826476383719 0.48845396315897949 0 0.049512045195275689 0.47690792631795909 0 0.041999018117642728 0.5 0 0.069271607757491749 0.49999999999999989 0 0.059391826476383719 0.48845396315897949 0 0.041999018117642728 0.5 0 0.062537926437964797 0.46584335605705279 0 0.057993399539775323 0.47600358388104103 0 0.053793445902985459 0.46649969792216939 0 0.059391826476383719 0.48845396315897949 0 0.057993399539775323 0.47600358388104103 0 0.049512045195275689 0.47690792631795909 0 0.068680038528260323 0.477814204849701 0 0.059391826476383719 0.48845396315897949 0 0.057993399539775323 0.47600358388104103 0 0.059391826476383719 0.48845396315897949 0 0.049512045195275689 0.47690792631795909 0 0.057993399539775323 0.47600358388104103 0 0.049512045195275689 0.47690792631795909 0 0.053793445902985459 0.46649969792216939 0 0.057993399539775323 0.47600358388104103 0 0.049512045195275689 0.47690792631795909 0 0.049512045195275689 0.47690792631795909 0 0.021327958836273791 0.47991311444062401 0 0.028153554277597199 0.46472547422127392 0 0.049512045195275689 0.47690792631795909 0 0.021327958836273791 0.47991311444062401 0 0.049512045195275689 0.47690792631795909 0 0.041999018117642728 0.5 0 0.021327958836273791 0.47991311444062401 0 0.041999018117642728 0.5 0 0.021327958836273791 0.47991311444062401 0 0.014726428477793711 0.5 0 0.021327958836273791 0.47991311444062401 0 0.0089292086152718345 0.46542327678520612 0 0.028153554277597199 0.46472547422127392 0 -0.0068561275227281646 0.48291830256328661 0 0.0089292086152718345 0.46542327678520612 0 -0.0068561275227281646 0.48291830256328661 0 0.021327958836273791 0.47991311444062401 0 -0.0068561275227281646 0.48291830256328661 0 0.021327958836273791 0.47991311444062401 0 0.0089292086152718345 0.46542327678520612 0 -0.0068561275227281646 0.48291830256328661 0 0.021327958836273791 0.47991311444062401 0 0.014726428477793711 0.5 0 0.0032429327191542219 0.44588261561992137 0 0.0089292086152718345 0.46542327678520612 0 0.02471454475327341 0.44792825100712702 0 0.0032429327191542219 0.44588261561992137 0 0.02471454475327341 0.44792825100712702 0 0.01128678613624475 0.43518435548175349 0 0.0089292086152718345 0.46542327678520612 0 0.028153554277597199 0.46472547422127392 0 0.02471454475327341 0.44792825100712702 0 0.028153554277597199 0.46472547422127392 0 0.02471454475327341 0.44792825100712702 0 0.032000575564000593 0.45644309336768291 0 0.0089292086152718345 0.46542327678520612 0 0.02471454475327341 0.44792825100712702 0 0.028153554277597199 0.46472547422127392 0 0.032000575564000593 0.45644309336768291 0 0.02471454475327341 0.44792825100712702 0 0.032000575564000593 0.45644309336768291 0 0.02471454475327341 0.44792825100712702 0 0.023724924450018229 0.43292030736753512 0 0.01128678613624475 0.43518435548175349 0 0.02471454475327341 0.44792825100712702 0 0.036298217371139772 0.43508996557039592 0 0.02471454475327341 0.44792825100712702 0 0.036298217371139772 0.43508996557039592 0 0.023724924450018229 0.43292030736753512 0 0.03994123277650375 0.43934738675067397 0 0.032000575564000593 0.45644309336768291 0 0.03994123277650375 0.43934738675067397 0 0.032000575564000593 0.45644309336768291 0 0.045439812907032313 0.45849735534662439 0 0.03994123277650375 0.43934738675067397 0 0.045439812907032313 0.45849735534662439 0 0.05522977357443009 0.45459139764509598 0 0.02471454475327341 0.44792825100712702 0 0.03994123277650375 0.43934738675067397 0 0.036298217371139772 0.43508996557039592 0 0.02471454475327341 0.44792825100712702 0 0.03994123277650375 0.43934738675067397 0 0.032000575564000593 0.45644309336768291 0 0.049512045195275689 0.47690792631795909 0 0.032000575564000593 0.45644309336768291 0 0.045439812907032313 0.45849735534662439 0 0.049512045195275689 0.47690792631795909 0 0.028153554277597199 0.46472547422127392 0 0.032000575564000593 0.45644309336768291 0 0.049512045195275689 0.47690792631795909 0 0.032000575564000593 0.45644309336768291 0 0.049512045195275689 0.47690792631795909 0 0.045439812907032313 0.45849735534662439 0 0.053793445902985459 0.46649969792216939 0 0.045439812907032313 0.45849735534662439 0 0.053793445902985459 0.46649969792216939 0 0.05522977357443009 0.45459139764509598 0 0.068267950439062794 0.45391040584005138 0 0.062537926437964797 0.46584335605705279 0 0.05522977357443009 0.45459139764509598 0 0.062537926437964797 0.46584335605705279 0 0.053793445902985459 0.46649969792216939 0 0.05522977357443009 0.45459139764509598 0 0.03994123277650375 0.43934738675067397 0 0.05522977357443009 0.45459139764509598 0 0.059022027855971222 0.43679178638555149 0 0.068267950439062794 0.45391040584005138 0 0.05522977357443009 0.45459139764509598 0 0.059022027855971222 0.43679178638555149 0 0.03994123277650375 0.43934738675067397 0 0.059022027855971222 0.43679178638555149 0 0.047881889989006172 0.42225168013366488 0 0.059022027855971222 0.43679178638555149 0 0.047881889989006172 0.42225168013366488 0 0.062471501563285313 0.4207819472627401 0 0.047881889989006172 0.42225168013366488 0 0.0666189879265838 0.40148519099725949 0 0.047881889989006172 0.42225168013366488 0 0.055282867020239997 0.40631786903727468 0 0.039716700378301599 0.40444564392880522 0 0.047881889989006172 0.42225168013366488 0 0.062471501563285313 0.4207819472627401 0 0.0666189879265838 0.40148519099725949 0 0.047881889989006172 0.42225168013366488 0 0.055282867020239997 0.40631786903727468 0 0.0666189879265838 0.40148519099725949 0 0.047881889989006172 0.42225168013366488 0 0.055282867020239997 0.40631786903727468 0 0.047881889989006172 0.42225168013366488 0 0.030399185675229461 0.41889555261093492 0 0.039716700378301599 0.40444564392880522 0 0.03994123277650375 0.43934738675067397 0 0.047881889989006172 0.42225168013366488 0 0.047881889989006172 0.42225168013366488 0 0.036298217371139772 0.43508996557039592 0 0.030399185675229461 0.41889555261093492 0 0.03994123277650375 0.43934738675067397 0 0.047881889989006172 0.42225168013366488 0 0.036298217371139772 0.43508996557039592 0 0.047881889989006172 0.42225168013366488 0 0.036298217371139772 0.43508996557039592 0 0.036298217371139772 0.43508996557039592 0 0.023724924450018229 0.43292030736753512 0 0.030399185675229461 0.41889555261093492 0 0.023724924450018229 0.43292030736753512 0 0.030399185675229461 0.41889555261093492 0 0.01390337721774784 0.42158365213394322 0 0.023724924450018229 0.43292030736753512 0 0.01390337721774784 0.42158365213394322 0 0.01128678613624475 0.43518435548175349 0 0.030399185675229461 0.41889555261093492 0 0.02117437049173999 0.40202609303051212 0 0.039716700378301599 0.40444564392880522 0 0.030399185675229461 0.41889555261093492 0 0.01390337721774784 0.42158365213394322 0 0.02117437049173999 0.40202609303051212 0 -0.0010122343368932541 0.40112870612789647 0 -0.0080186453672848532 0.42893127256557118 0 0.01390337721774784 0.42158365213394322 0 -0.0010122343368932541 0.40112870612789647 0 0.01390337721774784 0.42158365213394322 0 0.02117437049173999 0.40202609303051212 0 -0.0080186453672848532 0.42893127256557118 0 0.01390337721774784 0.42158365213394322 0 0.01128678613624475 0.43518435548175349 0 -0.0080186453672848532 0.42893127256557118 0 0.0032429327191542219 0.44588261561992137 0 0.01128678613624475 0.43518435548175349 0 -0.0010122343368932541 0.40112870612789647 0 0.01034740095667388 0.38009490616324237 0 0.02117437049173999 0.40202609303051212 0 0.01034740095667388 0.38009490616324237 0 0.02117437049173999 0.40202609303051212 0 0.033691793059380422 0.38600809721825069 0 0.01034740095667388 0.38009490616324237 0 0.033691793059380422 0.38600809721825069 0 0.034838015250490392 0.36223443466111838 0 0.033691793059380422 0.38600809721825069 0 0.049321733171268603 0.39079209677164772 0 0.047720677946181532 0.37634905643262112 0 0.02117437049173999 0.40202609303051212 0 0.033691793059380422 0.38600809721825069 0 0.039716700378301599 0.40444564392880522 0 0.033691793059380422 0.38600809721825069 0 0.039716700378301599 0.40444564392880522 0 0.049321733171268603 0.39079209677164772 0 0.055282867020239997 0.40631786903727468 0 0.062683844051473925 0.39038405794088482 0 0.055282867020239997 0.40631786903727468 0 0.062683844051473925 0.39038405794088482 0 0.0666189879265838 0.40148519099725949 0 0.055282867020239997 0.40631786903727468 0 0.049321733171268603 0.39079209677164772 0 0.062683844051473925 0.39038405794088482 0 0.055282867020239997 0.40631786903727468 0 0.039716700378301599 0.40444564392880522 0 0.049321733171268603 0.39079209677164772 0 0.049321733171268603 0.39079209677164772 0 0.047720677946181532 0.37634905643262112 0 0.058734513873276703 0.38019262216941457 0 0.049321733171268603 0.39079209677164772 0 0.058734513873276703 0.38019262216941457 0 0.062683844051473925 0.39038405794088482 0 0.058734513873276703 0.38019262216941457 0 0.0642255634395522 0.38216366416922681 0 0.062683844051473925 0.39038405794088482 0 0.0642255634395522 0.38216366416922681 0 0.070870425911640639 0.38439138370461229 0 0.064613469921817546 0.37368659286199563 0 0.085356085864160908 0.38071870186085371 0 0.064613469921817546 0.37368659286199563 0 0.058734513873276703 0.38019262216941457 0 0.0642255634395522 0.38216366416922681 0 0.064613469921817546 0.37368659286199563 0 0.070870425911640639 0.38439138370461229 0 0.085356085864160908 0.38071870186085371 0 0.064613469921817546 0.37368659286199563 0 0.070870425911640639 0.38439138370461229 0 0.085356085864160908 0.38071870186085371 0 0.0666189879265838 0.40148519099725949 0 0.0642255634395522 0.38216366416922681 0 0.062683844051473925 0.39038405794088482 0 0.070870425911640639 0.38439138370461229 0 0.085356085864160908 0.38071870186085371 0 0.088045640085491886 0.40036026708549988 0 0.1018452474992204 0.38630881557842067 0 0.085356085864160908 0.38071870186085371 0 0.1018452474992204 0.38630881557842067 0 0.093027049937234069 0.37436354139453942 0 0.085356085864160908 0.38071870186085371 0 0.091396799044876742 0.37402372673389273 0 0.064613469921817546 0.37368659286199563 0 0.085356085864160908 0.38071870186085371 0 0.1018452474992204 0.38630881557842067 0 0.085356085864160908 0.38071870186085371 0 0.091396799044876742 0.37402372673389273 0 0.093027049937234069 0.37436354139453942 0 0.085356085864160908 0.38071870186085371 0 0.091396799044876742 0.37402372673389273 0 0.085356085864160908 0.38071870186085371 0 0.088045640085491886 0.40036026708549988 0 0.0666189879265838 0.40148519099725949 0 0.062683844051473925 0.39038405794088482 0 0.070870425911640639 0.38439138370461229 0 0.0666189879265838 0.40148519099725949 0 0.085356085864160908 0.38071870186085371 0 0.0666189879265838 0.40148519099725949 0 0.088045640085491886 0.40036026708549988 0 0.0666189879265838 0.40148519099725949 0 0.07636310048158014 0.42259913153448458 0 0.062471501563285313 0.4207819472627401 0 0.0666189879265838 0.40148519099725949 0 0.07636310048158014 0.42259913153448458 0 0.059022027855971222 0.43679178638555149 0 0.062471501563285313 0.4207819472627401 0 0.07636310048158014 0.42259913153448458 0 0.075654459853943326 0.44155983020632378 0 0.059022027855971222 0.43679178638555149 0 0.07636310048158014 0.42259913153448458 0 0.092196008472032465 0.43849183100859501 0 0.07636310048158014 0.42259913153448458 0 0.097814663967675269 0.41688235709994059 0 0.092196008472032465 0.43849183100859501 0 0.075654459853943326 0.44155983020632378 0 0.07636310048158014 0.42259913153448458 0 0.088045640085491886 0.40036026708549988 0 0.07636310048158014 0.42259913153448458 0 0.097814663967675269 0.41688235709994059 0 0.097814663967675269 0.41688235709994059 0 0.11299843726246959 0.40804476770095949 0 0.10231567500201209 0.40010653521635148 0 0.092196008472032465 0.43849183100859501 0 0.097814663967675269 0.41688235709994059 0 0.11257114482495589 0.43557742458635162 0 0.097814663967675269 0.41688235709994059 0 0.11257114482495589 0.43557742458635162 0 0.11257114482495589 0.43557742458635162 0 0.12020792674469589 0.4193587962283476 0 0.13386762170456001 0.4297873695656203 0 0.097814663967675269 0.41688235709994059 0 0.11257114482495589 0.43557742458635162 0 0.12020792674469589 0.4193587962283476 0 0.097814663967675269 0.41688235709994059 0 0.11299843726246959 0.40804476770095949 0 0.12020792674469589 0.4193587962283476 0 0.11299843726246959 0.40804476770095949 0 0.12020792674469589 0.4193587962283476 0 0.12920075257619701 0.40959789087169429 0 0.1183344091342801 0.39189892929598741 0 0.12920075257619701 0.40959789087169429 0 0.11299843726246959 0.40804476770095949 0 0.1183344091342801 0.39189892929598741 0 0.12920075257619701 0.40959789087169429 0 0.11299843726246959 0.40804476770095949 0 0.1183344091342801 0.39189892929598741 0 0.10231567500201209 0.40010653521635148 0 0.1183344091342801 0.39189892929598741 0 0.1069593141123015 0.37337131963684272 0 0.1183344091342801 0.39189892929598741 0 0.1018452474992204 0.38630881557842067 0 0.1183344091342801 0.39189892929598741 0 0.12477743794451 0.37873985157138929 0 0.1069593141123015 0.37337131963684272 0 0.1183344091342801 0.39189892929598741 0 0.1018452474992204 0.38630881557842067 0 0.1069593141123015 0.37337131963684272 0 0.1018452474992204 0.38630881557842067 0 0.1069593141123015 0.37337131963684272 0 0.093027049937234069 0.37436354139453942 0 0.1183344091342801 0.39189892929598741 0 0.1018452474992204 0.38630881557842067 0 0.10231567500201209 0.40010653521635148 0 0.088045640085491886 0.40036026708549988 0 0.097814663967675269 0.41688235709994059 0 0.10231567500201209 0.40010653521635148 0 0.088045640085491886 0.40036026708549988 0 0.1018452474992204 0.38630881557842067 0 0.10231567500201209 0.40010653521635148 0 0.10799922200941151 0.35918653439358073 0 0.1052268303734382 0.34934018949019729 0 0.095584219090322248 0.35484370997769832 0 0.1052268303734382 0.34934018949019729 0 0.095584219090322248 0.35484370997769832 0 0.098230324681164286 0.34118120836848559 0 0.095584219090322248 0.35484370997769832 0 0.1069593141123015 0.37337131963684272 0 0.095584219090322248 0.35484370997769832 0 0.1069593141123015 0.37337131963684272 0 0.093307092599236766 0.36450968013778851 0 0.10799922200941151 0.35918653439358073 0 0.095584219090322248 0.35484370997769832 0 0.1069593141123015 0.37337131963684272 0 0.094320621974497393 0.37078322826892401 0 0.1069593141123015 0.37337131963684272 0 0.093307092599236766 0.36450968013778851 0 0.094320621974497393 0.37078322826892401 0 0.1069593141123015 0.37337131963684272 0 0.093027049937234069 0.37436354139453942 0 0.12477743794451 0.37873985157138929 0 0.1069593141123015 0.37337131963684272 0 0.11866913113633711 0.3647349049898142 0 0.10799922200941151 0.35918653439358073 0 0.1069593141123015 0.37337131963684272 0 0.11866913113633711 0.3647349049898142 0 0.1152994731992705 0.35147585857670188 0 0.1221020608480546 0.33658156122159 0 0.12847229697847029 0.35265315113623358 0 0.11866913113633711 0.3647349049898142 0 0.1152994731992705 0.35147585857670188 0 0.12847229697847029 0.35265315113623358 0 0.10799922200941151 0.35918653439358073 0 0.11866913113633711 0.3647349049898142 0 0.1152994731992705 0.35147585857670188 0 0.10799922200941151 0.35918653439358073 0 0.1052268303734382 0.34934018949019729 0 0.1152994731992705 0.35147585857670188 0 0.1052268303734382 0.34934018949019729 0 0.1152994731992705 0.35147585857670188 0 0.1096020548379143 0.34031744912245693 0 0.1221020608480546 0.33658156122159 0 0.1117233601292346 0.33000041142674069 0 0.1181664457992527 0.32102443023205102 0 0.1221020608480546 0.33658156122159 0 0.1117233601292346 0.33000041142674069 0 0.1096020548379143 0.34031744912245693 0 0.1152994731992705 0.35147585857670188 0 0.1221020608480546 0.33658156122159 0 0.1096020548379143 0.34031744912245693 0 0.1221020608480546 0.33658156122159 0 0.1181664457992527 0.32102443023205102 0 0.13147508835603169 0.32060333767696908 0 0.1181664457992527 0.32102443023205102 0 0.1175840514375965 0.30294337427177842 0 0.13147508835603169 0.32060333767696908 0 0.1181664457992527 0.32102443023205102 0 0.1057535604762503 0.31988800243065141 0 0.1175840514375965 0.30294337427177842 0 0.1117233601292346 0.33000041142674069 0 0.1181664457992527 0.32102443023205102 0 0.1057535604762503 0.31988800243065141 0 0.1117233601292346 0.33000041142674069 0 0.1057535604762503 0.31988800243065141 0 0.101750783509845 0.33127213814768819 0 0.1057535604762503 0.31988800243065141 0 0.094177067539710446 0.32341941527764773 0 0.101750783509845 0.33127213814768819 0 0.1057535604762503 0.31988800243065141 0 0.094177067539710446 0.32341941527764773 0 0.091416716334191572 0.31134412317449928 0 0.1052268303734382 0.34934018949019729 0 0.1096020548379143 0.34031744912245693 0 0.098230324681164286 0.34118120836848559 0 0.1096020548379143 0.34031744912245693 0 0.101750783509845 0.33127213814768819 0 0.098230324681164286 0.34118120836848559 0 0.1117233601292346 0.33000041142674069 0 0.1096020548379143 0.34031744912245693 0 0.101750783509845 0.33127213814768819 0 0.094177067539710446 0.32341941527764773 0 0.101750783509845 0.33127213814768819 0 0.092828335810934373 0.33200118139800122 0 0.101750783509845 0.33127213814768819 0 0.098230324681164286 0.34118120836848559 0 0.092828335810934373 0.33200118139800122 0 0.098230324681164286 0.34118120836848559 0 0.092828335810934373 0.33200118139800122 0 0.084209124068343022 0.33631610031855391 0 0.092828335810934373 0.33200118139800122 0 0.084209124068343022 0.33631610031855391 0 0.086528546928999986 0.32747322785173621 0 0.079346392613974345 0.32984289911383757 0 0.084209124068343022 0.33631610031855391 0 0.074829142846358013 0.33926273910289761 0 0.079346392613974345 0.32984289911383757 0 0.084209124068343022 0.33631610031855391 0 0.086528546928999986 0.32747322785173621 0 0.065249381230786802 0.31974487207722158 0 0.091416716334191572 0.31134412317449928 0 0.080296589633190266 0.32166069417267901 0 0.065249381230786802 0.31974487207722158 0 0.091416716334191572 0.31134412317449928 0 0.094177067539710446 0.32341941527764773 0 0.088104730109023061 0.32097436511914063 0 0.091416716334191572 0.31134412317449928 0 0.088104730109023061 0.32097436511914063 0 0.080296589633190266 0.32166069417267901 0 0.091416716334191572 0.31134412317449928 0 0.094177067539710446 0.32341941527764773 0 0.092828335810934373 0.33200118139800122 0 0.086528546928999986 0.32747322785173621 0 0.094177067539710446 0.32341941527764773 0 0.088104730109023061 0.32097436511914063 0 0.086528546928999986 0.32747322785173621 0 0.079346392613974345 0.32984289911383757 0 0.086528546928999986 0.32747322785173621 0 0.080296589633190266 0.32166069417267901 0 0.079346392613974345 0.32984289911383757 0 0.080296589633190266 0.32166069417267901 0 0.07493037658107736 0.32762780111665901 0 0.088104730109023061 0.32097436511914063 0 0.086528546928999986 0.32747322785173621 0 0.080296589633190266 0.32166069417267901 0 0.065249381230786802 0.31974487207722158 0 0.061272860023593063 0.31164308256915407 0 0.091416716334191572 0.31134412317449928 0 0.080296589633190266 0.32166069417267901 0 0.07493037658107736 0.32762780111665901 0 0.065249381230786802 0.31974487207722158 0 0.065249381230786802 0.31974487207722158 0 0.065520445146011269 0.33324961638636758 0 0.060762595475312063 0.32941662778077541 0 0.065249381230786802 0.31974487207722158 0 0.061272860023593063 0.31164308256915407 0 0.065249381230786802 0.31974487207722158 0 0.074829142846358013 0.33926273910289761 0 0.065520445146011269 0.33324961638636758 0 0.07493037658107736 0.32762780111665901 0 0.065249381230786802 0.31974487207722158 0 0.074829142846358013 0.33926273910289761 0 0.065249381230786802 0.31974487207722158 0 0.074829142846358013 0.33926273910289761 0 0.079346392613974345 0.32984289911383757 0 0.07493037658107736 0.32762780111665901 0 0.074829142846358013 0.33926273910289761 0 0.065520445146011269 0.33324961638636758 0 0.065181167129191919 0.34301436655165413 0 0.058272666053747743 0.33552965349059077 0 0.074829142846358013 0.33926273910289761 0 0.065520445146011269 0.33324961638636758 0 0.065181167129191919 0.34301436655165413 0 0.074829142846358013 0.33926273910289761 0 0.072322141883740462 0.35142618715725982 0 0.08440890446192939 0.35878060612857349 0 0.065181167129191919 0.34301436655165413 0 0.063459028458790465 0.35444852194725762 0 0.072322141883740462 0.35142618715725982 0 0.063459028458790465 0.35444852194725762 0 0.072322141883740462 0.35142618715725982 0 0.074940856199404451 0.36136162453289772 0 0.072322141883740462 0.35142618715725982 0 0.08440890446192939 0.35878060612857349 0 0.074940856199404451 0.36136162453289772 0 0.074829142846358013 0.33926273910289761 0 0.065181167129191919 0.34301436655165413 0 0.072322141883740462 0.35142618715725982 0 0.095584219090322248 0.35484370997769832 0 0.084209124068343022 0.33631610031855391 0 0.08440890446192939 0.35878060612857349 0 0.084209124068343022 0.33631610031855391 0 0.074829142846358013 0.33926273910289761 0 0.08440890446192939 0.35878060612857349 0 0.074829142846358013 0.33926273910289761 0 0.08440890446192939 0.35878060612857349 0 0.095584219090322248 0.35484370997769832 0 0.084209124068343022 0.33631610031855391 0 0.095584219090322248 0.35484370997769832 0 0.098230324681164286 0.34118120836848559 0 0.084209124068343022 0.33631610031855391 0 0.08440890446192939 0.35878060612857349 0 0.091396799044876742 0.37402372673389273 0 0.074940856199404451 0.36136162453289772 0 0.094320621974497393 0.37078322826892401 0 0.091396799044876742 0.37402372673389273 0 0.093307092599236766 0.36450968013778851 0 0.094320621974497393 0.37078322826892401 0 0.091396799044876742 0.37402372673389273 0 0.093027049937234069 0.37436354139453942 0 0.091396799044876742 0.37402372673389273 0 0.093027049937234069 0.37436354139453942 0 0.094320621974497393 0.37078322826892401 0 0.091396799044876742 0.37402372673389273 0 0.08440890446192939 0.35878060612857349 0 0.091396799044876742 0.37402372673389273 0 0.093307092599236766 0.36450968013778851 0 0.095584219090322248 0.35484370997769832 0 0.08440890446192939 0.35878060612857349 0 0.093307092599236766 0.36450968013778851 0 0.091396799044876742 0.37402372673389273 0 0.063117407147683796 0.36812908069750372 0 0.064613469921817546 0.37368659286199563 0 0.091396799044876742 0.37402372673389273 0 0.074940856199404451 0.36136162453289772 0 0.063117407147683796 0.36812908069750372 0 0.091396799044876742 0.37402372673389273 0 0.063117407147683796 0.36812908069750372 0 0.063459028458790465 0.35444852194725762 0 0.074940856199404451 0.36136162453289772 0 0.063117407147683796 0.36812908069750372 0 0.047720677946181532 0.37634905643262112 0 0.058734513873276703 0.38019262216941457 0 0.063117407147683796 0.36812908069750372 0 0.047720677946181532 0.37634905643262112 0 0.063117407147683796 0.36812908069750372 0 0.034838015250490392 0.36223443466111838 0 0.063117407147683796 0.36812908069750372 0 0.034838015250490392 0.36223443466111838 0 0.063117407147683796 0.36812908069750372 0 0.048882416352375758 0.35395387412669871 0 0.034838015250490392 0.36223443466111838 0 0.058734513873276703 0.38019262216941457 0 0.063117407147683796 0.36812908069750372 0 0.064613469921817546 0.37368659286199563 0 0.063459028458790465 0.35444852194725762 0 0.055029941889173692 0.34452956976120241 0 0.048882416352375758 0.35395387412669871 0 0.065181167129191919 0.34301436655165413 0 0.063459028458790465 0.35444852194725762 0 0.055029941889173692 0.34452956976120241 0 0.063459028458790465 0.35444852194725762 0 0.063117407147683796 0.36812908069750372 0 0.048882416352375758 0.35395387412669871 0 0.055029941889173692 0.34452956976120241 0 0.048882416352375758 0.35395387412669871 0 0.043895250755508097 0.34358650263540658 0 0.048882416352375758 0.35395387412669871 0 0.033919245284930302 0.34969903946784009 0 0.043895250755508097 0.34358650263540658 0 0.048882416352375758 0.35395387412669871 0 0.033919245284930302 0.34969903946784009 0 0.034838015250490392 0.36223443466111838 0 0.033919245284930302 0.34969903946784009 0 0.027544702579970881 0.33956606838801062 0 0.03689901854556419 0.34204344633139361 0 0.033919245284930302 0.34969903946784009 0 0.03689901854556419 0.34204344633139361 0 0.043895250755508097 0.34358650263540658 0 0.033691793059380422 0.38600809721825069 0 0.047720677946181532 0.37634905643262112 0 0.034838015250490392 0.36223443466111838 0 0.01034740095667388 0.38009490616324237 0 0.034838015250490392 0.36223443466111838 0 0.0065586233532973284 0.35633978862473098 0 0.033919245284930302 0.34969903946784009 0 0.034838015250490392 0.36223443466111838 0 0.023394630517927961 0.3571259213742019 0 0.01140945256937767 0.35246262551542368 0 0.027544702579970881 0.33956606838801062 0 0.033919245284930302 0.34969903946784009 0 0.024067007738051701 0.34971341368636899 0 0.023394630517927961 0.3571259213742019 0 0.034838015250490392 0.36223443466111838 0 0.0065586233532973284 0.35633978862473098 0 0.01140945256937767 0.35246262551542368 0 0.01254248398045639 0.34306983624720377 0 0.027544702579970881 0.33956606838801062 0 0.034838015250490392 0.36223443466111838 0 0.023394630517927961 0.3571259213742019 0 0.0065586233532973284 0.35633978862473098 0 0.024067007738051701 0.34971341368636899 0 0.01140945256937767 0.35246262551542368 0 0.027544702579970881 0.33956606838801062 0 0.033919245284930302 0.34969903946784009 0 0.024067007738051701 0.34971341368636899 0 0.027544702579970881 0.33956606838801062 0 0.024067007738051701 0.34971341368636899 0 0.023394630517927961 0.3571259213742019 0 0.01140945256937767 0.35246262551542368 0 0.023394630517927961 0.3571259213742019 0 0.01140945256937767 0.35246262551542368 0 -0.015923984511718801 0.34182749731844658 0 0.01140945256937767 0.35246262551542368 0 0.0065586233532973284 0.35633978862473098 0 0.023394630517927961 0.3571259213742019 0 0.01140945256937767 0.35246262551542368 0 0.0065586233532973284 0.35633978862473098 0 0.01140945256937767 0.35246262551542368 0 0.0065586233532973284 0.35633978862473098 0 0.01140945256937767 0.35246262551542368 0 0.0012391366043956341 0.34476953888556638 0 0.01254248398045639 0.34306983624720377 0 -0.010954278063915499 0.37033747279110729 0 0.01034740095667388 0.38009490616324237 0 0.0065586233532973284 0.35633978862473098 0 0.0045161698998515626 0.32060316832622621 0 0.01988384275835842 0.32190819031232781 0 0.012545051130647491 0.30474907620449748 0 0.0045161698998515626 0.32060316832622621 0 0.0099766441680813889 0.3354811121998143 0 0.01988384275835842 0.32190819031232781 0 -0.003615850522113911 0.33278336917249962 0 0.0045161698998515626 0.32060316832622621 0 0.0099766441680813889 0.3354811121998143 0 -0.003615850522113911 0.33278336917249962 0 0.0012391366043956341 0.34476953888556638 0 0.0099766441680813889 0.3354811121998143 0 0.0012391366043956341 0.34476953888556638 0 0.01254248398045639 0.34306983624720377 0 0.0099766441680813889 0.3354811121998143 0 0.0099766441680813889 0.3354811121998143 0 0.027544702579970881 0.33956606838801062 0 0.034101413927001382 0.32974460078919049 0 0.0099766441680813889 0.3354811121998143 0 0.035624752095837237 0.32356209738448422 0 0.034101413927001382 0.32974460078919049 0 0.0099766441680813889 0.3354811121998143 0 0.035624752095837237 0.32356209738448422 0 0.01254248398045639 0.34306983624720377 0 0.0099766441680813889 0.3354811121998143 0 0.027544702579970881 0.33956606838801062 0 0.01988384275835842 0.32190819031232781 0 0.029760751893772169 0.31713286595950502 0 0.035624752095837237 0.32356209738448422 0 0.0099766441680813889 0.3354811121998143 0 0.01988384275835842 0.32190819031232781 0 0.035624752095837237 0.32356209738448422 0 0.029760751893772169 0.31713286595950502 0 0.03426657442904401 0.31122794586324931 0 0.027099719274675371 0.30919587011355409 0 0.01988384275835842 0.32190819031232781 0 0.029760751893772169 0.31713286595950502 0 0.027099719274675371 0.30919587011355409 0 0.035624752095837237 0.32356209738448422 0 0.043679952590565042 0.32666951126059862 0 0.054845860634078362 0.31774484192680541 0 0.035624752095837237 0.32356209738448422 0 0.043727295716599737 0.30743896967492768 0 0.03426657442904401 0.31122794586324931 0 0.035624752095837237 0.32356209738448422 0 0.061272860023593063 0.31164308256915407 0 0.043727295716599737 0.30743896967492768 0 0.029760751893772169 0.31713286595950502 0 0.035624752095837237 0.32356209738448422 0 0.03426657442904401 0.31122794586324931 0 0.035624752095837237 0.32356209738448422 0 0.043679952590565042 0.32666951126059862 0 0.034101413927001382 0.32974460078919049 0 0.027544702579970881 0.33956606838801062 0 0.043679952590565042 0.32666951126059862 0 0.027544702579970881 0.33956606838801062 0 0.043679952590565042 0.32666951126059862 0 0.034101413927001382 0.32974460078919049 0 0.027544702579970881 0.33956606838801062 0 0.043679952590565042 0.32666951126059862 0 0.042236875561847492 0.33532217483431692 0 0.027544702579970881 0.33956606838801062 0 0.03689901854556419 0.34204344633139361 0 0.042236875561847492 0.33532217483431692 0 0.043679952590565042 0.32666951126059862 0 0.034101413927001382 0.32974460078919049 0 0.043679952590565042 0.32666951126059862 0 0.042236875561847492 0.33532217483431692 0 0.052354252973372518 0.32950245770457243 0 0.03689901854556419 0.34204344633139361 0 0.042236875561847492 0.33532217483431692 0 0.043895250755508097 0.34358650263540658 0 0.042236875561847492 0.33532217483431692 0 0.043895250755508097 0.34358650263540658 0 0.050286094864886069 0.33757912521055639 0 0.055029941889173692 0.34452956976120241 0 0.050286094864886069 0.33757912521055639 0 0.058272666053747743 0.33552965349059077 0 0.055029941889173692 0.34452956976120241 0 0.043895250755508097 0.34358650263540658 0 0.050286094864886069 0.33757912521055639 0 0.042236875561847492 0.33532217483431692 0 0.050286094864886069 0.33757912521055639 0 0.052354252973372518 0.32950245770457243 0 0.050286094864886069 0.33757912521055639 0 0.052354252973372518 0.32950245770457243 0 0.058272666053747743 0.33552965349059077 0 0.052354252973372518 0.32950245770457243 0 0.060762595475312063 0.32941662778077541 0 0.058272666053747743 0.33552965349059077 0 0.065520445146011269 0.33324961638636758 0 0.060762595475312063 0.32941662778077541 0 0.058272666053747743 0.33552965349059077 0 0.065181167129191919 0.34301436655165413 0 0.055029941889173692 0.34452956976120241 0 0.058272666053747743 0.33552965349059077 0 0.035624752095837237 0.32356209738448422 0 0.054845860634078362 0.31774484192680541 0 0.061272860023593063 0.31164308256915407 0 0.065249381230786802 0.31974487207722158 0 0.043679952590565042 0.32666951126059862 0 0.054845860634078362 0.31774484192680541 0 0.065249381230786802 0.31974487207722158 0 0.043679952590565042 0.32666951126059862 0 0.052354252973372518 0.32950245770457243 0 0.065249381230786802 0.31974487207722158 0 0.043679952590565042 0.32666951126059862 0 0.035624752095837237 0.32356209738448422 0 0.061272860023593063 0.31164308256915407 0 0.043679952590565042 0.32666951126059862 0 0.054845860634078362 0.31774484192680541 0 0.065249381230786802 0.31974487207722158 0 0.052354252973372518 0.32950245770457243 0 0.060762595475312063 0.32941662778077541 0 0.065249381230786802 0.31974487207722158 0 0.054845860634078362 0.31774484192680541 0 0.061272860023593063 0.31164308256915407 0 0.061272860023593063 0.31164308256915407 0 0.051097818613257212 0.29091238871714459 0 0.061272860023593063 0.31164308256915407 0 0.051097818613257212 0.29091238871714459 0 0.043727295716599737 0.30743896967492768 0 0.061272860023593063 0.31164308256915407 0 0.051097818613257212 0.29091238871714459 0 0.063391956072332251 0.29116924617190509 0 0.051097818613257212 0.29091238871714459 0 0.062066991577180992 0.27116559795833572 0 0.063391956072332251 0.29116924617190509 0 0.051097818613257212 0.29091238871714459 0 0.035120353164335517 0.29880992618377561 0 0.025212307960237549 0.28657124225164121 0 0.051097818613257212 0.29091238871714459 0 0.025212307960237549 0.28657124225164121 0 0.040922777202923033 0.27018169486513438 0 0.051097818613257212 0.29091238871714459 0 0.043727295716599737 0.30743896967492768 0 0.035120353164335517 0.29880992618377561 0 0.043727295716599737 0.30743896967492768 0 0.035120353164335517 0.29880992618377561 0 0.03426657442904401 0.31122794586324931 0 0.035120353164335517 0.29880992618377561 0 0.03426657442904401 0.31122794586324931 0 0.027099719274675371 0.30919587011355409 0 0.035120353164335517 0.29880992618377561 0 0.027099719274675371 0.30919587011355409 0 0.025212307960237549 0.28657124225164121 0 0.027099719274675371 0.30919587011355409 0 0.025212307960237549 0.28657124225164121 0 0.012545051130647491 0.30474907620449748 0 0.01988384275835842 0.32190819031232781 0 0.027099719274675371 0.30919587011355409 0 0.012545051130647491 0.30474907620449748 0 0.025212307960237549 0.28657124225164121 0 0.0051691312004334532 0.28902472209096208 0 0.012545051130647491 0.30474907620449748 0 -0.003114773589655063 0.30739282621521957 0 0.0051691312004334532 0.28902472209096208 0 0.012545051130647491 0.30474907620449748 0 -0.003114773589655063 0.30739282621521957 0 0.0045161698998515626 0.32060316832622621 0 0.012545051130647491 0.30474907620449748 0 -0.0046185520507155808 0.27097983876130521 0 0.009710696962624589 0.24573559211884061 0 -0.0046185520507155808 0.27097983876130521 0 0.009710696962624589 0.24573559211884061 0 0.01842890665900164 0.2679827993126635 0 -0.0046185520507155808 0.27097983876130521 0 0.0051691312004334532 0.28902472209096208 0 0.01842890665900164 0.2679827993126635 0 0.025212307960237549 0.28657124225164121 0 0.0051691312004334532 0.28902472209096208 0 0.01842890665900164 0.2679827993126635 0 0.025212307960237549 0.28657124225164121 0 0.01842890665900164 0.2679827993126635 0 0.040922777202923033 0.27018169486513438 0 0.032913974457118397 0.24825870951913431 0 0.01842890665900164 0.2679827993126635 0 0.040922777202923033 0.27018169486513438 0 0.009710696962624589 0.24573559211884061 0 0.032913974457118397 0.24825870951913431 0 0.01842890665900164 0.2679827993126635 0 0.032913974457118397 0.24825870951913431 0 0.040922777202923033 0.27018169486513438 0 0.053830772677006637 0.251528665263758 0 0.051097818613257212 0.29091238871714459 0 0.040922777202923033 0.27018169486513438 0 0.051097818613257212 0.29091238871714459 0 0.040922777202923033 0.27018169486513438 0 0.062066991577180992 0.27116559795833572 0 0.062066991577180992 0.27116559795833572 0 0.053830772677006637 0.251528665263758 0 0.070364450115838459 0.25098671079286661 0 0.040922777202923033 0.27018169486513438 0 0.062066991577180992 0.27116559795833572 0 0.053830772677006637 0.251528665263758 0 0.062066991577180992 0.27116559795833572 0 0.070364450115838459 0.25098671079286661 0 0.077763575252944347 0.26312021797153629 0 0.070364450115838459 0.25098671079286661 0 0.077763575252944347 0.26312021797153629 0 0.091132763279519829 0.25396422720250672 0 0.077763575252944347 0.26312021797153629 0 0.091132763279519829 0.25396422720250672 0 0.092611028758063235 0.26765286505573732 0 0.093745265212292803 0.27805609776191759 0 0.092611028758063235 0.26765286505573732 0 0.0808340706224982 0.27484907435963468 0 0.093745265212292803 0.27805609776191759 0 0.0808340706224982 0.27484907435963468 0 0.085687674341368994 0.28599185851441811 0 0.077763575252944347 0.26312021797153629 0 0.092611028758063235 0.26765286505573732 0 0.0808340706224982 0.27484907435963468 0 0.062066991577180992 0.27116559795833572 0 0.0808340706224982 0.27484907435963468 0 0.073103759396963605 0.28409272350604647 0 0.062066991577180992 0.27116559795833572 0 0.077763575252944347 0.26312021797153629 0 0.0808340706224982 0.27484907435963468 0 0.062066991577180992 0.27116559795833572 0 0.063391956072332251 0.29116924617190509 0 0.073103759396963605 0.28409272350604647 0 0.063391956072332251 0.29116924617190509 0 0.074226601905951137 0.29464016662077719 0 0.073103759396963605 0.28409272350604647 0 0.074226601905951137 0.29464016662077719 0 0.073103759396963605 0.28409272350604647 0 0.085687674341368994 0.28599185851441811 0 0.061272860023593063 0.31164308256915407 0 0.074226601905951137 0.29464016662077719 0 0.088081609692387444 0.299184702193382 0 0.061272860023593063 0.31164308256915407 0 0.063391956072332251 0.29116924617190509 0 0.074226601905951137 0.29464016662077719 0 0.061272860023593063 0.31164308256915407 0 0.088081609692387444 0.299184702193382 0 0.061272860023593063 0.31164308256915407 0 0.088081609692387444 0.299184702193382 0 0.091416716334191572 0.31134412317449928 0 0.0808340706224982 0.27484907435963468 0 0.073103759396963605 0.28409272350604647 0 0.085687674341368994 0.28599185851441811 0 0.074226601905951137 0.29464016662077719 0 0.088081609692387444 0.299184702193382 0 0.085687674341368994 0.28599185851441811 0 0.088081609692387444 0.299184702193382 0 0.085687674341368994 0.28599185851441811 0 0.097879984317517585 0.28483540937474522 0 0.093745265212292803 0.27805609776191759 0 0.085687674341368994 0.28599185851441811 0 0.097879984317517585 0.28483540937474522 0 0.097879984317517585 0.28483540937474522 0 0.1148903593611819 0.28672632181760987 0 0.1069950129803568 0.27421806658639852 0 0.088081609692387444 0.299184702193382 0 0.097879984317517585 0.28483540937474522 0 0.1148903593611819 0.28672632181760987 0 0.088081609692387444 0.299184702193382 0 0.1148903593611819 0.28672632181760987 0 0.088081609692387444 0.299184702193382 0 0.1175840514375965 0.30294337427177842 0 0.1148903593611819 0.28672632181760987 0 0.1057535604762503 0.31988800243065141 0 0.091416716334191572 0.31134412317449928 0 0.1175840514375965 0.30294337427177842 0 0.088081609692387444 0.299184702193382 0 0.091416716334191572 0.31134412317449928 0 0.1175840514375965 0.30294337427177842 0 0.091416716334191572 0.31134412317449928 0 0.1175840514375965 0.30294337427177842 0 0.1230051125690072 0.2671732824241192 0 0.10519548520076751 0.26170950645242969 0 0.1069950129803568 0.27421806658639852 0 0.1148903593611819 0.28672632181760987 0 0.1230051125690072 0.2671732824241192 0 0.1069950129803568 0.27421806658639852 0 0.11346574577904781 0.24363926624563939 0 0.1310625925440391 0.2490093817752059 0 0.1230051125690072 0.2671732824241192 0 0.11346574577904781 0.24363926624563939 0 0.1230051125690072 0.2671732824241192 0 0.10519548520076751 0.26170950645242969 0 0.11346574577904781 0.24363926624563939 0 0.091132763279519829 0.25396422720250672 0 0.10519548520076751 0.26170950645242969 0 0.091132763279519829 0.25396422720250672 0 0.092611028758063235 0.26765286505573732 0 0.10519548520076751 0.26170950645242969 0 0.093745265212292803 0.27805609776191759 0 0.092611028758063235 0.26765286505573732 0 0.1069950129803568 0.27421806658639852 0 0.093745265212292803 0.27805609776191759 0 0.097879984317517585 0.28483540937474522 0 0.1069950129803568 0.27421806658639852 0 0.092611028758063235 0.26765286505573732 0 0.10519548520076751 0.26170950645242969 0 0.1069950129803568 0.27421806658639852 0 0.14169910902997629 0.2742679414418378 0 0.14375138654100139 0.2945426253690574 0 0.15698742161327189 0.27358445054814512 0 0.14169910902997629 0.2742679414418378 0 0.14683181586188079 0.2572377035261933 0 0.15698742161327189 0.27358445054814512 0 0.14683181586188079 0.2572377035261933 0 0.15698742161327189 0.27358445054814512 0 0.1647349094604412 0.25835466305503141 0 0.15706625914255179 0.2474196668040588 0 0.14683181586188079 0.2572377035261933 0 0.1647349094604412 0.25835466305503141 0 0.1310625925440391 0.2490093817752059 0 0.1230051125690072 0.2671732824241192 0 0.14683181586188079 0.2572377035261933 0 0.1148903593611819 0.28672632181760987 0 0.1230051125690072 0.2671732824241192 0 0.14169910902997629 0.2742679414418378 0 0.1230051125690072 0.2671732824241192 0 0.14169910902997629 0.2742679414418378 0 0.14683181586188079 0.2572377035261933 0 0.1148903593611819 0.28672632181760987 0 0.14169910902997629 0.2742679414418378 0 0.1148903593611819 0.28672632181760987 0 0.14169910902997629 0.2742679414418378 0 0.14375138654100139 0.2945426253690574 0 0.1175840514375965 0.30294337427177842 0 0.1148903593611819 0.28672632181760987 0 0.14375138654100139 0.2945426253690574 0 0.1175840514375965 0.30294337427177842 0 0.14664414872701051 0.31182713077368962 0 0.14375138654100139 0.2945426253690574 0 0.1175840514375965 0.30294337427177842 0 0.14664414872701051 0.31182713077368962 0 0.13147508835603169 0.32060333767696908 0 0.1175840514375965 0.30294337427177842 0 0.14375138654100139 0.2945426253690574 0 0.14664414872701051 0.31182713077368962 0 0.14375138654100139 0.2945426253690574 0 0.15934560227438049 0.30510360682474019 0 0.14375138654100139 0.2945426253690574 0 0.16991872164440641 0.28614187646633638 0 0.14375138654100139 0.2945426253690574 0 0.16991872164440641 0.28614187646633638 0 0.15698742161327189 0.27358445054814512 0 0.14375138654100139 0.2945426253690574 0 0.16991872164440641 0.28614187646633638 0 0.15934560227438049 0.30510360682474019 0 0.16991872164440641 0.28614187646633638 0 0.15934560227438049 0.30510360682474019 0 0.17594422743027191 0.30896522277798982 0 0.16991872164440641 0.28614187646633638 0 0.17594422743027191 0.30896522277798982 0 0.194611259776068 0.29786208681544118 0 0.16991872164440641 0.28614187646633638 0 0.19608605674781171 0.27774112756361602 0 0.16991872164440641 0.28614187646633638 0 0.19608605674781171 0.27774112756361602 0 0.194611259776068 0.29786208681544118 0 0.17498858714192561 0.27096189343041471 0 0.19608605674781171 0.27774112756361602 0 0.188637989917216 0.2657759408206849 0 0.16991872164440641 0.28614187646633638 0 0.17498858714192561 0.27096189343041471 0 0.19608605674781171 0.27774112756361602 0 0.17498858714192561 0.27096189343041471 0 0.15698742161327189 0.27358445054814512 0 0.1647349094604412 0.25835466305503141 0 0.16991872164440641 0.28614187646633638 0 0.17498858714192561 0.27096189343041471 0 0.15698742161327189 0.27358445054814512 0 0.17262296461252361 0.24598002663571639 0 0.15706625914255179 0.2474196668040588 0 0.1647349094604412 0.25835466305503141 0 0.17262296461252361 0.24598002663571639 0 0.1647349094604412 0.25835466305503141 0 0.17959405283110921 0.25593233694228879 0 0.17498858714192561 0.27096189343041471 0 0.1647349094604412 0.25835466305503141 0 0.17959405283110921 0.25593233694228879 0 0.17959405283110921 0.25593233694228879 0 0.18926039540590539 0.25577348516009202 0 0.188637989917216 0.2657759408206849 0 0.17498858714192561 0.27096189343041471 0 0.17959405283110921 0.25593233694228879 0 0.188637989917216 0.2657759408206849 0 0.18551140280300901 0.24943314608306449 0 0.17959405283110921 0.25593233694228879 0 0.18926039540590539 0.25577348516009202 0 0.18551140280300901 0.24943314608306449 0 0.18003979482582949 0.24492117431349819 0 0.17959405283110921 0.25593233694228879 0 0.1976370905295432 0.25658005378983773 0 0.19608605674781171 0.27774112756361602 0 0.20942805637182799 0.26087087443910062 0 0.19412740356769359 0.24583763153471019 0 0.18926039540590539 0.25577348516009202 0 0.1976370905295432 0.25658005378983773 0 0.18551140280300901 0.24943314608306449 0 0.19412740356769359 0.24583763153471019 0 0.18926039540590539 0.25577348516009202 0 0.18926039540590539 0.25577348516009202 0 0.1976370905295432 0.25658005378983773 0 0.188637989917216 0.2657759408206849 0 0.1976370905295432 0.25658005378983773 0 0.19608605674781171 0.27774112756361602 0 0.188637989917216 0.2657759408206849 0 0.1976370905295432 0.25658005378983773 0 0.19608605674781171 0.27774112756361602 0 0.19608605674781171 0.27774112756361602 0 0.2166297162766001 0.27114580081129791 0 0.19608605674781171 0.27774112756361602 0 0.2166297162766001 0.27114580081129791 0 0.2124973945194607 0.28917770173810098 0 0.19608605674781171 0.27774112756361602 0 0.2166297162766001 0.27114580081129791 0 0.20942805637182799 0.26087087443910062 0 0.21472772664601869 0.24949759380759701 0 0.2052185662472745 0.243668841804765 0 0.20942805637182799 0.26087087443910062 0 0.2052185662472745 0.243668841804765 0 0.1976370905295432 0.25658005378983773 0 0.20942805637182799 0.26087087443910062 0 0.2166297162766001 0.27114580081129791 0 0.20942805637182799 0.26087087443910062 0 0.2198699135625459 0.25688632719832921 0 0.21472772664601869 0.24949759380759701 0 0.20942805637182799 0.26087087443910062 0 0.2198699135625459 0.25688632719832921 0 0.22641701269512471 0.2483688418527038 0 0.2198699135625459 0.25688632719832921 0 0.22735228514747161 0.25491030756767907 0 0.21472772664601869 0.24949759380759701 0 0.22641701269512471 0.2483688418527038 0 0.2198699135625459 0.25688632719832921 0 0.23365661848589789 0.24997396643801059 0 0.22641701269512471 0.2483688418527038 0 0.22735228514747161 0.25491030756767907 0 0.23365661848589789 0.24997396643801059 0 0.22735228514747161 0.25491030756767907 0 0.22946559584631979 0.26441209478167238 0 0.2166297162766001 0.27114580081129791 0 0.2198699135625459 0.25688632719832921 0 0.22946559584631979 0.26441209478167238 0 0.2198699135625459 0.25688632719832921 0 0.22735228514747161 0.25491030756767907 0 0.22946559584631979 0.26441209478167238 0 0.2166297162766001 0.27114580081129791 0 0.22891827805083181 0.28242512802774722 0 0.2124973945194607 0.28917770173810098 0 0.2166297162766001 0.27114580081129791 0 0.22946559584631979 0.26441209478167238 0 0.22891827805083181 0.28242512802774722 0 0.22946559584631979 0.26441209478167238 0 0.24682250712720019 0.27582133871164177 0 0.22891827805083181 0.28242512802774722 0 0.23365661848589789 0.24997396643801059 0 0.26299921505984269 0.2564796415422389 0 0.25092579941719262 0.26245818326567438 0 0.23365661848589789 0.24997396643801059 0 0.24682250712720019 0.27582133871164177 0 0.25092579941719262 0.26245818326567438 0 0.23365661848589789 0.24997396643801059 0 0.22946559584631979 0.26441209478167238 0 0.24682250712720019 0.27582133871164177 0 0.23365661848589789 0.24997396643801059 0 0.26299921505984269 0.2564796415422389 0 0.23365661848589789 0.24997396643801059 0 0.26299921505984269 0.2564796415422389 0 0.25285246646408488 0.245816156428219 0 0.23365661848589789 0.24997396643801059 0 0.24682250712720019 0.27582133871164177 0 0.2411904919968553 0.29500054749963361 0 0.22749410063817641 0.30180696973206089 0 0.24272917839956329 0.31328059004144598 0 0.2411904919968553 0.29500054749963361 0 0.24272917839956329 0.31328059004144598 0 0.25998839576850458 0.30166871098527193 0 0.24682250712720019 0.27582133871164177 0 0.2411904919968553 0.29500054749963361 0 0.22891827805083181 0.28242512802774722 0 0.24682250712720019 0.27582133871164177 0 0.2411904919968553 0.29500054749963361 0 0.25998839576850458 0.30166871098527193 0 0.22891827805083181 0.28242512802774722 0 0.22749410063817641 0.30180696973206089 0 0.2124973945194607 0.28917770173810098 0 0.2411904919968553 0.29500054749963361 0 0.22891827805083181 0.28242512802774722 0 0.22749410063817641 0.30180696973206089 0 0.22749410063817641 0.30180696973206089 0 0.21077738089845169 0.31088331109163542 0 0.2124973945194607 0.28917770173810098 0 0.21077738089845169 0.31088331109163542 0 0.2124973945194607 0.28917770173810098 0 0.194611259776068 0.29786208681544118 0 0.19608605674781171 0.27774112756361602 0 0.194611259776068 0.29786208681544118 0 0.19608605674781171 0.27774112756361602 0 0.2124973945194607 0.28917770173810098 0 0.194611259776068 0.29786208681544118 0 0.21077738089845169 0.31088331109163542 0 0.194611259776068 0.29786208681544118 0 0.19313646280432401 0.31798304606726652 0 0.194611259776068 0.29786208681544118 0 0.19313646280432401 0.31798304606726652 0 0.17594422743027191 0.30896522277798982 0 0.194611259776068 0.29786208681544118 0 0.19313646280432401 0.31798304606726652 0 0.19313646280432401 0.31798304606726652 0 0.1916616658325801 0.33810400531909179 0 0.1916616658325801 0.33810400531909179 0 0.2063935660007091 0.32855034519399279 0 0.2069944151791602 0.34799813284750841 0 0.19313646280432401 0.31798304606726652 0 0.1916616658325801 0.33810400531909179 0 0.2063935660007091 0.32855034519399279 0 0.19313646280432401 0.31798304606726652 0 0.1916616658325801 0.33810400531909179 0 0.1780774024533523 0.32976993963376122 0 0.2063935660007091 0.32855034519399279 0 0.2305315016519725 0.32991971700294997 0 0.2069944151791602 0.34799813284750841 0 0.21077738089845169 0.31088331109163542 0 0.19313646280432401 0.31798304606726652 0 0.2063935660007091 0.32855034519399279 0 0.21077738089845169 0.31088331109163542 0 0.2063935660007091 0.32855034519399279 0 0.2305315016519725 0.32991971700294997 0 0.22749410063817641 0.30180696973206089 0 0.2305315016519725 0.32991971700294997 0 0.24272917839956329 0.31328059004144598 0 0.22749410063817641 0.30180696973206089 0 0.21077738089845169 0.31088331109163542 0 0.2305315016519725 0.32991971700294997 0 0.2305315016519725 0.32991971700294997 0 0.24752764304797639 0.34525217349269988 0 0.2327888227618729 0.35510388865134263 0 0.2305315016519725 0.32991971700294997 0 0.24752764304797639 0.34525217349269988 0 0.25326206600745238 0.32966170343052159 0 0.2305315016519725 0.32991971700294997 0 0.24272917839956329 0.31328059004144598 0 0.25326206600745238 0.32966170343052159 0 0.2327888227618729 0.35510388865134263 0 0.23064360590212271 0.38144073425384711 0 0.25515248092861309 0.36423712135043901 0 0.24752764304797639 0.34525217349269988 0 0.2327888227618729 0.35510388865134263 0 0.25515248092861309 0.36423712135043901 0 0.2305315016519725 0.32991971700294997 0 0.2327888227618729 0.35510388865134263 0 0.2069944151791602 0.34799813284750841 0 0.2327888227618729 0.35510388865134263 0 0.21376418722704549 0.365904231889284 0 0.23064360590212271 0.38144073425384711 0 0.21376418722704549 0.365904231889284 0 0.2069944151791602 0.34799813284750841 0 0.19173468148987349 0.36706400533768319 0 0.21376418722704549 0.365904231889284 0 0.19173468148987349 0.36706400533768319 0 0.20455071816150391 0.38262884512807821 0 0.2327888227618729 0.35510388865134263 0 0.21376418722704549 0.365904231889284 0 0.2069944151791602 0.34799813284750841 0 0.1916616658325801 0.33810400531909179 0 0.2069944151791602 0.34799813284750841 0 0.18208648129006819 0.35134073653821429 0 0.2069944151791602 0.34799813284750841 0 0.19173468148987349 0.36706400533768319 0 0.18208648129006819 0.35134073653821429 0 0.19173468148987349 0.36706400533768319 0 0.17244265706663531 0.3645703127933867 0 0.18208648129006819 0.35134073653821429 0 0.19173468148987349 0.36706400533768319 0 0.17244265706663531 0.3645703127933867 0 0.18001416525190109 0.38719194967724219 0 0.17244265706663531 0.3645703127933867 0 0.1489707092392222 0.35809458642279313 0 0.16098541452187809 0.37742330887270281 0 0.17244265706663531 0.3645703127933867 0 0.16546440574517679 0.34487005854583452 0 0.1489707092392222 0.35809458642279313 0 0.17244265706663531 0.3645703127933867 0 0.16546440574517679 0.34487005854583452 0 0.18208648129006819 0.35134073653821429 0 0.1916616658325801 0.33810400531909179 0 0.18208648129006819 0.35134073653821429 0 0.1780774024533523 0.32976993963376122 0 0.16546440574517679 0.34487005854583452 0 0.18208648129006819 0.35134073653821429 0 0.1780774024533523 0.32976993963376122 0 0.17594422743027191 0.30896522277798982 0 0.19313646280432401 0.31798304606726652 0 0.1780774024533523 0.32976993963376122 0 0.17594422743027191 0.30896522277798982 0 0.1780774024533523 0.32976993963376122 0 0.1604695270292123 0.32404117873662808 0 0.15934560227438049 0.30510360682474019 0 0.17594422743027191 0.30896522277798982 0 0.1604695270292123 0.32404117873662808 0 0.16546440574517679 0.34487005854583452 0 0.1780774024533523 0.32976993963376122 0 0.1604695270292123 0.32404117873662808 0 0.16546440574517679 0.34487005854583452 0 0.1604695270292123 0.32404117873662808 0 0.15172456806839019 0.34042858961178329 0 0.1604695270292123 0.32404117873662808 0 0.15172456806839019 0.34042858961178329 0 0.1456747524714142 0.32812822555503057 0 0.15172456806839019 0.34042858961178329 0 0.1456747524714142 0.32812822555503057 0 0.13807741449592689 0.34047288315353502 0 0.14664414872701051 0.31182713077368962 0 0.1604695270292123 0.32404117873662808 0 0.1456747524714142 0.32812822555503057 0 0.14664414872701051 0.31182713077368962 0 0.15934560227438049 0.30510360682474019 0 0.1604695270292123 0.32404117873662808 0 0.14664414872701051 0.31182713077368962 0 0.1456747524714142 0.32812822555503057 0 0.13147508835603169 0.32060333767696908 0 0.1456747524714142 0.32812822555503057 0 0.13147508835603169 0.32060333767696908 0 0.13807741449592689 0.34047288315353502 0 0.1221020608480546 0.33658156122159 0 0.13807741449592689 0.34047288315353502 0 0.12847229697847029 0.35265315113623358 0 0.1221020608480546 0.33658156122159 0 0.13147508835603169 0.32060333767696908 0 0.13807741449592689 0.34047288315353502 0 0.13807741449592689 0.34047288315353502 0 0.12847229697847029 0.35265315113623358 0 0.1489707092392222 0.35809458642279313 0 0.11866913113633711 0.3647349049898142 0 0.12847229697847029 0.35265315113623358 0 0.13179849077276889 0.36744379963551183 0 0.12847229697847029 0.35265315113623358 0 0.13179849077276889 0.36744379963551183 0 0.1489707092392222 0.35809458642279313 0 0.12477743794451 0.37873985157138929 0 0.13179849077276889 0.36744379963551183 0 0.13437240619686919 0.37807431616690312 0 0.12477743794451 0.37873985157138929 0 0.11866913113633711 0.3647349049898142 0 0.13179849077276889 0.36744379963551183 0 0.13179849077276889 0.36744379963551183 0 0.14365646805842081 0.37560042704797469 0 0.13437240619686919 0.37807431616690312 0 0.1489707092392222 0.35809458642279313 0 0.14365646805842081 0.37560042704797469 0 0.16098541452187809 0.37742330887270281 0 0.13179849077276889 0.36744379963551183 0 0.1489707092392222 0.35809458642279313 0 0.14365646805842081 0.37560042704797469 0 0.15172456806839019 0.34042858961178329 0 0.13807741449592689 0.34047288315353502 0 0.1489707092392222 0.35809458642279313 0 0.16546440574517679 0.34487005854583452 0 0.15172456806839019 0.34042858961178329 0 0.1489707092392222 0.35809458642279313 0 0.15617174900064801 0.40175591409294459 0 0.13612678123012301 0.38825231499789858 0 0.1556210299200082 0.40453974481767302 0 0.1369777195271441 0.39821933705683032 0 0.13808754501748949 0.40820834560832242 0 0.15617174900064801 0.40175591409294459 0 0.13612678123012301 0.38825231499789858 0 0.1369777195271441 0.39821933705683032 0 0.15617174900064801 0.40175591409294459 0 0.15001605205744431 0.38688385795189889 0 0.13612678123012301 0.38825231499789858 0 0.1556210299200082 0.40453974481767302 0 0.15617174900064801 0.40175591409294459 0 0.1369777195271441 0.39821933705683032 0 0.1556210299200082 0.40453974481767302 0 0.1369777195271441 0.39821933705683032 0 0.1556210299200082 0.40453974481767302 0 0.15617174900064801 0.40175591409294459 0 0.15001605205744431 0.38688385795189889 0 0.14365646805842081 0.37560042704797469 0 0.16098541452187809 0.37742330887270281 0 0.15617174900064801 0.40175591409294459 0 0.15001605205744431 0.38688385795189889 0 0.16098541452187809 0.37742330887270281 0 0.15001605205744431 0.38688385795189889 0 0.14365646805842081 0.37560042704797469 0 0.13612678123012301 0.38825231499789858 0 0.1183344091342801 0.39189892929598741 0 0.12477743794451 0.37873985157138929 0 0.13612678123012301 0.38825231499789858 0 0.14365646805842081 0.37560042704797469 0 0.13612678123012301 0.38825231499789858 0 0.13437240619686919 0.37807431616690312 0 0.12477743794451 0.37873985157138929 0 0.13612678123012301 0.38825231499789858 0 0.13437240619686919 0.37807431616690312 0 0.1183344091342801 0.39189892929598741 0 0.1328361584149623 0.4037356415067142 0 0.12920075257619701 0.40959789087169429 0 0.1183344091342801 0.39189892929598741 0 0.13612678123012301 0.38825231499789858 0 0.1369777195271441 0.39821933705683032 0 0.1183344091342801 0.39189892929598741 0 0.1369777195271441 0.39821933705683032 0 0.1183344091342801 0.39189892929598741 0 0.1369777195271441 0.39821933705683032 0 0.1328361584149623 0.4037356415067142 0 0.1369777195271441 0.39821933705683032 0 0.1328361584149623 0.4037356415067142 0 0.13808754501748949 0.40820834560832242 0 0.12020792674469589 0.4193587962283476 0 0.12920075257619701 0.40959789087169429 0 0.13260963673788961 0.4178591203987348 0 0.13260963673788961 0.4178591203987348 0 0.13808754501748949 0.40820834560832242 0 0.1416843376465059 0.42234319971968942 0 0.12920075257619701 0.40959789087169429 0 0.13260963673788961 0.4178591203987348 0 0.13808754501748949 0.40820834560832242 0 0.1328361584149623 0.4037356415067142 0 0.12920075257619701 0.40959789087169429 0 0.13808754501748949 0.40820834560832242 0 0.12020792674469589 0.4193587962283476 0 0.13260963673788961 0.4178591203987348 0 0.13386762170456001 0.4297873695656203 0 0.13260963673788961 0.4178591203987348 0 0.13386762170456001 0.4297873695656203 0 0.1416843376465059 0.42234319971968942 0 0.1537530187389361 0.41398235739959821 0 0.1479185626392264 0.44347495847938628 0 0.13386762170456001 0.4297873695656203 0 0.1416843376465059 0.42234319971968942 0 0.1479185626392264 0.44347495847938628 0 0.1537530187389361 0.41398235739959821 0 0.16289030231338389 0.43446635557615121 0 0.1479185626392264 0.44347495847938628 0 0.1416843376465059 0.42234319971968942 0 0.1537530187389361 0.41398235739959821 0 0.1479185626392264 0.44347495847938628 0 0.1556210299200082 0.40453974481767302 0 0.13808754501748949 0.40820834560832242 0 0.1537530187389361 0.41398235739959821 0 0.13808754501748949 0.40820834560832242 0 0.1537530187389361 0.41398235739959821 0 0.13808754501748949 0.40820834560832242 0 0.1416843376465059 0.42234319971968942 0 0.1537530187389361 0.41398235739959821 0 0.1556210299200082 0.40453974481767302 0 0.1537530187389361 0.41398235739959821 0 0.15617174900064801 0.40175591409294459 0 0.1776707043330199 0.41623901414549619 0 0.1537530187389361 0.41398235739959821 0 0.176461339202164 0.42235223579882308 0 0.1556210299200082 0.40453974481767302 0 0.15617174900064801 0.40175591409294459 0 0.1776707043330199 0.41623901414549619 0 0.1537530187389361 0.41398235739959821 0 0.176461339202164 0.42235223579882308 0 0.1776707043330199 0.41623901414549619 0 0.1556210299200082 0.40453974481767302 0 0.1537530187389361 0.41398235739959821 0 0.1776707043330199 0.41623901414549619 0 0.16289030231338389 0.43446635557615121 0 0.176461339202164 0.42235223579882308 0 0.17443187420624881 0.44550257903774909 0 0.1537530187389361 0.41398235739959821 0 0.16289030231338389 0.43446635557615121 0 0.176461339202164 0.42235223579882308 0 0.176461339202164 0.42235223579882308 0 0.18936806422478669 0.44095186634795419 0 0.17443187420624881 0.44550257903774909 0 0.176461339202164 0.42235223579882308 0 0.1776707043330199 0.41623901414549619 0 0.1991696596653921 0.43072211419804751 0 0.1776707043330199 0.41623901414549619 0 0.18001416525190109 0.38719194967724219 0 0.19681813767500581 0.40184903657972321 0 0.15617174900064801 0.40175591409294459 0 0.1776707043330199 0.41623901414549619 0 0.18001416525190109 0.38719194967724219 0 0.15617174900064801 0.40175591409294459 0 0.16098541452187809 0.37742330887270281 0 0.15617174900064801 0.40175591409294459 0 0.16098541452187809 0.37742330887270281 0 0.18001416525190109 0.38719194967724219 0 0.17244265706663531 0.3645703127933867 0 0.16098541452187809 0.37742330887270281 0 0.18001416525190109 0.38719194967724219 0 0.18001416525190109 0.38719194967724219 0 0.19681813767500581 0.40184903657972321 0 0.20455071816150391 0.38262884512807821 0 0.19173468148987349 0.36706400533768319 0 0.18001416525190109 0.38719194967724219 0 0.20455071816150391 0.38262884512807821 0 0.19681813767500581 0.40184903657972321 0 0.2144977495803681 0.39918390426380113 0 0.21073427803244529 0.41561799900684182 0 0.19681813767500581 0.40184903657972321 0 0.2144977495803681 0.39918390426380113 0 0.20455071816150391 0.38262884512807821 0 0.21376418722704549 0.365904231889284 0 0.20455071816150391 0.38262884512807821 0 0.23064360590212271 0.38144073425384711 0 0.2144977495803681 0.39918390426380113 0 0.20455071816150391 0.38262884512807821 0 0.23064360590212271 0.38144073425384711 0 0.2144977495803681 0.39918390426380113 0 0.23064360590212271 0.38144073425384711 0 0.2293303594679946 0.41063605648243368 0 0.23064360590212271 0.38144073425384711 0 0.2293303594679946 0.41063605648243368 0 0.25300728732097127 0.39146035271339369 0 0.23064360590212271 0.38144073425384711 0 0.25300728732097127 0.39146035271339369 0 0.25515248092861309 0.36423712135043901 0 0.24871690010568751 0.44590681543930349 0 0.25086209371332929 0.41868358407634848 0 0.23220494244010129 0.43123361474182781 0 0.24871690010568751 0.44590681543930349 0 0.25086209371332929 0.41868358407634848 0 0.2293303594679946 0.41063605648243368 0 0.23220494244010129 0.43123361474182781 0 0.25086209371332929 0.41868358407634848 0 0.2293303594679946 0.41063605648243368 0 0.25086209371332929 0.41868358407634848 0 0.25300728732097127 0.39146035271339369 0 0.2293303594679946 0.41063605648243368 0 0.21752146555595439 0.42698762086646319 0 0.21073427803244529 0.41561799900684182 0 0.2293303594679946 0.41063605648243368 0 0.23220494244010129 0.43123361474182781 0 0.21752146555595439 0.42698762086646319 0 0.23220494244010129 0.43123361474182781 0 0.22273026352977521 0.43417930616340089 0 0.21752146555595439 0.42698762086646319 0 0.23220494244010129 0.43123361474182781 0 0.22273026352977521 0.43417930616340089 0 0.22248949113051719 0.44258294058566239 0 0.22273026352977521 0.43417930616340089 0 0.21772628148528619 0.43610742190415142 0 0.21752146555595439 0.42698762086646319 0 0.21772628148528619 0.43610742190415142 0 0.21199855980373081 0.43545061599665352 0 0.21752146555595439 0.42698762086646319 0 0.21772628148528619 0.43610742190415142 0 0.21199855980373081 0.43545061599665352 0 0.21425565124785531 0.44088502314422101 0 0.21752146555595439 0.42698762086646319 0 0.20728239574461979 0.42502916960041037 0 0.21073427803244529 0.41561799900684182 0 0.21199855980373081 0.43545061599665352 0 0.21752146555595439 0.42698762086646319 0 0.20728239574461979 0.42502916960041037 0 0.1991696596653921 0.43072211419804751 0 0.21425565124785531 0.44088502314422101 0 0.21199855980373081 0.43545061599665352 0 0.20728239574461979 0.42502916960041037 0 0.1991696596653921 0.43072211419804751 0 0.21199855980373081 0.43545061599665352 0 0.1991696596653921 0.43072211419804751 0 0.21425565124785531 0.44088502314422101 0 0.21199855980373081 0.43545061599665352 0 0.1991696596653921 0.43072211419804751 0 0.2144977495803681 0.39918390426380113 0 0.2293303594679946 0.41063605648243368 0 0.21073427803244529 0.41561799900684182 0 0.20728239574461979 0.42502916960041037 0 0.21073427803244529 0.41561799900684182 0 0.19698801566557611 0.41636749793404598 0 0.1776707043330199 0.41623901414549619 0 0.19698801566557611 0.41636749793404598 0 0.1991696596653921 0.43072211419804751 0 0.1776707043330199 0.41623901414549619 0 0.19681813767500581 0.40184903657972321 0 0.19698801566557611 0.41636749793404598 0 0.19681813767500581 0.40184903657972321 0 0.21073427803244529 0.41561799900684182 0 0.19698801566557611 0.41636749793404598 0 0.176461339202164 0.42235223579882308 0 0.1991696596653921 0.43072211419804751 0 0.176461339202164 0.42235223579882308 0 0.1991696596653921 0.43072211419804751 0 0.18936806422478669 0.44095186634795419 0 0.1776707043330199 0.41623901414549619 0 0.1991696596653921 0.43072211419804751 0 0.20728239574461979 0.42502916960041037 0 0.19698801566557611 0.41636749793404598 0 0.1991696596653921 0.43072211419804751 0 0.18936806422478669 0.44095186634795419 0 0.1982323126156616 0.45248256129347558 0 0.18620592749658199 0.45247834246272639 0 0.1982323126156616 0.45248256129347558 0 0.20170727216267181 0.44217336529690421 0 0.20839595276284639 0.44862774116495407 0 0.1991696596653921 0.43072211419804751 0 0.18936806422478669 0.44095186634795419 0 0.20170727216267181 0.44217336529690421 0 0.18936806422478669 0.44095186634795419 0 0.1982323126156616 0.45248256129347558 0 0.20170727216267181 0.44217336529690421 0 0.1982323126156616 0.45248256129347558 0 0.18742894511092839 0.46442863000884738 0 0.18620592749658199 0.45247834246272639 0 0.1982323126156616 0.45248256129347558 0 0.20065641997409001 0.46792708521518228 0 0.21039415643663631 0.45833065360270259 0 0.1982323126156616 0.45248256129347558 0 0.20065641997409001 0.46792708521518228 0 0.18742894511092839 0.46442863000884738 0 0.20065641997409001 0.46792708521518228 0 0.21039415643663631 0.45833065360270259 0 0.21399953755316181 0.47375036776612051 0 0.1982323126156616 0.45248256129347558 0 0.21039415643663631 0.45833065360270259 0 0.20839595276284639 0.44862774116495407 0 0.21039415643663631 0.45833065360270259 0 0.21821765874597779 0.45002354479021928 0 0.2250314400608236 0.46477661921894808 0 0.21039415643663631 0.45833065360270259 0 0.2250314400608236 0.46477661921894808 0 0.21399953755316181 0.47375036776612051 0 0.1991696596653921 0.43072211419804751 0 0.20170727216267181 0.44217336529690421 0 0.21425565124785531 0.44088502314422101 0 0.20170727216267181 0.44217336529690421 0 0.20839595276284639 0.44862774116495407 0 0.21425565124785531 0.44088502314422101 0 0.20839595276284639 0.44862774116495407 0 0.21821765874597779 0.45002354479021928 0 0.21425565124785531 0.44088502314422101 0 0.21039415643663631 0.45833065360270259 0 0.20839595276284639 0.44862774116495407 0 0.21821765874597779 0.45002354479021928 0 0.21772628148528619 0.43610742190415142 0 0.21425565124785531 0.44088502314422101 0 0.22248949113051719 0.44258294058566239 0 0.21821765874597779 0.45002354479021928 0 0.21425565124785531 0.44088502314422101 0 0.22248949113051719 0.44258294058566239 0 0.22273026352977521 0.43417930616340089 0 0.21772628148528619 0.43610742190415142 0 0.22248949113051719 0.44258294058566239 0 0.23220494244010129 0.43123361474182781 0 0.22248949113051719 0.44258294058566239 0 0.23159201606053861 0.45026220432861352 0 0.21821765874597779 0.45002354479021928 0 0.22248949113051719 0.44258294058566239 0 0.23159201606053861 0.45026220432861352 0 0.21821765874597779 0.45002354479021928 0 0.23159201606053861 0.45026220432861352 0 0.2250314400608236 0.46477661921894808 0 0.23159201606053861 0.45026220432861352 0 0.2250314400608236 0.46477661921894808 0 0.24657170649804561 0.47313004680225862 0 0.24871690010568751 0.44590681543930349 0 0.24657170649804561 0.47313004680225862 0 0.23159201606053861 0.45026220432861352 0 0.24871690010568751 0.44590681543930349 0 0.24657170649804561 0.47313004680225862 0 0.23220494244010129 0.43123361474182781 0 0.23159201606053861 0.45026220432861352 0 0.24871690010568751 0.44590681543930349 0 0.24209566949542341 0.5 0 0.24657170649804561 0.47313004680225862 0 0.2294135650705815 0.48316289802377421 0 0.2250314400608236 0.46477661921894808 0 0.2294135650705815 0.48316289802377421 0 0.21399953755316181 0.47375036776612051 0 0.2250314400608236 0.46477661921894808 0 0.24657170649804561 0.47313004680225862 0 0.2294135650705815 0.48316289802377421 0 0.24209566949542341 0.5 0 0.2294135650705815 0.48316289802377421 0 0.21329165920576809 0.5 0 0.2294135650705815 0.48316289802377421 0 0.21329165920576809 0.5 0 0.21399953755316181 0.47375036776612051 0 0.21329165920576809 0.5 0 0.21399953755316181 0.47375036776612051 0 0.20000752734977431 0.48380345015806048 0 0.20065641997409001 0.46792708521518228 0 0.21399953755316181 0.47375036776612051 0 0.20000752734977431 0.48380345015806048 0 0.20065641997409001 0.46792708521518228 0 0.18496318541236709 0.47899415541063178 0 0.18742894511092839 0.46442863000884738 0 0.20065641997409001 0.46792708521518228 0 0.20000752734977431 0.48380345015806048 0 0.18496318541236709 0.47899415541063178 0 0.20000752734977431 0.48380345015806048 0 0.18448764891611291 0.5 0 0.18496318541236709 0.47899415541063178 0 0.21329165920576809 0.5 0 0.20000752734977431 0.48380345015806048 0 0.18448764891611291 0.5 0 0.18448764891611291 0.5 0 0.17403773849810819 0.4898043564529681 0 0.1626281271181832 0.49899489323547358 0 0.18448764891611291 0.5 0 0.17403773849810819 0.4898043564529681 0 0.18496318541236709 0.47899415541063178 0 0.18448764891611291 0.5 0 0.1626281271181832 0.49899489323547358 0 0.15568363862645759 0.5 0 0.17403773849810819 0.4898043564529681 0 0.1642896114809014 0.48634815957463429 0 0.1717474454151435 0.47977303941332688 0 0.17403773849810819 0.4898043564529681 0 0.1642896114809014 0.48634815957463429 0 0.1626281271181832 0.49899489323547358 0 0.1642896114809014 0.48634815957463429 0 0.1626281271181832 0.49899489323547358 0 0.1523561168288502 0.48598122639732372 0 0.1626281271181832 0.49899489323547358 0 0.15568363862645759 0.5 0 0.1523561168288502 0.48598122639732372 0 0.1626281271181832 0.49899489323547358 0 0.1523561168288502 0.48598122639732372 0 0.15964229247030531 0.47473151505869238 0 0.1717474454151435 0.47977303941332688 0 0.1753402355484957 0.4647667593106507 0 0.1642896114809014 0.48634815957463429 0 0.15964229247030531 0.47473151505869238 0 0.1523561168288502 0.48598122639732372 0 0.1642896114809014 0.48634815957463429 0 0.15964229247030531 0.47473151505869238 0 0.1717474454151435 0.47977303941332688 0 0.1717474454151435 0.47977303941332688 0 0.18496318541236709 0.47899415541063178 0 0.1753402355484957 0.4647667593106507 0 0.17403773849810819 0.4898043564529681 0 0.1717474454151435 0.47977303941332688 0 0.18496318541236709 0.47899415541063178 0 0.18496318541236709 0.47899415541063178 0 0.18742894511092839 0.46442863000884738 0 0.1753402355484957 0.4647667593106507 0 0.1753402355484957 0.4647667593106507 0 0.18620592749658199 0.45247834246272639 0 0.17443187420624881 0.44550257903774909 0 0.18742894511092839 0.46442863000884738 0 0.1753402355484957 0.4647667593106507 0 0.18620592749658199 0.45247834246272639 0 0.18936806422478669 0.44095186634795419 0 0.18620592749658199 0.45247834246272639 0 0.17443187420624881 0.44550257903774909 0 0.16289030231338389 0.43446635557615121 0 0.17443187420624881 0.44550257903774909 0 0.16172038250775739 0.44550419222509391 0 0.17443187420624881 0.44550257903774909 0 0.16172038250775739 0.44550419222509391 0 0.1616407908721704 0.45857287580708911 0 0.16172038250775739 0.44550419222509391 0 0.1616407908721704 0.45857287580708911 0 0.1479185626392264 0.44347495847938628 0 0.16289030231338389 0.43446635557615121 0 0.16172038250775739 0.44550419222509391 0 0.1479185626392264 0.44347495847938628 0 0.15964229247030531 0.47473151505869238 0 0.1616407908721704 0.45857287580708911 0 0.15282143813030469 0.46243672722608548 0 0.1753402355484957 0.4647667593106507 0 0.17443187420624881 0.44550257903774909 0 0.1616407908721704 0.45857287580708911 0 0.15964229247030531 0.47473151505869238 0 0.1753402355484957 0.4647667593106507 0 0.1616407908721704 0.45857287580708911 0 0.1616407908721704 0.45857287580708911 0 0.15282143813030469 0.46243672722608548 0 0.1479185626392264 0.44347495847938628 0 0.1479185626392264 0.44347495847938628 0 0.14208410653951639 0.47296755955917419 0 0.15282143813030469 0.46243672722608548 0 0.1479185626392264 0.44347495847938628 0 0.14208410653951639 0.47296755955917419 0 0.13386762170456001 0.4297873695656203 0 0.1479185626392264 0.44347495847938628 0 0.12732762568223649 0.45427249207276249 0 0.12732762568223649 0.45427249207276249 0 0.14208410653951639 0.47296755955917419 0 0.12732762568223649 0.45427249207276249 0 0.12704858122339069 0.47639866836220968 0 0.14208410653951639 0.47296755955917419 0 0.1479185626392264 0.44347495847938628 0 0.12732762568223649 0.45427249207276249 0 0.14208410653951639 0.47296755955917419 0 0.12704858122339069 0.47639866836220968 0 0.1393740596568728 0.48666657969941279 0 0.14208410653951639 0.47296755955917419 0 0.12704858122339069 0.47639866836220968 0 0.1268796283368023 0.5 0 0.1393740596568728 0.48666657969941279 0 0.1268796283368023 0.5 0 0.1393740596568728 0.48666657969941279 0 0.15568363862645759 0.5 0 0.1393740596568728 0.48666657969941279 0 0.15568363862645759 0.5 0 0.1523561168288502 0.48598122639732372 0 0.15964229247030531 0.47473151505869238 0 0.15282143813030469 0.46243672722608548 0 0.14208410653951639 0.47296755955917419 0 0.15964229247030531 0.47473151505869238 0 0.1523561168288502 0.48598122639732372 0 0.14208410653951639 0.47296755955917419 0 0.1393740596568728 0.48666657969941279 0 0.1523561168288502 0.48598122639732372 0 0.14208410653951639 0.47296755955917419 0 0.1393740596568728 0.48666657969941279 0 0.14208410653951639 0.47296755955917419 0 0.1523561168288502 0.48598122639732372 0 0.14208410653951639 0.47296755955917419 0 0.35642173081973427 0.47794351113122158 0 0.34897318833985708 0.46889287614644171 0 0.36144579128760301 0.46790220863158027 0 0.35642173081973427 0.47794351113122158 0 0.34897318833985708 0.46889287614644171 0 0.34199215385835258 0.48213885680839053 0 0.35642173081973427 0.47794351113122158 0 0.35731171065404438 0.5 0 0.34199215385835258 0.48213885680839053 0 0.35642173081973427 0.47794351113122158 0 0.35731171065404438 0.5 0 0.37403477250918382 0.47762796803941948 0 0.35731171065404438 0.5 0 0.37403477250918382 0.47762796803941948 0 0.3861157209436995 0.5 0 0.35642173081973427 0.47794351113122158 0 0.37403477250918382 0.47762796803941948 0 0.36144579128760301 0.46790220863158027 0 0.36948680566750508 0.45644891607651722 0 0.36144579128760301 0.46790220863158027 0 0.35359157069119562 0.45632002224762752 0 0.36948680566750508 0.45644891607651722 0 0.37257918107088689 0.44704897900482882 0 0.35359157069119562 0.45632002224762752 0 0.37403477250918382 0.47762796803941948 0 0.36948680566750508 0.45644891607651722 0 0.36144579128760301 0.46790220863158027 0 0.36948680566750508 0.45644891607651722 0 0.35359157069119562 0.45632002224762752 0 0.37257918107088689 0.44704897900482882 0 0.35359157069119562 0.45632002224762752 0 0.35597363383089459 0.43468990791136708 0 0.37257918107088689 0.44704897900482882 0 0.35597363383089459 0.43468990791136708 0 0.37257918107088689 0.44704897900482882 0 0.35359157069119562 0.45632002224762752 0 0.35359157069119562 0.45632002224762752 0 0.34165410805335678 0.44439191864075928 0 0.35597363383089459 0.43468990791136708 0 0.34897318833985708 0.46889287614644171 0 0.35359157069119562 0.45632002224762752 0 0.33395635050265959 0.46590727266037452 0 0.35359157069119562 0.45632002224762752 0 0.33395635050265959 0.46590727266037452 0 0.34897318833985708 0.46889287614644171 0 0.36144579128760301 0.46790220863158027 0 0.35359157069119562 0.45632002224762752 0 0.35359157069119562 0.45632002224762752 0 0.32693812836375902 0.45610389054276362 0 0.35359157069119562 0.45632002224762752 0 0.33395635050265959 0.46590727266037452 0 0.32693812836375902 0.45610389054276362 0 0.34165410805335678 0.44439191864075928 0 0.32595252191809032 0.44108302058742949 0 0.32693812836375902 0.45610389054276362 0 0.35359157069119562 0.45632002224762752 0 0.34165410805335678 0.44439191864075928 0 0.32693812836375902 0.45610389054276362 0 0.32595252191809032 0.44108302058742949 0 0.31425343417075308 0.44391012147371062 0 0.32693812836375902 0.45610389054276362 0 0.31425343417075308 0.44391012147371062 0 0.32693812836375902 0.45610389054276362 0 0.31250479798363823 0.45777963094295221 0 0.32595252191809032 0.44108302058742949 0 0.31425343417075308 0.44391012147371062 0 0.31282671669116019 0.43110211358878242 0 0.33395635050265959 0.46590727266037452 0 0.32693812836375902 0.45610389054276362 0 0.3193753706186675 0.4701357733118588 0 0.32693812836375902 0.45610389054276362 0 0.31250479798363823 0.45777963094295221 0 0.3193753706186675 0.4701357733118588 0 0.3193753706186675 0.4701357733118588 0 0.32678224246943111 0.48008948091230608 0 0.31354854613313649 0.48668036816836269 0 0.33395635050265959 0.46590727266037452 0 0.3193753706186675 0.4701357733118588 0 0.32678224246943111 0.48008948091230608 0 0.33395635050265959 0.46590727266037452 0 0.32678224246943111 0.48008948091230608 0 0.34199215385835258 0.48213885680839053 0 0.34897318833985708 0.46889287614644171 0 0.33395635050265959 0.46590727266037452 0 0.34199215385835258 0.48213885680839053 0 0.35731171065404438 0.5 0 0.34199215385835258 0.48213885680839053 0 0.32850770036438931 0.5 0 0.32678224246943111 0.48008948091230608 0 0.34199215385835258 0.48213885680839053 0 0.32850770036438931 0.5 0 0.32850770036438931 0.5 0 0.31354854613313649 0.48668036816836269 0 0.29970369007473402 0.5 0 0.32678224246943111 0.48008948091230608 0 0.32850770036438931 0.5 0 0.31354854613313649 0.48668036816836269 0 0.31354854613313649 0.48668036816836269 0 0.29970369007473402 0.5 0 0.30145937913903459 0.47155610220255278 0 0.3193753706186675 0.4701357733118588 0 0.31354854613313649 0.48668036816836269 0 0.30145937913903459 0.47155610220255278 0 0.30145937913903459 0.47155610220255278 0 0.28011780434008088 0.47811282842326741 0 0.28824843783256682 0.45922914398913067 0 0.29970369007473402 0.5 0 0.30145937913903459 0.47155610220255278 0 0.28011780434008088 0.47811282842326741 0 0.29970369007473402 0.5 0 0.27089967978507867 0.5 0 0.28011780434008088 0.47811282842326741 0 0.24657170649804561 0.47313004680225862 0 0.27089967978507867 0.5 0 0.28011780434008088 0.47811282842326741 0 0.24657170649804561 0.47313004680225862 0 0.28011780434008088 0.47811282842326741 0 0.27103237612140252 0.45876838821716243 0 0.24209566949542341 0.5 0 0.24657170649804561 0.47313004680225862 0 0.27089967978507867 0.5 0 0.24871690010568751 0.44590681543930349 0 0.27103237612140252 0.45876838821716243 0 0.26940077142471769 0.42997743345064349 0 0.24871690010568751 0.44590681543930349 0 0.24657170649804561 0.47313004680225862 0 0.27103237612140252 0.45876838821716243 0 0.28011780434008088 0.47811282842326741 0 0.27103237612140252 0.45876838821716243 0 0.28824843783256682 0.45922914398913067 0 0.27103237612140252 0.45876838821716243 0 0.28813495193633992 0.44051613391879579 0 0.26940077142471769 0.42997743345064349 0 0.27103237612140252 0.45876838821716243 0 0.28813495193633992 0.44051613391879579 0 0.28824843783256682 0.45922914398913067 0 0.28813495193633992 0.44051613391879579 0 0.28824843783256682 0.45922914398913067 0 0.30049767762597618 0.44719226718387523 0 0.30145937913903459 0.47155610220255278 0 0.28824843783256682 0.45922914398913067 0 0.30049767762597618 0.44719226718387523 0 0.31250479798363823 0.45777963094295221 0 0.3193753706186675 0.4701357733118588 0 0.30145937913903459 0.47155610220255278 0 0.31250479798363823 0.45777963094295221 0 0.30145937913903459 0.47155610220255278 0 0.30049767762597618 0.44719226718387523 0 0.28813495193633992 0.44051613391879579 0 0.30049767762597618 0.44719226718387523 0 0.30390532062941239 0.43722709240268492 0 0.31425343417075308 0.44391012147371062 0 0.31250479798363823 0.45777963094295221 0 0.30049767762597618 0.44719226718387523 0 0.31425343417075308 0.44391012147371062 0 0.30049767762597618 0.44719226718387523 0 0.30390532062941239 0.43722709240268492 0 0.28813495193633992 0.44051613391879579 0 0.29884553898529759 0.42718964633057438 0 0.30390532062941239 0.43722709240268492 0 0.31425343417075308 0.44391012147371062 0 0.30390532062941239 0.43722709240268492 0 0.31282671669116019 0.43110211358878242 0 0.29884553898529759 0.42718964633057438 0 0.30390532062941239 0.43722709240268492 0 0.31282671669116019 0.43110211358878242 0 0.29884553898529759 0.42718964633057438 0 0.30527865948290089 0.41814048037090018 0 0.31282671669116019 0.43110211358878242 0 0.30527865948290089 0.41814048037090018 0 0.30568118129416549 0.40539743664734551 0 0.32366764467376108 0.42489467764405231 0 0.29884553898529759 0.42718964633057438 0 0.30527865948290089 0.41814048037090018 0 0.2926914970598159 0.41487268889464168 0 0.30527865948290089 0.41814048037090018 0 0.29844680243592731 0.41002595015684729 0 0.2926914970598159 0.41487268889464168 0 0.30527865948290089 0.41814048037090018 0 0.29844680243592731 0.41002595015684729 0 0.30568118129416549 0.40539743664734551 0 0.29844680243592731 0.41002595015684729 0 0.2926914970598159 0.41487268889464168 0 0.29013587190682688 0.40169319471450182 0 0.2926914970598159 0.41487268889464168 0 0.28550459478910423 0.4252813419042597 0 0.2787326509736191 0.41263216176182399 0 0.2926914970598159 0.41487268889464168 0 0.2787326509736191 0.41263216176182399 0 0.29013587190682688 0.40169319471450182 0 0.28813495193633992 0.44051613391879579 0 0.29884553898529759 0.42718964633057438 0 0.28550459478910423 0.4252813419042597 0 0.29884553898529759 0.42718964633057438 0 0.2926914970598159 0.41487268889464168 0 0.28550459478910423 0.4252813419042597 0 0.28813495193633992 0.44051613391879579 0 0.28550459478910423 0.4252813419042597 0 0.26940077142471769 0.42997743345064349 0 0.28550459478910423 0.4252813419042597 0 0.26940077142471769 0.42997743345064349 0 0.2787326509736191 0.41263216176182399 0 0.26940077142471769 0.42997743345064349 0 0.2787326509736191 0.41263216176182399 0 0.26521707128541411 0.40980314076654317 0 0.25086209371332929 0.41868358407634848 0 0.26521707128541411 0.40980314076654317 0 0.25300728732097127 0.39146035271339369 0 0.26940077142471769 0.42997743345064349 0 0.25086209371332929 0.41868358407634848 0 0.26521707128541411 0.40980314076654317 0 0.24871690010568751 0.44590681543930349 0 0.26940077142471769 0.42997743345064349 0 0.25086209371332929 0.41868358407634848 0 0.25300728732097127 0.39146035271339369 0 0.27108721589503681 0.37852425576425308 0 0.25515248092861309 0.36423712135043901 0 0.25300728732097127 0.39146035271339369 0 0.25515248092861309 0.36423712135043901 0 0.26521707128541411 0.40980314076654317 0 0.25300728732097127 0.39146035271339369 0 0.27408255299443313 0.39626217183050599 0 0.25086209371332929 0.41868358407634848 0 0.25300728732097127 0.39146035271339369 0 0.2787326509736191 0.41263216176182399 0 0.27408255299443313 0.39626217183050599 0 0.29013587190682688 0.40169319471450182 0 0.2787326509736191 0.41263216176182399 0 0.26521707128541411 0.40980314076654317 0 0.27408255299443313 0.39626217183050599 0 0.27108721589503681 0.37852425576425308 0 0.28769471791456991 0.38590019565063871 0 0.28367781224943339 0.37180876407880509 0 0.27408255299443313 0.39626217183050599 0 0.27108721589503681 0.37852425576425308 0 0.28769471791456991 0.38590019565063871 0 0.25300728732097127 0.39146035271339369 0 0.27408255299443313 0.39626217183050599 0 0.27108721589503681 0.37852425576425308 0 0.28769471791456991 0.38590019565063871 0 0.29948606169241782 0.37921082780616228 0 0.28367781224943339 0.37180876407880509 0 0.27408255299443313 0.39626217183050599 0 0.28769471791456991 0.38590019565063871 0 0.29013587190682688 0.40169319471450182 0 0.28769471791456991 0.38590019565063871 0 0.30568118129416549 0.40539743664734551 0 0.28769471791456991 0.38590019565063871 0 0.29013587190682688 0.40169319471450182 0 0.30568118129416549 0.40539743664734551 0 0.29948606169241782 0.37921082780616228 0 0.31488430245141508 0.39498593805855248 0 0.31265195033372228 0.40505820007979249 0 0.29948606169241782 0.37921082780616228 0 0.31265195033372228 0.40505820007979249 0 0.30568118129416549 0.40539743664734551 0 0.29948606169241782 0.37921082780616228 0 0.31265195033372228 0.40505820007979249 0 0.29844680243592731 0.41002595015684729 0 0.29013587190682688 0.40169319471450182 0 0.30568118129416549 0.40539743664734551 0 0.28769471791456991 0.38590019565063871 0 0.30568118129416549 0.40539743664734551 0 0.29948606169241782 0.37921082780616228 0 0.29948606169241782 0.37921082780616228 0 0.31488430245141508 0.39498593805855248 0 0.31330750004580071 0.37415411701346801 0 0.32747532831295961 0.38599912714960932 0 0.33223915897936612 0.37265341838911947 0 0.31330750004580071 0.37415411701346801 0 0.32747532831295961 0.38599912714960932 0 0.31488430245141508 0.39498593805855248 0 0.31330750004580071 0.37415411701346801 0 0.31488430245141508 0.39498593805855248 0 0.31330750004580071 0.37415411701346801 0 0.34416200910384809 0.38579157301965289 0 0.35069326936612882 0.37118886637412279 0 0.33223915897936612 0.37265341838911947 0 0.32747532831295961 0.38599912714960932 0 0.34416200910384809 0.38579157301965289 0 0.33223915897936612 0.37265341838911947 0 0.32747532831295961 0.38599912714960932 0 0.33594843894414061 0.39380505114022307 0 0.34416200910384809 0.38579157301965289 0 0.33594843894414061 0.39380505114022307 0 0.33800705569617462 0.40715825432938629 0 0.35052038150634479 0.39956228277458272 0 0.33594843894414061 0.39380505114022307 0 0.34416200910384809 0.38579157301965289 0 0.35052038150634479 0.39956228277458272 0 0.32747532831295961 0.38599912714960932 0 0.33594843894414061 0.39380505114022307 0 0.32576063417029988 0.39883187217338678 0 0.33594843894414061 0.39380505114022307 0 0.32576063417029988 0.39883187217338678 0 0.33800705569617462 0.40715825432938629 0 0.32576063417029988 0.39883187217338678 0 0.32276253935091181 0.40997176572444149 0 0.33800705569617462 0.40715825432938629 0 0.32576063417029988 0.39883187217338678 0 0.31892201252601171 0.40168833496109502 0 0.32276253935091181 0.40997176572444149 0 0.32747532831295961 0.38599912714960932 0 0.32576063417029988 0.39883187217338678 0 0.31488430245141508 0.39498593805855248 0 0.31265195033372228 0.40505820007979249 0 0.31892201252601171 0.40168833496109502 0 0.32276253935091181 0.40997176572444149 0 0.32576063417029988 0.39883187217338678 0 0.31488430245141508 0.39498593805855248 0 0.31892201252601171 0.40168833496109502 0 0.31488430245141508 0.39498593805855248 0 0.31265195033372228 0.40505820007979249 0 0.31892201252601171 0.40168833496109502 0 0.30568118129416549 0.40539743664734551 0 0.31265195033372228 0.40505820007979249 0 0.32366764467376108 0.42489467764405231 0 0.30568118129416549 0.40539743664734551 0 0.32366764467376108 0.42489467764405231 0 0.31265195033372228 0.40505820007979249 0 0.32276253935091181 0.40997176572444149 0 0.32366764467376108 0.42489467764405231 0 0.32595252191809032 0.44108302058742949 0 0.32366764467376108 0.42489467764405231 0 0.31282671669116019 0.43110211358878242 0 0.30527865948290089 0.41814048037090018 0 0.32366764467376108 0.42489467764405231 0 0.31282671669116019 0.43110211358878242 0 0.34165410805335678 0.44439191864075928 0 0.32366764467376108 0.42489467764405231 0 0.34165410805335678 0.44439191864075928 0 0.32366764467376108 0.42489467764405231 0 0.33936808659090317 0.42233083681790429 0 0.34165410805335678 0.44439191864075928 0 0.32595252191809032 0.44108302058742949 0 0.32366764467376108 0.42489467764405231 0 0.32276253935091181 0.40997176572444149 0 0.33936808659090317 0.42233083681790429 0 0.32276253935091181 0.40997176572444149 0 0.32366764467376108 0.42489467764405231 0 0.33936808659090317 0.42233083681790429 0 0.32276253935091181 0.40997176572444149 0 0.33936808659090317 0.42233083681790429 0 0.33800705569617462 0.40715825432938629 0 0.33800705569617462 0.40715825432938629 0 0.35853659914248509 0.41384827315582129 0 0.35052038150634479 0.39956228277458272 0 0.33936808659090317 0.42233083681790429 0 0.33800705569617462 0.40715825432938629 0 0.35853659914248509 0.41384827315582129 0 0.33936808659090317 0.42233083681790429 0 0.35597363383089459 0.43468990791136708 0 0.34165410805335678 0.44439191864075928 0 0.33936808659090317 0.42233083681790429 0 0.35597363383089459 0.43468990791136708 0 0.33936808659090317 0.42233083681790429 0 0.35853659914248509 0.41384827315582129 0 0.35597363383089459 0.43468990791136708 0 0.35853659914248509 0.41384827315582129 0 0.35597363383089459 0.43468990791136708 0 0.3720653274293948 0.42942526796841929 0 0.37257918107088689 0.44704897900482882 0 0.35597363383089459 0.43468990791136708 0 0.3720653274293948 0.42942526796841929 0 0.35853659914248509 0.41384827315582129 0 0.3720653274293948 0.42942526796841929 0 0.38549768566216952 0.41189251820639777 0 0.35853659914248509 0.41384827315582129 0 0.36809547751414901 0.39154069229026051 0 0.38549768566216952 0.41189251820639777 0 0.36809547751414901 0.39154069229026051 0 0.36705937352462581 0.37888618910900218 0 0.35069326936612882 0.37118886637412279 0 0.36809547751414901 0.39154069229026051 0 0.37452603213945718 0.38481566355808128 0 0.36705937352462581 0.37888618910900218 0 0.36809547751414901 0.39154069229026051 0 0.35069326936612882 0.37118886637412279 0 0.36705937352462581 0.37888618910900218 0 0.37717404253384401 0.37300664547019829 0 0.37452603213945718 0.38481566355808128 0 0.36705937352462581 0.37888618910900218 0 0.37717404253384401 0.37300664547019829 0 0.36705937352462581 0.37888618910900218 0 0.36866344911689358 0.37360261010371099 0 0.37186901320941018 0.37270210263311371 0 0.36809547751414901 0.39154069229026051 0 0.34416200910384809 0.38579157301965289 0 0.35069326936612882 0.37118886637412279 0 0.36809547751414901 0.39154069229026051 0 0.34416200910384809 0.38579157301965289 0 0.35052038150634479 0.39956228277458272 0 0.35853659914248509 0.41384827315582129 0 0.36809547751414901 0.39154069229026051 0 0.35052038150634479 0.39956228277458272 0 0.34993920197684608 0.34855546905499912 0 0.36595366526255652 0.36997777339313642 0 0.34993920197684608 0.34855546905499912 0 0.35176882202906662 0.36224432312549032 0 0.34048915151073528 0.3592551836797036 0 0.35069326936612882 0.37118886637412279 0 0.35176882202906662 0.36224432312549032 0 0.34048915151073528 0.3592551836797036 0 0.35069326936612882 0.37118886637412279 0 0.34048915151073528 0.3592551836797036 0 0.34993920197684608 0.34855546905499912 0 0.35176882202906662 0.36224432312549032 0 0.36595366526255652 0.36997777339313642 0 0.35069326936612882 0.37118886637412279 0 0.35176882202906662 0.36224432312549032 0 0.36595366526255652 0.36997777339313642 0 0.35069326936612882 0.37118886637412279 0 0.36595366526255652 0.36997777339313642 0 0.36595366526255652 0.36997777339313642 0 0.36715279096930381 0.34641616587486918 0 0.37573984188342968 0.36920112448463671 0 0.36705937352462581 0.37888618910900218 0 0.35069326936612882 0.37118886637412279 0 0.36595366526255652 0.36997777339313642 0 0.36705937352462581 0.37888618910900218 0 0.36595366526255652 0.36997777339313642 0 0.36866344911689358 0.37360261010371099 0 0.36595366526255652 0.36997777339313642 0 0.37186901320941018 0.37270210263311371 0 0.37573984188342968 0.36920112448463671 0 0.36705937352462581 0.37888618910900218 0 0.37186901320941018 0.37270210263311371 0 0.37717404253384401 0.37300664547019829 0 0.36595366526255652 0.36997777339313642 0 0.37573984188342968 0.36920112448463671 0 0.36595366526255652 0.36997777339313642 0 0.36866344911689358 0.37360261010371099 0 0.37186901320941018 0.37270210263311371 0 0.36595366526255652 0.36997777339313642 0 0.36866344911689358 0.37360261010371099 0 0.37186901320941018 0.37270210263311371 0 0.37717404253384401 0.37300664547019829 0 0.37573984188342968 0.36920112448463671 0 0.36715279096930381 0.34641616587486918 0 0.37573984188342968 0.36920112448463671 0 0.36715279096930381 0.34641616587486918 0 0.38092396937303252 0.35602699697990531 0 0.37573984188342968 0.36920112448463671 0 0.34993920197684608 0.34855546905499912 0 0.36595366526255652 0.36997777339313642 0 0.36715279096930381 0.34641616587486918 0 0.36715279096930381 0.34641616587486918 0 0.35856574005517811 0.32363120726510181 0 0.37627086720686648 0.3292953429624868 0 0.36715279096930381 0.34641616587486918 0 0.35856574005517811 0.32363120726510181 0 0.37402374526870968 0.31596753099345543 0 0.35856574005517811 0.32363120726510181 0 0.37627086720686648 0.3292953429624868 0 0.34993920197684608 0.34855546905499912 0 0.36715279096930381 0.34641616587486918 0 0.35856574005517811 0.32363120726510181 0 0.34993920197684608 0.34855546905499912 0 0.35856574005517811 0.32363120726510181 0 0.33392473869113598 0.32713316471686149 0 0.33392473869113598 0.32713316471686149 0 0.32422624117002302 0.33972064747451369 0 0.33426630734765211 0.34631557143719321 0 0.34993920197684608 0.34855546905499912 0 0.33392473869113598 0.32713316471686149 0 0.33426630734765211 0.34631557143719321 0 0.34993920197684608 0.34855546905499912 0 0.33392473869113598 0.32713316471686149 0 0.33392473869113598 0.32713316471686149 0 0.31777291249537959 0.30559302045913528 0 0.33517067304336179 0.31093600860933412 0 0.35856574005517811 0.32363120726510181 0 0.33392473869113598 0.32713316471686149 0 0.33517067304336179 0.31093600860933412 0 0.33392473869113598 0.32713316471686149 0 0.31830732739498679 0.32847366711328652 0 0.31777291249537959 0.30559302045913528 0 0.33392473869113598 0.32713316471686149 0 0.31777291249537959 0.30559302045913528 0 0.31830732739498679 0.32847366711328652 0 0.3089007805214426 0.31593503249130178 0 0.31777291249537959 0.30559302045913528 0 0.31830732739498679 0.32847366711328652 0 0.31089528783143627 0.34228533434705188 0 0.3089007805214426 0.31593503249130178 0 0.33392473869113598 0.32713316471686149 0 0.32422624117002302 0.33972064747451369 0 0.31830732739498679 0.32847366711328652 0 0.32422624117002302 0.33972064747451369 0 0.31830732739498679 0.32847366711328652 0 0.31089528783143627 0.34228533434705188 0 0.32422624117002302 0.33972064747451369 0 0.323737544584904 0.35439549975817558 0 0.31089528783143627 0.34228533434705188 0 0.323737544584904 0.35439549975817558 0 0.31288979514142568 0.36863563620280232 0 0.31089528783143627 0.34228533434705188 0 0.32422624117002302 0.33972064747451369 0 0.323737544584904 0.35439549975817558 0 0.33426630734765211 0.34631557143719321 0 0.323737544584904 0.35439549975817558 0 0.33426630734765211 0.34631557143719321 0 0.34048915151073528 0.3592551836797036 0 0.34993920197684608 0.34855546905499912 0 0.33426630734765211 0.34631557143719321 0 0.34048915151073528 0.3592551836797036 0 0.35069326936612882 0.37118886637412279 0 0.34048915151073528 0.3592551836797036 0 0.33223915897936612 0.37265341838911947 0 0.34048915151073528 0.3592551836797036 0 0.33223915897936612 0.37265341838911947 0 0.32359432939369093 0.36568482899172322 0 0.323737544584904 0.35439549975817558 0 0.34048915151073528 0.3592551836797036 0 0.32359432939369093 0.36568482899172322 0 0.35069326936612882 0.37118886637412279 0 0.33223915897936612 0.37265341838911947 0 0.33223915897936612 0.37265341838911947 0 0.31330750004580071 0.37415411701346801 0 0.33223915897936612 0.37265341838911947 0 0.32359432939369093 0.36568482899172322 0 0.31330750004580071 0.37415411701346801 0 0.323737544584904 0.35439549975817558 0 0.32359432939369093 0.36568482899172322 0 0.31288979514142568 0.36863563620280232 0 0.32359432939369093 0.36568482899172322 0 0.31288979514142568 0.36863563620280232 0 0.31330750004580071 0.37415411701346801 0 0.31288979514142568 0.36863563620280232 0 0.31330750004580071 0.37415411701346801 0 0.29948606169241782 0.37921082780616228 0 0.31288979514142568 0.36863563620280232 0 0.29926904759400602 0.36316260273495049 0 0.31288979514142568 0.36863563620280232 0 0.29926904759400602 0.36316260273495049 0 0.30051629613276248 0.35201355720570282 0 0.29948606169241782 0.37921082780616228 0 0.31288979514142568 0.36863563620280232 0 0.31330750004580071 0.37415411701346801 0 0.31288979514142568 0.36863563620280232 0 0.30051629613276248 0.35201355720570282 0 0.31089528783143627 0.34228533434705188 0 0.31288979514142568 0.36863563620280232 0 0.31089528783143627 0.34228533434705188 0 0.30051629613276248 0.35201355720570282 0 0.29937681276575678 0.33982095312561811 0 0.31089528783143627 0.34228533434705188 0 0.30051629613276248 0.35201355720570282 0 0.29364397097014833 0.34626845389834549 0 0.29937681276575678 0.33982095312561811 0 0.30051629613276248 0.35201355720570282 0 0.29364397097014833 0.34626845389834549 0 0.28632017305111329 0.35336345553253212 0 0.29364397097014833 0.34626845389834549 0 0.28632017305111329 0.35336345553253212 0 0.28836260193096053 0.33987584972952911 0 0.29926904759400602 0.36316260273495049 0 0.30051629613276248 0.35201355720570282 0 0.28632017305111329 0.35336345553253212 0 0.28632017305111329 0.35336345553253212 0 0.28033454754700909 0.33873736605428723 0 0.28836260193096053 0.33987584972952911 0 0.29948606169241782 0.37921082780616228 0 0.28632017305111329 0.35336345553253212 0 0.29948606169241782 0.37921082780616228 0 0.28632017305111329 0.35336345553253212 0 0.28367781224943339 0.37180876407880509 0 0.29948606169241782 0.37921082780616228 0 0.29926904759400602 0.36316260273495049 0 0.28632017305111329 0.35336345553253212 0 0.27108721589503681 0.37852425576425308 0 0.27273342983706672 0.36205181153794602 0 0.25515248092861309 0.36423712135043901 0 0.28632017305111329 0.35336345553253212 0 0.28367781224943339 0.37180876407880509 0 0.27273342983706672 0.36205181153794602 0 0.27108721589503681 0.37852425576425308 0 0.28367781224943339 0.37180876407880509 0 0.27273342983706672 0.36205181153794602 0 0.28632017305111329 0.35336345553253212 0 0.27273342983706672 0.36205181153794602 0 0.26590334388997089 0.34733843702824613 0 0.27273342983706672 0.36205181153794602 0 0.26590334388997089 0.34733843702824613 0 0.25515248092861309 0.36423712135043901 0 0.24752764304797639 0.34525217349269988 0 0.26590334388997089 0.34733843702824613 0 0.25515248092861309 0.36423712135043901 0 0.24272917839956329 0.31328059004144598 0 0.25326206600745238 0.32966170343052159 0 0.25998839576850458 0.30166871098527193 0 0.25326206600745238 0.32966170343052159 0 0.27315428440980899 0.32751608325890202 0 0.25998839576850458 0.30166871098527193 0 0.26590334388997089 0.34733843702824613 0 0.25326206600745238 0.32966170343052159 0 0.27315428440980899 0.32751608325890202 0 0.24752764304797639 0.34525217349269988 0 0.26590334388997089 0.34733843702824613 0 0.25326206600745238 0.32966170343052159 0 0.28632017305111329 0.35336345553253212 0 0.26590334388997089 0.34733843702824613 0 0.27315428440980899 0.32751608325890202 0 0.28632017305111329 0.35336345553253212 0 0.27315428440980899 0.32751608325890202 0 0.28632017305111329 0.35336345553253212 0 0.28033454754700909 0.33873736605428723 0 0.27315428440980899 0.32751608325890202 0 0.28033454754700909 0.33873736605428723 0 0.27315428440980899 0.32751608325890202 0 0.28357917500251162 0.32727681570481448 0 0.27315428440980899 0.32751608325890202 0 0.28447986149473992 0.31932256201967602 0 0.28357917500251162 0.32727681570481448 0 0.27315428440980899 0.32751608325890202 0 0.25998839576850458 0.30166871098527193 0 0.27315428440980899 0.32751608325890202 0 0.27962077022733572 0.31098465354846028 0 0.25998839576850458 0.30166871098527193 0 0.27315428440980899 0.32751608325890202 0 0.28447986149473992 0.31932256201967602 0 0.27962077022733572 0.31098465354846028 0 0.28447986149473992 0.31932256201967602 0 0.29181535379359552 0.30862430196973623 0 0.27962077022733572 0.31098465354846028 0 0.28447986149473992 0.31932256201967602 0 0.28357917500251162 0.32727681570481448 0 0.29422972404044739 0.32221095561646712 0 0.28447986149473992 0.31932256201967602 0 0.29422972404044739 0.32221095561646712 0 0.29181535379359552 0.30862430196973623 0 0.28033454754700909 0.33873736605428723 0 0.28357917500251162 0.32727681570481448 0 0.29422972404044739 0.32221095561646712 0 0.28033454754700909 0.33873736605428723 0 0.29422972404044739 0.32221095561646712 0 0.28836260193096053 0.33987584972952911 0 0.29422972404044739 0.32221095561646712 0 0.28836260193096053 0.33987584972952911 0 0.29863169122620042 0.32790544111041448 0 0.28033454754700909 0.33873736605428723 0 0.29422972404044739 0.32221095561646712 0 0.28836260193096053 0.33987584972952911 0 0.29863169122620042 0.32790544111041448 0 0.28836260193096053 0.33987584972952911 0 0.29937681276575678 0.33982095312561811 0 0.29863169122620042 0.32790544111041448 0 0.29364397097014833 0.34626845389834549 0 0.28836260193096053 0.33987584972952911 0 0.29937681276575678 0.33982095312561811 0 0.31089528783143627 0.34228533434705188 0 0.3089007805214426 0.31593503249130178 0 0.31089528783143627 0.34228533434705188 0 0.29863169122620042 0.32790544111041448 0 0.3089007805214426 0.31593503249130178 0 0.29937681276575678 0.33982095312561811 0 0.31089528783143627 0.34228533434705188 0 0.29863169122620042 0.32790544111041448 0 0.29422972404044739 0.32221095561646712 0 0.30812490053388608 0.30568454517864718 0 0.29422972404044739 0.32221095561646712 0 0.3089007805214426 0.31593503249130178 0 0.30812490053388608 0.30568454517864718 0 0.29422972404044739 0.32221095561646712 0 0.29863169122620042 0.32790544111041448 0 0.3089007805214426 0.31593503249130178 0 0.29863169122620042 0.32790544111041448 0 0.3089007805214426 0.31593503249130178 0 0.30812490053388608 0.30568454517864718 0 0.29600026563304233 0.29553248063978937 0 0.29181535379359552 0.30862430196973623 0 0.29422972404044739 0.32221095561646712 0 0.30812490053388608 0.30568454517864718 0 0.29181535379359552 0.30862430196973623 0 0.3089007805214426 0.31593503249130178 0 0.30812490053388608 0.30568454517864718 0 0.3089007805214426 0.31593503249130178 0 0.30812490053388608 0.30568454517864718 0 0.31777291249537959 0.30559302045913528 0 0.30812490053388608 0.30568454517864718 0 0.30654017076214912 0.28474799225856551 0 0.30812490053388608 0.30568454517864718 0 0.30654017076214912 0.28474799225856551 0 0.29600026563304233 0.29553248063978937 0 0.30654017076214912 0.28474799225856551 0 0.29012427262132567 0.28223564679345259 0 0.29600026563304233 0.29553248063978937 0 0.29012427262132567 0.28223564679345259 0 0.28339663045425523 0.29636991699854598 0 0.27037488973080048 0.2798320676603176 0 0.29012427262132567 0.28223564679345259 0 0.29600026563304233 0.29553248063978937 0 0.28339663045425523 0.29636991699854598 0 0.29600026563304233 0.29553248063978937 0 0.28339663045425523 0.29636991699854598 0 0.29181535379359552 0.30862430196973623 0 0.28339663045425523 0.29636991699854598 0 0.29181535379359552 0.30862430196973623 0 0.27962077022733572 0.31098465354846028 0 0.28339663045425523 0.29636991699854598 0 0.27962077022733572 0.31098465354846028 0 0.25998839576850458 0.30166871098527193 0 0.28339663045425523 0.29636991699854598 0 0.25998839576850458 0.30166871098527193 0 0.27037488973080048 0.2798320676603176 0 0.24682250712720019 0.27582133871164177 0 0.25998839576850458 0.30166871098527193 0 0.27037488973080048 0.2798320676603176 0 0.24682250712720019 0.27582133871164177 0 0.25998839576850458 0.30166871098527193 0 0.26299921505984269 0.2564796415422389 0 0.26022485699583159 0.26755778637080552 0 0.27354128291072149 0.26818250516715347 0 0.26299921505984269 0.2564796415422389 0 0.25092579941719262 0.26245818326567438 0 0.26022485699583159 0.26755778637080552 0 0.24682250712720019 0.27582133871164177 0 0.26022485699583159 0.26755778637080552 0 0.27037488973080048 0.2798320676603176 0 0.24682250712720019 0.27582133871164177 0 0.25092579941719262 0.26245818326567438 0 0.26022485699583159 0.26755778637080552 0 0.26022485699583159 0.26755778637080552 0 0.27037488973080048 0.2798320676603176 0 0.27354128291072149 0.26818250516715347 0 0.27037488973080048 0.2798320676603176 0 0.27354128291072149 0.26818250516715347 0 0.28385907912893199 0.2727714497145371 0 0.26299921505984269 0.2564796415422389 0 0.2845791246550598 0.25188314175314308 0 0.29234181163378681 0.26298531664647068 0 0.26299921505984269 0.2564796415422389 0 0.2845791246550598 0.25188314175314308 0 0.27316698385625021 0.2438545266825885 0 0.26299921505984269 0.2564796415422389 0 0.27354128291072149 0.26818250516715347 0 0.29234181163378681 0.26298531664647068 0 0.26299921505984269 0.2564796415422389 0 0.29234181163378681 0.26298531664647068 0 0.2845791246550598 0.25188314175314308 0 0.29357076516516312 0.25632618476893498 0 0.29205694999782089 0.25005763771083278 0 0.2845791246550598 0.25188314175314308 0 0.29234181163378681 0.26298531664647068 0 0.29357076516516312 0.25632618476893498 0 0.29357076516516312 0.25632618476893498 0 0.29205694999782089 0.25005763771083278 0 0.29821588257969661 0.25350816926612368 0 0.29012427262132567 0.28223564679345259 0 0.27037488973080048 0.2798320676603176 0 0.28385907912893199 0.2727714497145371 0 0.27354128291072149 0.26818250516715347 0 0.29234181163378681 0.26298531664647068 0 0.28385907912893199 0.2727714497145371 0 0.29234181163378681 0.26298531664647068 0 0.28385907912893199 0.2727714497145371 0 0.29534899613660481 0.272832308646833 0 0.29012427262132567 0.28223564679345259 0 0.28385907912893199 0.2727714497145371 0 0.29534899613660481 0.272832308646833 0 0.30654017076214912 0.28474799225856551 0 0.29534899613660481 0.272832308646833 0 0.30495544099041139 0.26381143933848378 0 0.30654017076214912 0.28474799225856551 0 0.30495544099041139 0.26381143933848378 0 0.32314959624263129 0.27097739870548471 0 0.30654017076214912 0.28474799225856551 0 0.29012427262132567 0.28223564679345259 0 0.29534899613660481 0.272832308646833 0 0.30654017076214912 0.28474799225856551 0 0.30495544099041139 0.26381143933848378 0 0.29234181163378681 0.26298531664647068 0 0.29534899613660481 0.272832308646833 0 0.30495544099041139 0.26381143933848378 0 0.30421742080716502 0.25429470686108768 0 0.31551315645745248 0.25563778672920789 0 0.29348150124841538 0.24189289693695701 0 0.30421742080716502 0.25429470686108768 0 0.29821588257969661 0.25350816926612368 0 0.30495544099041139 0.26381143933848378 0 0.29357076516516312 0.25632618476893498 0 0.29821588257969661 0.25350816926612368 0 0.30495544099041139 0.26381143933848378 0 0.29234181163378681 0.26298531664647068 0 0.29357076516516312 0.25632618476893498 0 0.30495544099041139 0.26381143933848378 0 0.30421742080716502 0.25429470686108768 0 0.30495544099041139 0.26381143933848378 0 0.31551315645745248 0.25563778672920789 0 0.30495544099041139 0.26381143933848378 0 0.31551315645745248 0.25563778672920789 0 0.32314959624263129 0.27097739870548471 0 0.31551315645745248 0.25563778672920789 0 0.33828413173126581 0.2588085983112095 0 0.32952182526965618 0.2466596864574821 0 0.31551315645745248 0.25563778672920789 0 0.3380978093382434 0.2693214146626437 0 0.31551315645745248 0.25563778672920789 0 0.3380978093382434 0.2693214146626437 0 0.32314959624263129 0.27097739870548471 0 0.31551315645745248 0.25563778672920789 0 0.3380978093382434 0.2693214146626437 0 0.33724390255851328 0.26705565068530712 0 0.31551315645745248 0.25563778672920789 0 0.33828413173126581 0.2588085983112095 0 0.33724390255851328 0.26705565068530712 0 0.33828413173126581 0.2588085983112095 0 0.3380978093382434 0.2693214146626437 0 0.35430420969765652 0.25076057804977192 0 0.33828413173126581 0.2588085983112095 0 0.3380978093382434 0.2693214146626437 0 0.33724390255851328 0.26705565068530712 0 0.33828413173126581 0.2588085983112095 0 0.34337253149540331 0.24931008363683421 0 0.32952182526965618 0.2466596864574821 0 0.3380978093382434 0.2693214146626437 0 0.32314959624263129 0.27097739870548471 0 0.32319953700004772 0.28775532855024549 0 0.3380978093382434 0.2693214146626437 0 0.32319953700004772 0.28775532855024549 0 0.34139163822692492 0.27806129004556751 0 0.3380978093382434 0.2693214146626437 0 0.32319953700004772 0.28775532855024549 0 0.34139163822692492 0.27806129004556751 0 0.3380978093382434 0.2693214146626437 0 0.34139163822692492 0.27806129004556751 0 0.3380978093382434 0.2693214146626437 0 0.34490018235423409 0.27397147198530658 0 0.34139163822692492 0.27806129004556751 0 0.34490018235423409 0.27397147198530658 0 0.3380978093382434 0.2693214146626437 0 0.34490018235423409 0.27397147198530658 0 0.3380978093382434 0.2693214146626437 0 0.33724390255851328 0.26705565068530712 0 0.3380978093382434 0.2693214146626437 0 0.32314959624263129 0.27097739870548471 0 0.30654017076214912 0.28474799225856551 0 0.32314959624263129 0.27097739870548471 0 0.32319953700004772 0.28775532855024549 0 0.30812490053388608 0.30568454517864718 0 0.32319953700004772 0.28775532855024549 0 0.30812490053388608 0.30568454517864718 0 0.30654017076214912 0.28474799225856551 0 0.32319953700004772 0.28775532855024549 0 0.30812490053388608 0.30568454517864718 0 0.32319953700004772 0.28775532855024549 0 0.32514620937418232 0.29699816126843342 0 0.31777291249537959 0.30559302045913528 0 0.32514620937418232 0.29699816126843342 0 0.33517067304336179 0.31093600860933412 0 0.30812490053388608 0.30568454517864718 0 0.31777291249537959 0.30559302045913528 0 0.32514620937418232 0.29699816126843342 0 0.3089007805214426 0.31593503249130178 0 0.31777291249537959 0.30559302045913528 0 0.31777291249537959 0.30559302045913528 0 0.32514620937418232 0.29699816126843342 0 0.32514620937418232 0.29699816126843342 0 0.33517067304336179 0.31093600860933412 0 0.34997868914105229 0.30084624865533433 0 0.34139163822692492 0.27806129004556751 0 0.32514620937418232 0.29699816126843342 0 0.34139163822692492 0.27806129004556751 0 0.32514620937418232 0.29699816126843342 0 0.34997868914105229 0.30084624865533433 0 0.34139163822692492 0.27806129004556751 0 0.32319953700004772 0.28775532855024549 0 0.32514620937418232 0.29699816126843342 0 0.34139163822692492 0.27806129004556751 0 0.34997868914105229 0.30084624865533433 0 0.3547385650510016 0.28679331896111182 0 0.34997868914105229 0.30084624865533433 0 0.3656187323559944 0.2966924434836124 0 0.34139163822692492 0.27806129004556751 0 0.3547385650510016 0.28679331896111182 0 0.34997868914105229 0.30084624865533433 0 0.3547385650510016 0.28679331896111182 0 0.35122328871939867 0.27791626865669722 0 0.35736780855003991 0.28085179988934689 0 0.3547385650510016 0.28679331896111182 0 0.36366131374293059 0.2848894150598219 0 0.35736780855003991 0.28085179988934689 0 0.35856574005517811 0.32363120726510181 0 0.34997868914105229 0.30084624865533433 0 0.35856574005517811 0.32363120726510181 0 0.34997868914105229 0.30084624865533433 0 0.3656187323559944 0.2966924434836124 0 0.35856574005517811 0.32363120726510181 0 0.33517067304336179 0.31093600860933412 0 0.34997868914105229 0.30084624865533433 0 0.37402374526870968 0.31596753099345543 0 0.3656187323559944 0.2966924434836124 0 0.37836067311928262 0.30227873978139319 0 0.37402374526870968 0.31596753099345543 0 0.35856574005517811 0.32363120726510181 0 0.3656187323559944 0.2966924434836124 0 0.3656187323559944 0.2966924434836124 0 0.37438280421435099 0.29385102579281108 0 0.37836067311928262 0.30227873978139319 0 0.36366131374293059 0.2848894150598219 0 0.36286950438424292 0.27872016457474408 0 0.35736780855003991 0.28085179988934689 0 0.3547385650510016 0.28679331896111182 0 0.36366131374293059 0.2848894150598219 0 0.3656187323559944 0.2966924434836124 0 0.36366131374293059 0.2848894150598219 0 0.3656187323559944 0.2966924434836124 0 0.37147493321162761 0.28689755530513028 0 0.3656187323559944 0.2966924434836124 0 0.37438280421435099 0.29385102579281108 0 0.37147493321162761 0.28689755530513028 0 0.36366131374293059 0.2848894150598219 0 0.37147493321162761 0.28689755530513028 0 0.36989833890467733 0.27938120814498613 0 0.37147493321162761 0.28689755530513028 0 0.36989833890467733 0.27938120814498613 0 0.37816064062645022 0.28008130448562779 0 0.36989833890467733 0.27938120814498613 0 0.36430825371193898 0.27328653033931488 0 0.37490178945768787 0.27264147091840529 0 0.36989833890467733 0.27938120814498613 0 0.37490178945768787 0.27264147091840529 0 0.37816064062645022 0.28008130448562779 0 0.36366131374293059 0.2848894150598219 0 0.36989833890467733 0.27938120814498613 0 0.36286950438424292 0.27872016457474408 0 0.36989833890467733 0.27938120814498613 0 0.36286950438424292 0.27872016457474408 0 0.36430825371193898 0.27328653033931488 0 0.36286950438424292 0.27872016457474408 0 0.36430825371193898 0.27328653033931488 0 0.35721128364652821 0.27452500046877121 0 0.36226479981470638 0.26664416151296411 0 0.36430825371193898 0.27328653033931488 0 0.37490178945768787 0.27264147091840529 0 0.36226479981470638 0.26664416151296411 0 0.36430825371193898 0.27328653033931488 0 0.35870380606379149 0.26780717641601881 0 0.36226479981470638 0.26664416151296411 0 0.35870380606379149 0.26780717641601881 0 0.36430825371193898 0.27328653033931488 0 0.35721128364652821 0.27452500046877121 0 0.35870380606379149 0.26780717641601881 0 0.36139665677837463 0.25474196351046408 0 0.39029188694281408 0.2574905593728794 0 0.37277068113571032 0.2414835610088707 0 0.36226479981470638 0.26664416151296411 0 0.36139665677837463 0.25474196351046408 0 0.39029188694281408 0.2574905593728794 0 0.33828413173126581 0.2588085983112095 0 0.35430420969765652 0.25076057804977192 0 0.34337253149540331 0.24931008363683421 0 0.3380978093382434 0.2693214146626437 0 0.35430420969765652 0.25076057804977192 0 0.33828413173126581 0.2588085983112095 0 0.35430420969765652 0.25076057804977192 0 0.36139665677837463 0.25474196351046408 0 0.35430420969765652 0.25076057804977192 0 0.35002263242103732 0.26800036601205601 0 0.3380978093382434 0.2693214146626437 0 0.35430420969765652 0.25076057804977192 0 0.35002263242103732 0.26800036601205601 0 0.36226479981470638 0.26664416151296411 0 0.36139665677837463 0.25474196351046408 0 0.35002263242103732 0.26800036601205601 0 0.36139665677837463 0.25474196351046408 0 0.35002263242103732 0.26800036601205601 0 0.3380978093382434 0.2693214146626437 0 0.35002263242103732 0.26800036601205601 0 0.34490018235423409 0.27397147198530658 0 0.3380978093382434 0.2693214146626437 0 0.35002263242103732 0.26800036601205601 0 0.35002263242103732 0.26800036601205601 0 0.34986724542603559 0.2730498222815459 0 0.35395124188934818 0.27084559129459812 0 0.35002263242103732 0.26800036601205601 0 0.34986724542603559 0.2730498222815459 0 0.34490018235423409 0.27397147198530658 0 0.35002263242103732 0.26800036601205601 0 0.34490018235423409 0.27397147198530658 0 0.34139163822692492 0.27806129004556751 0 0.3547385650510016 0.28679331896111182 0 0.35122328871939867 0.27791626865669722 0 0.34139163822692492 0.27806129004556751 0 0.34490018235423409 0.27397147198530658 0 0.35122328871939867 0.27791626865669722 0 0.34490018235423409 0.27397147198530658 0 0.35122328871939867 0.27791626865669722 0 0.34986724542603559 0.2730498222815459 0 0.34490018235423409 0.27397147198530658 0 0.35122328871939867 0.27791626865669722 0 0.34986724542603559 0.2730498222815459 0 0.35122328871939867 0.27791626865669722 0 0.35721128364652821 0.27452500046877121 0 0.35122328871939867 0.27791626865669722 0 0.35736780855003991 0.28085179988934689 0 0.35721128364652821 0.27452500046877121 0 0.36286950438424292 0.27872016457474408 0 0.35736780855003991 0.28085179988934689 0 0.35721128364652821 0.27452500046877121 0 0.35721128364652821 0.27452500046877121 0 0.35870380606379149 0.26780717641601881 0 0.35395124188934818 0.27084559129459812 0 0.36226479981470638 0.26664416151296411 0 0.35002263242103732 0.26800036601205601 0 0.35870380606379149 0.26780717641601881 0 0.35002263242103732 0.26800036601205601 0 0.35870380606379149 0.26780717641601881 0 0.35395124188934818 0.27084559129459812 0 0.36226479981470638 0.26664416151296411 0 0.35002263242103732 0.26800036601205601 0 0.34986724542603559 0.2730498222815459 0 0.35721128364652821 0.27452500046877121 0 0.35395124188934818 0.27084559129459812 0 0.39429640722755738 0.2728017032917171 0 0.40334642600567622 0.27004594656912989 0 0.38845568317727658 0.26374269866661743 0 0.39429640722755738 0.2728017032917171 0 0.40482145137025322 0.27905039039486929 0 0.39530007021529862 0.28578811858671271 0 0.39429640722755738 0.2728017032917171 0 0.38702864184225882 0.27862991937339487 0 0.39530007021529862 0.28578811858671271 0 0.39429640722755738 0.2728017032917171 0 0.40482145137025322 0.27905039039486929 0 0.40334642600567622 0.27004594656912989 0 0.40334642600567622 0.27004594656912989 0 0.38845568317727658 0.26374269866661743 0 0.41464656653984711 0.26084123582027069 0 0.39029188694281408 0.2574905593728794 0 0.38845568317727658 0.26374269866661743 0 0.41464656653984711 0.26084123582027069 0 0.39029188694281408 0.2574905593728794 0 0.41831897407092172 0.2483369572327947 0 0.38845568317727658 0.26374269866661743 0 0.41464656653984711 0.26084123582027069 0 0.36226479981470638 0.26664416151296411 0 0.38845568317727658 0.26374269866661743 0 0.36226479981470638 0.26664416151296411 0 0.39029188694281408 0.2574905593728794 0 0.36226479981470638 0.26664416151296411 0 0.39029188694281408 0.2574905593728794 0 0.38845568317727658 0.26374269866661743 0 0.37490178945768787 0.27264147091840529 0 0.38845568317727658 0.26374269866661743 0 0.38358326217195088 0.27340230857074149 0 0.36226479981470638 0.26664416151296411 0 0.37490178945768787 0.27264147091840529 0 0.38845568317727658 0.26374269866661743 0 0.38845568317727658 0.26374269866661743 0 0.38888069841390982 0.27057899167008809 0 0.38358326217195088 0.27340230857074149 0 0.39429640722755738 0.2728017032917171 0 0.38845568317727658 0.26374269866661743 0 0.38888069841390982 0.27057899167008809 0 0.38888069841390982 0.27057899167008809 0 0.38358326217195088 0.27340230857074149 0 0.38702864184225882 0.27862991937339487 0 0.39429640722755738 0.2728017032917171 0 0.38888069841390982 0.27057899167008809 0 0.38702864184225882 0.27862991937339487 0 0.38358326217195088 0.27340230857074149 0 0.38702864184225882 0.27862991937339487 0 0.37816064062645022 0.28008130448562779 0 0.37490178945768787 0.27264147091840529 0 0.38358326217195088 0.27340230857074149 0 0.37816064062645022 0.28008130448562779 0 0.38702864184225882 0.27862991937339487 0 0.37816064062645022 0.28008130448562779 0 0.38207687817049929 0.2895353646011089 0 0.37147493321162761 0.28689755530513028 0 0.37816064062645022 0.28008130448562779 0 0.38207687817049929 0.2895353646011089 0 0.37438280421435099 0.29385102579281108 0 0.37147493321162761 0.28689755530513028 0 0.38207687817049929 0.2895353646011089 0 0.37438280421435099 0.29385102579281108 0 0.38207687817049929 0.2895353646011089 0 0.37836067311928262 0.30227873978139319 0 0.38207687817049929 0.2895353646011089 0 0.39530007021529862 0.28578811858671271 0 0.39092065307405383 0.29563699302657009 0 0.38207687817049929 0.2895353646011089 0 0.37836067311928262 0.30227873978139319 0 0.39092065307405383 0.29563699302657009 0 0.38702864184225882 0.27862991937339487 0 0.38207687817049929 0.2895353646011089 0 0.39530007021529862 0.28578811858671271 0 0.37836067311928262 0.30227873978139319 0 0.39415356184628919 0.30595699228162099 0 0.39092065307405383 0.29563699302657009 0 0.37836067311928262 0.30227873978139319 0 0.39415356184628919 0.30595699228162099 0 0.3856286313127269 0.31571194480164971 0 0.37402374526870968 0.31596753099345543 0 0.37836067311928262 0.30227873978139319 0 0.3856286313127269 0.31571194480164971 0 0.39415356184628919 0.30595699228162099 0 0.40101132743318763 0.29759486725810058 0 0.39092065307405383 0.29563699302657009 0 0.39415356184628919 0.30595699228162099 0 0.40101132743318763 0.29759486725810058 0 0.40556651222628087 0.30703085543000452 0 0.39415356184628919 0.30595699228162099 0 0.40556651222628087 0.30703085543000452 0 0.39822314612114679 0.31637598235324338 0 0.40101132743318763 0.29759486725810058 0 0.39530007021529862 0.28578811858671271 0 0.39092065307405383 0.29563699302657009 0 0.40101132743318763 0.29759486725810058 0 0.39530007021529862 0.28578811858671271 0 0.40915758355844811 0.29083530314823719 0 0.40482145137025322 0.27905039039486929 0 0.39530007021529862 0.28578811858671271 0 0.40915758355844811 0.29083530314823719 0 0.40482145137025322 0.27905039039486929 0 0.40915758355844811 0.29083530314823719 0 0.41456343711451321 0.28288844111204181 0 0.40101132743318763 0.29759486725810058 0 0.40915758355844811 0.29083530314823719 0 0.41400399464209459 0.29927976065663081 0 0.40915758355844811 0.29083530314823719 0 0.42017890343412312 0.29099558880193971 0 0.41400399464209459 0.29927976065663081 0 0.40915758355844811 0.29083530314823719 0 0.42017890343412312 0.29099558880193971 0 0.41456343711451321 0.28288844111204181 0 0.42017890343412312 0.29099558880193971 0 0.41456343711451321 0.28288844111204181 0 0.42428861628202591 0.28006462345759542 0 0.40556651222628087 0.30703085543000452 0 0.41473779447754489 0.30750100413301701 0 0.40987544956978988 0.31542644754652233 0 0.40101132743318763 0.29759486725810058 0 0.40556651222628087 0.30703085543000452 0 0.41400399464209459 0.29927976065663081 0 0.40556651222628087 0.30703085543000452 0 0.41400399464209459 0.29927976065663081 0 0.41473779447754489 0.30750100413301701 0 0.41400399464209459 0.29927976065663081 0 0.41473779447754489 0.30750100413301701 0 0.4240670348405291 0.30317028145176977 0 0.42017890343412312 0.29099558880193971 0 0.41400399464209459 0.29927976065663081 0 0.4240670348405291 0.30317028145176977 0 0.41473779447754489 0.30750100413301701 0 0.41990769599360178 0.31393765902590409 0 0.40987544956978988 0.31542644754652233 0 0.41473779447754489 0.30750100413301701 0 0.4240670348405291 0.30317028145176977 0 0.41990769599360178 0.31393765902590409 0 0.42883453868669541 0.31202881144130162 0 0.4240670348405291 0.30317028145176977 0 0.41990769599360178 0.31393765902590409 0 0.4240670348405291 0.30317028145176977 0 0.43722716731195788 0.3055689731817478 0 0.43333604111525509 0.29076808352112671 0 0.42883453868669541 0.31202881144130162 0 0.43722716731195788 0.3055689731817478 0 0.43677859240352901 0.31447092301999319 0 0.42883453868669541 0.31202881144130162 0 0.4240670348405291 0.30317028145176977 0 0.43722716731195788 0.3055689731817478 0 0.43333604111525509 0.29076808352112671 0 0.42428861628202591 0.28006462345759542 0 0.43764684991431002 0.2743933307191313 0 0.42017890343412312 0.29099558880193971 0 0.43333604111525509 0.29076808352112671 0 0.42428861628202591 0.28006462345759542 0 0.42017890343412312 0.29099558880193971 0 0.4240670348405291 0.30317028145176977 0 0.43333604111525509 0.29076808352112671 0 0.42605839554135227 0.2692387497261744 0 0.44083744990241752 0.25793977297392412 0 0.43764684991431002 0.2743933307191313 0 0.42605839554135227 0.2692387497261744 0 0.42428861628202591 0.28006462345759542 0 0.43764684991431002 0.2743933307191313 0 0.42605839554135227 0.2692387497261744 0 0.42428861628202591 0.28006462345759542 0 0.41437063092771559 0.27349629975756751 0 0.41456343711451321 0.28288844111204181 0 0.42428861628202591 0.28006462345759542 0 0.41437063092771559 0.27349629975756751 0 0.42605839554135227 0.2692387497261744 0 0.41437063092771559 0.27349629975756751 0 0.41464656653984711 0.26084123582027069 0 0.40334642600567622 0.27004594656912989 0 0.41437063092771559 0.27349629975756751 0 0.41464656653984711 0.26084123582027069 0 0.40482145137025322 0.27905039039486929 0 0.40334642600567622 0.27004594656912989 0 0.41437063092771559 0.27349629975756751 0 0.40482145137025322 0.27905039039486929 0 0.41456343711451321 0.28288844111204181 0 0.41437063092771559 0.27349629975756751 0 0.39029188694281408 0.2574905593728794 0 0.41464656653984711 0.26084123582027069 0 0.41831897407092172 0.2483369572327947 0 0.42605839554135227 0.2692387497261744 0 0.41464656653984711 0.26084123582027069 0 0.44083744990241752 0.25793977297392412 0 0.41464656653984711 0.26084123582027069 0 0.44083744990241752 0.25793977297392412 0 0.41831897407092172 0.2483369572327947 0 0.41464656653984711 0.26084123582027069 0 0.44083744990241752 0.25793977297392412 0 0.44083744990241752 0.25793977297392412 0 0.46147652045870768 0.25381417775909959 0 0.44634606119902931 0.23918335509270999 0 0.44083744990241752 0.25793977297392412 0 0.45257794199037021 0.26687107415750638 0 0.46147652045870768 0.25381417775909959 0 0.44083744990241752 0.25793977297392412 0 0.43764684991431002 0.2743933307191313 0 0.45257794199037021 0.26687107415750638 0 0.43764684991431002 0.2743933307191313 0 0.45257794199037021 0.26687107415750638 0 0.448122620669406 0.28206122912934878 0 0.45257794199037021 0.26687107415750638 0 0.46542850614765741 0.27443791943784029 0 0.448122620669406 0.28206122912934878 0 0.45257794199037021 0.26687107415750638 0 0.46542850614765741 0.27443791943784029 0 0.46147652045870768 0.25381417775909959 0 0.46542850614765741 0.27443791943784029 0 0.46147652045870768 0.25381417775909959 0 0.48192277306296422 0.25798875429260443 0 0.46542850614765741 0.27443791943784029 0 0.48192277306296422 0.25798875429260443 0 0.4836328549523688 0.27740692674297007 0 0.4836328549523688 0.27740692674297007 0 0.5 0.26896647247879379 0 0.500000000000002 0.29247556040203471 0 0.48192277306296422 0.25798875429260443 0 0.4836328549523688 0.27740692674297007 0 0.5 0.26896647247879379 0 0.48192277306296422 0.25798875429260443 0 0.5 0.26896647247879379 0 0.50000000000000133 0.2454573845555528 0 0.500000000000002 0.29247556040203471 0 0.47835590369588182 0.31131247844602661 0 0.5 0.31476357715011888 0 0.500000000000002 0.29247556040203471 0 0.47835590369588182 0.31131247844602661 0 0.4836328549523688 0.27740692674297007 0 0.500000000000002 0.29247556040203471 0 0.4708129955512223 0.29316592710357758 0 0.46542850614765741 0.27443791943784029 0 0.4836328549523688 0.27740692674297007 0 0.4708129955512223 0.29316592710357758 0 0.4708129955512223 0.29316592710357758 0 0.47835590369588182 0.31131247844602661 0 0.46288052241700273 0.30966468359804322 0 0.500000000000002 0.29247556040203471 0 0.4708129955512223 0.29316592710357758 0 0.47835590369588182 0.31131247844602661 0 0.4708129955512223 0.29316592710357758 0 0.46288052241700273 0.30966468359804322 0 0.45292123156889869 0.30463929543760682 0 0.46288052241700273 0.30966468359804322 0 0.45292123156889869 0.30463929543760682 0 0.45377850418273702 0.31472330062173592 0 0.46542850614765741 0.27443791943784029 0 0.4708129955512223 0.29316592710357758 0 0.45787711126572411 0.28861809656595783 0 0.46542850614765741 0.27443791943784029 0 0.45787711126572411 0.28861809656595783 0 0.448122620669406 0.28206122912934878 0 0.4708129955512223 0.29316592710357758 0 0.45787711126572411 0.28861809656595783 0 0.45292123156889869 0.30463929543760682 0 0.45787711126572411 0.28861809656595783 0 0.44589683438624839 0.29433113556715762 0 0.45292123156889869 0.30463929543760682 0 0.43333604111525509 0.29076808352112671 0 0.43764684991431002 0.2743933307191313 0 0.448122620669406 0.28206122912934878 0 0.45787711126572411 0.28861809656595783 0 0.448122620669406 0.28206122912934878 0 0.44589683438624839 0.29433113556715762 0 0.43333604111525509 0.29076808352112671 0 0.448122620669406 0.28206122912934878 0 0.44589683438624839 0.29433113556715762 0 0.43722716731195788 0.3055689731817478 0 0.44589683438624839 0.29433113556715762 0 0.45292123156889869 0.30463929543760682 0 0.43722716731195788 0.3055689731817478 0 0.45292123156889869 0.30463929543760682 0 0.44544542825790528 0.31507737160465887 0 0.45292123156889869 0.30463929543760682 0 0.44544542825790528 0.31507737160465887 0 0.45377850418273702 0.31472330062173592 0 0.43722716731195788 0.3055689731817478 0 0.43333604111525509 0.29076808352112671 0 0.44589683438624839 0.29433113556715762 0 0.43722716731195788 0.3055689731817478 0 0.44544542825790528 0.31507737160465887 0 0.43677859240352901 0.31447092301999319 0 0.4396612199872294 0.32005015548574511 0 0.44544542825790528 0.31507737160465887 0 0.43677859240352901 0.31447092301999319 0 0.4396612199872294 0.32005015548574511 0 0.44444252625460262 0.32069574911857651 0 0.44544542825790528 0.31507737160465887 0 0.4396612199872294 0.32005015548574511 0 0.44295226773621932 0.32556358919692302 0 0.43570078498606751 0.32577388240878108 0 0.44295226773621932 0.32556358919692302 0 0.43709801787745511 0.33100743651255959 0 0.43570078498606751 0.32577388240878108 0 0.44295226773621932 0.32556358919692302 0 0.44820547578519782 0.3263578150363784 0 0.44247481403277511 0.33070163125675878 0 0.4396612199872294 0.32005015548574511 0 0.44295226773621932 0.32556358919692302 0 0.44444252625460262 0.32069574911857651 0 0.44295226773621932 0.32556358919692302 0 0.44444252625460262 0.32069574911857651 0 0.44924129670597712 0.32200146081768871 0 0.45119707634851719 0.3257313210158585 0 0.44924129670597712 0.32200146081768871 0 0.45840404196390128 0.32223369165068177 0 0.44295226773621932 0.32556358919692302 0 0.44820547578519782 0.3263578150363784 0 0.44924129670597712 0.32200146081768871 0 0.44820547578519782 0.3263578150363784 0 0.45119707634851719 0.3257313210158585 0 0.44924129670597712 0.32200146081768871 0 0.44820547578519782 0.3263578150363784 0 0.45119707634851719 0.3257313210158585 0 0.4534744587483549 0.3286540693865812 0 0.44924129670597712 0.32200146081768871 0 0.44544542825790528 0.31507737160465887 0 0.45377850418273702 0.31472330062173592 0 0.44444252625460262 0.32069574911857651 0 0.44924129670597712 0.32200146081768871 0 0.44544542825790528 0.31507737160465887 0 0.4534744587483549 0.3286540693865812 0 0.43506771108763981 0.34898631453400802 0 0.43064385001664829 0.34192524615135189 0 0.4534744587483549 0.3286540693865812 0 0.43064385001664829 0.34192524615135189 0 0.45492432860211712 0.34123984504156402 0 0.45671180739176082 0.33014939649001729 0 0.43506771108763981 0.34898631453400802 0 0.44247481403277511 0.33070163125675878 0 0.4534744587483549 0.3286540693865812 0 0.43064385001664829 0.34192524615135189 0 0.45671180739176082 0.33014939649001729 0 0.4534744587483549 0.3286540693865812 0 0.43506771108763981 0.34898631453400802 0 0.45671180739176082 0.33014939649001729 0 0.43506771108763981 0.34898631453400802 0 0.44295226773621932 0.32556358919692302 0 0.44247481403277511 0.33070163125675878 0 0.43709801787745511 0.33100743651255959 0 0.44820547578519782 0.3263578150363784 0 0.44247481403277511 0.33070163125675878 0 0.4534744587483549 0.3286540693865812 0 0.45671180739176082 0.33014939649001729 0 0.46807178486615192 0.33192085691669238 0 0.47519903200148189 0.32447450199902228 0 0.45492432860211712 0.34123984504156402 0 0.45671180739176082 0.33014939649001729 0 0.46170461970884841 0.33575943913950412 0 0.45671180739176082 0.33014939649001729 0 0.4534744587483549 0.3286540693865812 0 0.45494684611313352 0.32669211963578471 0 0.45671180739176082 0.33014939649001729 0 0.46807178486615192 0.33192085691669238 0 0.46170461970884841 0.33575943913950412 0 0.45492432860211712 0.34123984504156402 0 0.46170461970884841 0.33575943913950412 0 0.46622725569981849 0.34109317622888757 0 0.46807178486615192 0.33192085691669238 0 0.46170461970884841 0.33575943913950412 0 0.46622725569981849 0.34109317622888757 0 0.47835590369588182 0.31131247844602661 0 0.45671180739176082 0.33014939649001729 0 0.45840404196390128 0.32223369165068177 0 0.47835590369588182 0.31131247844602661 0 0.46288052241700273 0.30966468359804322 0 0.45840404196390128 0.32223369165068177 0 0.47835590369588182 0.31131247844602661 0 0.45671180739176082 0.33014939649001729 0 0.46288052241700273 0.30966468359804322 0 0.45377850418273702 0.31472330062173592 0 0.45840404196390128 0.32223369165068177 0 0.44924129670597712 0.32200146081768871 0 0.45377850418273702 0.31472330062173592 0 0.45840404196390128 0.32223369165068177 0 0.45671180739176082 0.33014939649001729 0 0.45494684611313352 0.32669211963578471 0 0.45840404196390128 0.32223369165068177 0 0.45119707634851719 0.3257313210158585 0 0.45494684611313352 0.32669211963578471 0 0.45840404196390128 0.32223369165068177 0 0.45119707634851719 0.3257313210158585 0 0.4534744587483549 0.3286540693865812 0 0.45494684611313352 0.32669211963578471 0 0.47835590369588182 0.31131247844602661 0 0.45671180739176082 0.33014939649001729 0 0.47519903200148189 0.32447450199902228 0 0.47835590369588182 0.31131247844602661 0 0.47519903200148189 0.32447450199902228 0 0.48903889741162998 0.32469082893130302 0 0.47519903200148189 0.32447450199902228 0 0.47989247935060808 0.33475764148942427 0 0.48903889741162998 0.32469082893130302 0 0.46807178486615192 0.33192085691669238 0 0.46622725569981849 0.34109317622888757 0 0.47989247935060808 0.33475764148942427 0 0.46807178486615192 0.33192085691669238 0 0.47519903200148189 0.32447450199902228 0 0.47989247935060808 0.33475764148942427 0 0.46622725569981849 0.34109317622888757 0 0.47989247935060808 0.33475764148942427 0 0.47606587018949148 0.34641700697387401 0 0.47989247935060808 0.33475764148942427 0 0.48689808756923081 0.34819560227224489 0 0.47606587018949148 0.34641700697387401 0 0.47989247935060808 0.33475764148942427 0 0.5 0.33705159389820322 0 0.48903889741162998 0.32469082893130302 0 0.47989247935060808 0.33475764148942427 0 0.5 0.33705159389820322 0 0.48689808756923081 0.34819560227224489 0 0.5 0.33705159389820322 0 0.5 0.31476357715011888 0 0.48903889741162998 0.32469082893130302 0 0.47835590369588182 0.31131247844602661 0 0.5 0.31476357715011888 0 0.48903889741162998 0.32469082893130302 0 0.49999999999999928 0.35933961064628739 0 0.47124565813830849 0.36162160790493908 0 0.45820118983366842 0.37955534665197532 0 0.49999999999999928 0.35933961064628739 0 0.47124565813830849 0.36162160790493908 0 0.5 0.33705159389820322 0 0.49999999999999928 0.35933961064628739 0 0.48689808756923081 0.34819560227224489 0 0.49999999999999928 0.35933961064628739 0 0.48689808756923081 0.34819560227224489 0 0.47124565813830849 0.36162160790493908 0 0.48689808756923081 0.34819560227224489 0 0.47606587018949148 0.34641700697387401 0 0.47124565813830849 0.36162160790493908 0 0.46622725569981849 0.34109317622888757 0 0.47606587018949148 0.34641700697387401 0 0.47124565813830849 0.36162160790493908 0 0.47124565813830849 0.36162160790493908 0 0.44249131627661781 0.3639036051635911 0 0.47124565813830849 0.36162160790493908 0 0.44249131627661781 0.3639036051635911 0 0.45820118983366842 0.37955534665197532 0 0.47124565813830849 0.36162160790493908 0 0.45435818520030219 0.3510643476398686 0 0.44249131627661781 0.3639036051635911 0 0.46622725569981849 0.34109317622888757 0 0.47124565813830849 0.36162160790493908 0 0.45435818520030219 0.3510643476398686 0 0.45492432860211712 0.34123984504156402 0 0.46622725569981849 0.34109317622888757 0 0.45435818520030219 0.3510643476398686 0 0.45492432860211712 0.34123984504156402 0 0.45435818520030219 0.3510643476398686 0 0.43506771108763981 0.34898631453400802 0 0.45435818520030219 0.3510643476398686 0 0.44249131627661781 0.3639036051635911 0 0.43506771108763981 0.34898631453400802 0 0.44249131627661781 0.3639036051635911 0 0.41373697441492679 0.36618560242224302 0 0.42154341525355837 0.35254314018020427 0 0.44249131627661781 0.3639036051635911 0 0.41373697441492679 0.36618560242224302 0 0.44249131627661781 0.3639036051635911 0 0.41373697441492679 0.36618560242224302 0 0.43868038380914709 0.38782981992645821 0 0.4078132412849419 0.35519642291612252 0 0.42154341525355837 0.35254314018020427 0 0.43064385001664829 0.34192524615135189 0 0.4078132412849419 0.35519642291612252 0 0.43064385001664829 0.34192524615135189 0 0.41613995687649641 0.33984342846463372 0 0.4078132412849419 0.35519642291612252 0 0.43064385001664829 0.34192524615135189 0 0.4078132412849419 0.35519642291612252 0 0.41613995687649641 0.33984342846463372 0 0.40282029635139049 0.34258406707362682 0 0.41373697441492679 0.36618560242224302 0 0.4078132412849419 0.35519642291612252 0 0.42154341525355837 0.35254314018020427 0 0.44249131627661781 0.3639036051635911 0 0.42154341525355837 0.35254314018020427 0 0.42775052917792628 0.34865429388030622 0 0.42154341525355837 0.35254314018020427 0 0.42775052917792628 0.34865429388030622 0 0.43064385001664829 0.34192524615135189 0 0.44249131627661781 0.3639036051635911 0 0.42775052917792628 0.34865429388030622 0 0.43506771108763981 0.34898631453400802 0 0.42775052917792628 0.34865429388030622 0 0.43506771108763981 0.34898631453400802 0 0.43064385001664829 0.34192524615135189 0 0.44247481403277511 0.33070163125675878 0 0.43064385001664829 0.34192524615135189 0 0.43709801787745511 0.33100743651255959 0 0.43064385001664829 0.34192524615135189 0 0.43709801787745511 0.33100743651255959 0 0.43203090726141968 0.33193583004090171 0 0.43709801787745511 0.33100743651255959 0 0.43203090726141968 0.33193583004090171 0 0.43570078498606751 0.32577388240878108 0 0.43203090726141968 0.33193583004090171 0 0.42529174952397292 0.33417446642425558 0 0.42693782355240611 0.32612161989038801 0 0.42529174952397292 0.33417446642425558 0 0.42693782355240611 0.32612161989038801 0 0.41943141268125839 0.32954218502694732 0 0.43064385001664829 0.34192524615135189 0 0.43203090726141968 0.33193583004090171 0 0.42529174952397292 0.33417446642425558 0 0.43064385001664829 0.34192524615135189 0 0.42529174952397292 0.33417446642425558 0 0.41613995687649641 0.33984342846463372 0 0.42883453868669541 0.31202881144130162 0 0.43677859240352901 0.31447092301999319 0 0.4327246077738568 0.31962930338651291 0 0.4396612199872294 0.32005015548574511 0 0.43677859240352901 0.31447092301999319 0 0.4327246077738568 0.31962930338651291 0 0.4327246077738568 0.31962930338651291 0 0.43570078498606751 0.32577388240878108 0 0.42693782355240611 0.32612161989038801 0 0.43203090726141968 0.33193583004090171 0 0.43570078498606751 0.32577388240878108 0 0.42693782355240611 0.32612161989038801 0 0.4396612199872294 0.32005015548574511 0 0.4327246077738568 0.31962930338651291 0 0.43570078498606751 0.32577388240878108 0 0.4327246077738568 0.31962930338651291 0 0.42693782355240611 0.32612161989038801 0 0.42478111147945519 0.31880038293816693 0 0.42693782355240611 0.32612161989038801 0 0.42478111147945519 0.31880038293816693 0 0.41589451587844839 0.32267484563745169 0 0.42883453868669541 0.31202881144130162 0 0.4327246077738568 0.31962930338651291 0 0.42478111147945519 0.31880038293816693 0 0.42883453868669541 0.31202881144130162 0 0.42478111147945519 0.31880038293816693 0 0.41990769599360178 0.31393765902590409 0 0.41990769599360178 0.31393765902590409 0 0.41589451587844839 0.32267484563745169 0 0.40987544956978988 0.31542644754652233 0 0.42478111147945519 0.31880038293816693 0 0.41990769599360178 0.31393765902590409 0 0.41589451587844839 0.32267484563745169 0 0.42693782355240611 0.32612161989038801 0 0.41589451587844839 0.32267484563745169 0 0.41943141268125839 0.32954218502694732 0 0.41589451587844839 0.32267484563745169 0 0.41092543039689661 0.33346004959222059 0 0.40420805522196862 0.32620065926636782 0 0.41589451587844839 0.32267484563745169 0 0.40987544956978988 0.31542644754652233 0 0.40420805522196862 0.32620065926636782 0 0.41589451587844839 0.32267484563745169 0 0.41943141268125839 0.32954218502694732 0 0.41092543039689661 0.33346004959222059 0 0.41613995687649641 0.33984342846463372 0 0.41943141268125839 0.32954218502694732 0 0.41092543039689661 0.33346004959222059 0 0.42529174952397292 0.33417446642425558 0 0.41613995687649641 0.33984342846463372 0 0.41943141268125839 0.32954218502694732 0 0.41613995687649641 0.33984342846463372 0 0.41092543039689661 0.33346004959222059 0 0.40282029635139049 0.34258406707362682 0 0.40282029635139049 0.34258406707362682 0 0.38990666654982581 0.32792899479329513 0 0.38479917557064752 0.34306548969226419 0 0.41092543039689661 0.33346004959222059 0 0.40282029635139049 0.34258406707362682 0 0.40420805522196862 0.32620065926636782 0 0.40282029635139049 0.34258406707362682 0 0.40420805522196862 0.32620065926636782 0 0.38990666654982581 0.32792899479329513 0 0.40556651222628087 0.30703085543000452 0 0.40987544956978988 0.31542644754652233 0 0.39822314612114679 0.31637598235324338 0 0.40987544956978988 0.31542644754652233 0 0.40420805522196862 0.32620065926636782 0 0.39822314612114679 0.31637598235324338 0 0.40420805522196862 0.32620065926636782 0 0.39822314612114679 0.31637598235324338 0 0.38990666654982581 0.32792899479329513 0 0.39822314612114679 0.31637598235324338 0 0.3856286313127269 0.31571194480164971 0 0.38990666654982581 0.32792899479329513 0 0.39415356184628919 0.30595699228162099 0 0.39822314612114679 0.31637598235324338 0 0.3856286313127269 0.31571194480164971 0 0.3856286313127269 0.31571194480164971 0 0.38990666654982581 0.32792899479329513 0 0.37627086720686648 0.3292953429624868 0 0.37402374526870968 0.31596753099345543 0 0.3856286313127269 0.31571194480164971 0 0.37627086720686648 0.3292953429624868 0 0.36715279096930381 0.34641616587486918 0 0.38479917557064752 0.34306548969226419 0 0.37627086720686648 0.3292953429624868 0 0.38990666654982581 0.32792899479329513 0 0.38479917557064752 0.34306548969226419 0 0.37627086720686648 0.3292953429624868 0 0.36715279096930381 0.34641616587486918 0 0.38479917557064752 0.34306548969226419 0 0.38092396937303252 0.35602699697990531 0 0.38479917557064752 0.34306548969226419 0 0.38092396937303252 0.35602699697990531 0 0.39194540588854571 0.35298460516686109 0 0.38092396937303252 0.35602699697990531 0 0.38498263255323589 0.36846759968089399 0 0.39194540588854571 0.35298460516686109 0 0.38092396937303252 0.35602699697990531 0 0.37573984188342968 0.36920112448463671 0 0.38498263255323589 0.36846759968089399 0 0.37717404253384401 0.37300664547019829 0 0.37573984188342968 0.36920112448463671 0 0.38498263255323589 0.36846759968089399 0 0.37573984188342968 0.36920112448463671 0 0.38498263255323589 0.36846759968089399 0 0.37717404253384401 0.37300664547019829 0 0.37573984188342968 0.36920112448463671 0 0.37717404253384401 0.37300664547019829 0 0.38498263255323589 0.36846759968089399 0 0.37717404253384401 0.37300664547019829 0 0.38498263255323589 0.36846759968089399 0 0.38767293602848341 0.3820819113927893 0 0.41373697441492679 0.36618560242224302 0 0.4078132412849419 0.35519642291612252 0 0.38498263255323589 0.36846759968089399 0 0.41373697441492679 0.36618560242224302 0 0.38498263255323589 0.36846759968089399 0 0.4078132412849419 0.35519642291612252 0 0.38498263255323589 0.36846759968089399 0 0.41373697441492679 0.36618560242224302 0 0.38498263255323589 0.36846759968089399 0 0.38767293602848341 0.3820819113927893 0 0.40282029635139049 0.34258406707362682 0 0.38479917557064752 0.34306548969226419 0 0.39194540588854571 0.35298460516686109 0 0.4078132412849419 0.35519642291612252 0 0.40282029635139049 0.34258406707362682 0 0.39194540588854571 0.35298460516686109 0 0.4078132412849419 0.35519642291612252 0 0.38498263255323589 0.36846759968089399 0 0.39194540588854571 0.35298460516686109 0 0.40072674966607791 0.40437091533720571 0 0.40102109475240899 0.38975834655172292 0 0.38577523498521032 0.3958291273628643 0 0.41373697441492679 0.36618560242224302 0 0.40102109475240899 0.38975834655172292 0 0.38767293602848341 0.3820819113927893 0 0.40102109475240899 0.38975834655172292 0 0.38767293602848341 0.3820819113927893 0 0.38577523498521032 0.3958291273628643 0 0.37717404253384401 0.37300664547019829 0 0.38767293602848341 0.3820819113927893 0 0.38577523498521032 0.3958291273628643 0 0.37717404253384401 0.37300664547019829 0 0.38577523498521032 0.3958291273628643 0 0.37452603213945718 0.38481566355808128 0 0.37717404253384401 0.37300664547019829 0 0.38577523498521032 0.3958291273628643 0 0.36809547751414901 0.39154069229026051 0 0.38577523498521032 0.3958291273628643 0 0.38549768566216952 0.41189251820639777 0 0.36809547751414901 0.39154069229026051 0 0.38549768566216952 0.41189251820639777 0 0.36809547751414901 0.39154069229026051 0 0.37452603213945718 0.38481566355808128 0 0.38577523498521032 0.3958291273628643 0 0.38577523498521032 0.3958291273628643 0 0.39437642743657703 0.41865160925553019 0 0.38577523498521032 0.3958291273628643 0 0.38549768566216952 0.41189251820639777 0 0.39437642743657703 0.41865160925553019 0 0.3720653274293948 0.42942526796841929 0 0.38549768566216952 0.41189251820639777 0 0.38773953744053802 0.43964666156368221 0 0.4028998938101892 0.43224434412253587 0 0.39437642743657703 0.41865160925553019 0 0.40777110923384369 0.41646616526238578 0 0.38549768566216952 0.41189251820639777 0 0.4028998938101892 0.43224434412253587 0 0.38549768566216952 0.41189251820639777 0 0.4028998938101892 0.43224434412253587 0 0.38773953744053802 0.43964666156368221 0 0.4028998938101892 0.43224434412253587 0 0.38773953744053802 0.43964666156368221 0 0.40072674966607791 0.40437091533720571 0 0.38577523498521032 0.3958291273628643 0 0.39437642743657703 0.41865160925553019 0 0.38549768566216952 0.41189251820639777 0 0.4028998938101892 0.43224434412253587 0 0.39437642743657703 0.41865160925553019 0 0.40072674966607791 0.40437091533720571 0 0.39437642743657703 0.41865160925553019 0 0.40777110923384369 0.41646616526238578 0 0.40072674966607791 0.40437091533720571 0 0.40777110923384369 0.41646616526238578 0 0.41719357866734658 0.40032417624351269 0 0.40777110923384369 0.41646616526238578 0 0.42371101878922168 0.42208293698631938 0 0.41719357866734658 0.40032417624351269 0 0.4028998938101892 0.43224434412253587 0 0.42371101878922168 0.42208293698631938 0 0.4028998938101892 0.43224434412253587 0 0.42062832683783791 0.43442961840150679 0 0.42371101878922168 0.42208293698631938 0 0.4028998938101892 0.43224434412253587 0 0.40777110923384369 0.41646616526238578 0 0.42371101878922168 0.42208293698631938 0 0.4028998938101892 0.43224434412253587 0 0.42062832683783791 0.43442961840150679 0 0.41343707937433721 0.44456754842071827 0 0.42062832683783791 0.43442961840150679 0 0.43575375476433198 0.43154671598377969 0 0.42733988745110901 0.44170654649418112 0 0.42062832683783791 0.43442961840150679 0 0.42371101878922168 0.42208293698631938 0 0.43575375476433198 0.43154671598377969 0 0.42371101878922168 0.42208293698631938 0 0.43575375476433198 0.43154671598377969 0 0.44041653522388979 0.41176042229731402 0 0.42371101878922168 0.42208293698631938 0 0.41719357866734658 0.40032417624351269 0 0.44041653522388979 0.41176042229731402 0 0.41719357866734658 0.40032417624351269 0 0.43868038380914709 0.38782981992645821 0 0.44041653522388979 0.41176042229731402 0 0.41373697441492679 0.36618560242224302 0 0.41719357866734658 0.40032417624351269 0 0.43868038380914709 0.38782981992645821 0 0.41373697441492679 0.36618560242224302 0 0.40102109475240899 0.38975834655172292 0 0.41719357866734658 0.40032417624351269 0 0.40072674966607791 0.40437091533720571 0 0.40102109475240899 0.38975834655172292 0 0.41719357866734658 0.40032417624351269 0 0.49999999999999928 0.35933961064628739 0 0.46508067508804501 0.40197312149676723 0 0.5 0.4376422773607852 0 0.44249131627661781 0.3639036051635911 0 0.43868038380914709 0.38782981992645821 0 0.45820118983366842 0.37955534665197532 0 0.43868038380914709 0.38782981992645821 0 0.46508067508804501 0.40197312149676723 0 0.44041653522388979 0.41176042229731402 0 0.43868038380914709 0.38782981992645821 0 0.46508067508804501 0.40197312149676723 0 0.45820118983366842 0.37955534665197532 0 0.49999999999999928 0.35933961064628739 0 0.46508067508804501 0.40197312149676723 0 0.45820118983366842 0.37955534665197532 0 0.46508067508804501 0.40197312149676723 0 0.4581194738144897 0.43361567672272278 0 0.5 0.4376422773607852 0 0.46508067508804501 0.40197312149676723 0 0.4581194738144897 0.43361567672272278 0 0.44041653522388979 0.41176042229731402 0 0.43575375476433198 0.43154671598377969 0 0.4581194738144897 0.43361567672272278 0 0.44041653522388979 0.41176042229731402 0 0.43575375476433198 0.43154671598377969 0 0.4581194738144897 0.43361567672272278 0 0.43892670648944088 0.4483069578478312 0 0.4581194738144897 0.43361567672272278 0 0.43892670648944088 0.4483069578478312 0 0.45559725819139951 0.45790803753294801 0 0.43892670648944088 0.4483069578478312 0 0.44063393592603811 0.46275473574283171 0 0.45559725819139951 0.45790803753294801 0 0.44063393592603811 0.46275473574283171 0 0.45559725819139951 0.45790803753294801 0 0.44497709202738461 0.48145349079353228 0 0.45559725819139951 0.45790803753294801 0 0.47187471968677419 0.45045396629243789 0 0.47378214674120778 0.47264987355329607 0 0.4581194738144897 0.43361567672272278 0 0.45559725819139951 0.45790803753294801 0 0.47187471968677419 0.45045396629243789 0 0.4581194738144897 0.43361567672272278 0 0.47187471968677419 0.45045396629243789 0 0.5 0.4376422773607852 0 0.47187471968677419 0.45045396629243789 0 0.5 0.4376422773607852 0 0.47378214674120778 0.47264987355329607 0 0.5 0.5 0 0.47378214674120778 0.47264987355329607 0 0.44372374152300992 0.49999999999999661 0 0.5 0.4376422773607852 0 0.5 0.5 0 0.47378214674120778 0.47264987355329607 0 0.47378214674120778 0.47264987355329607 0 0.44497709202738461 0.48145349079353228 0 0.44372374152300992 0.49999999999999661 0 0.45559725819139951 0.45790803753294801 0 0.47378214674120778 0.47264987355329607 0 0.44497709202738461 0.48145349079353228 0 0.44063393592603811 0.46275473574283171 0 0.44497709202738461 0.48145349079353228 0 0.4344756784829345 0.46917212175621692 0 0.44497709202738461 0.48145349079353228 0 0.4344756784829345 0.46917212175621692 0 0.44497709202738461 0.48145349079353228 0 0.44372374152300992 0.49999999999999661 0 0.42427650789661242 0.48552593663513233 0 0.44372374152300992 0.49999999999999661 0 0.42427650789661242 0.48552593663513233 0 0.41491973123335468 0.5 0 0.44372374152300992 0.49999999999999661 0 0.42427650789661242 0.48552593663513233 0 0.42427650789661242 0.48552593663513233 0 0.41491973123335468 0.5 0 0.40463989871996747 0.48776975019655849 0 0.42427650789661242 0.48552593663513233 0 0.4048292742702132 0.47105187327027009 0 0.42427650789661242 0.48552593663513233 0 0.42018279323905028 0.46953296390235932 0 0.4048292742702132 0.47105187327027009 0 0.42427650789661242 0.48552593663513233 0 0.40463989871996747 0.48776975019655849 0 0.4048292742702132 0.47105187327027009 0 0.44497709202738461 0.48145349079353228 0 0.42427650789661242 0.48552593663513233 0 0.4344756784829345 0.46917212175621692 0 0.42427650789661242 0.48552593663513233 0 0.42018279323905028 0.46953296390235932 0 0.4344756784829345 0.46917212175621692 0 0.44063393592603811 0.46275473574283171 0 0.4344756784829345 0.46917212175621692 0 0.42919294443903072 0.45693307078362949 0 0.43892670648944088 0.4483069578478312 0 0.44063393592603811 0.46275473574283171 0 0.42919294443903072 0.45693307078362949 0 0.42919294443903072 0.45693307078362949 0 0.42397426493848328 0.45689075271890223 0 0.42919294443903072 0.45693307078362949 0 0.42397426493848328 0.45689075271890223 0 0.42657417653848018 0.44968097525305262 0 0.42018279323905028 0.46953296390235932 0 0.4344756784829345 0.46917212175621692 0 0.42397426493848328 0.45689075271890223 0 0.4344756784829345 0.46917212175621692 0 0.42397426493848328 0.45689075271890223 0 0.4344756784829345 0.46917212175621692 0 0.42919294443903072 0.45693307078362949 0 0.42397426493848328 0.45689075271890223 0 0.43575375476433198 0.43154671598377969 0 0.43892670648944088 0.4483069578478312 0 0.42733988745110901 0.44170654649418112 0 0.43892670648944088 0.4483069578478312 0 0.42919294443903072 0.45693307078362949 0 0.42657417653848018 0.44968097525305262 0 0.43892670648944088 0.4483069578478312 0 0.42657417653848018 0.44968097525305262 0 0.42733988745110901 0.44170654649418112 0 0.42657417653848018 0.44968097525305262 0 0.42733988745110901 0.44170654649418112 0 0.41343707937433721 0.44456754842071827 0 0.42397426493848328 0.45689075271890223 0 0.41343707937433721 0.44456754842071827 0 0.40467815279114899 0.4567342813121546 0 0.42062832683783791 0.43442961840150679 0 0.42733988745110901 0.44170654649418112 0 0.41343707937433721 0.44456754842071827 0 0.42397426493848328 0.45689075271890223 0 0.41343707937433721 0.44456754842071827 0 0.42397426493848328 0.45689075271890223 0 0.42657417653848018 0.44968097525305262 0 0.41343707937433721 0.44456754842071827 0 0.4028998938101892 0.43224434412253587 0 0.41343707937433721 0.44456754842071827 0 0.42397426493848328 0.45689075271890223 0 0.41341612130972399 0.46355246780092169 0 0.40467815279114899 0.4567342813121546 0 0.42397426493848328 0.45689075271890223 0 0.40467815279114899 0.4567342813121546 0 0.42018279323905028 0.46953296390235932 0 0.42397426493848328 0.45689075271890223 0 0.41341612130972399 0.46355246780092169 0 0.41341612130972399 0.46355246780092169 0 0.40467815279114899 0.4567342813121546 0 0.4048292742702132 0.47105187327027009 0 0.42018279323905028 0.46953296390235932 0 0.41341612130972399 0.46355246780092169 0 0.4048292742702132 0.47105187327027009 0 0.38538204064381459 0.45657780990540708 0 0.39100034141737572 0.47860548028233091 0 0.4048292742702132 0.47105187327027009 0 0.38538204064381459 0.45657780990540708 0 0.4048292742702132 0.47105187327027009 0 0.40467815279114899 0.4567342813121546 0 0.38538204064381459 0.45657780990540708 0 0.4048292742702132 0.47105187327027009 0 0.40467815279114899 0.4567342813121546 0 0.38538204064381459 0.45657780990540708 0 0.3988273408120056 0.44595412906489951 0 0.38773953744053802 0.43964666156368221 0 0.38538204064381459 0.45657780990540708 0 0.40467815279114899 0.4567342813121546 0 0.3988273408120056 0.44595412906489951 0 0.38538204064381459 0.45657780990540708 0 0.4028998938101892 0.43224434412253587 0 0.41343707937433721 0.44456754842071827 0 0.3988273408120056 0.44595412906489951 0 0.41343707937433721 0.44456754842071827 0 0.40467815279114899 0.4567342813121546 0 0.3988273408120056 0.44595412906489951 0 0.4028998938101892 0.43224434412253587 0 0.3988273408120056 0.44595412906489951 0 0.38773953744053802 0.43964666156368221 0 0.37257918107088689 0.44704897900482882 0 0.38773953744053802 0.43964666156368221 0 0.38538204064381459 0.45657780990540708 0 0.37257918107088689 0.44704897900482882 0 0.3720653274293948 0.42942526796841929 0 0.38773953744053802 0.43964666156368221 0 0.37257918107088689 0.44704897900482882 0 0.38538204064381459 0.45657780990540708 0 0.37257918107088689 0.44704897900482882 0 0.38773953744053802 0.43964666156368221 0 0.36948680566750508 0.45644891607651722 0 0.38538204064381459 0.45657780990540708 0 0.37403477250918382 0.47762796803941948 0 0.36948680566750508 0.45644891607651722 0 0.38538204064381459 0.45657780990540708 0 0.36948680566750508 0.45644891607651722 0 0.37257918107088689 0.44704897900482882 0 0.38538204064381459 0.45657780990540708 0 0.37403477250918382 0.47762796803941948 0 0.38538204064381459 0.45657780990540708 0 0.39100034141737572 0.47860548028233091 0 0.37403477250918382 0.47762796803941948 0 0.3861157209436995 0.5 0 0.39100034141737572 0.47860548028233091 0 0.3861157209436995 0.5 0 0.40463989871996747 0.48776975019655849 0 0.39100034141737572 0.47860548028233091 0 0.41491973123335468 0.5 0 0.3861157209436995 0.5 0 0.40463989871996747 0.48776975019655849 0 0.40463989871996747 0.48776975019655849 0 0.39100034141737572 0.47860548028233091 0 0.4048292742702132 0.47105187327027009 0 0.33969626745053699 0.09281963210267688 0 0.33154810008298669 0.075834565112385302 0 0.34926396881347499 0.077927454211671923 0 0.33969626745053699 0.09281963210267688 0 0.33154810008298669 0.075834565112385302 0 0.31888356614536789 0.092042866731036899 0 0.33154810008298669 0.075834565112385302 0 0.34926396881347499 0.077927454211671923 0 0.34479087055217172 0.06082616468036374 0 0.33154810008298669 0.075834565112385302 0 0.34479087055217172 0.06082616468036374 0 0.32519092611603462 0.05805885415246563 0 0.33154810008298669 0.075834565112385302 0 0.31342746847099179 0.073154043056100945 0 0.32519092611603462 0.05805885415246563 0 0.33154810008298669 0.075834565112385302 0 0.31342746847099179 0.073154043056100945 0 0.31888356614536789 0.092042866731036899 0 0.31888356614536789 0.092042866731036899 0 0.31435263558439369 0.10914032892196519 0 0.30515160134564728 0.1011522303046756 0 0.31888356614536789 0.092042866731036899 0 0.31435263558439369 0.10914032892196519 0 0.32839354739832199 0.103323943813176 0 0.31435263558439369 0.10914032892196519 0 0.3276263471162843 0.1161365019279178 0 0.31368532344763861 0.1293955657533554 0 0.31435263558439369 0.10914032892196519 0 0.3276263471162843 0.1161365019279178 0 0.32839354739832199 0.103323943813176 0 0.3276263471162843 0.1161365019279178 0 0.34353377448019268 0.1108019042803265 0 0.32839354739832199 0.103323943813176 0 0.3276263471162843 0.1161365019279178 0 0.34353377448019268 0.1108019042803265 0 0.33690310177852839 0.12977958349163199 0 0.33969626745053699 0.09281963210267688 0 0.31888356614536789 0.092042866731036899 0 0.32839354739832199 0.103323943813176 0 0.33969626745053699 0.09281963210267688 0 0.34353377448019268 0.1108019042803265 0 0.32839354739832199 0.103323943813176 0 0.33969626745053699 0.09281963210267688 0 0.3539977222691596 0.10036720748101501 0 0.35468280038607469 0.088908711134272525 0 0.33969626745053699 0.09281963210267688 0 0.34353377448019268 0.1108019042803265 0 0.3539977222691596 0.10036720748101501 0 0.34353377448019268 0.1108019042803265 0 0.3539977222691596 0.10036720748101501 0 0.35685032816423368 0.1097314894147661 0 0.3539977222691596 0.10036720748101501 0 0.35685032816423368 0.1097314894147661 0 0.36336094616765519 0.1035772241308925 0 0.3539977222691596 0.10036720748101501 0 0.36458402059574119 0.093823065206870906 0 0.35468280038607469 0.088908711134272525 0 0.34353377448019268 0.1108019042803265 0 0.3575350432872314 0.1213620982567159 0 0.33690310177852839 0.12977958349163199 0 0.34353377448019268 0.1108019042803265 0 0.3575350432872314 0.1213620982567159 0 0.34353377448019268 0.1108019042803265 0 0.35685032816423368 0.1097314894147661 0 0.3575350432872314 0.1213620982567159 0 0.36582415461692969 0.1125490129248809 0 0.37353208531517862 0.099627954427332549 0 0.37358791482027159 0.12602063363590579 0 0.37353208531517862 0.099627954427332549 0 0.37358791482027159 0.12602063363590579 0 0.3575350432872314 0.1213620982567159 0 0.36582415461692969 0.1125490129248809 0 0.37358791482027159 0.12602063363590579 0 0.35685032816423368 0.1097314894147661 0 0.3575350432872314 0.1213620982567159 0 0.36582415461692969 0.1125490129248809 0 0.3539977222691596 0.10036720748101501 0 0.36458402059574119 0.093823065206870906 0 0.36336094616765519 0.1035772241308925 0 0.36458402059574119 0.093823065206870906 0 0.36336094616765519 0.1035772241308925 0 0.37353208531517862 0.099627954427332549 0 0.35685032816423368 0.1097314894147661 0 0.36582415461692969 0.1125490129248809 0 0.36336094616765519 0.1035772241308925 0 0.36582415461692969 0.1125490129248809 0 0.36336094616765519 0.1035772241308925 0 0.37353208531517862 0.099627954427332549 0 0.36458402059574119 0.093823065206870906 0 0.37353208531517862 0.099627954427332549 0 0.37433572331037063 0.087922968995723744 0 0.36458402059574119 0.093823065206870906 0 0.37433572331037063 0.087922968995723744 0 0.36587202280146119 0.079606196669127979 0 0.37433572331037063 0.087922968995723744 0 0.36587202280146119 0.079606196669127979 0 0.38134672427778449 0.077230582660076361 0 0.36458402059574119 0.093823065206870906 0 0.36587202280146119 0.079606196669127979 0 0.35468280038607469 0.088908711134272525 0 0.36587202280146119 0.079606196669127979 0 0.35468280038607469 0.088908711134272525 0 0.34926396881347499 0.077927454211671923 0 0.33969626745053699 0.09281963210267688 0 0.35468280038607469 0.088908711134272525 0 0.34926396881347499 0.077927454211671923 0 0.36587202280146119 0.079606196669127979 0 0.34926396881347499 0.077927454211671923 0 0.36022641894365909 0.066336733701520947 0 0.34926396881347499 0.077927454211671923 0 0.36022641894365909 0.066336733701520947 0 0.34479087055217172 0.06082616468036374 0 0.36587202280146119 0.079606196669127979 0 0.36022641894365909 0.066336733701520947 0 0.3779941917442185 0.064233160163082947 0 0.36022641894365909 0.066336733701520947 0 0.36321104080696931 0.049090692783358147 0 0.3779941917442185 0.064233160163082947 0 0.36321104080696931 0.049090692783358147 0 0.36520087160700748 0.024618476383510932 0 0.3779244641241683 0.036768828715786253 0 0.36321104080696931 0.049090692783358147 0 0.35122227372394499 0.032760143084969502 0 0.36520087160700748 0.024618476383510932 0 0.36321104080696931 0.049090692783358147 0 0.35122227372394499 0.032760143084969502 0 0.34061929333423763 0.04397694328155298 0 0.36022641894365909 0.066336733701520947 0 0.36321104080696931 0.049090692783358147 0 0.34479087055217172 0.06082616468036374 0 0.36321104080696931 0.049090692783358147 0 0.34479087055217172 0.06082616468036374 0 0.34061929333423763 0.04397694328155298 0 0.3697202331778231 0.0051944731981410069 0 0.36520087160700748 0.024618476383510932 0 0.35242759622682879 0.0050716858630956282 0 0.3697202331778231 0.0051944731981410069 0 0.36520087160700748 0.024618476383510932 0 0.3847226542401373 0.020542138372764251 0 0.35122227372394499 0.032760143084969502 0 0.36520087160700748 0.024618476383510932 0 0.34579317913176272 0.019548757231416261 0 0.36520087160700748 0.024618476383510932 0 0.34579317913176272 0.019548757231416261 0 0.35242759622682879 0.0050716858630956282 0 0.35122227372394499 0.032760143084969502 0 0.34579317913176272 0.019548757231416261 0 0.33770566194432078 0.030335016088674071 0 0.3697202331778231 0.0051944731981410069 0 0.35242759622682879 0.0050716858630956282 0 0.3547178121155089 -0.01015319197648225 0 0.34579317913176272 0.019548757231416261 0 0.35242759622682879 0.0050716858630956282 0 0.33607267105121608 0.0067225140728069434 0 0.35242759622682879 0.0050716858630956282 0 0.33607267105121608 0.0067225140728069434 0 0.33894288453699001 -0.0091175197947151784 0 0.33607267105121608 0.0067225140728069434 0 0.33217766916525199 0.020271169743777379 0 0.32039672515472489 0.0092932733705267806 0 0.34579317913176272 0.019548757231416261 0 0.33607267105121608 0.0067225140728069434 0 0.33217766916525199 0.020271169743777379 0 0.34579317913176272 0.019548757231416261 0 0.33217766916525199 0.020271169743777379 0 0.33770566194432078 0.030335016088674071 0 0.33217766916525199 0.020271169743777379 0 0.33770566194432078 0.030335016088674071 0 0.32279382563538028 0.03367606376149615 0 0.33217766916525199 0.020271169743777379 0 0.32039672515472489 0.0092932733705267806 0 0.32279382563538028 0.03367606376149615 0 0.32039672515472489 0.0092932733705267806 0 0.32279382563538028 0.03367606376149615 0 0.32039672515472489 0.0092932733705267806 0 0.32279382563538028 0.03367606376149615 0 0.31016145701985592 0.032371409865979292 0 0.32039672515472489 0.0092932733705267806 0 0.31016145701985592 0.032371409865979292 0 0.33607267105121608 0.0067225140728069434 0 0.32039672515472489 0.0092932733705267806 0 0.32606835352480013 -0.0034949224980522359 0 0.32039672515472489 0.0092932733705267806 0 0.32606835352480013 -0.0034949224980522359 0 0.34479087055217172 0.06082616468036374 0 0.34061929333423763 0.04397694328155298 0 0.32519092611603462 0.05805885415246563 0 0.34061929333423763 0.04397694328155298 0 0.32279382563538028 0.03367606376149615 0 0.32519092611603462 0.05805885415246563 0 0.33770566194432078 0.030335016088674071 0 0.34061929333423763 0.04397694328155298 0 0.32279382563538028 0.03367606376149615 0 0.35122227372394499 0.032760143084969502 0 0.33770566194432078 0.030335016088674071 0 0.34061929333423763 0.04397694328155298 0 0.32279382563538028 0.03367606376149615 0 0.32519092611603462 0.05805885415246563 0 0.32279382563538028 0.03367606376149615 0 0.31506046951936001 0.046745565058729233 0 0.32519092611603462 0.05805885415246563 0 0.32279382563538028 0.03367606376149615 0 0.31506046951936001 0.046745565058729233 0 0.31016145701985592 0.032371409865979292 0 0.31506046951936001 0.046745565058729233 0 0.32519092611603462 0.05805885415246563 0 0.29992618888498812 0.0554495463614324 0 0.31342746847099179 0.073154043056100945 0 0.32519092611603462 0.05805885415246563 0 0.29992618888498812 0.0554495463614324 0 0.29578548400670712 0.045712641594394567 0 0.30285368119575418 0.01889539334285506 0 0.29992618888498812 0.0554495463614324 0 0.31016145701985592 0.032371409865979292 0 0.31506046951936001 0.046745565058729233 0 0.29992618888498812 0.0554495463614324 0 0.31016145701985592 0.032371409865979292 0 0.31016145701985592 0.032371409865979292 0 0.29578548400670712 0.045712641594394567 0 0.30285368119575418 0.01889539334285506 0 0.29992618888498812 0.0554495463614324 0 0.31016145701985592 0.032371409865979292 0 0.29578548400670712 0.045712641594394567 0 0.29578548400670712 0.045712641594394567 0 0.28512633501434598 0.050408859640975058 0 0.28153538321103327 0.028287829436016231 0 0.28512633501434598 0.050408859640975058 0 0.28153538321103327 0.028287829436016231 0 0.29578548400670712 0.045712641594394567 0 0.28512633501434598 0.050408859640975058 0 0.2887172868176594 0.07252988984593392 0 0.29992618888498812 0.0554495463614324 0 0.29578548400670712 0.045712641594394567 0 0.2887172868176594 0.07252988984593392 0 0.29578548400670712 0.045712641594394567 0 0.2887172868176594 0.07252988984593392 0 0.28512633501434598 0.050408859640975058 0 0.2887172868176594 0.07252988984593392 0 0.29982143049329057 0.0051935502549301377 0 0.30285368119575418 0.01889539334285506 0 0.3099218783848019 -0.0079218549086841668 0 0.32039672515472489 0.0092932733705267806 0 0.30285368119575418 0.01889539334285506 0 0.3099218783848019 -0.0079218549086841668 0 0.30285368119575418 0.01889539334285506 0 0.3099218783848019 -0.0079218549086841668 0 0.29982143049329057 0.0051935502549301377 0 0.30285368119575418 0.01889539334285506 0 0.28928472338551392 0.01471179249844959 0 0.32039672515472489 0.0092932733705267806 0 0.31016145701985592 0.032371409865979292 0 0.30285368119575418 0.01889539334285506 0 0.29578548400670712 0.045712641594394567 0 0.30285368119575418 0.01889539334285506 0 0.28153538321103327 0.028287829436016231 0 0.28153538321103327 0.028287829436016231 0 0.28928472338551392 0.01471179249844959 0 0.27794443140771991 0.0061667992310574637 0 0.30285368119575418 0.01889539334285506 0 0.28153538321103327 0.028287829436016231 0 0.28928472338551392 0.01471179249844959 0 0.290999567129616 0.0060189311847108204 0 0.27794443140771991 0.0061667992310574637 0 0.294284373601713 -0.0022100768555975091 0 0.27794443140771991 0.0061667992310574637 0 0.294284373601713 -0.0022100768555975091 0 0.29982143049329057 0.0051935502549301377 0 0.28928472338551392 0.01471179249844959 0 0.290999567129616 0.0060189311847108204 0 0.28928472338551392 0.01471179249844959 0 0.290999567129616 0.0060189311847108204 0 0.27794443140771991 0.0061667992310574637 0 0.29982143049329057 0.0051935502549301377 0 0.290999567129616 0.0060189311847108204 0 0.294284373601713 -0.0022100768555975091 0 0.28153538321103327 0.028287829436016231 0 0.27794443140771991 0.0061667992310574637 0 0.27311541806133682 0.008642453425126588 0 0.26646914201122462 0.0062813531434843311 0 0.2716149922870314 0.0023698134122428771 0 0.26508125800532539 -0.0031175483341608331 0 0.26646914201122462 0.0062813531434843311 0 0.2716149922870314 0.0023698134122428771 0 0.27311541806133682 0.008642453425126588 0 0.2716149922870314 0.0023698134122428771 0 0.27794443140771991 0.0061667992310574637 0 0.27667985991333699 -0.001623231311202365 0 0.27794443140771991 0.0061667992310574637 0 0.27667985991333699 -0.001623231311202365 0 0.27794443140771991 0.0061667992310574637 0 0.27311541806133682 0.008642453425126588 0 0.2716149922870314 0.0023698134122428771 0 0.27794443140771991 0.0061667992310574637 0 0.27311541806133682 0.008642453425126588 0 0.27311541806133682 0.008642453425126588 0 0.26927563373788849 0.02191525390025734 0 0.26528327801507612 0.01553759738593484 0 0.26646914201122462 0.0062813531434843311 0 0.27311541806133682 0.008642453425126588 0 0.26528327801507612 0.01553759738593484 0 0.28153538321103327 0.028287829436016231 0 0.27794443140771991 0.0061667992310574637 0 0.28153538321103327 0.028287829436016231 0 0.26927563373788849 0.02191525390025734 0 0.26013802875717018 0.032279391651155079 0 0.28153538321103327 0.028287829436016231 0 0.27311541806133682 0.008642453425126588 0 0.26927563373788849 0.02191525390025734 0 0.25725076368735361 0.0079744498282781819 0 0.26013802875717018 0.032279391651155079 0 0.26927563373788849 0.02191525390025734 0 0.26528327801507612 0.01553759738593484 0 0.26013802875717018 0.032279391651155079 0 0.26528327801507612 0.01553759738593484 0 0.25725076368735361 0.0079744498282781819 0 0.26013802875717018 0.032279391651155079 0 0.2482519118440181 0.019735389054711491 0 0.25725076368735361 0.0079744498282781819 0 0.26013802875717018 0.032279391651155079 0 0.24534079437703801 0.033006220773063581 0 0.2482519118440181 0.019735389054711491 0 0.26013802875717018 0.032279391651155079 0 0.26646914201122462 0.0062813531434843311 0 0.26528327801507612 0.01553759738593484 0 0.25725076368735361 0.0079744498282781819 0 0.2469899307744319 0.0074925096759543008 0 0.2482519118440181 0.019735389054711491 0 0.25725076368735361 0.0079744498282781819 0 0.2469899307744319 0.0074925096759543008 0 0.25725076368735361 0.0079744498282781819 0 0.248186192367364 -0.0029083560372354569 0 0.26646914201122462 0.0062813531434843311 0 0.25725076368735361 0.0079744498282781819 0 0.26508125800532539 -0.0031175483341608331 0 0.28512633501434598 0.050408859640975058 0 0.26302529382698681 0.056584333474032002 0 0.27717397065059052 0.064753621040774256 0 0.28512633501434598 0.050408859640975058 0 0.26013802875717018 0.032279391651155079 0 0.26302529382698681 0.056584333474032002 0 0.28512633501434598 0.050408859640975058 0 0.28153538321103327 0.028287829436016231 0 0.26013802875717018 0.032279391651155079 0 0.24968230040100081 0.04538417143822867 0 0.26013802875717018 0.032279391651155079 0 0.26302529382698681 0.056584333474032002 0 0.26013802875717018 0.032279391651155079 0 0.26302529382698681 0.056584333474032002 0 0.24968230040100081 0.04538417143822867 0 0.24534079437703801 0.033006220773063581 0 0.26013802875717018 0.032279391651155079 0 0.2388873701332716 0.058022005438154063 0 0.24968230040100081 0.04538417143822867 0 0.26302529382698681 0.056584333474032002 0 0.24696601928917619 0.076776904553700356 0 0.26302529382698681 0.056584333474032002 0 0.26591255889680337 0.080889275296908925 0 0.26302529382698681 0.056584333474032002 0 0.26591255889680337 0.080889275296908925 0 0.24696601928917619 0.076776904553700356 0 0.25731853712911512 0.092848459011842521 0 0.26591255889680337 0.080889275296908925 0 0.25731853712911512 0.092848459011842521 0 0.27076111612218151 0.091645193911983697 0 0.26591255889680337 0.080889275296908925 0 0.27076111612218151 0.091645193911983697 0 0.26591255889680337 0.080889275296908925 0 0.27801794036107741 0.079019056963804582 0 0.27076111612218151 0.091645193911983697 0 0.27801794036107741 0.079019056963804582 0 0.28563232075926742 0.087678876878884232 0 0.26302529382698681 0.056584333474032002 0 0.26591255889680337 0.080889275296908925 0 0.27717397065059052 0.064753621040774256 0 0.26591255889680337 0.080889275296908925 0 0.27801794036107741 0.079019056963804582 0 0.27717397065059052 0.064753621040774256 0 0.28512633501434598 0.050408859640975058 0 0.27717397065059052 0.064753621040774256 0 0.2887172868176594 0.07252988984593392 0 0.29992618888498812 0.0554495463614324 0 0.28969092075012082 0.078527682856885633 0 0.29992618888498812 0.0554495463614324 0 0.2887172868176594 0.07252988984593392 0 0.28969092075012082 0.078527682856885633 0 0.2887172868176594 0.07252988984593392 0 0.28969092075012082 0.078527682856885633 0 0.27801794036107741 0.079019056963804582 0 0.27717397065059052 0.064753621040774256 0 0.2887172868176594 0.07252988984593392 0 0.27801794036107741 0.079019056963804582 0 0.2887172868176594 0.07252988984593392 0 0.28563232075926742 0.087678876878884232 0 0.28563232075926742 0.087678876878884232 0 0.28969092075012082 0.078527682856885633 0 0.2887172868176594 0.07252988984593392 0 0.28563232075926742 0.087678876878884232 0 0.28969092075012082 0.078527682856885633 0 0.29385585227661543 0.10418455076977939 0 0.2887172868176594 0.07252988984593392 0 0.28563232075926742 0.087678876878884232 0 0.28969092075012082 0.078527682856885633 0 0.28563232075926742 0.087678876878884232 0 0.28969092075012082 0.078527682856885633 0 0.29385585227661543 0.10418455076977939 0 0.28969092075012082 0.078527682856885633 0 0.30341878854863291 0.089465695026852546 0 0.29385585227661543 0.10418455076977939 0 0.31342746847099179 0.073154043056100945 0 0.30341878854863291 0.089465695026852546 0 0.30161584166368349 0.074149241825317846 0 0.31342746847099179 0.073154043056100945 0 0.31888356614536789 0.092042866731036899 0 0.30341878854863291 0.089465695026852546 0 0.28969092075012082 0.078527682856885633 0 0.30341878854863291 0.089465695026852546 0 0.30161584166368349 0.074149241825317846 0 0.31342746847099179 0.073154043056100945 0 0.29992618888498812 0.0554495463614324 0 0.30161584166368349 0.074149241825317846 0 0.29992618888498812 0.0554495463614324 0 0.28969092075012082 0.078527682856885633 0 0.30161584166368349 0.074149241825317846 0 0.31435263558439369 0.10914032892196519 0 0.30092101609883082 0.1159600680335337 0 0.31368532344763861 0.1293955657533554 0 0.31435263558439369 0.10914032892196519 0 0.30092101609883082 0.1159600680335337 0 0.30515160134564728 0.1011522303046756 0 0.31888356614536789 0.092042866731036899 0 0.30341878854863291 0.089465695026852546 0 0.30515160134564728 0.1011522303046756 0 0.30341878854863291 0.089465695026852546 0 0.30515160134564728 0.1011522303046756 0 0.29385585227661543 0.10418455076977939 0 0.30092101609883082 0.1159600680335337 0 0.30515160134564728 0.1011522303046756 0 0.29385585227661543 0.10418455076977939 0 0.28563232075926742 0.087678876878884232 0 0.29385585227661543 0.10418455076977939 0 0.27911867302737781 0.1023656295324608 0 0.28563232075926742 0.087678876878884232 0 0.27911867302737781 0.1023656295324608 0 0.29385585227661543 0.10418455076977939 0 0.28674736990768479 0.11585996627218061 0 0.27911867302737781 0.1023656295324608 0 0.28674736990768479 0.11585996627218061 0 0.26854642530463529 0.12620357620803629 0 0.2912063607202704 0.12997358593553501 0 0.30092101609883082 0.1159600680335337 0 0.29385585227661543 0.10418455076977939 0 0.28674736990768479 0.11585996627218061 0 0.30092101609883082 0.1159600680335337 0 0.28674736990768479 0.11585996627218061 0 0.2912063607202704 0.12997358593553501 0 0.27911867302737781 0.1023656295324608 0 0.26854642530463529 0.12620357620803629 0 0.27911867302737781 0.1023656295324608 0 0.25937949052831832 0.1074303572544361 0 0.26854642530463529 0.12620357620803629 0 0.28674736990768479 0.11585996627218061 0 0.27911867302737781 0.1023656295324608 0 0.26854642530463529 0.12620357620803629 0 0.27076111612218151 0.091645193911983697 0 0.27911867302737781 0.1023656295324608 0 0.25937949052831832 0.1074303572544361 0 0.27076111612218151 0.091645193911983697 0 0.28563232075926742 0.087678876878884232 0 0.27911867302737781 0.1023656295324608 0 0.24283763363987129 0.095528518601897372 0 0.25731853712911512 0.092848459011842521 0 0.25937949052831832 0.1074303572544361 0 0.25731853712911512 0.092848459011842521 0 0.27076111612218151 0.091645193911983697 0 0.25937949052831832 0.1074303572544361 0 0.25937949052831832 0.1074303572544361 0 0.25061981405273631 0.12899540641112561 0 0.26854642530463529 0.12620357620803629 0 0.25061981405273631 0.12899540641112561 0 0.26854642530463529 0.12620357620803629 0 0.25797417758189278 0.15004152288361169 0 0.26854642530463529 0.12620357620803629 0 0.25797417758189278 0.15004152288361169 0 0.26854642530463529 0.12620357620803629 0 0.27998706992118899 0.14769959223802279 0 0.2912063607202704 0.12997358593553501 0 0.26854642530463529 0.12620357620803629 0 0.27998706992118899 0.14769959223802279 0 0.25797417758189278 0.15004152288361169 0 0.2474019298591503 0.17387946955918709 0 0.25797417758189278 0.15004152288361169 0 0.26850748438149857 0.17143694353677649 0 0.2474019298591503 0.17387946955918709 0 0.25797417758189278 0.15004152288361169 0 0.2474019298591503 0.17387946955918709 0 0.25474503326088982 0.1861184732965159 0 0.26850748438149857 0.17143694353677649 0 0.25474503326088982 0.1861184732965159 0 0.26850748438149857 0.17143694353677649 0 0.26672073578853173 0.1931787023261318 0 0.28120461719769879 0.1830838782273162 0 0.26850748438149857 0.17143694353677649 0 0.26672073578853173 0.1931787023261318 0 0.28120461719769879 0.1830838782273162 0 0.26850748438149857 0.17143694353677649 0 0.29386422557214342 0.16448592500987891 0 0.27998706992118899 0.14769959223802279 0 0.26850748438149857 0.17143694353677649 0 0.29386422557214342 0.16448592500987891 0 0.27998706992118899 0.14769959223802279 0 0.25797417758189278 0.15004152288361169 0 0.26850748438149857 0.17143694353677649 0 0.28120461719769879 0.1830838782273162 0 0.29386422557214342 0.16448592500987891 0 0.29626047023303193 0.18608646506673801 0 0.29626047023303193 0.18608646506673801 0 0.31406758301698778 0.1678069277504981 0 0.31659368841582319 0.18522079268335509 0 0.29386422557214342 0.16448592500987891 0 0.29626047023303193 0.18608646506673801 0 0.31406758301698778 0.1678069277504981 0 0.29386422557214342 0.16448592500987891 0 0.31435647432469721 0.15009712947435841 0 0.31406758301698778 0.1678069277504981 0 0.2984577299611601 0.14482855775600409 0 0.31368532344763861 0.1293955657533554 0 0.31435647432469721 0.15009712947435841 0 0.29386422557214342 0.16448592500987891 0 0.2984577299611601 0.14482855775600409 0 0.31435647432469721 0.15009712947435841 0 0.30092101609883082 0.1159600680335337 0 0.2912063607202704 0.12997358593553501 0 0.31368532344763861 0.1293955657533554 0 0.2984577299611601 0.14482855775600409 0 0.2912063607202704 0.12997358593553501 0 0.31368532344763861 0.1293955657533554 0 0.27998706992118899 0.14769959223802279 0 0.2984577299611601 0.14482855775600409 0 0.2912063607202704 0.12997358593553501 0 0.27998706992118899 0.14769959223802279 0 0.29386422557214342 0.16448592500987891 0 0.2984577299611601 0.14482855775600409 0 0.27316698385625021 0.2438545266825885 0 0.27417981314966611 0.2298511518567718 0 0.29348150124841538 0.24189289693695701 0 0.27316698385625021 0.2438545266825885 0 0.25978506038829807 0.23712503581641811 0 0.27417981314966611 0.2298511518567718 0 0.27316698385625021 0.2438545266825885 0 0.25285246646408488 0.245816156428219 0 0.25978506038829807 0.23712503581641811 0 0.26299921505984269 0.2564796415422389 0 0.27316698385625021 0.2438545266825885 0 0.25285246646408488 0.245816156428219 0 0.27316698385625021 0.2438545266825885 0 0.25285246646408488 0.245816156428219 0 0.24793550767579481 0.23761478161865879 0 0.25978506038829807 0.23712503581641811 0 0.25079053079569491 0.2284885624958525 0 0.24793550767579481 0.23761478161865879 0 0.25285246646408488 0.245816156428219 0 0.25978506038829807 0.23712503581641811 0 0.25079053079569491 0.2284885624958525 0 0.25801040321428848 0.21976354130464401 0 0.27417981314966611 0.2298511518567718 0 0.25978506038829807 0.23712503581641811 0 0.25079053079569491 0.2284885624958525 0 0.27417981314966611 0.2298511518567718 0 0.25079053079569491 0.2284885624958525 0 0.27417981314966611 0.2298511518567718 0 0.24751370097796499 0.22007352975431149 0 0.25079053079569491 0.2284885624958525 0 0.25801040321428848 0.21976354130464401 0 0.25801040321428848 0.21976354130464401 0 0.27417981314966611 0.2298511518567718 0 0.25801040321428848 0.21976354130464401 0 0.27417981314966611 0.2298511518567718 0 0.27010733974171269 0.2178557708840157 0 0.27417981314966611 0.2298511518567718 0 0.27010733974171269 0.2178557708840157 0 0.28414647642648172 0.2216135007413356 0 0.27770301024818161 0.21370988398175589 0 0.27010733974171269 0.2178557708840157 0 0.28414647642648172 0.2216135007413356 0 0.27770301024818161 0.21370988398175589 0 0.26893372448334052 0.20775875427333651 0 0.28067017001328859 0.20023135519705601 0 0.26893372448334052 0.20775875427333651 0 0.27010733974171269 0.2178557708840157 0 0.26206524899248362 0.21318221140270119 0 0.27770301024818161 0.21370988398175589 0 0.26893372448334052 0.20775875427333651 0 0.27010733974171269 0.2178557708840157 0 0.26206524899248362 0.21318221140270119 0 0.25443325784045501 0.21451590612855209 0 0.25884151968262142 0.20601708442295791 0 0.25801040321428848 0.21976354130464401 0 0.27010733974171269 0.2178557708840157 0 0.26206524899248362 0.21318221140270119 0 0.2418409932789107 0.2096759307525165 0 0.25801040321428848 0.21976354130464401 0 0.25443325784045501 0.21451590612855209 0 0.25801040321428848 0.21976354130464401 0 0.26206524899248362 0.21318221140270119 0 0.25443325784045501 0.21451590612855209 0 0.25443325784045501 0.21451590612855209 0 0.25057929885876817 0.2057594910493151 0 0.25884151968262142 0.20601708442295791 0 0.26893372448334052 0.20775875427333651 0 0.26206524899248362 0.21318221140270119 0 0.25884151968262142 0.20601708442295791 0 0.26893372448334052 0.20775875427333651 0 0.25884151968262142 0.20601708442295791 0 0.26672073578853173 0.1931787023261318 0 0.25884151968262142 0.20601708442295791 0 0.25304543763118209 0.19749312617351619 0 0.26672073578853173 0.1931787023261318 0 0.25057929885876817 0.2057594910493151 0 0.25884151968262142 0.20601708442295791 0 0.25304543763118209 0.19749312617351619 0 0.24760788764735389 0.19903277919595219 0 0.25057929885876817 0.2057594910493151 0 0.25304543763118209 0.19749312617351619 0 0.24548936342069699 0.19231342481619851 0 0.25474503326088982 0.1861184732965159 0 0.25304543763118209 0.19749312617351619 0 0.25474503326088982 0.1861184732965159 0 0.25304543763118209 0.19749312617351619 0 0.26672073578853173 0.1931787023261318 0 0.28120461719769879 0.1830838782273162 0 0.26672073578853173 0.1931787023261318 0 0.28067017001328859 0.20023135519705601 0 0.26893372448334052 0.20775875427333651 0 0.26672073578853173 0.1931787023261318 0 0.28067017001328859 0.20023135519705601 0 0.29626047023303193 0.18608646506673801 0 0.28067017001328859 0.20023135519705601 0 0.29459125175859718 0.20565978856751019 0 0.28120461719769879 0.1830838782273162 0 0.29626047023303193 0.18608646506673801 0 0.28067017001328859 0.20023135519705601 0 0.29626047023303193 0.18608646506673801 0 0.31274029501340211 0.20102259359391669 0 0.31659368841582319 0.18522079268335509 0 0.29626047023303193 0.18608646506673801 0 0.29459125175859718 0.20565978856751019 0 0.31274029501340211 0.20102259359391669 0 0.30426913256981492 0.2153156589606659 0 0.29459125175859718 0.20565978856751019 0 0.31274029501340211 0.20102259359391669 0 0.30426913256981492 0.2153156589606659 0 0.29459125175859718 0.20565978856751019 0 0.29550129496619559 0.22057224392203689 0 0.29459125175859718 0.20565978856751019 0 0.2874695790191214 0.21634138286535909 0 0.29550129496619559 0.22057224392203689 0 0.29459125175859718 0.20565978856751019 0 0.28548090098143492 0.208505363900788 0 0.2874695790191214 0.21634138286535909 0 0.27770301024818161 0.21370988398175589 0 0.28067017001328859 0.20023135519705601 0 0.28548090098143492 0.208505363900788 0 0.28067017001328859 0.20023135519705601 0 0.29459125175859718 0.20565978856751019 0 0.28548090098143492 0.208505363900788 0 0.27770301024818161 0.21370988398175589 0 0.28548090098143492 0.208505363900788 0 0.2874695790191214 0.21634138286535909 0 0.27770301024818161 0.21370988398175589 0 0.2874695790191214 0.21634138286535909 0 0.28414647642648172 0.2216135007413356 0 0.27417981314966611 0.2298511518567718 0 0.29991782143401258 0.23135057093807471 0 0.27417981314966611 0.2298511518567718 0 0.29991782143401258 0.23135057093807471 0 0.29348150124841538 0.24189289693695701 0 0.28414647642648172 0.2216135007413356 0 0.29550129496619559 0.22057224392203689 0 0.29991782143401258 0.23135057093807471 0 0.27417981314966611 0.2298511518567718 0 0.28414647642648172 0.2216135007413356 0 0.29991782143401258 0.23135057093807471 0 0.2874695790191214 0.21634138286535909 0 0.28414647642648172 0.2216135007413356 0 0.29550129496619559 0.22057224392203689 0 0.30426913256981492 0.2153156589606659 0 0.29991782143401258 0.23135057093807471 0 0.32102763059132761 0.21569407315292399 0 0.30426913256981492 0.2153156589606659 0 0.29550129496619559 0.22057224392203689 0 0.29991782143401258 0.23135057093807471 0 0.31551315645745248 0.25563778672920789 0 0.29348150124841538 0.24189289693695701 0 0.29991782143401258 0.23135057093807471 0 0.29507723796780672 0.24173880789046359 0 0.31287921041729039 0.24184497868545499 0 0.31551315645745248 0.25563778672920789 0 0.29507723796780672 0.24173880789046359 0 0.29348150124841538 0.24189289693695701 0 0.31551315645745248 0.25563778672920789 0 0.29507723796780672 0.24173880789046359 0 0.31287921041729039 0.24184497868545499 0 0.30421742080716502 0.25429470686108768 0 0.29821588257969661 0.25350816926612368 0 0.29348150124841538 0.24189289693695701 0 0.27417981314966611 0.2298511518567718 0 0.29348150124841538 0.24189289693695701 0 0.2845791246550598 0.25188314175314308 0 0.29205694999782089 0.25005763771083278 0 0.29348150124841538 0.24189289693695701 0 0.29205694999782089 0.25005763771083278 0 0.29821588257969661 0.25350816926612368 0 0.29348150124841538 0.24189289693695701 0 0.2845791246550598 0.25188314175314308 0 0.27316698385625021 0.2438545266825885 0 0.29348150124841538 0.24189289693695701 0 0.27316698385625021 0.2438545266825885 0 0.29348150124841538 0.24189289693695701 0 0.29991782143401258 0.23135057093807471 0 0.29507723796780672 0.24173880789046359 0 0.29348150124841538 0.24189289693695701 0 0.29507723796780672 0.24173880789046359 0 0.29348150124841538 0.24189289693695701 0 0.3411514316597225 0.2413011510350864 0 0.32565582971835932 0.23284999001937709 0 0.34508755115787909 0.22976359275778149 0 0.34337253149540331 0.24931008363683421 0 0.3411514316597225 0.2413011510350864 0 0.32952182526965618 0.2466596864574821 0 0.3411514316597225 0.2413011510350864 0 0.32952182526965618 0.2466596864574821 0 0.32565582971835932 0.23284999001937709 0 0.29991782143401258 0.23135057093807471 0 0.31287921041729039 0.24184497868545499 0 0.32565582971835932 0.23284999001937709 0 0.31551315645745248 0.25563778672920789 0 0.32952182526965618 0.2466596864574821 0 0.31287921041729039 0.24184497868545499 0 0.32952182526965618 0.2466596864574821 0 0.31287921041729039 0.24184497868545499 0 0.32565582971835932 0.23284999001937709 0 0.29991782143401258 0.23135057093807471 0 0.32565582971835932 0.23284999001937709 0 0.32102763059132761 0.21569407315292399 0 0.29991782143401258 0.23135057093807471 0 0.32565582971835932 0.23284999001937709 0 0.32565582971835932 0.23284999001937709 0 0.34300871462016291 0.21398503213729889 0 0.32102763059132761 0.21569407315292399 0 0.32565582971835932 0.23284999001937709 0 0.34300871462016291 0.21398503213729889 0 0.34508755115787909 0.22976359275778149 0 0.34300871462016291 0.21398503213729889 0 0.32102763059132761 0.21569407315292399 0 0.33028266450782717 0.19529573672438061 0 0.30426913256981492 0.2153156589606659 0 0.32102763059132761 0.21569407315292399 0 0.31274029501340211 0.20102259359391669 0 0.32102763059132761 0.21569407315292399 0 0.31274029501340211 0.20102259359391669 0 0.33028266450782717 0.19529573672438061 0 0.31274029501340211 0.20102259359391669 0 0.33028266450782717 0.19529573672438061 0 0.31659368841582319 0.18522079268335509 0 0.34300871462016291 0.21398503213729889 0 0.33028266450782717 0.19529573672438061 0 0.34975788373051081 0.19457031241634851 0 0.33028266450782717 0.19529573672438061 0 0.34975788373051081 0.19457031241634851 0 0.34278387639425401 0.18117374258083921 0 0.37374545544798732 0.20049593558692511 0 0.37369989176241658 0.1789562902897826 0 0.37374545544798732 0.20049593558692511 0 0.36342757094544331 0.18729453274711361 0 0.37369989176241658 0.1789562902897826 0 0.34975788373051081 0.19457031241634851 0 0.37374545544798732 0.20049593558692511 0 0.36342757094544331 0.18729453274711361 0 0.37374545544798732 0.20049593558692511 0 0.35933468854935519 0.21551478126399881 0 0.37379101913355789 0.22203558088406761 0 0.37374545544798732 0.20049593558692511 0 0.37379101913355789 0.22203558088406761 0 0.34975788373051081 0.19457031241634851 0 0.37374545544798732 0.20049593558692511 0 0.35933468854935519 0.21551478126399881 0 0.34300871462016291 0.21398503213729889 0 0.35933468854935519 0.21551478126399881 0 0.35136617359379207 0.22201105164908139 0 0.34300871462016291 0.21398503213729889 0 0.34975788373051081 0.19457031241634851 0 0.35933468854935519 0.21551478126399881 0 0.34300871462016291 0.21398503213729889 0 0.34975788373051081 0.19457031241634851 0 0.34300871462016291 0.21398503213729889 0 0.35136617359379207 0.22201105164908139 0 0.34508755115787909 0.22976359275778149 0 0.34508755115787909 0.22976359275778149 0 0.35672621381441999 0.2297857541734479 0 0.35250190920863328 0.23873699195879461 0 0.35136617359379207 0.22201105164908139 0 0.34508755115787909 0.22976359275778149 0 0.35672621381441999 0.2297857541734479 0 0.35933468854935519 0.21551478126399881 0 0.35136617359379207 0.22201105164908139 0 0.35672621381441999 0.2297857541734479 0 0.36750001010958439 0.23050534594839869 0 0.37277068113571032 0.2414835610088707 0 0.38458727180075752 0.22770927054564791 0 0.35933468854935519 0.21551478126399881 0 0.35672621381441999 0.2297857541734479 0 0.36750001010958439 0.23050534594839869 0 0.35933468854935519 0.21551478126399881 0 0.37379101913355789 0.22203558088406761 0 0.36750001010958439 0.23050534594839869 0 0.35672621381441999 0.2297857541734479 0 0.36750001010958439 0.23050534594839869 0 0.36136316103016303 0.23684997233232061 0 0.36136316103016303 0.23684997233232061 0 0.37277068113571032 0.2414835610088707 0 0.35846752505203222 0.24250434589022801 0 0.35430420969765652 0.25076057804977192 0 0.37277068113571032 0.2414835610088707 0 0.35846752505203222 0.24250434589022801 0 0.35430420969765652 0.25076057804977192 0 0.37277068113571032 0.2414835610088707 0 0.36139665677837463 0.25474196351046408 0 0.35430420969765652 0.25076057804977192 0 0.37277068113571032 0.2414835610088707 0 0.36750001010958439 0.23050534594839869 0 0.36136316103016303 0.23684997233232061 0 0.37277068113571032 0.2414835610088707 0 0.36139665677837463 0.25474196351046408 0 0.37277068113571032 0.2414835610088707 0 0.35846752505203222 0.24250434589022801 0 0.35250190920863328 0.23873699195879461 0 0.3506212781185053 0.24561403105767621 0 0.35430420969765652 0.25076057804977192 0 0.35846752505203222 0.24250434589022801 0 0.3506212781185053 0.24561403105767621 0 0.36136316103016303 0.23684997233232061 0 0.35846752505203222 0.24250434589022801 0 0.35250190920863328 0.23873699195879461 0 0.35672621381441999 0.2297857541734479 0 0.36136316103016303 0.23684997233232061 0 0.35250190920863328 0.23873699195879461 0 0.3411514316597225 0.2413011510350864 0 0.35250190920863328 0.23873699195879461 0 0.3506212781185053 0.24561403105767621 0 0.3411514316597225 0.2413011510350864 0 0.34508755115787909 0.22976359275778149 0 0.35250190920863328 0.23873699195879461 0 0.35430420969765652 0.25076057804977192 0 0.34337253149540331 0.24931008363683421 0 0.3506212781185053 0.24561403105767621 0 0.34337253149540331 0.24931008363683421 0 0.3411514316597225 0.2413011510350864 0 0.3506212781185053 0.24561403105767621 0 0.33840243143805382 0.1517354044608043 0 0.33690310177852839 0.12977958349163199 0 0.32583683274722952 0.14025192079503751 0 0.33840243143805382 0.1517354044608043 0 0.33690310177852839 0.12977958349163199 0 0.3534382827932625 0.13818560881504471 0 0.33690310177852839 0.12977958349163199 0 0.32583683274722952 0.14025192079503751 0 0.31368532344763861 0.1293955657533554 0 0.3276263471162843 0.1161365019279178 0 0.33690310177852839 0.12977958349163199 0 0.31368532344763861 0.1293955657533554 0 0.32583683274722952 0.14025192079503751 0 0.31368532344763861 0.1293955657533554 0 0.31435647432469721 0.15009712947435841 0 0.33840243143805382 0.1517354044608043 0 0.32583683274722952 0.14025192079503751 0 0.31435647432469721 0.15009712947435841 0 0.33840243143805382 0.1517354044608043 0 0.31406758301698778 0.1678069277504981 0 0.32961742930786692 0.17589224028124209 0 0.33840243143805382 0.1517354044608043 0 0.31435647432469721 0.15009712947435841 0 0.31406758301698778 0.1678069277504981 0 0.33028266450782717 0.19529573672438061 0 0.31659368841582319 0.18522079268335509 0 0.32961742930786692 0.17589224028124209 0 0.31406758301698778 0.1678069277504981 0 0.31659368841582319 0.18522079268335509 0 0.32961742930786692 0.17589224028124209 0 0.33028266450782717 0.19529573672438061 0 0.32961742930786692 0.17589224028124209 0 0.34278387639425401 0.18117374258083921 0 0.32961742930786692 0.17589224028124209 0 0.34278387639425401 0.18117374258083921 0 0.34775435158420648 0.1649548307868271 0 0.33840243143805382 0.1517354044608043 0 0.32961742930786692 0.17589224028124209 0 0.34775435158420648 0.1649548307868271 0 0.34775435158420648 0.1649548307868271 0 0.35650705284085871 0.17515559269539799 0 0.3632562219512071 0.15574087297444791 0 0.33840243143805382 0.1517354044608043 0 0.34775435158420648 0.1649548307868271 0 0.3632562219512071 0.15574087297444791 0 0.34278387639425401 0.18117374258083921 0 0.34775435158420648 0.1649548307868271 0 0.35650705284085871 0.17515559269539799 0 0.34975788373051081 0.19457031241634851 0 0.35650705284085871 0.17515559269539799 0 0.36342757094544331 0.18729453274711361 0 0.34975788373051081 0.19457031241634851 0 0.35650705284085871 0.17515559269539799 0 0.34975788373051081 0.19457031241634851 0 0.34278387639425401 0.18117374258083921 0 0.35650705284085871 0.17515559269539799 0 0.35650705284085871 0.17515559269539799 0 0.36342757094544331 0.18729453274711361 0 0.37369989176241658 0.1789562902897826 0 0.35650705284085871 0.17515559269539799 0 0.37369989176241658 0.1789562902897826 0 0.36664684055023711 0.1678000308938111 0 0.37369989176241658 0.1789562902897826 0 0.36664684055023711 0.1678000308938111 0 0.3736543280768464 0.15741664499264019 0 0.35650705284085871 0.17515559269539799 0 0.36664684055023711 0.1678000308938111 0 0.3632562219512071 0.15574087297444791 0 0.37369989176241658 0.1789562902897826 0 0.3736543280768464 0.15741664499264019 0 0.35650705284085871 0.17515559269539799 0 0.3632562219512071 0.15574087297444791 0 0.36664684055023711 0.1678000308938111 0 0.3736543280768464 0.15741664499264019 0 0.3632562219512071 0.15574087297444791 0 0.3736543280768464 0.15741664499264019 0 0.3632562219512071 0.15574087297444791 0 0.3632562219512071 0.15574087297444791 0 0.37153631209427068 0.1319222922331047 0 0.3632562219512071 0.15574087297444791 0 0.3534382827932625 0.13818560881504471 0 0.37153631209427068 0.1319222922331047 0 0.3736543280768464 0.15741664499264019 0 0.37360369725997111 0.13348157865740179 0 0.3736543280768464 0.15741664499264019 0 0.3632562219512071 0.15574087297444791 0 0.37360369725997111 0.13348157865740179 0 0.33840243143805382 0.1517354044608043 0 0.3632562219512071 0.15574087297444791 0 0.33840243143805382 0.1517354044608043 0 0.3632562219512071 0.15574087297444791 0 0.3534382827932625 0.13818560881504471 0 0.3575350432872314 0.1213620982567159 0 0.33690310177852839 0.12977958349163199 0 0.3534382827932625 0.13818560881504471 0 0.3632562219512071 0.15574087297444791 0 0.37360369725997111 0.13348157865740179 0 0.37153631209427068 0.1319222922331047 0 0.3575350432872314 0.1213620982567159 0 0.3534382827932625 0.13818560881504471 0 0.37153631209427068 0.1319222922331047 0 0.3575350432872314 0.1213620982567159 0 0.37153631209427068 0.1319222922331047 0 0.37358791482027159 0.12602063363590579 0 0.3575350432872314 0.1213620982567159 0 0.37153631209427068 0.1319222922331047 0 0.37360369725997111 0.13348157865740179 0 0.37153631209427068 0.1319222922331047 0 0.37358791482027159 0.12602063363590579 0 0.37360369725997111 0.13348157865740179 0 0.37358791482027159 0.12602063363590579 0 0.37153631209427068 0.1319222922331047 0 0.37358791482027159 0.12602063363590579 0 0.37360369725997111 0.13348157865740179 0 0.37153631209427068 0.1319222922331047 0 0.37360369725997111 0.13348157865740179 0 0.39073154703815921 0.13658419832686389 0 0.39167919548499258 0.14711468363572491 0 0.37360369725997111 0.13348157865740179 0 0.38058110435394649 0.1289993900205286 0 0.39073154703815921 0.13658419832686389 0 0.37360369725997111 0.13348157865740179 0 0.39167919548499258 0.14711468363572491 0 0.37360369725997111 0.13348157865740179 0 0.37358791482027159 0.12602063363590579 0 0.38058110435394649 0.1289993900205286 0 0.38058110435394649 0.1289993900205286 0 0.39073154703815921 0.13658419832686389 0 0.40061638503559999 0.12795965754420419 0 0.39073154703815921 0.13658419832686389 0 0.40061638503559999 0.12795965754420419 0 0.40717735305628661 0.14536568177646009 0 0.39167919548499258 0.14711468363572491 0 0.40975469371001322 0.1607477886140494 0 0.39073154703815921 0.13658419832686389 0 0.39167919548499258 0.14711468363572491 0 0.40717735305628661 0.14536568177646009 0 0.39167919548499258 0.14711468363572491 0 0.40975469371001322 0.1607477886140494 0 0.40717735305628661 0.14536568177646009 0 0.3736543280768464 0.15741664499264019 0 0.39167919548499258 0.14711468363572491 0 0.39926181545316147 0.1615435802520758 0 0.3736543280768464 0.15741664499264019 0 0.37360369725997111 0.13348157865740179 0 0.39167919548499258 0.14711468363572491 0 0.3736543280768464 0.15741664499264019 0 0.38922110501023821 0.16736996472935431 0 0.39926181545316147 0.1615435802520758 0 0.37369989176241658 0.1789562902897826 0 0.3736543280768464 0.15741664499264019 0 0.38183769538178342 0.17006687388232791 0 0.3736543280768464 0.15741664499264019 0 0.39926181545316147 0.1615435802520758 0 0.3736543280768464 0.15741664499264019 0 0.38183769538178342 0.17006687388232791 0 0.38922110501023821 0.16736996472935431 0 0.38183769538178342 0.17006687388232791 0 0.38922110501023821 0.16736996472935431 0 0.38909485127722848 0.17731765355591919 0 0.37369989176241658 0.1789562902897826 0 0.38183769538178342 0.17006687388232791 0 0.38909485127722848 0.17731765355591919 0 0.37369989176241658 0.1789562902897826 0 0.38909485127722848 0.17731765355591919 0 0.38727932418884148 0.19111659285537869 0 0.38909485127722848 0.17731765355591919 0 0.40240059628482372 0.1865431432648503 0 0.38727932418884148 0.19111659285537869 0 0.38909485127722848 0.17731765355591919 0 0.39889562406136347 0.1720911870405776 0 0.40240059628482372 0.1865431432648503 0 0.38922110501023821 0.16736996472935431 0 0.38909485127722848 0.17731765355591919 0 0.39889562406136347 0.1720911870405776 0 0.39889562406136347 0.1720911870405776 0 0.40240059628482372 0.1865431432648503 0 0.40905091227219742 0.17363816872347859 0 0.39167919548499258 0.14711468363572491 0 0.39926181545316147 0.1615435802520758 0 0.40975469371001322 0.1607477886140494 0 0.38922110501023821 0.16736996472935431 0 0.39889562406136347 0.1720911870405776 0 0.39926181545316147 0.1615435802520758 0 0.39889562406136347 0.1720911870405776 0 0.39926181545316147 0.1615435802520758 0 0.40905091227219742 0.17363816872347859 0 0.39926181545316147 0.1615435802520758 0 0.40905091227219742 0.17363816872347859 0 0.42486930282947621 0.1656705155115144 0 0.39926181545316147 0.1615435802520758 0 0.42486930282947621 0.1656705155115144 0 0.39926181545316147 0.1615435802520758 0 0.40975469371001322 0.1607477886140494 0 0.42486930282947621 0.1656705155115144 0 0.40975469371001322 0.1607477886140494 0 0.42486930282947621 0.1656705155115144 0 0.42078210940208188 0.1546281478934676 0 0.40905091227219742 0.17363816872347859 0 0.42097705378670192 0.18363179846452141 0 0.42486930282947621 0.1656705155115144 0 0.4115435817015255 0.1841266052899064 0 0.40905091227219742 0.17363816872347859 0 0.42097705378670192 0.18363179846452141 0 0.40240059628482372 0.1865431432648503 0 0.4115435817015255 0.1841266052899064 0 0.40905091227219742 0.17363816872347859 0 0.4115435817015255 0.1841266052899064 0 0.42097705378670192 0.18363179846452141 0 0.41374576446237937 0.19269331070677551 0 0.42097705378670192 0.18363179846452141 0 0.43326530637894761 0.17879466249917311 0 0.42486930282947621 0.1656705155115144 0 0.42097705378670192 0.18363179846452141 0 0.43326530637894761 0.17879466249917311 0 0.4378950889345542 0.19424832868832689 0 0.42486930282947621 0.1656705155115144 0 0.42078210940208188 0.1546281478934676 0 0.44039075495227681 0.15354235984687609 0 0.43326530637894761 0.17879466249917311 0 0.42486930282947621 0.1656705155115144 0 0.43905812029135732 0.1686074501798783 0 0.42486930282947621 0.1656705155115144 0 0.44039075495227681 0.15354235984687609 0 0.43905812029135732 0.1686074501798783 0 0.4243635715244497 0.14383992477430871 0 0.43601626853924719 0.13997937521484241 0 0.44039075495227681 0.15354235984687609 0 0.4243635715244497 0.14383992477430871 0 0.42078210940208188 0.1546281478934676 0 0.44039075495227681 0.15354235984687609 0 0.4243635715244497 0.14383992477430871 0 0.4308445007668924 0.1266246098836564 0 0.43601626853924719 0.13997937521484241 0 0.4243635715244497 0.14383992477430871 0 0.4308445007668924 0.1266246098836564 0 0.41553956646790791 0.1317784840615272 0 0.4243635715244497 0.14383992477430871 0 0.41553956646790791 0.1317784840615272 0 0.40717735305628661 0.14536568177646009 0 0.40061638503559999 0.12795965754420419 0 0.41553956646790791 0.1317784840615272 0 0.40717735305628661 0.14536568177646009 0 0.4243635715244497 0.14383992477430871 0 0.40717735305628661 0.14536568177646009 0 0.42078210940208188 0.1546281478934676 0 0.40975469371001322 0.1607477886140494 0 0.40717735305628661 0.14536568177646009 0 0.42078210940208188 0.1546281478934676 0 0.39029188694281408 0.2574905593728794 0 0.39468930455322693 0.23047228342725351 0 0.41831897407092172 0.2483369572327947 0 0.37277068113571032 0.2414835610088707 0 0.39468930455322693 0.23047228342725351 0 0.39029188694281408 0.2574905593728794 0 0.37277068113571032 0.2414835610088707 0 0.39468930455322693 0.23047228342725351 0 0.37277068113571032 0.2414835610088707 0 0.38458727180075752 0.22770927054564791 0 0.37379101913355789 0.22203558088406761 0 0.36750001010958439 0.23050534594839869 0 0.38458727180075752 0.22770927054564791 0 0.37277068113571032 0.2414835610088707 0 0.38458727180075752 0.22770927054564791 0 0.39468930455322693 0.23047228342725351 0 0.37379101913355789 0.22203558088406761 0 0.38458727180075752 0.22770927054564791 0 0.38308839580462439 0.21362127254508531 0 0.38458727180075752 0.22770927054564791 0 0.39640386246580372 0.21393498008242401 0 0.39468930455322693 0.23047228342725351 0 0.39640386246580372 0.21393498008242401 0 0.41660792797074409 0.2194610058456378 0 0.38458727180075752 0.22770927054564791 0 0.39468930455322693 0.23047228342725351 0 0.39640386246580372 0.21393498008242401 0 0.39468930455322693 0.23047228342725351 0 0.41660792797074409 0.2194610058456378 0 0.39640386246580372 0.21393498008242401 0 0.39684992277929582 0.19961622850408131 0 0.40930974596943059 0.20287641008268689 0 0.39640386246580372 0.21393498008242401 0 0.38747339213731058 0.20375700191477891 0 0.39684992277929582 0.19961622850408131 0 0.38458727180075752 0.22770927054564791 0 0.39640386246580372 0.21393498008242401 0 0.38308839580462439 0.21362127254508531 0 0.37374545544798732 0.20049593558692511 0 0.37379101913355789 0.22203558088406761 0 0.38308839580462439 0.21362127254508531 0 0.37374545544798732 0.20049593558692511 0 0.38308839580462439 0.21362127254508531 0 0.38747339213731058 0.20375700191477891 0 0.39640386246580372 0.21393498008242401 0 0.38308839580462439 0.21362127254508531 0 0.38747339213731058 0.20375700191477891 0 0.37374545544798732 0.20049593558692511 0 0.38747339213731058 0.20375700191477891 0 0.38727932418884148 0.19111659285537869 0 0.37374545544798732 0.20049593558692511 0 0.37369989176241658 0.1789562902897826 0 0.38727932418884148 0.19111659285537869 0 0.38747339213731058 0.20375700191477891 0 0.38727932418884148 0.19111659285537869 0 0.39684992277929582 0.19961622850408131 0 0.40240059628482372 0.1865431432648503 0 0.38727932418884148 0.19111659285537869 0 0.39684992277929582 0.19961622850408131 0 0.40240059628482372 0.1865431432648503 0 0.39684992277929582 0.19961622850408131 0 0.40930974596943059 0.20287641008268689 0 0.41374576446237937 0.19269331070677551 0 0.40930974596943059 0.20287641008268689 0 0.42644631002379302 0.20117729715056651 0 0.40240059628482372 0.1865431432648503 0 0.41374576446237937 0.19269331070677551 0 0.40930974596943059 0.20287641008268689 0 0.42097705378670192 0.18363179846452141 0 0.41374576446237937 0.19269331070677551 0 0.42644631002379302 0.20117729715056651 0 0.40240059628482372 0.1865431432648503 0 0.4115435817015255 0.1841266052899064 0 0.41374576446237937 0.19269331070677551 0 0.42097705378670192 0.18363179846452141 0 0.42644631002379302 0.20117729715056651 0 0.4378950889345542 0.19424832868832689 0 0.42644631002379302 0.20117729715056651 0 0.43852655138826052 0.20844972826402011 0 0.4378950889345542 0.19424832868832689 0 0.41660792797074409 0.2194610058456378 0 0.43364490136847378 0.22605332542816511 0 0.43852655138826052 0.20844972826402011 0 0.42644631002379302 0.20117729715056651 0 0.41660792797074409 0.2194610058456378 0 0.43852655138826052 0.20844972826402011 0 0.41660792797074409 0.2194610058456378 0 0.43852655138826052 0.20844972826402011 0 0.42644631002379302 0.20117729715056651 0 0.43852655138826052 0.20844972826402011 0 0.39640386246580372 0.21393498008242401 0 0.40930974596943059 0.20287641008268689 0 0.41660792797074409 0.2194610058456378 0 0.40930974596943059 0.20287641008268689 0 0.42644631002379302 0.20117729715056651 0 0.41660792797074409 0.2194610058456378 0 0.39468930455322693 0.23047228342725351 0 0.41660792797074409 0.2194610058456378 0 0.41831897407092172 0.2483369572327947 0 0.41660792797074409 0.2194610058456378 0 0.43364490136847378 0.22605332542816511 0 0.41831897407092172 0.2483369572327947 0 0.44083744990241752 0.25793977297392412 0 0.41831897407092172 0.2483369572327947 0 0.44634606119902931 0.23918335509270999 0 0.43364490136847378 0.22605332542816511 0 0.41831897407092172 0.2483369572327947 0 0.44634606119902931 0.23918335509270999 0 0.41831897407092172 0.2483369572327947 0 0.44634606119902931 0.23918335509270999 0 0.46147652045870768 0.25381417775909959 0 0.44634606119902931 0.23918335509270999 0 0.47437314832713651 0.23002975295262429 0 0.44634606119902931 0.23918335509270999 0 0.47437314832713651 0.23002975295262429 0 0.43364490136847378 0.22605332542816511 0 0.44634606119902931 0.23918335509270999 0 0.45644984985769999 0.21923974060831961 0 0.44634606119902931 0.23918335509270999 0 0.45644984985769999 0.21923974060831961 0 0.47437314832713651 0.23002975295262429 0 0.45644984985769999 0.21923974060831961 0 0.47437314832713651 0.23002975295262429 0 0.45644984985769999 0.21923974060831961 0 0.46195740009912017 0.1966787527691872 0 0.48148738422236831 0.20839476250586761 0 0.45644984985769999 0.21923974060831961 0 0.43852655138826052 0.20844972826402011 0 0.46195740009912017 0.1966787527691872 0 0.43364490136847378 0.22605332542816511 0 0.45644984985769999 0.21923974060831961 0 0.43852655138826052 0.20844972826402011 0 0.45644984985769999 0.21923974060831961 0 0.43852655138826052 0.20844972826402011 0 0.43852655138826052 0.20844972826402011 0 0.4378950889345542 0.19424832868832689 0 0.46195740009912017 0.1966787527691872 0 0.43852655138826052 0.20844972826402011 0 0.46195740009912017 0.1966787527691872 0 0.4378950889345542 0.19424832868832689 0 0.46195740009912017 0.1966787527691872 0 0.44352696605264841 0.1818152196516242 0 0.46195740009912017 0.1966787527691872 0 0.48039248094549247 0.18953842379727989 0 0.48148738422236831 0.20839476250586761 0 0.48039248094549247 0.18953842379727989 0 0.5 0.19373767884697729 0 0.48148738422236831 0.20839476250586761 0 0.5 0.19373767884697729 0 0.48148738422236831 0.20839476250586761 0 0.49999999999999972 0.22166006389988421 0 0.45644984985769999 0.21923974060831961 0 0.48148738422236831 0.20839476250586761 0 0.47437314832713651 0.23002975295262429 0 0.47437314832713651 0.23002975295262429 0 0.49999999999999972 0.22166006389988421 0 0.50000000000000133 0.2454573845555528 0 0.47437314832713651 0.23002975295262429 0 0.49999999999999972 0.22166006389988421 0 0.48148738422236831 0.20839476250586761 0 0.47437314832713651 0.23002975295262429 0 0.49999999999999972 0.22166006389988421 0 0.47437314832713651 0.23002975295262429 0 0.50000000000000133 0.2454573845555528 0 0.48192277306296422 0.25798875429260443 0 0.47437314832713651 0.23002975295262429 0 0.50000000000000133 0.2454573845555528 0 0.46147652045870768 0.25381417775909959 0 0.48192277306296422 0.25798875429260443 0 0.47437314832713651 0.23002975295262429 0 0.4619924568034095 0.15058569874373109 0 0.44846077803961609 0.13457075264950891 0 0.47301148623623918 0.12321298749214379 0 0.4308445007668924 0.1266246098836564 0 0.44846077803961609 0.13457075264950891 0 0.44878855583327892 0.1150448843530659 0 0.4308445007668924 0.1266246098836564 0 0.43601626853924719 0.13997937521484241 0 0.44846077803961609 0.13457075264950891 0 0.4619924568034095 0.15058569874373109 0 0.44846077803961609 0.13457075264950891 0 0.44039075495227681 0.15354235984687609 0 0.43601626853924719 0.13997937521484241 0 0.44846077803961609 0.13457075264950891 0 0.44039075495227681 0.15354235984687609 0 0.44039075495227681 0.15354235984687609 0 0.43905812029135732 0.1686074501798783 0 0.454666604421264 0.1682446287666528 0 0.4619924568034095 0.15058569874373109 0 0.44039075495227681 0.15354235984687609 0 0.454666604421264 0.1682446287666528 0 0.43326530637894761 0.17879466249917311 0 0.4378950889345542 0.19424832868832689 0 0.44352696605264841 0.1818152196516242 0 0.43326530637894761 0.17879466249917311 0 0.43905812029135732 0.1686074501798783 0 0.44352696605264841 0.1818152196516242 0 0.43905812029135732 0.1686074501798783 0 0.44352696605264841 0.1818152196516242 0 0.454666604421264 0.1682446287666528 0 0.46195740009912017 0.1966787527691872 0 0.44352696605264841 0.1818152196516242 0 0.454666604421264 0.1682446287666528 0 0.46195740009912017 0.1966787527691872 0 0.454666604421264 0.1682446287666528 0 0.47331668032547503 0.1710774832763601 0 0.4619924568034095 0.15058569874373109 0 0.454666604421264 0.1682446287666528 0 0.47331668032547503 0.1710774832763601 0 0.4619924568034095 0.15058569874373109 0 0.47331668032547503 0.1710774832763601 0 0.48166412467302477 0.1497168744094938 0 0.46195740009912017 0.1966787527691872 0 0.48039248094549247 0.18953842379727989 0 0.47331668032547503 0.1710774832763601 0 0.48039248094549247 0.18953842379727989 0 0.5 0.19373767884697729 0 0.5 0.16581529379407051 0 0.48039248094549247 0.18953842379727989 0 0.47331668032547503 0.1710774832763601 0 0.5 0.16581529379407051 0 0.47331668032547503 0.1710774832763601 0 0.5 0.16581529379407051 0 0.48166412467302477 0.1497168744094938 0 0.5 0.16581529379407051 0 0.48166412467302477 0.1497168744094938 0 0.5 0.13789290874116361 0 0.4619924568034095 0.15058569874373109 0 0.48166412467302477 0.1497168744094938 0 0.47301148623623918 0.12321298749214379 0 0.48166412467302477 0.1497168744094938 0 0.5 0.13789290874116361 0 0.47301148623623918 0.12321298749214379 0 0.47301148623623918 0.12321298749214379 0 0.48013307703541092 0.091842224755400242 0 0.45908657315460161 0.098746095075948545 0 0.5 0.1099705236882568 0 0.47301148623623918 0.12321298749214379 0 0.48013307703541092 0.091842224755400242 0 0.5 0.13789290874116361 0 0.5 0.1099705236882568 0 0.47301148623623918 0.12321298749214379 0 0.5 0.1099705236882568 0 0.5 0.082048138635349877 0 0.48013307703541092 0.091842224755400242 0 0.5 0.082048138635349877 0 0.48331658307125991 0.067549059312564941 0 0.5 0.054125753582442981 0 0.5 0.082048138635349877 0 0.48013307703541092 0.091842224755400242 0 0.48331658307125991 0.067549059312564941 0 0.48013307703541092 0.091842224755400242 0 0.48331658307125991 0.067549059312564941 0 0.4555337473407412 0.073375411155028755 0 0.48331658307125991 0.067549059312564941 0 0.4555337473407412 0.073375411155028755 0 0.46909030004719687 0.051638022797732039 0 0.48013307703541092 0.091842224755400242 0 0.4555337473407412 0.073375411155028755 0 0.45908657315460161 0.098746095075948545 0 0.4555337473407412 0.073375411155028755 0 0.4401484414504791 0.084985334323626746 0 0.45908657315460161 0.098746095075948545 0 0.4555337473407412 0.073375411155028755 0 0.4415360901343815 0.069970066028583563 0 0.44303822609018301 0.051011240646027182 0 0.4555337473407412 0.073375411155028755 0 0.4401484414504791 0.084985334323626746 0 0.4415360901343815 0.069970066028583563 0 0.47301148623623918 0.12321298749214379 0 0.45908657315460161 0.098746095075948545 0 0.44878855583327892 0.1150448843530659 0 0.44846077803961609 0.13457075264950891 0 0.47301148623623918 0.12321298749214379 0 0.44878855583327892 0.1150448843530659 0 0.45908657315460161 0.098746095075948545 0 0.44878855583327892 0.1150448843530659 0 0.43389675107981152 0.10360345603798771 0 0.4401484414504791 0.084985334323626746 0 0.45908657315460161 0.098746095075948545 0 0.43389675107981152 0.10360345603798771 0 0.4308445007668924 0.1266246098836564 0 0.44878855583327892 0.1150448843530659 0 0.43389675107981152 0.10360345603798771 0 0.4308445007668924 0.1266246098836564 0 0.41469602195631072 0.11510254632900679 0 0.43389675107981152 0.10360345603798771 0 0.40061638503559999 0.12795965754420419 0 0.41553956646790791 0.1317784840615272 0 0.41469602195631072 0.11510254632900679 0 0.4308445007668924 0.1266246098836564 0 0.41553956646790791 0.1317784840615272 0 0.41469602195631072 0.11510254632900679 0 0.41469602195631072 0.11510254632900679 0 0.43389675107981152 0.10360345603798771 0 0.41180966522206408 0.090005315333277172 0 0.41469602195631072 0.11510254632900679 0 0.41180966522206408 0.090005315333277172 0 0.39619538478800542 0.10950235267690291 0 0.4401484414504791 0.084985334323626746 0 0.43389675107981152 0.10360345603798771 0 0.41180966522206408 0.090005315333277172 0 0.4401484414504791 0.084985334323626746 0 0.42742394565612291 0.070508277989651605 0 0.41180966522206408 0.090005315333277172 0 0.4415360901343815 0.069970066028583563 0 0.42742394565612291 0.070508277989651605 0 0.44303822609018301 0.051011240646027182 0 0.4401484414504791 0.084985334323626746 0 0.4415360901343815 0.069970066028583563 0 0.42742394565612291 0.070508277989651605 0 0.42742394565612291 0.070508277989651605 0 0.41180966522206408 0.090005315333277172 0 0.39873822247986129 0.070200902227240763 0 0.42742394565612291 0.070508277989651605 0 0.39873822247986129 0.070200902227240763 0 0.41642916432911181 0.050371058025138242 0 0.42742394565612291 0.070508277989651605 0 0.41180966522206408 0.090005315333277172 0 0.41180966522206408 0.090005315333277172 0 0.38634376356168759 0.089327046015210881 0 0.38898865479300898 0.100528474426378 0 0.41180966522206408 0.090005315333277172 0 0.39873822247986129 0.070200902227240763 0 0.38634376356168759 0.089327046015210881 0 0.39873822247986129 0.070200902227240763 0 0.38134672427778449 0.077230582660076361 0 0.3779941917442185 0.064233160163082947 0 0.36587202280146119 0.079606196669127979 0 0.38134672427778449 0.077230582660076361 0 0.3779941917442185 0.064233160163082947 0 0.39873822247986129 0.070200902227240763 0 0.38134672427778449 0.077230582660076361 0 0.38634376356168759 0.089327046015210881 0 0.37433572331037063 0.087922968995723744 0 0.38134672427778449 0.077230582660076361 0 0.38634376356168759 0.089327046015210881 0 0.37353208531517862 0.099627954427332549 0 0.37433572331037063 0.087922968995723744 0 0.38634376356168759 0.089327046015210881 0 0.37353208531517862 0.099627954427332549 0 0.38634376356168759 0.089327046015210881 0 0.37996583919097943 0.1076738398255583 0 0.38634376356168759 0.089327046015210881 0 0.38898865479300898 0.100528474426378 0 0.37996583919097943 0.1076738398255583 0 0.38634376356168759 0.089327046015210881 0 0.37996583919097943 0.1076738398255583 0 0.38898865479300898 0.100528474426378 0 0.38644075825518348 0.1126888990003411 0 0.39619538478800542 0.10950235267690291 0 0.38898865479300898 0.100528474426378 0 0.37996583919097943 0.1076738398255583 0 0.38644075825518348 0.1126888990003411 0 0.38058110435394649 0.1289993900205286 0 0.39619538478800542 0.10950235267690291 0 0.38058110435394649 0.1289993900205286 0 0.38060697359160028 0.1186241652480174 0 0.38644075825518348 0.1126888990003411 0 0.37353208531517862 0.099627954427332549 0 0.37358791482027159 0.12602063363590579 0 0.37996583919097943 0.1076738398255583 0 0.38058110435394649 0.1289993900205286 0 0.38644075825518348 0.1126888990003411 0 0.39619538478800542 0.10950235267690291 0 0.37358791482027159 0.12602063363590579 0 0.37996583919097943 0.1076738398255583 0 0.38060697359160028 0.1186241652480174 0 0.37996583919097943 0.1076738398255583 0 0.38060697359160028 0.1186241652480174 0 0.38644075825518348 0.1126888990003411 0 0.37358791482027159 0.12602063363590579 0 0.37996583919097943 0.1076738398255583 0 0.37358791482027159 0.12602063363590579 0 0.38058110435394649 0.1289993900205286 0 0.38060697359160028 0.1186241652480174 0 0.38058110435394649 0.1289993900205286 0 0.40061638503559999 0.12795965754420419 0 0.39619538478800542 0.10950235267690291 0 0.40061638503559999 0.12795965754420419 0 0.41469602195631072 0.11510254632900679 0 0.39619538478800542 0.10950235267690291 0 0.41180966522206408 0.090005315333277172 0 0.38898865479300898 0.100528474426378 0 0.39619538478800542 0.10950235267690291 0 0.41180966522206408 0.090005315333277172 0 0.39619538478800542 0.10950235267690291 0 0.40227434397278078 0.030365873731558 0 0.39996582128033131 0.012865316349959129 0 0.3847226542401373 0.020542138372764251 0 0.40227434397278078 0.030365873731558 0 0.39996582128033131 0.012865316349959129 0 0.41650448505248527 0.011465778848208799 0 0.39996582128033131 0.012865316349959129 0 0.41140012941233117 -0.0074313506821105831 0 0.38708761798871882 -0.0019416611374814729 0 0.39996582128033131 0.012865316349959129 0 0.3847226542401373 0.020542138372764251 0 0.38708761798871882 -0.0019416611374814729 0 0.3697202331778231 0.0051944731981410069 0 0.3847226542401373 0.020542138372764251 0 0.38708761798871882 -0.0019416611374814729 0 0.3697202331778231 0.0051944731981410069 0 0.3847226542401373 0.020542138372764251 0 0.36520087160700748 0.024618476383510932 0 0.3847226542401373 0.020542138372764251 0 0.3779244641241683 0.036768828715786253 0 0.40227434397278078 0.030365873731558 0 0.3847226542401373 0.020542138372764251 0 0.3779244641241683 0.036768828715786253 0 0.36321104080696931 0.049090692783358147 0 0.3779244641241683 0.036768828715786253 0 0.38982010256804062 0.049730875404248198 0 0.40227434397278078 0.030365873731558 0 0.3779244641241683 0.036768828715786253 0 0.38982010256804062 0.049730875404248198 0 0.39873822247986129 0.070200902227240763 0 0.3779941917442185 0.064233160163082947 0 0.38982010256804062 0.049730875404248198 0 0.36321104080696931 0.049090692783358147 0 0.3779941917442185 0.064233160163082947 0 0.38982010256804062 0.049730875404248198 0 0.36321104080696931 0.049090692783358147 0 0.38982010256804062 0.049730875404248198 0 0.39873822247986129 0.070200902227240763 0 0.38982010256804062 0.049730875404248198 0 0.41642916432911181 0.050371058025138242 0 0.38982010256804062 0.049730875404248198 0 0.41642916432911181 0.050371058025138242 0 0.40227434397278078 0.030365873731558 0 0.38982010256804062 0.049730875404248198 0 0.41642916432911181 0.050371058025138242 0 0.40227434397278078 0.030365873731558 0 0.41642916432911181 0.050371058025138242 0 0.43070575198833377 0.03001997776566433 0 0.41642916432911181 0.050371058025138242 0 0.44303822609018301 0.051011240646027182 0 0.42742394565612291 0.070508277989651605 0 0.41642916432911181 0.050371058025138242 0 0.44303822609018301 0.051011240646027182 0 0.42742394565612291 0.070508277989651605 0 0.44303822609018301 0.051011240646027182 0 0.41642916432911181 0.050371058025138242 0 0.43070575198833377 0.03001997776566433 0 0.44303822609018301 0.051011240646027182 0 0.43070575198833377 0.03001997776566433 0 0.41650448505248527 0.011465778848208799 0 0.43533419861385131 0.0061180841875390036 0 0.43070575198833377 0.03001997776566433 0 0.43533419861385131 0.0061180841875390036 0 0.44507604771202769 0.025089404437105351 0 0.40227434397278078 0.030365873731558 0 0.43070575198833377 0.03001997776566433 0 0.41650448505248527 0.011465778848208799 0 0.41650448505248527 0.011465778848208799 0 0.43533419861385131 0.0061180841875390036 0 0.41140012941233117 -0.0074313506821105831 0 0.39996582128033131 0.012865316349959129 0 0.41650448505248527 0.011465778848208799 0 0.41140012941233117 -0.0074313506821105831 0 0.43533419861385131 0.0061180841875390036 0 0.45926826781537128 0.019667519057188599 0 0.43533419861385131 0.0061180841875390036 0 0.45926826781537128 0.019667519057188599 0 0.45504385004226389 0.0092701124568601717 0 0.43533419861385131 0.0061180841875390036 0 0.45893136221758241 0.00059920454554955181 0 0.45504385004226389 0.0092701124568601717 0 0.43070575198833377 0.03001997776566433 0 0.44507604771202769 0.025089404437105351 0 0.45388442026288278 0.037467955464590127 0 0.43533419861385131 0.0061180841875390036 0 0.44507604771202769 0.025089404437105351 0 0.45926826781537128 0.019667519057188599 0 0.44507604771202769 0.025089404437105351 0 0.45926826781537128 0.019667519057188599 0 0.45502000971581441 0.027190206754121982 0 0.44507604771202769 0.025089404437105351 0 0.45502000971581441 0.027190206754121982 0 0.45388442026288278 0.037467955464590127 0 0.45926826781537128 0.019667519057188599 0 0.46664157152225061 0.01069564203716354 0 0.47529294150566698 0.016750514949760129 0 0.45926826781537128 0.019667519057188599 0 0.45502000971581441 0.027190206754121982 0 0.46473061443558422 0.023924670283154179 0 0.46473061443558422 0.023924670283154179 0 0.45388442026288278 0.037467955464590127 0 0.45502000971581441 0.027190206754121982 0 0.46473061443558422 0.023924670283154179 0 0.45388442026288278 0.037467955464590127 0 0.46664157152225061 0.01069564203716354 0 0.45893136221758241 0.00059920454554955181 0 0.47764635645403869 0.0038083308693810142 0 0.46664157152225061 0.01069564203716354 0 0.45893136221758241 0.00059920454554955181 0 0.45504385004226389 0.0092701124568601717 0 0.45926826781537128 0.019667519057188599 0 0.46664157152225061 0.01069564203716354 0 0.45504385004226389 0.0092701124568601717 0 0.43070575198833377 0.03001997776566433 0 0.44303822609018301 0.051011240646027182 0 0.45388442026288278 0.037467955464590127 0 0.44303822609018301 0.051011240646027182 0 0.45388442026288278 0.037467955464590127 0 0.44303822609018301 0.051011240646027182 0 0.45388442026288278 0.037467955464590127 0 0.46909030004719687 0.051638022797732039 0 0.46473061443558422 0.023924670283154179 0 0.45388442026288278 0.037467955464590127 0 0.46779069523371941 0.036863583471663797 0 0.45388442026288278 0.037467955464590127 0 0.46779069523371941 0.036863583471663797 0 0.46909030004719687 0.051638022797732039 0 0.44303822609018301 0.051011240646027182 0 0.46909030004719687 0.051638022797732039 0 0.4555337473407412 0.073375411155028755 0 0.44303822609018301 0.051011240646027182 0 0.46909030004719687 0.051638022797732039 0 0.48331658307125991 0.067549059312564941 0 0.46909030004719687 0.051638022797732039 0 0.49514237400421091 0.052264804949435799 0 0.46909030004719687 0.051638022797732039 0 0.49514237400421091 0.052264804949435799 0 0.46473061443558422 0.023924670283154179 0 0.46779069523371941 0.036863583471663797 0 0.48320233701689141 0.033216953926838183 0 0.46909030004719687 0.051638022797732039 0 0.48320233701689141 0.033216953926838183 0 0.49514237400421091 0.052264804949435799 0 0.46779069523371941 0.036863583471663797 0 0.46909030004719687 0.051638022797732039 0 0.48320233701689141 0.033216953926838183 0 0.48320233701689141 0.033216953926838183 0 0.49514237400421091 0.052264804949435799 0 0.5 0.02620336852953609 0 0.49514237400421091 0.052264804949435799 0 0.5 0.054125753582442981 0 0.5 0.02620336852953609 0 0.48331658307125991 0.067549059312564941 0 0.49514237400421091 0.052264804949435799 0 0.5 0.054125753582442981 0 0.47764635645403869 0.0038083308693810142 0 0.47529294150566698 0.016750514949760129 0 0.48722832699531943 0.015652030350428919 0 0.46664157152225061 0.01069564203716354 0 0.47764635645403869 0.0038083308693810142 0 0.47529294150566698 0.016750514949760129 0 0.45926826781537128 0.019667519057188599 0 0.46473061443558422 0.023924670283154179 0 0.48320233701689141 0.033216953926838183 0 0.48320233701689141 0.033216953926838183 0 0.47529294150566698 0.016750514949760129 0 0.48722832699531943 0.015652030350428919 0 0.45926826781537128 0.019667519057188599 0 0.48320233701689141 0.033216953926838183 0 0.47529294150566698 0.016750514949760129 0 0.45926826781537128 0.019667519057188599 0 0.48320233701689141 0.033216953926838183 0 0.48320233701689141 0.033216953926838183 0 0.5 0.02620336852953609 0 0.48722832699531943 0.015652030350428919 0 0.47764635645403869 0.0038083308693810142 0 0.48722832699531943 0.015652030350428919 0 0.5 -0.001719016523370809 0 0.5 0.02620336852953609 0 0.48722832699531943 0.015652030350428919 0 0.5 -0.001719016523370809 0 0.5 -0.001719016523370809 0 0.48395902385211098 -0.0149127497958851 0 0.5 -0.0296414015762777 0 0.47764635645403869 0.0038083308693810142 0 0.5 -0.001719016523370809 0 0.48395902385211098 -0.0149127497958851 0 0.47764635645403869 0.0038083308693810142 0 0.48395902385211098 -0.0149127497958851 0 0.46704406223807082 -0.01500417317216605 0 0.48395902385211098 -0.0149127497958851 0 0.47510470056844528 -0.032007488576991927 0 0.46704406223807082 -0.01500417317216605 0 0.48395902385211098 -0.0149127497958851 0 0.5 -0.0296414015762777 0 0.47510470056844528 -0.032007488576991927 0 0.5 -0.0296414015762777 0 0.48234093407495859 -0.049238006241786397 0 0.47510470056844528 -0.032007488576991927 0 0.5 -0.0296414015762777 0 0.5 -0.05756378662918471 0 0.48234093407495859 -0.049238006241786397 0 0.5 -0.05756378662918471 0 0.48234093407495859 -0.049238006241786397 0 0.47422198362857781 -0.076747949457335832 0 0.48234093407495859 -0.049238006241786397 0 0.46237798617776987 -0.050229404969141841 0 0.47422198362857781 -0.076747949457335832 0 0.48234093407495859 -0.049238006241786397 0 0.47510470056844528 -0.032007488576991927 0 0.46237798617776987 -0.050229404969141841 0 0.47510470056844528 -0.032007488576991927 0 0.46237798617776987 -0.050229404969141841 0 0.4538149679343898 -0.03122373757004774 0 0.46237798617776987 -0.050229404969141841 0 0.44741834826160581 -0.070939116572201394 0 0.46237798617776987 -0.050229404969141841 0 0.44741834826160581 -0.070939116572201394 0 0.43631546026754903 -0.048887870055349537 0 0.46237798617776987 -0.050229404969141841 0 0.4538149679343898 -0.03122373757004774 0 0.43631546026754903 -0.048887870055349537 0 0.4538149679343898 -0.03122373757004774 0 0.43512266219192891 -0.028098979638662008 0 0.43631546026754903 -0.048887870055349537 0 0.446924936162575 -0.013114509007975081 0 0.4538149679343898 -0.03122373757004774 0 0.43512266219192891 -0.028098979638662008 0 0.43533419861385131 0.0061180841875390036 0 0.45893136221758241 0.00059920454554955181 0 0.446924936162575 -0.013114509007975081 0 0.45893136221758241 0.00059920454554955181 0 0.47764635645403869 0.0038083308693810142 0 0.46704406223807082 -0.01500417317216605 0 0.45893136221758241 0.00059920454554955181 0 0.446924936162575 -0.013114509007975081 0 0.46704406223807082 -0.01500417317216605 0 0.446924936162575 -0.013114509007975081 0 0.46704406223807082 -0.01500417317216605 0 0.4538149679343898 -0.03122373757004774 0 0.47510470056844528 -0.032007488576991927 0 0.46704406223807082 -0.01500417317216605 0 0.4538149679343898 -0.03122373757004774 0 0.47196631970423453 -0.1154993393084916 0 0.48082736823376288 -0.124814033663446 0 0.49750294033355102 -0.1129478826892651 0 0.47196631970423453 -0.1154993393084916 0 0.48082736823376288 -0.124814033663446 0 0.46596028617107638 -0.12785668648755219 0 0.49750294033355102 -0.1129478826892651 0 0.5 -0.11340855673499869 0 0.49999999999999589 -0.1413309417879057 0 0.47196631970423453 -0.1154993393084916 0 0.49750294033355102 -0.1129478826892651 0 0.49750294033355102 -0.1129478826892651 0 0.5 -0.11340855673499869 0 0.5 -0.085486171682091716 0 0.49750294033355102 -0.1129478826892651 0 0.48309301017672901 -0.097793222643068375 0 0.5 -0.085486171682091716 0 0.47196631970423453 -0.1154993393084916 0 0.49750294033355102 -0.1129478826892651 0 0.48309301017672901 -0.097793222643068375 0 0.47196631970423453 -0.1154993393084916 0 0.48309301017672901 -0.097793222643068375 0 0.46649243163471599 -0.1008545367777117 0 0.48309301017672901 -0.097793222643068375 0 0.47422198362857781 -0.076747949457335832 0 0.46649243163471599 -0.1008545367777117 0 0.48309301017672901 -0.097793222643068375 0 0.5 -0.085486171682091716 0 0.47422198362857781 -0.076747949457335832 0 0.5 -0.05756378662918471 0 0.5 -0.085486171682091716 0 0.47422198362857781 -0.076747949457335832 0 0.46237798617776987 -0.050229404969141841 0 0.47422198362857781 -0.076747949457335832 0 0.44741834826160581 -0.070939116572201394 0 0.44741834826160581 -0.070939116572201394 0 0.45039667576831188 -0.094476482193344716 0 0.43245871034544181 -0.091648828175260794 0 0.44741834826160581 -0.070939116572201394 0 0.43245871034544181 -0.091648828175260794 0 0.47422198362857781 -0.076747949457335832 0 0.46649243163471599 -0.1008545367777117 0 0.45039667576831188 -0.094476482193344716 0 0.47422198362857781 -0.076747949457335832 0 0.44741834826160581 -0.070939116572201394 0 0.45039667576831188 -0.094476482193344716 0 0.46649243163471599 -0.1008545367777117 0 0.45039667576831188 -0.094476482193344716 0 0.44642969907491792 -0.1180507959277181 0 0.45039667576831188 -0.094476482193344716 0 0.44642969907491792 -0.1180507959277181 0 0.43281673214741728 -0.11087265701433641 0 0.45039667576831188 -0.094476482193344716 0 0.43281673214741728 -0.11087265701433641 0 0.43245871034544181 -0.091648828175260794 0 0.47196631970423453 -0.1154993393084916 0 0.44642969907491792 -0.1180507959277181 0 0.47196631970423453 -0.1154993393084916 0 0.46649243163471599 -0.1008545367777117 0 0.44642969907491792 -0.1180507959277181 0 0.47196631970423453 -0.1154993393084916 0 0.44642969907491792 -0.1180507959277181 0 0.46596028617107638 -0.12785668648755219 0 0.41749907242927781 -0.11235853977832019 0 0.42089307844560148 -0.12060225254694661 0 0.40922253034496708 -0.099146006197021103 0 0.42089307844560148 -0.12060225254694661 0 0.40922253034496708 -0.099146006197021103 0 0.42089307844560148 -0.12060225254694661 0 0.40535423174317931 -0.1120318612902695 0 0.39955069546741029 -0.12273464763203509 0 0.42089307844560148 -0.12060225254694661 0 0.40922253034496708 -0.099146006197021103 0 0.40535423174317931 -0.1120318612902695 0 0.42089307844560148 -0.12060225254694661 0 0.39955069546741029 -0.12273464763203509 0 0.44642969907491792 -0.1180507959277181 0 0.42089307844560148 -0.12060225254694661 0 0.43281673214741728 -0.11087265701433641 0 0.44642969907491792 -0.1180507959277181 0 0.42089307844560148 -0.12060225254694661 0 0.41749907242927781 -0.11235853977832019 0 0.42089307844560148 -0.12060225254694661 0 0.43281673214741728 -0.11087265701433641 0 0.41749907242927781 -0.11235853977832019 0 0.43245871034544181 -0.091648828175260794 0 0.41749907242927781 -0.11235853977832019 0 0.43281673214741728 -0.11087265701433641 0 0.43245871034544181 -0.091648828175260794 0 0.41749907242927781 -0.11235853977832019 0 0.40922253034496708 -0.099146006197021103 0 0.43245871034544181 -0.091648828175260794 0 0.40922253034496708 -0.099146006197021103 0 0.41075503718482398 -0.078214252320559632 0 0.43245871034544181 -0.091648828175260794 0 0.41075503718482398 -0.078214252320559632 0 0.43245871034544181 -0.091648828175260794 0 0.42824110129187209 -0.07089032787865443 0 0.44741834826160581 -0.070939116572201394 0 0.42824110129187209 -0.07089032787865443 0 0.43631546026754903 -0.048887870055349537 0 0.44741834826160581 -0.070939116572201394 0 0.43245871034544181 -0.091648828175260794 0 0.42824110129187209 -0.07089032787865443 0 0.41075503718482398 -0.078214252320559632 0 0.3966351353046435 -0.069492104769282415 0 0.41140986529747919 -0.058578601219452457 0 0.41075503718482398 -0.078214252320559632 0 0.42824110129187209 -0.07089032787865443 0 0.41140986529747919 -0.058578601219452457 0 0.41075503718482398 -0.078214252320559632 0 0.3966351353046435 -0.069492104769282415 0 0.39019595140268609 -0.085149274729814386 0 0.3815271169572319 -0.065438736997030775 0 0.39019595140268609 -0.085149274729814386 0 0.36642202698737719 -0.076826620660732939 0 0.3966351353046435 -0.069492104769282415 0 0.3815271169572319 -0.065438736997030775 0 0.39019595140268609 -0.085149274729814386 0 0.39019595140268609 -0.085149274729814386 0 0.36642202698737719 -0.076826620660732939 0 0.37213289267146549 -0.097715629037943286 0 0.40922253034496708 -0.099146006197021103 0 0.41075503718482398 -0.078214252320559632 0 0.39019595140268609 -0.085149274729814386 0 0.40922253034496708 -0.099146006197021103 0 0.39175062271473821 -0.1056445387850752 0 0.40535423174317931 -0.1120318612902695 0 0.40922253034496708 -0.099146006197021103 0 0.39019595140268609 -0.085149274729814386 0 0.39175062271473821 -0.1056445387850752 0 0.39019595140268609 -0.085149274729814386 0 0.39175062271473821 -0.1056445387850752 0 0.37213289267146549 -0.097715629037943286 0 0.39175062271473821 -0.1056445387850752 0 0.37545617426122468 -0.11639501623019111 0 0.37213289267146549 -0.097715629037943286 0 0.37545617426122468 -0.11639501623019111 0 0.39955069546741029 -0.12273464763203509 0 0.37912715907358119 -0.13342409111479819 0 0.39175062271473821 -0.1056445387850752 0 0.37545617426122468 -0.11639501623019111 0 0.39955069546741029 -0.12273464763203509 0 0.39175062271473821 -0.1056445387850752 0 0.40535423174317931 -0.1120318612902695 0 0.39955069546741029 -0.12273464763203509 0 0.41140012941233117 -0.0074313506821105831 0 0.42934291128034041 -0.01198399054847067 0 0.41366338177830297 -0.032726285360382509 0 0.43533419861385131 0.0061180841875390036 0 0.41140012941233117 -0.0074313506821105831 0 0.42934291128034041 -0.01198399054847067 0 0.43533419861385131 0.0061180841875390036 0 0.446924936162575 -0.013114509007975081 0 0.42934291128034041 -0.01198399054847067 0 0.43533419861385131 0.0061180841875390036 0 0.41140012941233117 -0.0074313506821105831 0 0.446924936162575 -0.013114509007975081 0 0.42934291128034041 -0.01198399054847067 0 0.43512266219192891 -0.028098979638662008 0 0.42934291128034041 -0.01198399054847067 0 0.43512266219192891 -0.028098979638662008 0 0.41366338177830297 -0.032726285360382509 0 0.43512266219192891 -0.028098979638662008 0 0.43631546026754903 -0.048887870055349537 0 0.41366338177830297 -0.032726285360382509 0 0.42824110129187209 -0.07089032787865443 0 0.43631546026754903 -0.048887870055349537 0 0.41140986529747919 -0.058578601219452457 0 0.43631546026754903 -0.048887870055349537 0 0.41140986529747919 -0.058578601219452457 0 0.41366338177830297 -0.032726285360382509 0 0.41366338177830297 -0.032726285360382509 0 0.38936167955678391 -0.049410845259337192 0 0.38746606021081109 -0.02098078555176016 0 0.41140986529747919 -0.058578601219452457 0 0.41366338177830297 -0.032726285360382509 0 0.38936167955678391 -0.049410845259337192 0 0.3966351353046435 -0.069492104769282415 0 0.41140986529747919 -0.058578601219452457 0 0.38936167955678391 -0.049410845259337192 0 0.3966351353046435 -0.069492104769282415 0 0.3815271169572319 -0.065438736997030775 0 0.38936167955678391 -0.049410845259337192 0 0.38936167955678391 -0.049410845259337192 0 0.36951023888620887 -0.040775559188277237 0 0.36849195721903072 -0.057094279439454283 0 0.3815271169572319 -0.065438736997030775 0 0.38936167955678391 -0.049410845259337192 0 0.36849195721903072 -0.057094279439454283 0 0.38936167955678391 -0.049410845259337192 0 0.38746606021081109 -0.02098078555176016 0 0.36951023888620887 -0.040775559188277237 0 0.38746606021081109 -0.02098078555176016 0 0.36969342331355742 -0.021160672753105129 0 0.36951023888620887 -0.040775559188277237 0 0.41140012941233117 -0.0074313506821105831 0 0.41366338177830297 -0.032726285360382509 0 0.38746606021081109 -0.02098078555176016 0 0.41140012941233117 -0.0074313506821105831 0 0.38746606021081109 -0.02098078555176016 0 0.41140012941233117 -0.0074313506821105831 0 0.38746606021081109 -0.02098078555176016 0 0.38708761798871882 -0.0019416611374814729 0 0.3697202331778231 0.0051944731981410069 0 0.38708761798871882 -0.0019416611374814729 0 0.36969342331355742 -0.021160672753105129 0 0.38746606021081109 -0.02098078555176016 0 0.38708761798871882 -0.0019416611374814729 0 0.36969342331355742 -0.021160672753105129 0 0.3697202331778231 0.0051944731981410069 0 0.36969342331355742 -0.021160672753105129 0 0.3547178121155089 -0.01015319197648225 0 0.3697202331778231 0.0051944731981410069 0 0.3547178121155089 -0.01015319197648225 0 0.36969342331355742 -0.021160672753105129 0 0.3547178121155089 -0.01015319197648225 0 0.35461281496970248 -0.033138208169692429 0 0.3547178121155089 -0.01015319197648225 0 0.33971539105319642 -0.025500857151107 0 0.35461281496970248 -0.033138208169692429 0 0.3547178121155089 -0.01015319197648225 0 0.33971539105319642 -0.025500857151107 0 0.33971539105319642 -0.025500857151107 0 0.35461281496970248 -0.033138208169692429 0 0.35242759622682879 0.0050716858630956282 0 0.3547178121155089 -0.01015319197648225 0 0.33894288453699001 -0.0091175197947151784 0 0.3547178121155089 -0.01015319197648225 0 0.33894288453699001 -0.0091175197947151784 0 0.33971539105319642 -0.025500857151107 0 0.33607267105121608 0.0067225140728069434 0 0.33894288453699001 -0.0091175197947151784 0 0.32606835352480013 -0.0034949224980522359 0 0.33894288453699001 -0.0091175197947151784 0 0.33971539105319642 -0.025500857151107 0 0.31806715456596119 -0.014402617488130929 0 0.33971539105319642 -0.025500857151107 0 0.31806715456596119 -0.014402617488130929 0 0.33971539105319642 -0.025500857151107 0 0.31771007030735549 -0.018034801745635601 0 0.33062312070896183 -0.03480236391063686 0 0.33971539105319642 -0.025500857151107 0 0.33062312070896183 -0.03480236391063686 0 0.31771007030735549 -0.018034801745635601 0 0.33062312070896183 -0.03480236391063686 0 0.31771007030735549 -0.018034801745635601 0 0.31631838961527098 -0.032190678347434727 0 0.31062431579570682 -0.010586952942251281 0 0.33971539105319642 -0.025500857151107 0 0.31771007030735549 -0.018034801745635601 0 0.31806715456596119 -0.014402617488130929 0 0.31631838961527098 -0.032190678347434727 0 0.31062431579570682 -0.010586952942251281 0 0.31771007030735549 -0.018034801745635601 0 0.31631838961527098 -0.032190678347434727 0 0.33062312070896183 -0.03480236391063686 0 0.31771007030735549 -0.018034801745635601 0 0.31631838961527098 -0.032190678347434727 0 0.31771007030735549 -0.018034801745635601 0 0.31806715456596119 -0.014402617488130929 0 0.31771007030735549 -0.018034801745635601 0 0.31285504516821672 -0.011730564303569649 0 0.31771007030735549 -0.018034801745635601 0 0.31285504516821672 -0.011730564303569649 0 0.31806715456596119 -0.014402617488130929 0 0.31285504516821672 -0.011730564303569649 0 0.31806715456596119 -0.014402617488130929 0 0.32039672515472489 0.0092932733705267806 0 0.31806715456596119 -0.014402617488130929 0 0.32606835352480013 -0.0034949224980522359 0 0.32039672515472489 0.0092932733705267806 0 0.31285504516821672 -0.011730564303569649 0 0.31806715456596119 -0.014402617488130929 0 0.31771007030735549 -0.018034801745635601 0 0.31285504516821672 -0.011730564303569649 0 0.31062431579570682 -0.010586952942251281 0 0.33894288453699001 -0.0091175197947151784 0 0.31806715456596119 -0.014402617488130929 0 0.32606835352480013 -0.0034949224980522359 0 0.32039672515472489 0.0092932733705267806 0 0.31285504516821672 -0.011730564303569649 0 0.3099218783848019 -0.0079218549086841668 0 0.32039672515472489 0.0092932733705267806 0 0.31806715456596119 -0.014402617488130929 0 0.31388957461977612 -0.056896061960490747 0 0.31935435821824731 -0.046330449472391788 0 0.31794632115889199 -0.03836716765215574 0 0.32803470168605742 -0.057516191165881032 0 0.31388957461977612 -0.056896061960490747 0 0.31935435821824731 -0.046330449472391788 0 0.32803470168605742 -0.057516191165881032 0 0.31935435821824731 -0.046330449472391788 0 0.33009251260503791 -0.047172227366057487 0 0.32803470168605742 -0.057516191165881032 0 0.31388957461977612 -0.056896061960490747 0 0.32223363329621552 -0.070348598346556809 0 0.31388957461977612 -0.056896061960490747 0 0.31631838961527098 -0.032190678347434727 0 0.31794632115889199 -0.03836716765215574 0 0.31388957461977612 -0.056896061960490747 0 0.31631838961527098 -0.032190678347434727 0 0.31631838961527098 -0.032190678347434727 0 0.31794632115889199 -0.03836716765215574 0 0.31631838961527098 -0.032190678347434727 0 0.31794632115889199 -0.03836716765215574 0 0.33062312070896183 -0.03480236391063686 0 0.31935435821824731 -0.046330449472391788 0 0.33062312070896183 -0.03480236391063686 0 0.33009251260503791 -0.047172227366057487 0 0.31935435821824731 -0.046330449472391788 0 0.31794632115889199 -0.03836716765215574 0 0.33062312070896183 -0.03480236391063686 0 0.31935435821824731 -0.046330449472391788 0 0.33062312070896183 -0.03480236391063686 0 0.33062312070896183 -0.03480236391063686 0 0.34235786980688532 -0.050039904915320482 0 0.33009251260503791 -0.047172227366057487 0 0.33971539105319642 -0.025500857151107 0 0.33062312070896183 -0.03480236391063686 0 0.34277216278106087 -0.037583490840571922 0 0.33062312070896183 -0.03480236391063686 0 0.34235786980688532 -0.050039904915320482 0 0.33062312070896183 -0.03480236391063686 0 0.34277216278106087 -0.037583490840571922 0 0.34235786980688532 -0.050039904915320482 0 0.32803470168605742 -0.057516191165881032 0 0.34235786980688532 -0.050039904915320482 0 0.33009251260503791 -0.047172227366057487 0 0.32803470168605742 -0.057516191165881032 0 0.34235786980688532 -0.050039904915320482 0 0.34027187818249433 -0.063939155341840428 0 0.34235786980688532 -0.050039904915320482 0 0.35665134277627297 -0.047509993857874779 0 0.35409261890480692 -0.065277445920005464 0 0.34235786980688532 -0.050039904915320482 0 0.35409261890480692 -0.065277445920005464 0 0.34235786980688532 -0.050039904915320482 0 0.35409261890480692 -0.065277445920005464 0 0.34027187818249433 -0.063939155341840428 0 0.33971539105319642 -0.025500857151107 0 0.34277216278106087 -0.037583490840571922 0 0.35461281496970248 -0.033138208169692429 0 0.34277216278106087 -0.037583490840571922 0 0.34235786980688532 -0.050039904915320482 0 0.35665134277627297 -0.047509993857874779 0 0.34277216278106087 -0.037583490840571922 0 0.35665134277627297 -0.047509993857874779 0 0.35461281496970248 -0.033138208169692429 0 0.36969342331355742 -0.021160672753105129 0 0.35461281496970248 -0.033138208169692429 0 0.36951023888620887 -0.040775559188277237 0 0.35461281496970248 -0.033138208169692429 0 0.36951023888620887 -0.040775559188277237 0 0.35665134277627297 -0.047509993857874779 0 0.35461281496970248 -0.033138208169692429 0 0.36951023888620887 -0.040775559188277237 0 0.35665134277627297 -0.047509993857874779 0 0.36849195721903072 -0.057094279439454283 0 0.35409261890480692 -0.065277445920005464 0 0.35665134277627297 -0.047509993857874779 0 0.36951023888620887 -0.040775559188277237 0 0.36849195721903072 -0.057094279439454283 0 0.3815271169572319 -0.065438736997030775 0 0.36849195721903072 -0.057094279439454283 0 0.36642202698737719 -0.076826620660732939 0 0.36849195721903072 -0.057094279439454283 0 0.36642202698737719 -0.076826620660732939 0 0.35409261890480692 -0.065277445920005464 0 0.36642202698737719 -0.076826620660732939 0 0.3541670342179255 -0.091642576131531178 0 0.37213289267146549 -0.097715629037943286 0 0.36642202698737719 -0.076826620660732939 0 0.3541670342179255 -0.091642576131531178 0 0.34348907366013609 -0.078651465734534992 0 0.36642202698737719 -0.076826620660732939 0 0.35409261890480692 -0.065277445920005464 0 0.34348907366013609 -0.078651465734534992 0 0.35409261890480692 -0.065277445920005464 0 0.34027187818249433 -0.063939155341840428 0 0.34348907366013609 -0.078651465734534992 0 0.37545617426122468 -0.11639501623019111 0 0.35398254645435351 -0.108473674926123 0 0.35619312918579982 -0.13037751588517149 0 0.3541670342179255 -0.091642576131531178 0 0.37213289267146549 -0.097715629037943286 0 0.35398254645435351 -0.108473674926123 0 0.37545617426122468 -0.11639501623019111 0 0.37213289267146549 -0.097715629037943286 0 0.35398254645435351 -0.108473674926123 0 0.3541670342179255 -0.091642576131531178 0 0.35398254645435351 -0.108473674926123 0 0.3320520165093927 -0.097972619006059983 0 0.35398254645435351 -0.108473674926123 0 0.3369402726549951 -0.11328523830182829 0 0.35619312918579982 -0.13037751588517149 0 0.3369402726549951 -0.11328523830182829 0 0.33372425158197999 -0.13015404646039089 0 0.35619312918579982 -0.13037751588517149 0 0.3369402726549951 -0.11328523830182829 0 0.3320520165093927 -0.097972619006059983 0 0.32295426475367373 -0.1192169876071037 0 0.3369402726549951 -0.11328523830182829 0 0.32295426475367373 -0.1192169876071037 0 0.33372425158197999 -0.13015404646039089 0 0.35398254645435351 -0.108473674926123 0 0.3369402726549951 -0.11328523830182829 0 0.3320520165093927 -0.097972619006059983 0 0.3320520165093927 -0.097972619006059983 0 0.30896242860643902 -0.1114510562657145 0 0.306692210537298 -0.097137715192832125 0 0.3320520165093927 -0.097972619006059983 0 0.306692210537298 -0.097137715192832125 0 0.3320520165093927 -0.097972619006059983 0 0.32295426475367373 -0.1192169876071037 0 0.30896242860643902 -0.1114510562657145 0 0.32295426475367373 -0.1192169876071037 0 0.30749908554953959 -0.12495188813189979 0 0.30896242860643902 -0.1114510562657145 0 0.33189557984601897 -0.071138334895358937 0 0.34348907366013609 -0.078651465734534992 0 0.32552236097293752 -0.083763508186216085 0 0.32803470168605742 -0.057516191165881032 0 0.33189557984601897 -0.071138334895358937 0 0.34027187818249433 -0.063939155341840428 0 0.33189557984601897 -0.071138334895358937 0 0.34027187818249433 -0.063939155341840428 0 0.34348907366013609 -0.078651465734534992 0 0.3541670342179255 -0.091642576131531178 0 0.3320520165093927 -0.097972619006059983 0 0.34348907366013609 -0.078651465734534992 0 0.3320520165093927 -0.097972619006059983 0 0.34348907366013609 -0.078651465734534992 0 0.32552236097293752 -0.083763508186216085 0 0.32552236097293752 -0.083763508186216085 0 0.31146075962428088 -0.08160144557354658 0 0.306692210537298 -0.097137715192832125 0 0.3320520165093927 -0.097972619006059983 0 0.32552236097293752 -0.083763508186216085 0 0.306692210537298 -0.097137715192832125 0 0.32552236097293752 -0.083763508186216085 0 0.32223363329621552 -0.070348598346556809 0 0.31146075962428088 -0.08160144557354658 0 0.31388957461977612 -0.056896061960490747 0 0.32223363329621552 -0.070348598346556809 0 0.31146075962428088 -0.08160144557354658 0 0.31388957461977612 -0.056896061960490747 0 0.31146075962428088 -0.08160144557354658 0 0.33189557984601897 -0.071138334895358937 0 0.32552236097293752 -0.083763508186216085 0 0.32223363329621552 -0.070348598346556809 0 0.32803470168605742 -0.057516191165881032 0 0.33189557984601897 -0.071138334895358937 0 0.32223363329621552 -0.070348598346556809 0 0.31388957461977612 -0.056896061960490747 0 0.30452646522577909 -0.066557010430422572 0 0.31146075962428088 -0.08160144557354658 0 0.30452646522577909 -0.066557010430422572 0 0.29792654851971939 -0.076385467368266499 0 0.29457160498776808 -0.061097986291802783 0 0.30452646522577909 -0.066557010430422572 0 0.29792654851971939 -0.076385467368266499 0 0.31146075962428088 -0.08160144557354658 0 0.31146075962428088 -0.08160144557354658 0 0.29611830636772568 -0.08748021893793731 0 0.306692210537298 -0.097137715192832125 0 0.29792654851971939 -0.076385467368266499 0 0.31146075962428088 -0.08160144557354658 0 0.29611830636772568 -0.08748021893793731 0 0.29611830636772568 -0.08748021893793731 0 0.285382299969131 -0.078602179848310971 0 0.28133240456520342 -0.096302811379604003 0 0.29611830636772568 -0.08748021893793731 0 0.306692210537298 -0.097137715192832125 0 0.28133240456520342 -0.096302811379604003 0 0.29792654851971939 -0.076385467368266499 0 0.29611830636772568 -0.08748021893793731 0 0.285382299969131 -0.078602179848310971 0 0.285382299969131 -0.078602179848310971 0 0.28133240456520342 -0.096302811379604003 0 0.285382299969131 -0.078602179848310971 0 0.28649723543185918 -0.068867144870690233 0 0.27458363667912478 -0.069290818648785835 0 0.29792654851971939 -0.076385467368266499 0 0.28649723543185918 -0.068867144870690233 0 0.29457160498776808 -0.061097986291802783 0 0.29792654851971939 -0.076385467368266499 0 0.285382299969131 -0.078602179848310971 0 0.28649723543185918 -0.068867144870690233 0 0.30749908554953959 -0.12495188813189979 0 0.30896242860643902 -0.1114510562657145 0 0.29457204761859301 -0.1232204251084308 0 0.30896242860643902 -0.1114510562657145 0 0.29515161787597122 -0.1085206744474659 0 0.29457204761859301 -0.1232204251084308 0 0.30896242860643902 -0.1114510562657145 0 0.306692210537298 -0.097137715192832125 0 0.29515161787597122 -0.1085206744474659 0 0.28133240456520342 -0.096302811379604003 0 0.29515161787597122 -0.1085206744474659 0 0.28749678948156498 -0.1142254462470315 0 0.306692210537298 -0.097137715192832125 0 0.28133240456520342 -0.096302811379604003 0 0.306692210537298 -0.097137715192832125 0 0.28133240456520342 -0.096302811379604003 0 0.29515161787597122 -0.1085206744474659 0 0.28133240456520342 -0.096302811379604003 0 0.28749678948156498 -0.1142254462470315 0 0.27997429695510639 -0.120869575502825 0 0.29515161787597122 -0.1085206744474659 0 0.28749678948156498 -0.1142254462470315 0 0.29457204761859301 -0.1232204251084308 0 0.28749678948156498 -0.1142254462470315 0 0.28647517305870801 -0.1220407316238525 0 0.27997429695510639 -0.120869575502825 0 0.28647517305870801 -0.1220407316238525 0 0.27997429695510639 -0.120869575502825 0 0.28385755817956732 -0.12984747963712301 0 0.28749678948156498 -0.1142254462470315 0 0.28647517305870801 -0.1220407316238525 0 0.29457204761859301 -0.1232204251084308 0 0.27541509746207837 -0.12216522565045559 0 0.27168040313402791 -0.1135590939392845 0 0.26863244146310661 -0.09588469904729903 0 0.28133240456520342 -0.096302811379604003 0 0.27541509746207837 -0.12216522565045559 0 0.27997429695510639 -0.120869575502825 0 0.27326967851770712 -0.1227749187284357 0 0.27168040313402791 -0.1135590939392845 0 0.27326967851770712 -0.1227749187284357 0 0.27541509746207837 -0.12216522565045559 0 0.27168040313402791 -0.1135590939392845 0 0.27541509746207837 -0.12216522565045559 0 0.27997429695510639 -0.120869575502825 0 0.27413179040896601 -0.12777409773798609 0 0.27326967851770712 -0.1227749187284357 0 0.27541509746207837 -0.12216522565045559 0 0.27413179040896601 -0.12777409773798609 0 0.27541509746207837 -0.12216522565045559 0 0.27413179040896601 -0.12777409773798609 0 0.27326967851770712 -0.1227749187284357 0 0.27541509746207837 -0.12216522565045559 0 0.27541509746207837 -0.12216522565045559 0 0.27997429695510639 -0.120869575502825 0 0.27326967851770712 -0.1227749187284357 0 0.27168040313402791 -0.1135590939392845 0 0.25934990747168368 -0.1100766637830585 0 0.27168040313402791 -0.1135590939392845 0 0.26596627984511501 -0.095796922803901063 0 0.26863244146310661 -0.09588469904729903 0 0.28133240456520342 -0.096302811379604003 0 0.27541509746207837 -0.12216522565045559 0 0.28133240456520342 -0.096302811379604003 0 0.27541509746207837 -0.12216522565045559 0 0.26863244146310661 -0.09588469904729903 0 0.27168040313402791 -0.1135590939392845 0 0.26596627984511501 -0.095796922803901063 0 0.27168040313402791 -0.1135590939392845 0 0.26863244146310661 -0.09588469904729903 0 0.27168040313402791 -0.1135590939392845 0 0.26596627984511501 -0.095796922803901063 0 0.25934990747168368 -0.1100766637830585 0 0.28133240456520342 -0.096302811379604003 0 0.26863244146310661 -0.09588469904729903 0 0.26596627984511501 -0.095796922803901063 0 0.26863244146310661 -0.09588469904729903 0 0.26596627984511501 -0.095796922803901063 0 0.2518691933921911 -0.095332813920422074 0 0.26596627984511501 -0.095796922803901063 0 0.2518691933921911 -0.095332813920422074 0 0.25934990747168368 -0.1100766637830585 0 0.2518691933921911 -0.095332813920422074 0 0.25934990747168368 -0.1100766637830585 0 0.24671732841163671 -0.102721858771103 0 0.27326967851770712 -0.1227749187284357 0 0.25934990747168368 -0.1100766637830585 0 0.24731800528969849 -0.13014996105782781 0 0.25934990747168368 -0.1100766637830585 0 0.24671732841163671 -0.102721858771103 0 0.24731800528969849 -0.13014996105782781 0 0.27458363667912478 -0.069290818648785835 0 0.26577790060766732 -0.079331904832176364 0 0.27526456221409612 -0.085604868085508184 0 0.27458363667912478 -0.069290818648785835 0 0.26577790060766732 -0.079331904832176364 0 0.26292335975222791 -0.062779110617053657 0 0.285382299969131 -0.078602179848310971 0 0.27458363667912478 -0.069290818648785835 0 0.27526456221409612 -0.085604868085508184 0 0.27458363667912478 -0.069290818648785835 0 0.26292335975222791 -0.062779110617053657 0 0.27103602169540258 -0.060499069221397077 0 0.28649723543185918 -0.068867144870690233 0 0.27458363667912478 -0.069290818648785835 0 0.27845913222720309 -0.05651017180446409 0 0.26863244146310661 -0.09588469904729903 0 0.26577790060766732 -0.079331904832176364 0 0.285382299969131 -0.078602179848310971 0 0.28133240456520342 -0.096302811379604003 0 0.27526456221409612 -0.085604868085508184 0 0.26863244146310661 -0.09588469904729903 0 0.26577790060766732 -0.079331904832176364 0 0.27526456221409612 -0.085604868085508184 0 0.26596627984511501 -0.095796922803901063 0 0.26863244146310661 -0.09588469904729903 0 0.26577790060766732 -0.079331904832176364 0 0.28133240456520342 -0.096302811379604003 0 0.26863244146310661 -0.09588469904729903 0 0.27526456221409612 -0.085604868085508184 0 0.2518691933921911 -0.095332813920422074 0 0.25572658441172191 -0.084274812606824456 0 0.24611665153357609 -0.075293756484378221 0 0.26596627984511501 -0.095796922803901063 0 0.25572658441172191 -0.084274812606824456 0 0.25895421287600551 -0.070675757218596647 0 0.26596627984511501 -0.095796922803901063 0 0.25895421287600551 -0.070675757218596647 0 0.26596627984511501 -0.095796922803901063 0 0.26577790060766732 -0.079331904832176364 0 0.25895421287600551 -0.070675757218596647 0 0.26596627984511501 -0.095796922803901063 0 0.2518691933921911 -0.095332813920422074 0 0.25572658441172191 -0.084274812606824456 0 0.25895421287600551 -0.070675757218596647 0 0.2455159746555155 -0.047865654197653443 0 0.24611665153357609 -0.075293756484378221 0 0.26577790060766732 -0.079331904832176364 0 0.26292335975222791 -0.062779110617053657 0 0.25572658441172191 -0.084274812606824456 0 0.25895421287600551 -0.070675757218596647 0 0.24611665153357609 -0.075293756484378221 0 0.26577790060766732 -0.079331904832176364 0 0.25895421287600551 -0.070675757218596647 0 0.26292335975222791 -0.062779110617053657 0 0.26292335975222791 -0.062779110617053657 0 0.26817795812305478 -0.053416175815284753 0 0.2519421459068964 -0.045554591633291973 0 0.25895421287600551 -0.070675757218596647 0 0.2519421459068964 -0.045554591633291973 0 0.25895421287600551 -0.070675757218596647 0 0.26292335975222791 -0.062779110617053657 0 0.2519421459068964 -0.045554591633291973 0 0.26817795812305478 -0.053416175815284753 0 0.27096242258596109 -0.043046888964412 0 0.2519421459068964 -0.045554591633291973 0 0.25895421287600551 -0.070675757218596647 0 0.2519421459068964 -0.045554591633291973 0 0.2455159746555155 -0.047865654197653443 0 0.27103602169540258 -0.060499069221397077 0 0.26817795812305478 -0.053416175815284753 0 0.27845913222720309 -0.05651017180446409 0 0.26292335975222791 -0.062779110617053657 0 0.27103602169540258 -0.060499069221397077 0 0.26817795812305478 -0.053416175815284753 0 0.26817795812305478 -0.053416175815284753 0 0.27845913222720309 -0.05651017180446409 0 0.27096242258596109 -0.043046888964412 0 0.27845913222720309 -0.05651017180446409 0 0.27096242258596109 -0.043046888964412 0 0.28321136462209401 -0.041412756155772328 0 0.27458363667912478 -0.069290818648785835 0 0.27103602169540258 -0.060499069221397077 0 0.27845913222720309 -0.05651017180446409 0 0.27527811320285872 -0.033614275424306513 0 0.2844158057987401 -0.02982808874968489 0 0.28321136462209401 -0.041412756155772328 0 0.27527811320285872 -0.033614275424306513 0 0.27096242258596109 -0.043046888964412 0 0.28321136462209401 -0.041412756155772328 0 0.27527811320285872 -0.033614275424306513 0 0.27096242258596109 -0.043046888964412 0 0.261383899815955 -0.03029353227881891 0 0.27096242258596109 -0.043046888964412 0 0.2519421459068964 -0.045554591633291973 0 0.261383899815955 -0.03029353227881891 0 0.2519421459068964 -0.045554591633291973 0 0.261383899815955 -0.03029353227881891 0 0.24491529777745491 -0.020437551910928661 0 0.25436349861753688 -0.01633049199459868 0 0.261383899815955 -0.03029353227881891 0 0.24491529777745491 -0.020437551910928661 0 0.25436349861753688 -0.01633049199459868 0 0.26413761186621421 -0.020353183004424749 0 0.261383899815955 -0.03029353227881891 0 0.25436349861753688 -0.01633049199459868 0 0.26413761186621421 -0.020353183004424749 0 0.26734906612038412 -0.01174968428521017 0 0.25725076368735361 0.0079744498282781819 0 0.25436349861753688 -0.01633049199459868 0 0.25725076368735361 0.0079744498282781819 0 0.25436349861753688 -0.01633049199459868 0 0.26508125800532539 -0.0031175483341608331 0 0.25725076368735361 0.0079744498282781819 0 0.25436349861753688 -0.01633049199459868 0 0.248186192367364 -0.0029083560372354569 0 0.25436349861753688 -0.01633049199459868 0 0.26508125800532539 -0.0031175483341608331 0 0.26734906612038412 -0.01174968428521017 0 0.26508125800532539 -0.0031175483341608331 0 0.26734906612038412 -0.01174968428521017 0 0.27327268148801498 -0.0078458150905342198 0 0.2716149922870314 0.0023698134122428771 0 0.26508125800532539 -0.0031175483341608331 0 0.27327268148801498 -0.0078458150905342198 0 0.26734906612038412 -0.01174968428521017 0 0.27327268148801498 -0.0078458150905342198 0 0.27848990068791979 -0.01265310513097566 0 0.27327268148801498 -0.0078458150905342198 0 0.27848990068791979 -0.01265310513097566 0 0.27667985991333699 -0.001623231311202365 0 0.2716149922870314 0.0023698134122428771 0 0.27327268148801498 -0.0078458150905342198 0 0.27667985991333699 -0.001623231311202365 0 0.27848990068791979 -0.01265310513097566 0 0.27667985991333699 -0.001623231311202365 0 0.28384801837760087 -0.0048264518548439819 0 0.27794443140771991 0.0061667992310574637 0 0.27667985991333699 -0.001623231311202365 0 0.28384801837760087 -0.0048264518548439819 0 0.27527811320285872 -0.033614275424306513 0 0.261383899815955 -0.03029353227881891 0 0.27345398291098061 -0.023039023459071249 0 0.26413761186621421 -0.020353183004424749 0 0.261383899815955 -0.03029353227881891 0 0.27345398291098061 -0.023039023459071249 0 0.26413761186621421 -0.020353183004424749 0 0.26734906612038412 -0.01174968428521017 0 0.27345398291098061 -0.023039023459071249 0 0.26734906612038412 -0.01174968428521017 0 0.27848990068791979 -0.01265310513097566 0 0.27345398291098061 -0.023039023459071249 0 0.27848990068791979 -0.01265310513097566 0 0.27345398291098061 -0.023039023459071249 0 0.28414995695117051 -0.020451620678631832 0 0.27527811320285872 -0.033614275424306513 0 0.27345398291098061 -0.023039023459071249 0 0.2844158057987401 -0.02982808874968489 0 0.27345398291098061 -0.023039023459071249 0 0.2844158057987401 -0.02982808874968489 0 0.28414995695117051 -0.020451620678631832 0 0.2844158057987401 -0.02982808874968489 0 0.28414995695117051 -0.020451620678631832 0 0.29517707352384909 -0.023784392486280542 0 0.28414995695117051 -0.020451620678631832 0 0.29517707352384909 -0.023784392486280542 0 0.29130872642898992 -0.012817017672212419 0 0.2844158057987401 -0.02982808874968489 0 0.29517707352384909 -0.023784392486280542 0 0.29405855506528289 -0.036387746573830398 0 0.27794443140771991 0.0061667992310574637 0 0.28384801837760087 -0.0048264518548439819 0 0.294284373601713 -0.0022100768555975091 0 0.27848990068791979 -0.01265310513097566 0 0.28414995695117051 -0.020451620678631832 0 0.29130872642898992 -0.012817017672212419 0 0.27848990068791979 -0.01265310513097566 0 0.28384801837760087 -0.0048264518548439819 0 0.29130872642898992 -0.012817017672212419 0 0.28384801837760087 -0.0048264518548439819 0 0.29130872642898992 -0.012817017672212419 0 0.294284373601713 -0.0022100768555975091 0 0.29130872642898992 -0.012817017672212419 0 0.294284373601713 -0.0022100768555975091 0 0.31062431579570682 -0.010586952942251281 0 0.294284373601713 -0.0022100768555975091 0 0.31062431579570682 -0.010586952942251281 0 0.29982143049329057 0.0051935502549301377 0 0.294284373601713 -0.0022100768555975091 0 0.3099218783848019 -0.0079218549086841668 0 0.294284373601713 -0.0022100768555975091 0 0.31062431579570682 -0.010586952942251281 0 0.3099218783848019 -0.0079218549086841668 0 0.31285504516821672 -0.011730564303569649 0 0.31062431579570682 -0.010586952942251281 0 0.31285504516821672 -0.011730564303569649 0 0.3099218783848019 -0.0079218549086841668 0 0.31285504516821672 -0.011730564303569649 0 0.31062431579570682 -0.010586952942251281 0 0.3099218783848019 -0.0079218549086841668 0 0.31062431579570682 -0.010586952942251281 0 0.3099218783848019 -0.0079218549086841668 0 0.29982143049329057 0.0051935502549301377 0 0.3099218783848019 -0.0079218549086841668 0 0.31631838961527098 -0.032190678347434727 0 0.31062431579570682 -0.010586952942251281 0 0.30430517804736162 -0.03083863968204727 0 0.29517707352384909 -0.023784392486280542 0 0.31062431579570682 -0.010586952942251281 0 0.30430517804736162 -0.03083863968204727 0 0.29517707352384909 -0.023784392486280542 0 0.29130872642898992 -0.012817017672212419 0 0.31062431579570682 -0.010586952942251281 0 0.29517707352384909 -0.023784392486280542 0 0.30430517804736162 -0.03083863968204727 0 0.29405855506528289 -0.036387746573830398 0 0.31388957461977612 -0.056896061960490747 0 0.31631838961527098 -0.032190678347434727 0 0.30421627130425388 -0.043384173695867542 0 0.31631838961527098 -0.032190678347434727 0 0.30430517804736162 -0.03083863968204727 0 0.30421627130425388 -0.043384173695867542 0 0.30430517804736162 -0.03083863968204727 0 0.30421627130425388 -0.043384173695867542 0 0.29405855506528289 -0.036387746573830398 0 0.30421627130425388 -0.043384173695867542 0 0.29302563709539858 -0.049078428673329823 0 0.29405855506528289 -0.036387746573830398 0 0.31388957461977612 -0.056896061960490747 0 0.30421627130425388 -0.043384173695867542 0 0.30228610412921969 -0.055338550228743587 0 0.31388957461977612 -0.056896061960490747 0 0.30452646522577909 -0.066557010430422572 0 0.30228610412921969 -0.055338550228743587 0 0.30452646522577909 -0.066557010430422572 0 0.30228610412921969 -0.055338550228743587 0 0.29457160498776808 -0.061097986291802783 0 0.30421627130425388 -0.043384173695867542 0 0.30228610412921969 -0.055338550228743587 0 0.29302563709539858 -0.049078428673329823 0 0.28649723543185918 -0.068867144870690233 0 0.27845913222720309 -0.05651017180446409 0 0.29457160498776808 -0.061097986291802783 0 0.27845913222720309 -0.05651017180446409 0 0.29302563709539858 -0.049078428673329823 0 0.29457160498776808 -0.061097986291802783 0 0.30228610412921969 -0.055338550228743587 0 0.29302563709539858 -0.049078428673329823 0 0.29457160498776808 -0.061097986291802783 0 0.27845913222720309 -0.05651017180446409 0 0.29302563709539858 -0.049078428673329823 0 0.28321136462209401 -0.041412756155772328 0 0.2844158057987401 -0.02982808874968489 0 0.28321136462209401 -0.041412756155772328 0 0.29405855506528289 -0.036387746573830398 0 0.29302563709539858 -0.049078428673329823 0 0.28321136462209401 -0.041412756155772328 0 0.29405855506528289 -0.036387746573830398 0 0.3102492122045955 -0.2107988576293747 0 0.28014592309877939 -0.20992218323669209 0 0.29027291544826062 -0.2125072530748307 0 0.3102492122045955 -0.2107988576293747 0 0.28014592309877939 -0.20992218323669209 0 0.29534604543002108 -0.199714935607501 0 0.30063782144797752 -0.2039029266132931 0 0.28014592309877939 -0.20992218323669209 0 0.29261232253509228 -0.21599806498040619 0 0.29027291544826062 -0.2125072530748307 0 0.2969609554066594 -0.21332087924004181 0 0.2964910385347676 -0.21702424445810611 0 0.29261232253509228 -0.21599806498040619 0 0.2969609554066594 -0.21332087924004181 0 0.2964910385347676 -0.21702424445810611 0 0.29261232253509228 -0.21599806498040619 0 0.29454889258722838 -0.2221333134791848 0 0.29261232253509228 -0.21599806498040619 0 0.29027291544826062 -0.2125072530748307 0 0.28767643009344068 -0.21798780857375311 0 0.29261232253509228 -0.21599806498040619 0 0.28767643009344068 -0.21798780857375311 0 0.29454889258722838 -0.2221333134791848 0 0.28471157359105231 -0.21477397967248271 0 0.28134674733669812 -0.21909402799836991 0 0.28014592309877939 -0.20992218323669209 0 0.29027291544826062 -0.2125072530748307 0 0.28471157359105231 -0.21477397967248271 0 0.28014592309877939 -0.20992218323669209 0 0.29027291544826062 -0.2125072530748307 0 0.28767643009344068 -0.21798780857375311 0 0.28471157359105231 -0.21477397967248271 0 0.28767643009344068 -0.21798780857375311 0 0.28471157359105231 -0.21477397967248271 0 0.28134674733669812 -0.21909402799836991 0 0.28126866664371902 -0.20210174924430779 0 0.28532129942923351 -0.19265936285087301 0 0.27973366015050649 -0.198453737373673 0 0.29534604543002108 -0.199714935607501 0 0.28014592309877939 -0.20992218323669209 0 0.29391286224434149 -0.1870766952053223 0 0.28014592309877939 -0.20992218323669209 0 0.29391286224434149 -0.1870766952053223 0 0.28126866664371902 -0.20210174924430779 0 0.28014592309877939 -0.20992218323669209 0 0.29391286224434149 -0.1870766952053223 0 0.28126866664371902 -0.20210174924430779 0 0.28532129942923351 -0.19265936285087301 0 0.29391286224434149 -0.1870766952053223 0 0.29534604543002108 -0.199714935607501 0 0.29882489839850468 -0.19384254415512339 0 0.29391286224434149 -0.1870766952053223 0 0.29534604543002108 -0.199714935607501 0 0.30140834212726059 -0.19765906121725299 0 0.30063782144797752 -0.2039029266132931 0 0.29534604543002108 -0.199714935607501 0 0.30140834212726059 -0.19765906121725299 0 0.29882489839850468 -0.19384254415512339 0 0.30140834212726059 -0.19765906121725299 0 0.30444518593955372 -0.19286497190963939 0 0.30778775942024611 -0.19796992780070821 0 0.30140834212726059 -0.19765906121725299 0 0.30778775942024611 -0.19796992780070821 0 0.30063782144797752 -0.2039029266132931 0 0.30444518593955372 -0.19286497190963939 0 0.30044204206130443 -0.18701511984948199 0 0.30671776482949431 -0.18437233232455141 0 0.29882489839850468 -0.19384254415512339 0 0.29391286224434149 -0.1870766952053223 0 0.30044204206130443 -0.18701511984948199 0 0.30140834212726059 -0.19765906121725299 0 0.29882489839850468 -0.19384254415512339 0 0.30444518593955372 -0.19286497190963939 0 0.29882489839850468 -0.19384254415512339 0 0.30444518593955372 -0.19286497190963939 0 0.30044204206130443 -0.18701511984948199 0 0.30444518593955372 -0.19286497190963939 0 0.31026862637644298 -0.190515795189627 0 0.30671776482949431 -0.18437233232455141 0 0.31026862637644298 -0.190515795189627 0 0.30778775942024611 -0.19796992780070821 0 0.31801549676059232 -0.19201577044599941 0 0.30444518593955372 -0.19286497190963939 0 0.31026862637644298 -0.190515795189627 0 0.30778775942024611 -0.19796992780070821 0 0.30930183189833638 -0.2020919573288513 0 0.30778775942024611 -0.19796992780070821 0 0.31801549676059232 -0.19201577044599941 0 0.30930183189833638 -0.2020919573288513 0 0.30778775942024611 -0.19796992780070821 0 0.30063782144797752 -0.2039029266132931 0 0.29027291544826062 -0.2125072530748307 0 0.3102492122045955 -0.2107988576293747 0 0.2969609554066594 -0.21332087924004181 0 0.30930183189833638 -0.2020919573288513 0 0.3102492122045955 -0.2107988576293747 0 0.30063782144797752 -0.2039029266132931 0 0.3102492122045955 -0.2107988576293747 0 0.30063782144797752 -0.2039029266132931 0 0.28014592309877939 -0.20992218323669209 0 0.3102492122045955 -0.2107988576293747 0 0.2969609554066594 -0.21332087924004181 0 0.30361025579735551 -0.21506850918508341 0 0.2964910385347676 -0.21702424445810611 0 0.29965148311919643 -0.21553073508257989 0 0.30017704310669202 -0.21824487707454501 0 0.2964910385347676 -0.21702424445810611 0 0.29965148311919643 -0.21553073508257989 0 0.2969609554066594 -0.21332087924004181 0 0.29965148311919643 -0.21553073508257989 0 0.2969609554066594 -0.21332087924004181 0 0.30361025579735551 -0.21506850918508341 0 0.29965148311919643 -0.21553073508257989 0 0.30017704310669202 -0.21824487707454501 0 0.30361025579735551 -0.21506850918508341 0 0.3102492122045955 -0.2107988576293747 0 0.30445271491933901 -0.2248179311106677 0 0.3102492122045955 -0.2107988576293747 0 0.30445271491933901 -0.2248179311106677 0 0.31691611284506432 -0.2109930125288465 0 0.3102492122045955 -0.2107988576293747 0 0.30361025579735551 -0.21506850918508341 0 0.30445271491933901 -0.2248179311106677 0 0.30874461521323482 -0.2322812015586608 0 0.30445271491933901 -0.2248179311106677 0 0.31691611284506432 -0.2109930125288465 0 0.30445271491933901 -0.2248179311106677 0 0.29469630341619463 -0.2353942532343361 0 0.29454889258722838 -0.2221333134791848 0 0.30874461521323482 -0.2322812015586608 0 0.30445271491933901 -0.2248179311106677 0 0.29469630341619463 -0.2353942532343361 0 0.30017704310669202 -0.21824487707454501 0 0.30445271491933901 -0.2248179311106677 0 0.29454889258722838 -0.2221333134791848 0 0.30017704310669202 -0.21824487707454501 0 0.30361025579735551 -0.21506850918508341 0 0.30445271491933901 -0.2248179311106677 0 0.2964910385347676 -0.21702424445810611 0 0.30017704310669202 -0.21824487707454501 0 0.29454889258722838 -0.2221333134791848 0 0.30874461521323482 -0.2322812015586608 0 0.29469630341619463 -0.2353942532343361 0 0.30057311758140542 -0.25356939058847511 0 0.30874461521323482 -0.2322812015586608 0 0.31333578311129251 -0.24688137415892061 0 0.30057311758140542 -0.25356939058847511 0 0.30874461521323482 -0.2322812015586608 0 0.30057311758140542 -0.25356939058847511 0 0.29469630341619463 -0.2353942532343361 0 0.30057311758140542 -0.25356939058847511 0 0.28432190027408932 -0.25462712083187278 0 0.29469630341619463 -0.2353942532343361 0 0.27970812382616578 -0.23972394044473841 0 0.28432190027408932 -0.25462712083187278 0 0.29469630341619463 -0.2353942532343361 0 0.29454889258722838 -0.2221333134791848 0 0.28471654126246621 -0.22672545747671721 0 0.29469630341619463 -0.2353942532343361 0 0.28471654126246621 -0.22672545747671721 0 0.27970812382616578 -0.23972394044473841 0 0.28767643009344068 -0.21798780857375311 0 0.28471654126246621 -0.22672545747671721 0 0.28134674733669812 -0.21909402799836991 0 0.28767643009344068 -0.21798780857375311 0 0.29454889258722838 -0.2221333134791848 0 0.28471654126246621 -0.22672545747671721 0 0.28471654126246621 -0.22672545747671721 0 0.28134674733669812 -0.21909402799836991 0 0.26976962169772689 -0.22714109202689209 0 0.28471654126246621 -0.22672545747671721 0 0.26976962169772689 -0.22714109202689209 0 0.27970812382616578 -0.23972394044473841 0 0.27970812382616578 -0.23972394044473841 0 0.28432190027408932 -0.25462712083187278 0 0.26853814997914588 -0.25061537758681363 0 0.26976962169772689 -0.22714109202689209 0 0.26935230394992798 -0.24046010271888391 0 0.25939332029667372 -0.24436000081709169 0 0.26976962169772689 -0.22714109202689209 0 0.27970812382616578 -0.23972394044473841 0 0.26935230394992798 -0.24046010271888391 0 0.27970812382616578 -0.23972394044473841 0 0.26935230394992798 -0.24046010271888391 0 0.26853814997914588 -0.25061537758681363 0 0.26935230394992798 -0.24046010271888391 0 0.25939332029667372 -0.24436000081709169 0 0.26853814997914588 -0.25061537758681363 0 0.26976962169772689 -0.22714109202689209 0 0.25939332029667372 -0.24436000081709169 0 0.25939332029667372 -0.24436000081709169 0 0.25030848383521492 -0.23940769787506169 0 0.25617580749430352 -0.23088513540590999 0 0.25939332029667372 -0.24436000081709169 0 0.25030848383521492 -0.23940769787506169 0 0.24776568051229031 -0.24923037600136069 0 0.26976962169772689 -0.22714109202689209 0 0.25939332029667372 -0.24436000081709169 0 0.25617580749430352 -0.23088513540590999 0 0.26976962169772689 -0.22714109202689209 0 0.25617580749430352 -0.23088513540590999 0 0.25467791619651758 -0.21711267345668289 0 0.26976962169772689 -0.22714109202689209 0 0.25467791619651758 -0.21711267345668289 0 0.2692533466841372 -0.21680425343259949 0 0.25617580749430352 -0.23088513540590999 0 0.25467791619651758 -0.21711267345668289 0 0.24291625706960429 -0.2268715697819616 0 0.25467791619651758 -0.21711267345668289 0 0.25278334061465851 -0.20194747427335999 0 0.24291625706960429 -0.2268715697819616 0 0.25467791619651758 -0.21711267345668289 0 0.25901009012209991 -0.20874525050644949 0 0.25278334061465851 -0.20194747427335999 0 0.25901009012209991 -0.20874525050644949 0 0.2692533466841372 -0.21680425343259949 0 0.26622421151647252 -0.20694974184255591 0 0.25901009012209991 -0.20874525050644949 0 0.26622421151647252 -0.20694974184255591 0 0.26340684919625401 -0.19840870027953719 0 0.25467791619651758 -0.21711267345668289 0 0.25901009012209991 -0.20874525050644949 0 0.2692533466841372 -0.21680425343259949 0 0.26976962169772689 -0.22714109202689209 0 0.28014592309877939 -0.20992218323669209 0 0.28134674733669812 -0.21909402799836991 0 0.26976962169772689 -0.22714109202689209 0 0.28014592309877939 -0.20992218323669209 0 0.26976962169772689 -0.22714109202689209 0 0.2692533466841372 -0.21680425343259949 0 0.28014592309877939 -0.20992218323669209 0 0.2692533466841372 -0.21680425343259949 0 0.26622421151647252 -0.20694974184255591 0 0.27321959344383018 -0.207722978790323 0 0.27321959344383018 -0.207722978790323 0 0.27576002026965651 -0.2004745390798264 0 0.26981361910582191 -0.2013252183499015 0 0.26622421151647252 -0.20694974184255591 0 0.27321959344383018 -0.207722978790323 0 0.26981361910582191 -0.2013252183499015 0 0.27321959344383018 -0.207722978790323 0 0.27776007058547308 -0.20642598434618481 0 0.28014592309877939 -0.20992218323669209 0 0.28126866664371902 -0.20210174924430779 0 0.2795064879139243 -0.2075556822308588 0 0.28014592309877939 -0.20992218323669209 0 0.27321959344383018 -0.207722978790323 0 0.27776007058547308 -0.20642598434618481 0 0.27576002026965651 -0.2004745390798264 0 0.28126866664371902 -0.20210174924430779 0 0.27776007058547308 -0.20642598434618481 0 0.2795064879139243 -0.2075556822308588 0 0.27776007058547308 -0.20642598434618481 0 0.2795064879139243 -0.2075556822308588 0 0.28014592309877939 -0.20992218323669209 0 0.2692533466841372 -0.21680425343259949 0 0.27321959344383018 -0.207722978790323 0 0.28014592309877939 -0.20992218323669209 0 0.28532129942923351 -0.19265936285087301 0 0.27718877585937879 -0.19370101098951489 0 0.27467147834460098 -0.18384728388593699 0 0.28532129942923351 -0.19265936285087301 0 0.27718877585937879 -0.19370101098951489 0 0.27973366015050649 -0.198453737373673 0 0.27718877585937879 -0.19370101098951489 0 0.27045742110289639 -0.19307013175726501 0 0.27467147834460098 -0.18384728388593699 0 0.27718877585937879 -0.19370101098951489 0 0.27973366015050649 -0.198453737373673 0 0.27576002026965651 -0.2004745390798264 0 0.28126866664371902 -0.20210174924430779 0 0.27973366015050649 -0.198453737373673 0 0.27576002026965651 -0.2004745390798264 0 0.28126866664371902 -0.20210174924430779 0 0.27776007058547308 -0.20642598434618481 0 0.27576002026965651 -0.2004745390798264 0 0.27718877585937879 -0.19370101098951489 0 0.27576002026965651 -0.2004745390798264 0 0.27045742110289639 -0.19307013175726501 0 0.27576002026965651 -0.2004745390798264 0 0.26981361910582191 -0.2013252183499015 0 0.27045742110289639 -0.19307013175726501 0 0.26622421151647252 -0.20694974184255591 0 0.26981361910582191 -0.2013252183499015 0 0.26340684919625401 -0.19840870027953719 0 0.26981361910582191 -0.2013252183499015 0 0.27045742110289639 -0.19307013175726501 0 0.26340684919625401 -0.19840870027953719 0 0.27045742110289639 -0.19307013175726501 0 0.26340684919625401 -0.19840870027953719 0 0.26265042415971102 -0.17702337876475771 0 0.25278334061465851 -0.20194747427335999 0 0.26265042415971102 -0.17702337876475771 0 0.24805621810297609 -0.18437954832002859 0 0.26340684919625401 -0.19840870027953719 0 0.25278334061465851 -0.20194747427335999 0 0.26265042415971102 -0.17702337876475771 0 0.25278334061465851 -0.20194747427335999 0 0.26265042415971102 -0.17702337876475771 0 0.25901009012209991 -0.20874525050644949 0 0.26340684919625401 -0.19840870027953719 0 0.25278334061465851 -0.20194747427335999 0 0.26265042415971102 -0.17702337876475771 0 0.24805621810297609 -0.18437954832002859 0 0.26265042415971102 -0.17702337876475771 0 0.25119966764876139 -0.1752548124969612 0 0.25979971895159149 -0.16654872008791971 0 0.26265042415971102 -0.17702337876475771 0 0.25119966764876139 -0.1752548124969612 0 0.24805621810297609 -0.18437954832002859 0 0.25119966764876139 -0.1752548124969612 0 0.25574322924827592 -0.16230987960397239 0 0.25979971895159149 -0.16654872008791971 0 0.25119966764876139 -0.1752548124969612 0 0.25574322924827592 -0.16230987960397239 0 0.248320545236934 -0.1759279312505814 0 0.25574322924827592 -0.16230987960397239 0 0.24781927526331571 -0.1530389461542046 0 0.248320545236934 -0.1759279312505814 0 0.26265042415971102 -0.17702337876475771 0 0.25979971895159149 -0.16654872008791971 0 0.2689906512556654 -0.16100806634096121 0 0.26231127041965341 -0.16025216712309251 0 0.25979971895159149 -0.16654872008791971 0 0.2689906512556654 -0.16100806634096121 0 0.25574322924827592 -0.16230987960397239 0 0.26231127041965341 -0.16025216712309251 0 0.26158347517987812 -0.15609142633763451 0 0.25574322924827592 -0.16230987960397239 0 0.26231127041965341 -0.16025216712309251 0 0.25979971895159149 -0.16654872008791971 0 0.26231127041965341 -0.16025216712309251 0 0.26759111909193339 -0.15636101206613781 0 0.26158347517987812 -0.15609142633763451 0 0.28102746968110159 -0.1677604793473618 0 0.27757963004503378 -0.14776728854267401 0 0.26265042415971102 -0.17702337876475771 0 0.2689906512556654 -0.16100806634096121 0 0.2689906512556654 -0.16100806634096121 0 0.28102746968110159 -0.1677604793473618 0 0.27757963004503378 -0.14776728854267401 0 0.26265042415971102 -0.17702337876475771 0 0.2689906512556654 -0.16100806634096121 0 0.28102746968110159 -0.1677604793473618 0 0.26231127041965341 -0.16025216712309251 0 0.26759111909193339 -0.15636101206613781 0 0.2689906512556654 -0.16100806634096121 0 0.27045742110289639 -0.19307013175726501 0 0.26265042415971102 -0.17702337876475771 0 0.27467147834460098 -0.18384728388593699 0 0.26265042415971102 -0.17702337876475771 0 0.28102746968110159 -0.1677604793473618 0 0.28532129942923351 -0.19265936285087301 0 0.28102746968110159 -0.1677604793473618 0 0.27467147834460098 -0.18384728388593699 0 0.26265042415971102 -0.17702337876475771 0 0.28102746968110159 -0.1677604793473618 0 0.27467147834460098 -0.18384728388593699 0 0.27326967851770712 -0.1227749187284357 0 0.26170040444407838 -0.13997151129676219 0 0.24731800528969849 -0.13014996105782781 0 0.27326967851770712 -0.1227749187284357 0 0.24731800528969849 -0.13014996105782781 0 0.26759111909193339 -0.15636101206613781 0 0.26170040444407838 -0.13997151129676219 0 0.25863357107939938 -0.1503271633619481 0 0.26170040444407838 -0.13997151129676219 0 0.24731800528969849 -0.13014996105782781 0 0.24781927526331571 -0.1530389461542046 0 0.26170040444407838 -0.13997151129676219 0 0.25863357107939938 -0.1503271633619481 0 0.24781927526331571 -0.1530389461542046 0 0.25574322924827592 -0.16230987960397239 0 0.25863357107939938 -0.1503271633619481 0 0.24781927526331571 -0.1530389461542046 0 0.26759111909193339 -0.15636101206613781 0 0.26158347517987812 -0.15609142633763451 0 0.25863357107939938 -0.1503271633619481 0 0.25574322924827592 -0.16230987960397239 0 0.26158347517987812 -0.15609142633763451 0 0.25863357107939938 -0.1503271633619481 0 0.2689906512556654 -0.16100806634096121 0 0.27757963004503378 -0.14776728854267401 0 0.27533087835161812 -0.1449927539171641 0 0.26759111909193339 -0.15636101206613781 0 0.2689906512556654 -0.16100806634096121 0 0.27533087835161812 -0.1449927539171641 0 0.26759111909193339 -0.15636101206613781 0 0.26170040444407838 -0.13997151129676219 0 0.27413179040896601 -0.12777409773798609 0 0.26759111909193339 -0.15636101206613781 0 0.27413179040896601 -0.12777409773798609 0 0.26759111909193339 -0.15636101206613781 0 0.27533087835161812 -0.1449927539171641 0 0.27413179040896601 -0.12777409773798609 0 0.2689906512556654 -0.16100806634096121 0 0.27533087835161812 -0.1449927539171641 0 0.27757963004503378 -0.14776728854267401 0 0.27413179040896601 -0.12777409773798609 0 0.27326967851770712 -0.1227749187284357 0 0.26170040444407838 -0.13997151129676219 0 0.27413179040896601 -0.12777409773798609 0 0.27757963004503378 -0.14776728854267401 0 0.27533087835161812 -0.1449927539171641 0 0.27413179040896601 -0.12777409773798609 0 0.27757963004503378 -0.14776728854267401 0 0.27413179040896601 -0.12777409773798609 0 0.28385755817956732 -0.12984747963712301 0 0.27997429695510639 -0.120869575502825 0 0.27413179040896601 -0.12777409773798609 0 0.28385755817956732 -0.12984747963712301 0 0.27326967851770712 -0.1227749187284357 0 0.27413179040896601 -0.12777409773798609 0 0.27757963004503378 -0.14776728854267401 0 0.28385755817956732 -0.12984747963712301 0 0.29043400365675398 -0.13723974613399059 0 0.29457204761859301 -0.1232204251084308 0 0.28385755817956732 -0.12984747963712301 0 0.29043400365675398 -0.13723974613399059 0 0.28647517305870801 -0.1220407316238525 0 0.29457204761859301 -0.1232204251084308 0 0.28385755817956732 -0.12984747963712301 0 0.29457204761859301 -0.1232204251084308 0 0.29043400365675398 -0.13723974613399059 0 0.30375229786798957 -0.1385810079235478 0 0.27757963004503378 -0.14776728854267401 0 0.29043400365675398 -0.13723974613399059 0 0.29583346425879847 -0.14725044945996699 0 0.27757963004503378 -0.14776728854267401 0 0.29583346425879847 -0.14725044945996699 0 0.29614295313510552 -0.16014156134899471 0 0.29043400365675398 -0.13723974613399059 0 0.29583346425879847 -0.14725044945996699 0 0.30375229786798957 -0.1385810079235478 0 0.29583346425879847 -0.14725044945996699 0 0.31125843658910951 -0.15252264335062779 0 0.29614295313510552 -0.16014156134899471 0 0.31125843658910951 -0.15252264335062779 0 0.30375229786798957 -0.1385810079235478 0 0.3185475336196959 -0.13748707747672889 0 0.29583346425879847 -0.14725044945996699 0 0.31125843658910951 -0.15252264335062779 0 0.30375229786798957 -0.1385810079235478 0 0.30749908554953959 -0.12495188813189979 0 0.30375229786798957 -0.1385810079235478 0 0.3185475336196959 -0.13748707747672889 0 0.30749908554953959 -0.12495188813189979 0 0.29457204761859301 -0.1232204251084308 0 0.30375229786798957 -0.1385810079235478 0 0.28532129942923351 -0.19265936285087301 0 0.28102746968110159 -0.1677604793473618 0 0.28532129942923351 -0.19265936285087301 0 0.28102746968110159 -0.1677604793473618 0 0.29391286224434149 -0.1870766952053223 0 0.28102746968110159 -0.1677604793473618 0 0.29391286224434149 -0.1870766952053223 0 0.29830949889462788 -0.17691905565277369 0 0.28102746968110159 -0.1677604793473618 0 0.27757963004503378 -0.14776728854267401 0 0.29614295313510552 -0.16014156134899471 0 0.28102746968110159 -0.1677604793473618 0 0.29614295313510552 -0.16014156134899471 0 0.29830949889462788 -0.17691905565277369 0 0.28102746968110159 -0.1677604793473618 0 0.29614295313510552 -0.16014156134899471 0 0.29614295313510552 -0.16014156134899471 0 0.31230855313504507 -0.17322662894761981 0 0.29830949889462788 -0.17691905565277369 0 0.31125843658910951 -0.15252264335062779 0 0.29614295313510552 -0.16014156134899471 0 0.31230855313504507 -0.17322662894761981 0 0.31125843658910951 -0.15252264335062779 0 0.29614295313510552 -0.16014156134899471 0 0.31230855313504507 -0.17322662894761981 0 0.29830949889462788 -0.17691905565277369 0 0.30671776482949431 -0.18437233232455141 0 0.29830949889462788 -0.17691905565277369 0 0.30044204206130443 -0.18701511984948199 0 0.30671776482949431 -0.18437233232455141 0 0.29391286224434149 -0.1870766952053223 0 0.29830949889462788 -0.17691905565277369 0 0.30044204206130443 -0.18701511984948199 0 0.31026862637644298 -0.190515795189627 0 0.30671776482949431 -0.18437233232455141 0 0.31461844448363291 -0.1826726420340844 0 0.31230855313504507 -0.17322662894761981 0 0.30671776482949431 -0.18437233232455141 0 0.31461844448363291 -0.1826726420340844 0 0.32578178131658958 -0.17323268326262439 0 0.32855392000847078 -0.18537600058072809 0 0.31801549676059232 -0.19201577044599941 0 0.32578178131658958 -0.17323268326262439 0 0.31801549676059232 -0.19201577044599941 0 0.31461844448363291 -0.1826726420340844 0 0.32578178131658958 -0.17323268326262439 0 0.31801549676059232 -0.19201577044599941 0 0.31230855313504507 -0.17322662894761981 0 0.31461844448363291 -0.1826726420340844 0 0.32578178131658958 -0.17323268326262439 0 0.31230855313504507 -0.17322662894761981 0 0.32578178131658958 -0.17323268326262439 0 0.31966012563628959 -0.16281650312647711 0 0.31125843658910951 -0.15252264335062779 0 0.31966012563628959 -0.16281650312647711 0 0.3335480658725869 -0.15444959607924941 0 0.31125843658910951 -0.15252264335062779 0 0.31230855313504507 -0.17322662894761981 0 0.31966012563628959 -0.16281650312647711 0 0.32578178131658958 -0.17323268326262439 0 0.31966012563628959 -0.16281650312647711 0 0.3335480658725869 -0.15444959607924941 0 0.32578178131658958 -0.17323268326262439 0 0.3335480658725869 -0.15444959607924941 0 0.34459229294341842 -0.17287362132200551 0 0.32578178131658958 -0.17323268326262439 0 0.3335480658725869 -0.15444959607924941 0 0.32855392000847078 -0.18537600058072809 0 0.34459229294341842 -0.17287362132200551 0 0.33985826563996069 -0.192198447378464 0 0.34459229294341842 -0.17287362132200551 0 0.33985826563996069 -0.192198447378464 0 0.32578178131658958 -0.17323268326262439 0 0.32855392000847078 -0.18537600058072809 0 0.34459229294341842 -0.17287362132200551 0 0.32295426475367373 -0.1192169876071037 0 0.30749908554953959 -0.12495188813189979 0 0.3185475336196959 -0.13748707747672889 0 0.32295426475367373 -0.1192169876071037 0 0.3185475336196959 -0.13748707747672889 0 0.33372425158197999 -0.13015404646039089 0 0.31125843658910951 -0.15252264335062779 0 0.3185475336196959 -0.13748707747672889 0 0.3335480658725869 -0.15444959607924941 0 0.3185475336196959 -0.13748707747672889 0 0.3335480658725869 -0.15444959607924941 0 0.33372425158197999 -0.13015404646039089 0 0.3335480658725869 -0.15444959607924941 0 0.33372425158197999 -0.13015404646039089 0 0.34485483813876511 -0.14131463458884011 0 0.33372425158197999 -0.13015404646039089 0 0.35619312918579982 -0.13037751588517149 0 0.34485483813876511 -0.14131463458884011 0 0.35619312918579982 -0.13037751588517149 0 0.35416752674416152 -0.1519142777420189 0 0.34485483813876511 -0.14131463458884011 0 0.3335480658725869 -0.15444959607924941 0 0.35416752674416152 -0.1519142777420189 0 0.34485483813876511 -0.14131463458884011 0 0.35416752674416152 -0.1519142777420189 0 0.37136664786280071 -0.14777391050371161 0 0.36576893267089239 -0.1661568765046883 0 0.35619312918579982 -0.13037751588517149 0 0.35416752674416152 -0.1519142777420189 0 0.37136664786280071 -0.14777391050371161 0 0.37545617426122468 -0.11639501623019111 0 0.35619312918579982 -0.13037751588517149 0 0.37912715907358119 -0.13342409111479819 0 0.35619312918579982 -0.13037751588517149 0 0.37136664786280071 -0.14777391050371161 0 0.37912715907358119 -0.13342409111479819 0 0.34459229294341842 -0.17287362132200551 0 0.35595813432183948 -0.17981835365875171 0 0.36576893267089239 -0.1661568765046883 0 0.34459229294341842 -0.17287362132200551 0 0.35595813432183948 -0.17981835365875171 0 0.33985826563996069 -0.192198447378464 0 0.35416752674416152 -0.1519142777420189 0 0.34459229294341842 -0.17287362132200551 0 0.36576893267089239 -0.1661568765046883 0 0.3335480658725869 -0.15444959607924941 0 0.35416752674416152 -0.1519142777420189 0 0.34459229294341842 -0.17287362132200551 0 0.37136664786280071 -0.14777391050371161 0 0.36576893267089239 -0.1661568765046883 0 0.3824806996716838 -0.1589975613662 0 0.36576893267089239 -0.1661568765046883 0 0.36858089481314238 -0.17826693704583871 0 0.38416720612470168 -0.17659637808774559 0 0.35595813432183948 -0.17981835365875171 0 0.36576893267089239 -0.1661568765046883 0 0.36858089481314238 -0.17826693704583871 0 0.35595813432183948 -0.17981835365875171 0 0.36858089481314238 -0.17826693704583871 0 0.36104693960392759 -0.19198769559920831 0 0.36858089481314238 -0.17826693704583871 0 0.3735451182147364 -0.189044211434232 0 0.36104693960392759 -0.19198769559920831 0 0.37190590819172459 -0.20164946296730399 0 0.36104693960392759 -0.19198769559920831 0 0.35646164347323422 -0.2121446658888827 0 0.3735451182147364 -0.189044211434232 0 0.37190590819172459 -0.20164946296730399 0 0.36104693960392759 -0.19198769559920831 0 0.37190590819172459 -0.20164946296730399 0 0.35646164347323422 -0.2121446658888827 0 0.377799048609963 -0.2127660583428419 0 0.35646164347323422 -0.2121446658888827 0 0.377799048609963 -0.2127660583428419 0 0.35646164347323422 -0.2121446658888827 0 0.36743119419532699 -0.21955746256204919 0 0.377799048609963 -0.2127660583428419 0 0.35646164347323422 -0.2121446658888827 0 0.33512423833650529 -0.211523273434923 0 0.35646164347323422 -0.2121446658888827 0 0.33512423833650529 -0.211523273434923 0 0.34570732405486182 -0.22810861486185471 0 0.35646164347323422 -0.2121446658888827 0 0.33985826563996069 -0.192198447378464 0 0.33512423833650529 -0.211523273434923 0 0.35595813432183948 -0.17981835365875171 0 0.36104693960392759 -0.19198769559920831 0 0.33985826563996069 -0.192198447378464 0 0.36104693960392759 -0.19198769559920831 0 0.35646164347323422 -0.2121446658888827 0 0.33985826563996069 -0.192198447378464 0 0.33985826563996069 -0.192198447378464 0 0.32706077984058729 -0.2048879677534409 0 0.3225584151716499 -0.19629382225754879 0 0.33985826563996069 -0.192198447378464 0 0.33512423833650529 -0.211523273434923 0 0.32855392000847078 -0.18537600058072809 0 0.33985826563996069 -0.192198447378464 0 0.3225584151716499 -0.19629382225754879 0 0.33985826563996069 -0.192198447378464 0 0.33512423833650529 -0.211523273434923 0 0.32706077984058729 -0.2048879677534409 0 0.33512423833650529 -0.211523273434923 0 0.31691611284506432 -0.2109930125288465 0 0.32706077984058729 -0.2048879677534409 0 0.31691611284506432 -0.2109930125288465 0 0.3225584151716499 -0.19629382225754879 0 0.33512423833650529 -0.211523273434923 0 0.31691611284506432 -0.2109930125288465 0 0.32068237760444668 -0.22418293697221309 0 0.33512423833650529 -0.211523273434923 0 0.32706077984058729 -0.2048879677534409 0 0.31691611284506432 -0.2109930125288465 0 0.31691611284506432 -0.2109930125288465 0 0.3225584151716499 -0.19629382225754879 0 0.3102492122045955 -0.2107988576293747 0 0.31691611284506432 -0.2109930125288465 0 0.3225584151716499 -0.19629382225754879 0 0.3102492122045955 -0.2107988576293747 0 0.31691611284506432 -0.2109930125288465 0 0.30930183189833638 -0.2020919573288513 0 0.3102492122045955 -0.2107988576293747 0 0.31801549676059232 -0.19201577044599941 0 0.3102492122045955 -0.2107988576293747 0 0.31801549676059232 -0.19201577044599941 0 0.3102492122045955 -0.2107988576293747 0 0.31801549676059232 -0.19201577044599941 0 0.3225584151716499 -0.19629382225754879 0 0.31026862637644298 -0.190515795189627 0 0.31461844448363291 -0.1826726420340844 0 0.31801549676059232 -0.19201577044599941 0 0.32855392000847078 -0.18537600058072809 0 0.31801549676059232 -0.19201577044599941 0 0.3225584151716499 -0.19629382225754879 0 0.31921722899222249 -0.23680048966188971 0 0.33029268966843078 -0.2312461925498204 0 0.32546114100035839 -0.25096911166471841 0 0.33029268966843078 -0.2312461925498204 0 0.32546114100035839 -0.25096911166471841 0 0.31333578311129251 -0.24688137415892061 0 0.31921722899222249 -0.23680048966188971 0 0.32546114100035839 -0.25096911166471841 0 0.30874461521323482 -0.2322812015586608 0 0.31333578311129251 -0.24688137415892061 0 0.31921722899222249 -0.23680048966188971 0 0.30874461521323482 -0.2322812015586608 0 0.31691611284506432 -0.2109930125288465 0 0.30874461521323482 -0.2322812015586608 0 0.31921722899222249 -0.23680048966188971 0 0.32068237760444668 -0.22418293697221309 0 0.30874461521323482 -0.2322812015586608 0 0.31691611284506432 -0.2109930125288465 0 0.32068237760444668 -0.22418293697221309 0 0.31921722899222249 -0.23680048966188971 0 0.32068237760444668 -0.22418293697221309 0 0.33029268966843078 -0.2312461925498204 0 0.33512423833650529 -0.211523273434923 0 0.33029268966843078 -0.2312461925498204 0 0.33512423833650529 -0.211523273434923 0 0.32068237760444668 -0.22418293697221309 0 0.33029268966843078 -0.2312461925498204 0 0.33512423833650529 -0.211523273434923 0 0.33029268966843078 -0.2312461925498204 0 0.34570732405486182 -0.22810861486185471 0 0.33029268966843078 -0.2312461925498204 0 0.33682175483416033 -0.23998261405678609 0 0.34570732405486182 -0.22810861486185471 0 0.33682175483416033 -0.23998261405678609 0 0.34712301418411479 -0.2410108060238404 0 0.34570732405486182 -0.22810861486185471 0 0.33029268966843078 -0.2312461925498204 0 0.33682175483416033 -0.23998261405678609 0 0.32546114100035839 -0.25096911166471841 0 0.33682175483416033 -0.23998261405678609 0 0.34712301418411479 -0.2410108060238404 0 0.34482713688762151 -0.25159308428585442 0 0.34712301418411479 -0.2410108060238404 0 0.35665773293659808 -0.24317336464634051 0 0.34482713688762151 -0.25159308428585442 0 0.35665773293659808 -0.24317336464634051 0 0.34482713688762151 -0.25159308428585442 0 0.36245329046492442 -0.25050681027277272 0 0.34712301418411479 -0.2410108060238404 0 0.34570732405486182 -0.22810861486185471 0 0.35414132083621841 -0.23427577341388631 0 0.35665773293659808 -0.24317336464634051 0 0.35414132083621841 -0.23427577341388631 0 0.36351835898187668 -0.2350413187377762 0 0.34712301418411479 -0.2410108060238404 0 0.35665773293659808 -0.24317336464634051 0 0.35414132083621841 -0.23427577341388631 0 0.35646164347323422 -0.2121446658888827 0 0.34570732405486182 -0.22810861486185471 0 0.36016539355396437 -0.22601950549096389 0 0.34570732405486182 -0.22810861486185471 0 0.35414132083621841 -0.23427577341388631 0 0.36016539355396437 -0.22601950549096389 0 0.35414132083621841 -0.23427577341388631 0 0.36016539355396437 -0.22601950549096389 0 0.36351835898187668 -0.2350413187377762 0 0.35646164347323422 -0.2121446658888827 0 0.36016539355396437 -0.22601950549096389 0 0.36743119419532699 -0.21955746256204919 0 0.36016539355396437 -0.22601950549096389 0 0.36351835898187668 -0.2350413187377762 0 0.37529869114414671 -0.22729962052550839 0 0.36016539355396437 -0.22601950549096389 0 0.36743119419532699 -0.21955746256204919 0 0.37529869114414671 -0.22729962052550839 0 0.36743119419532699 -0.21955746256204919 0 0.37529869114414671 -0.22729962052550839 0 0.377799048609963 -0.2127660583428419 0 0.36806206276742942 -0.2460549219700342 0 0.38117830442241901 -0.23564407987296601 0 0.37529869114414671 -0.22729962052550839 0 0.36351835898187668 -0.2350413187377762 0 0.36806206276742942 -0.2460549219700342 0 0.37529869114414671 -0.22729962052550839 0 0.36806206276742942 -0.2460549219700342 0 0.37529869114414671 -0.22729962052550839 0 0.35665773293659808 -0.24317336464634051 0 0.36806206276742942 -0.2460549219700342 0 0.36245329046492442 -0.25050681027277272 0 0.36806206276742942 -0.2460549219700342 0 0.36245329046492442 -0.25050681027277272 0 0.36806206276742942 -0.2460549219700342 0 0.36643910530968188 -0.25026117034527051 0 0.36245329046492442 -0.25050681027277272 0 0.35665773293659808 -0.24317336464634051 0 0.36351835898187668 -0.2350413187377762 0 0.36806206276742942 -0.2460549219700342 0 0.36806206276742942 -0.2460549219700342 0 0.38117830442241901 -0.23564407987296601 0 0.37565887922929531 -0.24969296919058201 0 0.36643910530968188 -0.25026117034527051 0 0.36806206276742942 -0.2460549219700342 0 0.37565887922929531 -0.24969296919058201 0 0.36643910530968188 -0.25026117034527051 0 0.36806206276742942 -0.2460549219700342 0 0.37565887922929531 -0.24969296919058201 0 0.38048793206166442 -0.24653568462557271 0 0.36806206276742942 -0.2460549219700342 0 0.36643910530968188 -0.25026117034527051 0 0.37565887922929531 -0.24969296919058201 0 0.38030595847274717 -0.2494065765073018 0 0.37565887922929531 -0.24969296919058201 0 0.38048793206166442 -0.24653568462557271 0 0.38030595847274717 -0.2494065765073018 0 0.38048793206166442 -0.24653568462557271 0 0.39760586616526727 -0.24834040854997039 0 0.38030595847274717 -0.2494065765073018 0 0.39760586616526727 -0.24834040854997039 0 0.36806206276742942 -0.2460549219700342 0 0.38048793206166442 -0.24653568462557271 0 0.38117830442241901 -0.23564407987296601 0 0.37565887922929531 -0.24969296919058201 0 0.38030595847274717 -0.2494065765073018 0 0.38048793206166442 -0.24653568462557271 0 0.38030595847274717 -0.2494065765073018 0 0.38048793206166442 -0.24653568462557271 0 0.38048793206166442 -0.24653568462557271 0 0.38117830442241901 -0.23564407987296601 0 0.38048793206166442 -0.24653568462557271 0 0.39401992632099292 -0.23768832716400709 0 0.38048793206166442 -0.24653568462557271 0 0.38117830442241901 -0.23564407987296601 0 0.39401992632099292 -0.23768832716400709 0 0.39760586616526727 -0.24834040854997039 0 0.39401992632099292 -0.23768832716400709 0 0.40755192058032058 -0.22884096970244019 0 0.38048793206166442 -0.24653568462557271 0 0.39760586616526727 -0.24834040854997039 0 0.39401992632099292 -0.23768832716400709 0 0.39495889513569771 -0.22470591956042529 0 0.40873948584898062 -0.21376775924788999 0 0.40755192058032058 -0.22884096970244019 0 0.39495889513569771 -0.22470591956042529 0 0.40873948584898062 -0.21376775924788999 0 0.39401992632099292 -0.23768832716400709 0 0.39495889513569771 -0.22470591956042529 0 0.40755192058032058 -0.22884096970244019 0 0.39401992632099292 -0.23768832716400709 0 0.40755192058032058 -0.22884096970244019 0 0.38117830442241901 -0.23564407987296601 0 0.37529869114414671 -0.22729962052550839 0 0.3824299811446934 -0.21589710141335919 0 0.38117830442241901 -0.23564407987296601 0 0.39495889513569771 -0.22470591956042529 0 0.3824299811446934 -0.21589710141335919 0 0.38117830442241901 -0.23564407987296601 0 0.3824299811446934 -0.21589710141335919 0 0.38117830442241901 -0.23564407987296601 0 0.39495889513569771 -0.22470591956042529 0 0.38117830442241901 -0.23564407987296601 0 0.39401992632099292 -0.23768832716400709 0 0.39495889513569771 -0.22470591956042529 0 0.37529869114414671 -0.22729962052550839 0 0.3824299811446934 -0.21589710141335919 0 0.3828945991529546 -0.2085670922841428 0 0.37529869114414671 -0.22729962052550839 0 0.3828945991529546 -0.2085670922841428 0 0.37529869114414671 -0.22729962052550839 0 0.377799048609963 -0.2127660583428419 0 0.3828945991529546 -0.2085670922841428 0 0.3824299811446934 -0.21589710141335919 0 0.3828945991529546 -0.2085670922841428 0 0.37190590819172459 -0.20164946296730399 0 0.377799048609963 -0.2127660583428419 0 0.3828945991529546 -0.2085670922841428 0 0.3824299811446934 -0.21589710141335919 0 0.3828945991529546 -0.2085670922841428 0 0.38997370773903639 -0.2029722758938706 0 0.3824299811446934 -0.21589710141335919 0 0.38924036701193881 -0.21260085306301801 0 0.38997370773903639 -0.2029722758938706 0 0.39495889513569771 -0.22470591956042529 0 0.3824299811446934 -0.21589710141335919 0 0.38924036701193881 -0.21260085306301801 0 0.37190590819172459 -0.20164946296730399 0 0.3828945991529546 -0.2085670922841428 0 0.38368165786696518 -0.19615012295375209 0 0.3735451182147364 -0.189044211434232 0 0.37190590819172459 -0.20164946296730399 0 0.38368165786696518 -0.19615012295375209 0 0.3828945991529546 -0.2085670922841428 0 0.38368165786696518 -0.19615012295375209 0 0.3828945991529546 -0.2085670922841428 0 0.38368165786696518 -0.19615012295375209 0 0.38997370773903639 -0.2029722758938706 0 0.38368165786696518 -0.19615012295375209 0 0.38997370773903639 -0.2029722758938706 0 0.39525772724547281 -0.18957075498895981 0 0.39525772724547281 -0.18957075498895981 0 0.39936906423506729 -0.2016587932041585 0 0.41187446510015102 -0.1923056598008317 0 0.38997370773903639 -0.2029722758938706 0 0.39525772724547281 -0.18957075498895981 0 0.39936906423506729 -0.2016587932041585 0 0.38924036701193881 -0.21260085306301801 0 0.39936906423506729 -0.2016587932041585 0 0.40873948584898062 -0.21376775924788999 0 0.38924036701193881 -0.21260085306301801 0 0.40873948584898062 -0.21376775924788999 0 0.39495889513569771 -0.22470591956042529 0 0.38924036701193881 -0.21260085306301801 0 0.40873948584898062 -0.21376775924788999 0 0.38924036701193881 -0.21260085306301801 0 0.38997370773903639 -0.2029722758938706 0 0.39936906423506729 -0.2016587932041585 0 0.40873948584898062 -0.21376775924788999 0 0.42877266821570831 -0.2149666259557651 0 0.40873948584898062 -0.21376775924788999 0 0.43068090942050108 -0.19635204656153701 0 0.40873948584898062 -0.21376775924788999 0 0.41187446510015102 -0.1923056598008317 0 0.43068090942050108 -0.19635204656153701 0 0.39936906423506729 -0.2016587932041585 0 0.40873948584898062 -0.21376775924788999 0 0.41187446510015102 -0.1923056598008317 0 0.41187446510015102 -0.1923056598008317 0 0.43068090942050108 -0.19635204656153701 0 0.42952152037213731 -0.17688103154124751 0 0.40873948584898062 -0.21376775924788999 0 0.43068090942050108 -0.19635204656153701 0 0.42877266821570831 -0.2149666259557651 0 0.43068090942050108 -0.19635204656153701 0 0.42877266821570831 -0.2149666259557651 0 0.44637143083649022 -0.20346037338105591 0 0.42877266821570831 -0.2149666259557651 0 0.42891357956743242 -0.23122001486412169 0 0.44515058495131948 -0.23196309169660581 0 0.42891357956743242 -0.23122001486412169 0 0.42400063179892361 -0.24671373782663741 0 0.44515058495131948 -0.23196309169660581 0 0.42400063179892361 -0.24671373782663741 0 0.44515058495131948 -0.23196309169660581 0 0.43532460426376501 -0.2460158579993926 0 0.42400063179892361 -0.24671373782663741 0 0.44515058495131948 -0.23196309169660581 0 0.43532460426376501 -0.2460158579993926 0 0.42400063179892361 -0.24671373782663741 0 0.43532460426376501 -0.2460158579993926 0 0.42400063179892361 -0.24671373782663741 0 0.42595494182858418 -0.25217004518264619 0 0.42891357956743242 -0.23122001486412169 0 0.42400063179892361 -0.24671373782663741 0 0.41882635721603828 -0.2375470934309665 0 0.41882635721603828 -0.2375470934309665 0 0.41490577385778732 -0.24727424059263731 0 0.40755192058032058 -0.22884096970244019 0 0.41490577385778732 -0.24727424059263731 0 0.40755192058032058 -0.22884096970244019 0 0.39760586616526727 -0.24834040854997039 0 0.41490577385778732 -0.24727424059263731 0 0.40755192058032058 -0.22884096970244019 0 0.39760586616526727 -0.24834040854997039 0 0.41490577385778732 -0.24727424059263731 0 0.41671053559038562 -0.25179808144911892 0 0.39760586616526727 -0.24834040854997039 0 0.41490577385778732 -0.24727424059263731 0 0.42400063179892361 -0.24671373782663741 0 0.41882635721603828 -0.2375470934309665 0 0.41490577385778732 -0.24727424059263731 0 0.42400063179892361 -0.24671373782663741 0 0.41490577385778732 -0.24727424059263731 0 0.41671053559038562 -0.25179808144911892 0 0.42400063179892361 -0.24671373782663741 0 0.41490577385778732 -0.24727424059263731 0 0.42400063179892361 -0.24671373782663741 0 0.41671053559038562 -0.25179808144911892 0 0.41490577385778732 -0.24727424059263731 0 0.41671053559038562 -0.25179808144911892 0 0.42891357956743242 -0.23122001486412169 0 0.41882635721603828 -0.2375470934309665 0 0.40755192058032058 -0.22884096970244019 0 0.40873948584898062 -0.21376775924788999 0 0.42877266821570831 -0.2149666259557651 0 0.40755192058032058 -0.22884096970244019 0 0.42877266821570831 -0.2149666259557651 0 0.40755192058032058 -0.22884096970244019 0 0.42877266821570831 -0.2149666259557651 0 0.42891357956743242 -0.23122001486412169 0 0.40755192058032058 -0.22884096970244019 0 0.39955069546741029 -0.12273464763203509 0 0.39288839916052848 -0.14382644284225879 0 0.41140774967625893 -0.1335373277198669 0 0.39955069546741029 -0.12273464763203509 0 0.37912715907358119 -0.13342409111479819 0 0.39288839916052848 -0.14382644284225879 0 0.37136664786280071 -0.14777391050371161 0 0.37912715907358119 -0.13342409111479819 0 0.39288839916052848 -0.14382644284225879 0 0.37136664786280071 -0.14777391050371161 0 0.39288839916052848 -0.14382644284225879 0 0.3824806996716838 -0.1589975613662 0 0.39288839916052848 -0.14382644284225879 0 0.39750337883098691 -0.16186659492726721 0 0.3824806996716838 -0.1589975613662 0 0.39288839916052848 -0.14382644284225879 0 0.40878246354097758 -0.14845096663193241 0 0.41140774967625893 -0.1335373277198669 0 0.39288839916052848 -0.14382644284225879 0 0.39750337883098691 -0.16186659492726721 0 0.40878246354097758 -0.14845096663193241 0 0.39750337883098691 -0.16186659492726721 0 0.38416720612470168 -0.17659637808774559 0 0.40767808347875051 -0.1756035732612016 0 0.39750337883098691 -0.16186659492726721 0 0.3824806996716838 -0.1589975613662 0 0.38416720612470168 -0.17659637808774559 0 0.36576893267089239 -0.1661568765046883 0 0.3824806996716838 -0.1589975613662 0 0.38416720612470168 -0.17659637808774559 0 0.3735451182147364 -0.189044211434232 0 0.38368165786696518 -0.19615012295375209 0 0.38416720612470168 -0.17659637808774559 0 0.38368165786696518 -0.19615012295375209 0 0.39525772724547281 -0.18957075498895981 0 0.38416720612470168 -0.17659637808774559 0 0.36858089481314238 -0.17826693704583871 0 0.3735451182147364 -0.189044211434232 0 0.38416720612470168 -0.17659637808774559 0 0.39525772724547281 -0.18957075498895981 0 0.38416720612470168 -0.17659637808774559 0 0.40767808347875051 -0.1756035732612016 0 0.39525772724547281 -0.18957075498895981 0 0.41187446510015102 -0.1923056598008317 0 0.40767808347875051 -0.1756035732612016 0 0.41187446510015102 -0.1923056598008317 0 0.40767808347875051 -0.1756035732612016 0 0.42952152037213731 -0.17688103154124751 0 0.42952152037213731 -0.17688103154124751 0 0.42104342911891202 -0.16037602718640209 0 0.44204591480988192 -0.1594916400991081 0 0.40767808347875051 -0.1756035732612016 0 0.42952152037213731 -0.17688103154124751 0 0.42104342911891202 -0.16037602718640209 0 0.39750337883098691 -0.16186659492726721 0 0.42104342911891202 -0.16037602718640209 0 0.40878246354097758 -0.14845096663193241 0 0.39750337883098691 -0.16186659492726721 0 0.40767808347875051 -0.1756035732612016 0 0.42104342911891202 -0.16037602718640209 0 0.40878246354097758 -0.14845096663193241 0 0.43146949662774142 -0.14004694632302761 0 0.41140774967625893 -0.1335373277198669 0 0.42104342911891202 -0.16037602718640209 0 0.40878246354097758 -0.14845096663193241 0 0.43146949662774142 -0.14004694632302761 0 0.43146949662774142 -0.14004694632302761 0 0.44204591480988192 -0.1594916400991081 0 0.42104342911891202 -0.16037602718640209 0 0.43146949662774142 -0.14004694632302761 0 0.44204591480988192 -0.1594916400991081 0 0.42089307844560148 -0.12060225254694661 0 0.43146949662774142 -0.14004694632302761 0 0.44642969907491792 -0.1180507959277181 0 0.42089307844560148 -0.12060225254694661 0 0.43146949662774142 -0.14004694632302761 0 0.42089307844560148 -0.12060225254694661 0 0.39955069546741029 -0.12273464763203509 0 0.41140774967625893 -0.1335373277198669 0 0.42089307844560148 -0.12060225254694661 0 0.43146949662774142 -0.14004694632302761 0 0.41140774967625893 -0.1335373277198669 0 0.44642969907491792 -0.1180507959277181 0 0.46596028617107638 -0.12785668648755219 0 0.45350258321349701 -0.13284198681206569 0 0.46596028617107638 -0.12785668648755219 0 0.45350258321349701 -0.13284198681206569 0 0.46351213915297151 -0.14148571710021701 0 0.45350258321349701 -0.13284198681206569 0 0.44965493017357272 -0.14583951708673709 0 0.46351213915297151 -0.14148571710021701 0 0.44642969907491792 -0.1180507959277181 0 0.43146949662774142 -0.14004694632302761 0 0.45350258321349701 -0.13284198681206569 0 0.43146949662774142 -0.14004694632302761 0 0.45350258321349701 -0.13284198681206569 0 0.44965493017357272 -0.14583951708673709 0 0.43146949662774142 -0.14004694632302761 0 0.44965493017357272 -0.14583951708673709 0 0.44204591480988192 -0.1594916400991081 0 0.44965493017357272 -0.14583951708673709 0 0.4573066484270874 -0.15633804004158169 0 0.44204591480988192 -0.1594916400991081 0 0.44965493017357272 -0.14583951708673709 0 0.46351213915297151 -0.14148571710021701 0 0.4573066484270874 -0.15633804004158169 0 0.46351213915297151 -0.14148571710021701 0 0.4573066484270874 -0.15633804004158169 0 0.47183430817398397 -0.1515347361313053 0 0.4573066484270874 -0.15633804004158169 0 0.45262233299202431 -0.17893633387518759 0 0.46908477201932058 -0.16586949218730279 0 0.4573066484270874 -0.15633804004158169 0 0.46908477201932058 -0.16586949218730279 0 0.47183430817398397 -0.1515347361313053 0 0.44204591480988192 -0.1594916400991081 0 0.45262233299202431 -0.17893633387518759 0 0.42952152037213731 -0.17688103154124751 0 0.44204591480988192 -0.1594916400991081 0 0.45262233299202431 -0.17893633387518759 0 0.4573066484270874 -0.15633804004158169 0 0.44204591480988192 -0.1594916400991081 0 0.45262233299202431 -0.17893633387518759 0 0.43068090942050108 -0.19635204656153701 0 0.42952152037213731 -0.17688103154124751 0 0.45262233299202431 -0.17893633387518759 0 0.45262233299202431 -0.17893633387518759 0 0.45836975361842291 -0.1895029389543452 0 0.45262233299202431 -0.17893633387518759 0 0.4685152510605094 -0.17675744364837931 0 0.46908477201932058 -0.16586949218730279 0 0.45262233299202431 -0.17893633387518759 0 0.46908477201932058 -0.16586949218730279 0 0.45262233299202431 -0.17893633387518759 0 0.4685152510605094 -0.17675744364837931 0 0.46500929744125707 -0.18351974110318009 0 0.45262233299202431 -0.17893633387518759 0 0.46500929744125707 -0.18351974110318009 0 0.45836975361842291 -0.1895029389543452 0 0.46500929744125707 -0.18351974110318009 0 0.4815689560780555 -0.18044786823163991 0 0.46397019345727281 -0.19195412080634791 0 0.4685152510605094 -0.17675744364837931 0 0.46500929744125707 -0.18351974110318009 0 0.4815689560780555 -0.18044786823163991 0 0.4815689560780555 -0.18044786823163991 0 0.46397019345727281 -0.19195412080634791 0 0.4685152510605094 -0.17675744364837931 0 0.4815689560780555 -0.18044786823163991 0 0.47882200753793841 -0.17029812350924739 0 0.4815689560780555 -0.18044786823163991 0 0.48939384748518983 -0.17561316297949739 0 0.47882200753793841 -0.17029812350924739 0 0.48939384748518983 -0.17561316297949739 0 0.5 -0.16752015849360449 0 0.50000000000001266 -0.19370937519930309 0 0.4815689560780555 -0.18044786823163991 0 0.48939384748518983 -0.17561316297949739 0 0.49324048392376851 -0.1984236754595769 0 0.48939384748518983 -0.17561316297949739 0 0.49324048392376851 -0.1984236754595769 0 0.48939384748518983 -0.17561316297949739 0 0.5 -0.16752015849360449 0 0.48554721104661608 -0.1528026504994171 0 0.48939384748518983 -0.17561316297949739 0 0.48554721104661608 -0.1528026504994171 0 0.48939384748518983 -0.17561316297949739 0 0.47882200753793841 -0.17029812350924739 0 0.48554721104661608 -0.1528026504994171 0 0.47882200753793841 -0.17029812350924739 0 0.46908477201932058 -0.16586949218730279 0 0.48554721104661608 -0.1528026504994171 0 0.46908477201932058 -0.16586949218730279 0 0.47183430817398397 -0.1515347361313053 0 0.48554721104661608 -0.1528026504994171 0 0.46908477201932058 -0.16586949218730279 0 0.48554721104661608 -0.1528026504994171 0 0.4685152510605094 -0.17675744364837931 0 0.47882200753793841 -0.17029812350924739 0 0.46908477201932058 -0.16586949218730279 0 0.48082736823376288 -0.124814033663446 0 0.47183430817398397 -0.1515347361313053 0 0.48554721104661608 -0.1528026504994171 0 0.5 -0.16752015849360449 0 0.48554721104661608 -0.1528026504994171 0 0.49999999999999589 -0.1413309417879057 0 0.48554721104661608 -0.1528026504994171 0 0.49999999999999589 -0.1413309417879057 0 0.48082736823376288 -0.124814033663446 0 0.48554721104661608 -0.1528026504994171 0 0.49999999999999589 -0.1413309417879057 0 0.48082736823376288 -0.124814033663446 0 0.49750294033355102 -0.1129478826892651 0 0.49999999999999589 -0.1413309417879057 0 0.48082736823376288 -0.124814033663446 0 0.48554721104661608 -0.1528026504994171 0 0.48082736823376288 -0.124814033663446 0 0.46351213915297151 -0.14148571710021701 0 0.47183430817398397 -0.1515347361313053 0 0.48082736823376288 -0.124814033663446 0 0.46596028617107638 -0.12785668648755219 0 0.46351213915297151 -0.14148571710021701 0 0.46115001914943887 -0.23340966197814181 0 0.44515058495131948 -0.23196309169660581 0 0.46630053810371308 -0.21721244556657091 0 0.46115001914943887 -0.23340966197814181 0 0.46630053810371308 -0.21721244556657091 0 0.47312381595199621 -0.229546046646667 0 0.44515058495131948 -0.23196309169660581 0 0.46630053810371308 -0.21721244556657091 0 0.46115001914943887 -0.23340966197814181 0 0.45694690095269991 -0.24797481681084599 0 0.47227507209224717 -0.24489319898503401 0 0.46115001914943887 -0.23340966197814181 0 0.45694690095269991 -0.24797481681084599 0 0.44850312596113978 -0.242102327952566 0 0.46115001914943887 -0.23340966197814181 0 0.44850312596113978 -0.242102327952566 0 0.44515058495131948 -0.23196309169660581 0 0.45694690095269991 -0.24797481681084599 0 0.44850312596113978 -0.242102327952566 0 0.44394352048847557 -0.25114821127784392 0 0.43532460426376501 -0.2460158579993926 0 0.44850312596113978 -0.242102327952566 0 0.44394352048847557 -0.25114821127784392 0 0.43532460426376501 -0.2460158579993926 0 0.44850312596113978 -0.242102327952566 0 0.44515058495131948 -0.23196309169660581 0 0.44515058495131948 -0.23196309169660581 0 0.44753660315971072 -0.2160895357611691 0 0.46630053810371308 -0.21721244556657091 0 0.42877266821570831 -0.2149666259557651 0 0.44515058495131948 -0.23196309169660581 0 0.44753660315971072 -0.2160895357611691 0 0.42877266821570831 -0.2149666259557651 0 0.44753660315971072 -0.2160895357611691 0 0.42877266821570831 -0.2149666259557651 0 0.44637143083649022 -0.20346037338105591 0 0.44753660315971072 -0.2160895357611691 0 0.42877266821570831 -0.2149666259557651 0 0.44637143083649022 -0.20346037338105591 0 0.44637143083649022 -0.20346037338105591 0 0.44753660315971072 -0.2160895357611691 0 0.45997755874150198 -0.20505914483345261 0 0.45262233299202431 -0.17893633387518759 0 0.44637143083649022 -0.20346037338105591 0 0.45836975361842291 -0.1895029389543452 0 0.43068090942050108 -0.19635204656153701 0 0.45262233299202431 -0.17893633387518759 0 0.44637143083649022 -0.20346037338105591 0 0.43068090942050108 -0.19635204656153701 0 0.45262233299202431 -0.17893633387518759 0 0.44637143083649022 -0.20346037338105591 0 0.46397019345727281 -0.19195412080634791 0 0.45997755874150198 -0.20505914483345261 0 0.44637143083649022 -0.20346037338105591 0 0.45836975361842291 -0.1895029389543452 0 0.46397019345727281 -0.19195412080634791 0 0.44637143083649022 -0.20346037338105591 0 0.46397019345727281 -0.19195412080634791 0 0.46397019345727281 -0.19195412080634791 0 0.45997755874150198 -0.20505914483345261 0 0.46954604613680068 -0.20347779634488411 0 0.46500929744125707 -0.18351974110318009 0 0.45836975361842291 -0.1895029389543452 0 0.46397019345727281 -0.19195412080634791 0 0.44753660315971072 -0.2160895357611691 0 0.46630053810371308 -0.21721244556657091 0 0.44753660315971072 -0.2160895357611691 0 0.45997755874150198 -0.20505914483345261 0 0.46630053810371308 -0.21721244556657091 0 0.45997755874150198 -0.20505914483345261 0 0.46630053810371308 -0.21721244556657091 0 0.46954604613680068 -0.20347779634488411 0 0.46630053810371308 -0.21721244556657091 0 0.48150819935122752 -0.21812253356160169 0 0.46630053810371308 -0.21721244556657091 0 0.47977051101374107 -0.20781806051307439 0 0.48150819935122752 -0.21812253356160169 0 0.46630053810371308 -0.21721244556657091 0 0.47977051101374107 -0.20781806051307439 0 0.46630053810371308 -0.21721244556657091 0 0.46954604613680068 -0.20347779634488411 0 0.47977051101374107 -0.20781806051307439 0 0.4815689560780555 -0.18044786823163991 0 0.46397019345727281 -0.19195412080634791 0 0.47771142936777439 -0.19534521000497421 0 0.4815689560780555 -0.18044786823163991 0 0.47771142936777439 -0.19534521000497421 0 0.49324048392376851 -0.1984236754595769 0 0.46397019345727281 -0.19195412080634791 0 0.46954604613680068 -0.20347779634488411 0 0.47771142936777439 -0.19534521000497421 0 0.46954604613680068 -0.20347779634488411 0 0.47977051101374107 -0.20781806051307439 0 0.47771142936777439 -0.19534521000497421 0 0.47977051101374107 -0.20781806051307439 0 0.47771142936777439 -0.19534521000497421 0 0.49324048392376851 -0.1984236754595769 0 0.49324048392376851 -0.1984236754595769 0 0.50000000000001266 -0.19370937519930309 0 0.5 -0.21610845394400541 0 0.48939384748518983 -0.17561316297949739 0 0.49324048392376851 -0.1984236754595769 0 0.50000000000001266 -0.19370937519930309 0 0.47977051101374107 -0.20781806051307439 0 0.49324048392376851 -0.1984236754595769 0 0.49324048392376851 -0.1984236754595769 0 0.50000000000001266 -0.19370937519930309 0 0.49324048392376851 -0.1984236754595769 0 0.5 -0.21610845394400541 0 0.4967158605987419 -0.21903262155663189 0 0.49324048392376851 -0.1984236754595769 0 0.4967158605987419 -0.21903262155663189 0 0.47977051101374107 -0.20781806051307439 0 0.49324048392376851 -0.1984236754595769 0 0.4967158605987419 -0.21903262155663189 0 0.47977051101374107 -0.20781806051307439 0 0.48150819935122752 -0.21812253356160169 0 0.4967158605987419 -0.21903262155663189 0 0.48150819935122752 -0.21812253356160169 0 0.4967158605987419 -0.21903262155663189 0 0.5 -0.21610845394400541 0 0.49877514318273708 -0.2191558573604527 0 0.4967158605987419 -0.21903262155663189 0 0.4967158605987419 -0.21903262155663189 0 0.49999999999999911 -0.2385075326887077 0 0.48150819935122752 -0.21812253356160169 0 0.4967158605987419 -0.21903262155663189 0 0.48438525106335428 -0.2340923931419864 0 0.4967158605987419 -0.21903262155663189 0 0.48438525106335428 -0.2340923931419864 0 0.49999999999999911 -0.2385075326887077 0 0.5 -0.21610845394400541 0 0.49877514318273708 -0.2191558573604527 0 0.49999999999999911 -0.2385075326887077 0 0.49877514318273708 -0.2191558573604527 0 0.4967158605987419 -0.21903262155663189 0 0.49999999999999911 -0.2385075326887077 0 0.49877514318273708 -0.2191558573604527 0 0.4967158605987419 -0.21903262155663189 0 0.48150819935122752 -0.21812253356160169 0 0.48438525106335428 -0.2340923931419864 0 0.47312381595199621 -0.229546046646667 0 0.46630053810371308 -0.21721244556657091 0 0.48150819935122752 -0.21812253356160169 0 0.47312381595199621 -0.229546046646667 0 0.46115001914943887 -0.23340966197814181 0 0.47312381595199621 -0.229546046646667 0 0.47227507209224717 -0.24489319898503401 0 0.48438525106335428 -0.2340923931419864 0 0.47312381595199621 -0.229546046646667 0 0.47227507209224717 -0.24489319898503401 0 0.48438525106335428 -0.2340923931419864 0 0.47227507209224717 -0.24489319898503401 0 0.4868024988467739 -0.24938015782644771 0 0.48438525106335428 -0.2340923931419864 0 0.4868024988467739 -0.24938015782644771 0 0.49999999999999911 -0.2385075326887077 0 0.4868024988467739 -0.24938015782644771 0 0.49999999999999911 -0.2385075326887077 0 0.5 -0.26507228079381162 0 0.4868024988467739 -0.24938015782644771 0 0.5 -0.26507228079381162 0 0.47735217107826983 -0.26433538352269881 0 0.5 -0.26507228079381162 0 0.48702659359824702 -0.28015298020710272 0 0.5 -0.29163702889891552 0 0.5 -0.26507228079381162 0 0.48702659359824702 -0.28015298020710272 0 0.47735217107826983 -0.26433538352269881 0 0.48702659359824702 -0.28015298020710272 0 0.47735217107826983 -0.26433538352269881 0 0.46561603876429047 -0.2806051714394559 0 0.47227507209224717 -0.24489319898503401 0 0.47735217107826983 -0.26433538352269881 0 0.46544808649401698 -0.25748111757292202 0 0.47227507209224717 -0.24489319898503401 0 0.4868024988467739 -0.24938015782644771 0 0.47735217107826983 -0.26433538352269881 0 0.45694690095269991 -0.24797481681084599 0 0.47227507209224717 -0.24489319898503401 0 0.46544808649401698 -0.25748111757292202 0 0.47735217107826983 -0.26433538352269881 0 0.46544808649401698 -0.25748111757292202 0 0.46093914589253759 -0.26758980918493203 0 0.45694690095269991 -0.24797481681084599 0 0.46544808649401698 -0.25748111757292202 0 0.45159083320476151 -0.25995664835200499 0 0.46544808649401698 -0.25748111757292202 0 0.46093914589253759 -0.26758980918493203 0 0.45159083320476151 -0.25995664835200499 0 0.46561603876429047 -0.2806051714394559 0 0.44938519533440241 -0.27257137959121841 0 0.4485250691543089 -0.28632732981001102 0 0.47735217107826983 -0.26433538352269881 0 0.46561603876429047 -0.2806051714394559 0 0.46093914589253759 -0.26758980918493203 0 0.46561603876429047 -0.2806051714394559 0 0.46093914589253759 -0.26758980918493203 0 0.44938519533440241 -0.27257137959121841 0 0.46093914589253759 -0.26758980918493203 0 0.44938519533440241 -0.27257137959121841 0 0.45159083320476151 -0.25995664835200499 0 0.44938519533440241 -0.27257137959121841 0 0.43981974681942798 -0.27605839599946091 0 0.4485250691543089 -0.28632732981001102 0 0.44938519533440241 -0.27257137959121841 0 0.43981974681942798 -0.27605839599946091 0 0.43950349837340719 -0.26370616200899127 0 0.43950349837340719 -0.26370616200899127 0 0.44394352048847557 -0.25114821127784392 0 0.45159083320476151 -0.25995664835200499 0 0.43532460426376501 -0.2460158579993926 0 0.44394352048847557 -0.25114821127784392 0 0.43458929613580138 -0.25455003190631298 0 0.43950349837340719 -0.26370616200899127 0 0.44394352048847557 -0.25114821127784392 0 0.43458929613580138 -0.25455003190631298 0 0.45694690095269991 -0.24797481681084599 0 0.44394352048847557 -0.25114821127784392 0 0.45159083320476151 -0.25995664835200499 0 0.44938519533440241 -0.27257137959121841 0 0.43950349837340719 -0.26370616200899127 0 0.45159083320476151 -0.25995664835200499 0 0.44946847381934207 -0.30153449854772763 0 0.4413886049552691 -0.31365647329980262 0 0.43144884585498972 -0.28874133491376092 0 0.44946847381934207 -0.30153449854772763 0 0.4485250691543089 -0.28632732981001102 0 0.43144884585498972 -0.28874133491376092 0 0.43981974681942798 -0.27605839599946091 0 0.4485250691543089 -0.28632732981001102 0 0.43144884585498972 -0.28874133491376092 0 0.46561603876429047 -0.2806051714394559 0 0.4485250691543089 -0.28632732981001102 0 0.4633378817511738 -0.30050003851167512 0 0.46561603876429047 -0.2806051714394559 0 0.4633378817511738 -0.30050003851167512 0 0.47442731874288591 -0.29255359161791888 0 0.44946847381934207 -0.30153449854772763 0 0.4485250691543089 -0.28632732981001102 0 0.4633378817511738 -0.30050003851167512 0 0.44946847381934207 -0.30153449854772763 0 0.4633378817511738 -0.30050003851167512 0 0.46388436620907442 -0.31434768148096731 0 0.4633378817511738 -0.30050003851167512 0 0.48504062892190591 -0.30645481421722409 0 0.46388436620907442 -0.31434768148096731 0 0.4633378817511738 -0.30050003851167512 0 0.47442731874288591 -0.29255359161791888 0 0.48504062892190591 -0.30645481421722409 0 0.48702659359824702 -0.28015298020710272 0 0.46561603876429047 -0.2806051714394559 0 0.47442731874288591 -0.29255359161791888 0 0.48702659359824702 -0.28015298020710272 0 0.47442731874288591 -0.29255359161791888 0 0.48504062892190591 -0.30645481421722409 0 0.48702659359824702 -0.28015298020710272 0 0.5 -0.29163702889891552 0 0.48504062892190591 -0.30645481421722409 0 0.5 -0.29163702889891552 0 0.48504062892190591 -0.30645481421722409 0 0.5 -0.31820177700401953 0 0.5 -0.31820177700401953 0 0.48888066271772462 -0.32352311751875568 0 0.49731676175633482 -0.33628233214941161 0 0.48504062892190591 -0.30645481421722409 0 0.5 -0.31820177700401953 0 0.48888066271772462 -0.32352311751875568 0 0.5 -0.31820177700401953 0 0.49731676175633482 -0.33628233214941161 0 0.5 -0.34476652510912342 0 0.48395654496516621 -0.3339084375186292 0 0.48047713096328482 -0.34178835358621268 0 0.48881617202627209 -0.34519199613663532 0 0.49731676175633482 -0.33628233214941161 0 0.48395654496516621 -0.3339084375186292 0 0.48881617202627209 -0.34519199613663532 0 0.48888066271772462 -0.32352311751875568 0 0.49731676175633482 -0.33628233214941161 0 0.48395654496516621 -0.3339084375186292 0 0.48395654496516621 -0.3339084375186292 0 0.47189217142973228 -0.3368303767902302 0 0.4765357533043334 -0.32341353048452848 0 0.48395654496516621 -0.3339084375186292 0 0.48047713096328482 -0.34178835358621268 0 0.47189217142973228 -0.3368303767902302 0 0.48047713096328482 -0.34178835358621268 0 0.47189217142973228 -0.3368303767902302 0 0.47448945177308888 -0.34634456336497488 0 0.47189217142973228 -0.3368303767902302 0 0.47448945177308888 -0.34634456336497488 0 0.46718216797282208 -0.34642612636830578 0 0.47189217142973228 -0.3368303767902302 0 0.4765357533043334 -0.32341353048452848 0 0.46437584011058147 -0.32863511268429302 0 0.48504062892190591 -0.30645481421722409 0 0.48888066271772462 -0.32352311751875568 0 0.4765357533043334 -0.32341353048452848 0 0.48504062892190591 -0.30645481421722409 0 0.4765357533043334 -0.32341353048452848 0 0.46388436620907442 -0.31434768148096731 0 0.48888066271772462 -0.32352311751875568 0 0.48395654496516621 -0.3339084375186292 0 0.4765357533043334 -0.32341353048452848 0 0.49930164859074022 -0.37193595403156038 0 0.48999853020014572 -0.362777203894671 0 0.48116443312914031 -0.37233992902099888 0 0.49930164859074022 -0.37193595403156038 0 0.48999853020014572 -0.362777203894671 0 0.49830920517353722 -0.35410914309048608 0 0.49930164859074022 -0.37193595403156038 0 0.49830920517353722 -0.35410914309048608 0 0.48999853020014572 -0.362777203894671 0 0.48911002760207117 -0.35456136959062329 0 0.48173929333327542 -0.36106512066662461 0 0.49731676175633482 -0.33628233214941161 0 0.49830920517353722 -0.35410914309048608 0 0.49930164859074022 -0.37193595403156038 0 0.5 -0.34476652510912342 0 0.49830920517353722 -0.35410914309048608 0 0.49731676175633482 -0.33628233214941161 0 0.49830920517353722 -0.35410914309048608 0 0.48881617202627209 -0.34519199613663532 0 0.49731676175633482 -0.33628233214941161 0 0.5 -0.34476652510912342 0 0.49830920517353722 -0.35410914309048608 0 0.48999853020014572 -0.362777203894671 0 0.48911002760207117 -0.35456136959062329 0 0.49830920517353722 -0.35410914309048608 0 0.48911002760207117 -0.35456136959062329 0 0.48881617202627209 -0.34519199613663532 0 0.48131973919224119 -0.35052256425339939 0 0.48911002760207117 -0.35456136959062329 0 0.49830920517353722 -0.35410914309048608 0 0.48881617202627209 -0.34519199613663532 0 0.48047713096328482 -0.34178835358621268 0 0.48131973919224119 -0.35052256425339939 0 0.47448945177308888 -0.34634456336497488 0 0.48047713096328482 -0.34178835358621268 0 0.48881617202627209 -0.34519199613663532 0 0.48131973919224119 -0.35052256425339939 0 0.47448945177308888 -0.34634456336497488 0 0.47288811457422109 -0.35498735095299389 0 0.46718216797282208 -0.34642612636830578 0 0.48131973919224119 -0.35052256425339939 0 0.47448945177308888 -0.34634456336497488 0 0.47288811457422109 -0.35498735095299389 0 0.48911002760207117 -0.35456136959062329 0 0.48131973919224119 -0.35052256425339939 0 0.48173929333327542 -0.36106512066662461 0 0.48131973919224119 -0.35052256425339939 0 0.47288811457422109 -0.35498735095299389 0 0.48173929333327542 -0.36106512066662461 0 0.48173929333327542 -0.36106512066662461 0 0.46891923263509772 -0.36639794311329471 0 0.48116443312914031 -0.37233992902099888 0 0.48999853020014572 -0.362777203894671 0 0.48173929333327542 -0.36106512066662461 0 0.48116443312914031 -0.37233992902099888 0 0.47288811457422109 -0.35498735095299389 0 0.48173929333327542 -0.36106512066662461 0 0.46891923263509772 -0.36639794311329471 0 0.46891923263509772 -0.36639794311329471 0 0.48116443312914031 -0.37233992902099888 0 0.46559549653354898 -0.38107836730110878 0 0.46088311611911092 -0.37312160216082801 0 0.4577870474656438 -0.36461197060027523 0 0.45123068784215292 -0.38039812762863318 0 0.4577870474656438 -0.36461197060027523 0 0.4506432831678826 -0.35411025126833129 0 0.45123068784215292 -0.38039812762863318 0 0.46891923263509772 -0.36639794311329471 0 0.46088311611911092 -0.37312160216082801 0 0.4577870474656438 -0.36461197060027523 0 0.46891923263509772 -0.36639794311329471 0 0.46088311611911092 -0.37312160216082801 0 0.46559549653354898 -0.38107836730110878 0 0.46891923263509772 -0.36639794311329471 0 0.4577870474656438 -0.36461197060027523 0 0.46265755930571278 -0.35457190489603552 0 0.4577870474656438 -0.36461197060027523 0 0.46265755930571278 -0.35457190489603552 0 0.4506432831678826 -0.35411025126833129 0 0.47288811457422109 -0.35498735095299389 0 0.46265755930571278 -0.35457190489603552 0 0.46718216797282208 -0.34642612636830578 0 0.47288811457422109 -0.35498735095299389 0 0.46891923263509772 -0.36639794311329471 0 0.46265755930571278 -0.35457190489603552 0 0.46265755930571278 -0.35457190489603552 0 0.46718216797282208 -0.34642612636830578 0 0.45951103111615538 -0.3407615997577092 0 0.46265755930571278 -0.35457190489603552 0 0.4506432831678826 -0.35411025126833129 0 0.45951103111615538 -0.3407615997577092 0 0.4506432831678826 -0.35411025126833129 0 0.44073114224331211 -0.35978831956797719 0 0.4302315966444713 -0.33917851150732131 0 0.4506432831678826 -0.35411025126833129 0 0.45123068784215292 -0.38039812762863318 0 0.4506432831678826 -0.35411025126833129 0 0.44073114224331211 -0.35978831956797719 0 0.45123068784215292 -0.38039812762863318 0 0.44073114224331211 -0.35978831956797719 0 0.43916938855457222 -0.37362281887085852 0 0.45123068784215292 -0.38039812762863318 0 0.44073114224331211 -0.35978831956797719 0 0.45123068784215292 -0.38039812762863318 0 0.44073114224331211 -0.35978831956797719 0 0.43916938855457222 -0.37362281887085852 0 0.4336978883102397 -0.36601992296075708 0 0.44946847381934207 -0.30153449854772763 0 0.46388436620907442 -0.31434768148096731 0 0.45005587849361228 -0.32782237490802951 0 0.46388436620907442 -0.31434768148096731 0 0.46437584011058147 -0.32863511268429302 0 0.45005587849361228 -0.32782237490802951 0 0.4765357533043334 -0.32341353048452848 0 0.46388436620907442 -0.31434768148096731 0 0.46437584011058147 -0.32863511268429302 0 0.4506432831678826 -0.35411025126833129 0 0.45951103111615538 -0.3407615997577092 0 0.45005587849361228 -0.32782237490802951 0 0.47189217142973228 -0.3368303767902302 0 0.46437584011058147 -0.32863511268429302 0 0.45951103111615538 -0.3407615997577092 0 0.47189217142973228 -0.3368303767902302 0 0.46718216797282208 -0.34642612636830578 0 0.45951103111615538 -0.3407615997577092 0 0.46437584011058147 -0.32863511268429302 0 0.45951103111615538 -0.3407615997577092 0 0.45005587849361228 -0.32782237490802951 0 0.45005587849361228 -0.32782237490802951 0 0.43329948373309801 -0.32495274637123012 0 0.4302315966444713 -0.33917851150732131 0 0.4506432831678826 -0.35411025126833129 0 0.45005587849361228 -0.32782237490802951 0 0.4506432831678826 -0.35411025126833129 0 0.45005587849361228 -0.32782237490802951 0 0.4302315966444713 -0.33917851150732131 0 0.44946847381934207 -0.30153449854772763 0 0.4413886049552691 -0.31365647329980262 0 0.45005587849361228 -0.32782237490802951 0 0.4413886049552691 -0.31365647329980262 0 0.45005587849361228 -0.32782237490802951 0 0.43329948373309801 -0.32495274637123012 0 0.44946847381934207 -0.30153449854772763 0 0.45005587849361228 -0.32782237490802951 0 0.4413886049552691 -0.31365647329980262 0 0.43329948373309801 -0.32495274637123012 0 0.41973205104563049 -0.31856870344666521 0 0.43329948373309801 -0.32495274637123012 0 0.4302315966444713 -0.33917851150732131 0 0.41973205104563049 -0.31856870344666521 0 0.4302315966444713 -0.33917851150732131 0 0.41973205104563049 -0.31856870344666521 0 0.4302315966444713 -0.33917851150732131 0 0.41090380457356751 -0.33938085460577672 0 0.41927118301660982 -0.34763166626109121 0 0.41090380457356751 -0.33938085460577672 0 0.41973205104563049 -0.31856870344666521 0 0.40691030669861727 -0.32655960109187598 0 0.4302315966444713 -0.33917851150732131 0 0.41090380457356751 -0.33938085460577672 0 0.41973205104563049 -0.31856870344666521 0 0.41973205104563049 -0.31856870344666521 0 0.40691030669861727 -0.32655960109187598 0 0.40310396582105168 -0.31208077783156862 0 0.43916938855457222 -0.37362281887085852 0 0.42606065878879418 -0.3714946162826479 0 0.4336978883102397 -0.36601992296075708 0 0.44073114224331211 -0.35978831956797719 0 0.4336978883102397 -0.36601992296075708 0 0.42584968758986552 -0.35618445563728729 0 0.42606065878879418 -0.3714946162826479 0 0.4336978883102397 -0.36601992296075708 0 0.42584968758986552 -0.35618445563728729 0 0.44073114224331211 -0.35978831956797719 0 0.4302315966444713 -0.33917851150732131 0 0.4302315966444713 -0.33917851150732131 0 0.42584968758986552 -0.35618445563728729 0 0.41927118301660982 -0.34763166626109121 0 0.44073114224331211 -0.35978831956797719 0 0.4302315966444713 -0.33917851150732131 0 0.42584968758986552 -0.35618445563728729 0 0.41090380457356751 -0.33938085460577672 0 0.41927118301660982 -0.34763166626109121 0 0.41009964325853482 -0.35578284329397969 0 0.42584968758986552 -0.35618445563728729 0 0.41927118301660982 -0.34763166626109121 0 0.41009964325853482 -0.35578284329397969 0 0.41090380457356751 -0.33938085460577672 0 0.41009964325853482 -0.35578284329397969 0 0.39891624099952988 -0.35165140451519711 0 0.42584968758986552 -0.35618445563728729 0 0.41009964325853482 -0.35578284329397969 0 0.41273025958263332 -0.37067013525411291 0 0.42606065878879418 -0.3714946162826479 0 0.42584968758986552 -0.35618445563728729 0 0.41273025958263332 -0.37067013525411291 0 0.41009964325853482 -0.35578284329397969 0 0.41273025958263332 -0.37067013525411291 0 0.39874938545525351 -0.3657271275188948 0 0.42606065878879418 -0.3714946162826479 0 0.41273025958263332 -0.37067013525411291 0 0.4229722790167712 -0.38245537923423872 0 0.39874938545525351 -0.3657271275188948 0 0.38858811793443843 -0.37478139525663529 0 0.39540771361069338 -0.37743696221084561 0 0.39874938545525351 -0.3657271275188948 0 0.40456610974079871 -0.37796430622437821 0 0.39540771361069338 -0.37743696221084561 0 0.41273025958263332 -0.37067013525411291 0 0.39874938545525351 -0.3657271275188948 0 0.40456610974079871 -0.37796430622437821 0 0.39874938545525351 -0.3657271275188948 0 0.3846988448873882 -0.36033535913541842 0 0.38858811793443843 -0.37478139525663529 0 0.39891624099952988 -0.35165140451519711 0 0.3846988448873882 -0.36033535913541842 0 0.39390140535421991 -0.33620806848349349 0 0.39874938545525351 -0.3657271275188948 0 0.39891624099952988 -0.35165140451519711 0 0.3846988448873882 -0.36033535913541842 0 0.41009964325853482 -0.35578284329397969 0 0.39874938545525351 -0.3657271275188948 0 0.39891624099952988 -0.35165140451519711 0 0.38594708791536508 -0.34463692244981731 0 0.3846988448873882 -0.36033535913541842 0 0.39390140535421991 -0.33620806848349349 0 0.3846988448873882 -0.36033535913541842 0 0.39390140535421991 -0.33620806848349349 0 0.38594708791536508 -0.34463692244981731 0 0.3731215785128188 -0.36275037669944071 0 0.38594708791536508 -0.34463692244981731 0 0.37490224559847363 -0.33465782375947378 0 0.3731215785128188 -0.36275037669944071 0 0.38594708791536508 -0.34463692244981731 0 0.3846988448873882 -0.36033535913541842 0 0.3731215785128188 -0.36275037669944071 0 0.3846988448873882 -0.36033535913541842 0 0.37549628442055649 -0.38446264978734329 0 0.3846988448873882 -0.36033535913541842 0 0.37549628442055649 -0.38446264978734329 0 0.37242863952391181 -0.37555121513872047 0 0.3846988448873882 -0.36033535913541842 0 0.38858811793443843 -0.37478139525663529 0 0.37549628442055649 -0.38446264978734329 0 0.3846988448873882 -0.36033535913541842 0 0.37278764284911858 -0.36801868619234562 0 0.3731215785128188 -0.36275037669944071 0 0.3846988448873882 -0.36033535913541842 0 0.37242863952391181 -0.37555121513872047 0 0.37278764284911858 -0.36801868619234562 0 0.40691030669861727 -0.32655960109187598 0 0.39390140535421991 -0.33620806848349349 0 0.40310396582105168 -0.31208077783156862 0 0.39390140535421991 -0.33620806848349349 0 0.38731953493273702 -0.32201146721981799 0 0.40310396582105168 -0.31208077783156862 0 0.39390140535421991 -0.33620806848349349 0 0.40310396582105168 -0.31208077783156862 0 0.38731953493273702 -0.32201146721981799 0 0.3900758920735049 -0.3088934616419422 0 0.40310396582105168 -0.31208077783156862 0 0.41090380457356751 -0.33938085460577672 0 0.39891624099952988 -0.35165140451519711 0 0.39390140535421991 -0.33620806848349349 0 0.41090380457356751 -0.33938085460577672 0 0.40691030669861727 -0.32655960109187598 0 0.39390140535421991 -0.33620806848349349 0 0.39390140535421991 -0.33620806848349349 0 0.38520358943338978 -0.33462093636351159 0 0.38731953493273702 -0.32201146721981799 0 0.38594708791536508 -0.34463692244981731 0 0.39390140535421991 -0.33620806848349349 0 0.38520358943338978 -0.33462093636351159 0 0.38594708791536508 -0.34463692244981731 0 0.38520358943338978 -0.33462093636351159 0 0.37490224559847363 -0.33465782375947378 0 0.38520358943338978 -0.33462093636351159 0 0.38731953493273702 -0.32201146721981799 0 0.37490224559847363 -0.33465782375947378 0 0.37668291268412779 -0.30656527081950691 0 0.37490224559847363 -0.33465782375947378 0 0.38731953493273702 -0.32201146721981799 0 0.37668291268412779 -0.30656527081950691 0 0.37490224559847363 -0.33465782375947378 0 0.37668291268412779 -0.30656527081950691 0 0.3900758920735049 -0.3088934616419422 0 0.39319715485610329 -0.29491633069687551 0 0.38731953493273702 -0.32201146721981799 0 0.37668291268412779 -0.30656527081950691 0 0.3900758920735049 -0.3088934616419422 0 0.40310396582105168 -0.31208077783156862 0 0.39319715485610329 -0.29491633069687551 0 0.40858455586654679 -0.29771175635669728 0 0.3900758920735049 -0.3088934616419422 0 0.40310396582105168 -0.31208077783156862 0 0.39319715485610329 -0.29491633069687551 0 0.40310396582105168 -0.31208077783156862 0 0.40858455586654679 -0.29771175635669728 0 0.39319715485610329 -0.29491633069687551 0 0.40858455586654679 -0.29771175635669728 0 0.41230652628788339 -0.28795348717964381 0 0.39319715485610329 -0.29491633069687551 0 0.39871575956682143 -0.2806451616618536 0 0.41230652628788339 -0.28795348717964381 0 0.37668291268412779 -0.30656527081950691 0 0.37846357976979139 -0.27847271787954059 0 0.39319715485610329 -0.29491633069687551 0 0.37846357976979139 -0.27847271787954059 0 0.39871575956682143 -0.2806451616618536 0 0.37668291268412779 -0.30656527081950691 0 0.39319715485610329 -0.29491633069687551 0 0.37846357976979139 -0.27847271787954059 0 0.37846357976979139 -0.27847271787954059 0 0.39758705768009039 -0.26513539966433242 0 0.38030595847274717 -0.2494065765073018 0 0.37846357976979139 -0.27847271787954059 0 0.37039766593308249 -0.26530491786777149 0 0.37565887922929531 -0.24969296919058201 0 0.38030595847274717 -0.2494065765073018 0 0.37039766593308249 -0.26530491786777149 0 0.38030595847274717 -0.2494065765073018 0 0.37846357976979139 -0.27847271787954059 0 0.38030595847274717 -0.2494065765073018 0 0.37846357976979139 -0.27847271787954059 0 0.39758705768009039 -0.26513539966433242 0 0.38030595847274717 -0.2494065765073018 0 0.39760586616526727 -0.24834040854997039 0 0.39758705768009039 -0.26513539966433242 0 0.39760586616526727 -0.24834040854997039 0 0.39758705768009039 -0.26513539966433242 0 0.41671053559038562 -0.25179808144911892 0 0.37846357976979139 -0.27847271787954059 0 0.39758705768009039 -0.26513539966433242 0 0.39871575956682143 -0.2806451616618536 0 0.39758705768009039 -0.26513539966433242 0 0.39871575956682143 -0.2806451616618536 0 0.41002887357452439 -0.27326609941599023 0 0.39871575956682143 -0.2806451616618536 0 0.41002887357452439 -0.27326609941599023 0 0.41230652628788339 -0.28795348717964381 0 0.4215090867547131 -0.26382619652771799 0 0.41230652628788339 -0.28795348717964381 0 0.41002887357452439 -0.27326609941599023 0 0.4215090867547131 -0.26382619652771799 0 0.41230652628788339 -0.28795348717964381 0 0.4215090867547131 -0.26382619652771799 0 0.43144884585498972 -0.28874133491376092 0 0.41230652628788339 -0.28795348717964381 0 0.39758705768009039 -0.26513539966433242 0 0.41002887357452439 -0.27326609941599023 0 0.41671053559038562 -0.25179808144911892 0 0.41002887357452439 -0.27326609941599023 0 0.4215090867547131 -0.26382619652771799 0 0.41671053559038562 -0.25179808144911892 0 0.39758705768009039 -0.26513539966433242 0 0.41671053559038562 -0.25179808144911892 0 0.4215090867547131 -0.26382619652771799 0 0.41671053559038562 -0.25179808144911892 0 0.4215090867547131 -0.26382619652771799 0 0.41671053559038562 -0.25179808144911892 0 0.42595494182858418 -0.25217004518264619 0 0.42400063179892361 -0.24671373782663741 0 0.41671053559038562 -0.25179808144911892 0 0.42595494182858418 -0.25217004518264619 0 0.4215090867547131 -0.26382619652771799 0 0.42595494182858418 -0.25217004518264619 0 0.4306948105348658 -0.26059850433367138 0 0.4215090867547131 -0.26382619652771799 0 0.4306948105348658 -0.26059850433367138 0 0.43259519766748078 -0.27058611875672062 0 0.4215090867547131 -0.26382619652771799 0 0.42595494182858418 -0.25217004518264619 0 0.43950349837340719 -0.26370616200899127 0 0.4306948105348658 -0.26059850433367138 0 0.43458929613580138 -0.25455003190631298 0 0.43950349837340719 -0.26370616200899127 0 0.4306948105348658 -0.26059850433367138 0 0.43259519766748078 -0.27058611875672062 0 0.43532460426376501 -0.2460158579993926 0 0.42595494182858418 -0.25217004518264619 0 0.43458929613580138 -0.25455003190631298 0 0.42595494182858418 -0.25217004518264619 0 0.4306948105348658 -0.26059850433367138 0 0.43458929613580138 -0.25455003190631298 0 0.4215090867547131 -0.26382619652771799 0 0.43144884585498972 -0.28874133491376092 0 0.4215090867547131 -0.26382619652771799 0 0.43259519766748078 -0.27058611875672062 0 0.43144884585498972 -0.28874133491376092 0 0.43981974681942798 -0.27605839599946091 0 0.43259519766748078 -0.27058611875672062 0 0.43144884585498972 -0.28874133491376092 0 0.43981974681942798 -0.27605839599946091 0 0.43950349837340719 -0.26370616200899127 0 0.43259519766748078 -0.27058611875672062 0 0.43144884585498972 -0.28874133491376092 0 0.42442647499788749 -0.30319778682025728 0 0.41862539863651232 -0.29536980068881441 0 0.4413886049552691 -0.31365647329980262 0 0.43144884585498972 -0.28874133491376092 0 0.42442647499788749 -0.30319778682025728 0 0.4413886049552691 -0.31365647329980262 0 0.43144884585498972 -0.28874133491376092 0 0.4413886049552691 -0.31365647329980262 0 0.41973205104563049 -0.31856870344666521 0 0.42442647499788749 -0.30319778682025728 0 0.41973205104563049 -0.31856870344666521 0 0.42442647499788749 -0.30319778682025728 0 0.40858455586654679 -0.29771175635669728 0 0.41973205104563049 -0.31856870344666521 0 0.40858455586654679 -0.29771175635669728 0 0.41973205104563049 -0.31856870344666521 0 0.40310396582105168 -0.31208077783156862 0 0.40858455586654679 -0.29771175635669728 0 0.42442647499788749 -0.30319778682025728 0 0.40858455586654679 -0.29771175635669728 0 0.41862539863651232 -0.29536980068881441 0 0.40858455586654679 -0.29771175635669728 0 0.41230652628788339 -0.28795348717964381 0 0.40858455586654679 -0.29771175635669728 0 0.41230652628788339 -0.28795348717964381 0 0.41862539863651232 -0.29536980068881441 0 0.43144884585498972 -0.28874133491376092 0 0.41230652628788339 -0.28795348717964381 0 0.41862539863651232 -0.29536980068881441 0 0.46856739152332061 -0.47138341292044522 0 0.5 -0.5 0 0.43352877439350768 -0.5 0 0.46856739152332061 -0.47138341292044522 0 0.44171814154889161 -0.45487113992204048 0 0.43352877439350768 -0.5 0 0.46856739152332061 -0.47138341292044522 0 0.5 -0.5 0 0.5 -0.45036122420680308 0 0.46856739152332061 -0.47138341292044522 0 0.5 -0.45036122420680308 0 0.46391450935665018 -0.43840797040159291 0 0.46856739152332061 -0.47138341292044522 0 0.46391450935665018 -0.43840797040159291 0 0.44171814154889161 -0.45487113992204048 0 0.46391450935665018 -0.43840797040159291 0 0.44171814154889161 -0.45487113992204048 0 0.4359149320574679 -0.42682054516089729 0 0.46391450935665018 -0.43840797040159291 0 0.45704383756855887 -0.40852568145111862 0 0.4359149320574679 -0.42682054516089729 0 0.45704383756855887 -0.40852568145111862 0 0.4359149320574679 -0.42682054516089729 0 0.44396832360534982 -0.40683384994410582 0 0.43363697482200708 -0.40487225900324109 0 0.4359149320574679 -0.42682054516089729 0 0.44396832360534982 -0.40683384994410582 0 0.45704383756855887 -0.40852568145111862 0 0.4359149320574679 -0.42682054516089729 0 0.46391450935665018 -0.43840797040159291 0 0.45704383756855887 -0.40852568145111862 0 0.4798262180009718 -0.4200734574504883 0 0.5 -0.45036122420680308 0 0.46391450935665018 -0.43840797040159291 0 0.4798262180009718 -0.4200734574504883 0 0.5 -0.45036122420680308 0 0.5 -0.41284159345158639 0 0.4798262180009718 -0.4200734574504883 0 0.5 -0.41284159345158639 0 0.4798262180009718 -0.4200734574504883 0 0.47817274307964991 -0.39023081774133989 0 0.45704383756855887 -0.40852568145111862 0 0.4798262180009718 -0.4200734574504883 0 0.47817274307964991 -0.39023081774133989 0 0.5 -0.41284159345158639 0 0.49999999999999989 -0.3844801236310833 0 0.47817274307964991 -0.39023081774133989 0 0.49930164859074022 -0.37193595403156038 0 0.48116443312914031 -0.37233992902099888 0 0.47817274307964991 -0.39023081774133989 0 0.49930164859074022 -0.37193595403156038 0 0.49999999999999989 -0.3844801236310833 0 0.47817274307964991 -0.39023081774133989 0 0.49930164859074022 -0.37193595403156038 0 0.47817274307964991 -0.39023081774133989 0 0.48116443312914031 -0.37233992902099888 0 0.47817274307964991 -0.39023081774133989 0 0.46559549653354898 -0.38107836730110878 0 0.47817274307964991 -0.39023081774133989 0 0.46559549653354898 -0.38107836730110878 0 0.45770084702167269 -0.39309855714307967 0 0.45770084702167269 -0.39309855714307967 0 0.45159631706915582 -0.39676097990778092 0 0.45123068784215292 -0.38039812762863318 0 0.46088311611911092 -0.37312160216082801 0 0.46559549653354898 -0.38107836730110878 0 0.45123068784215292 -0.38039812762863318 0 0.45770084702167269 -0.39309855714307967 0 0.45123068784215292 -0.38039812762863318 0 0.46559549653354898 -0.38107836730110878 0 0.45770084702167269 -0.39309855714307967 0 0.45123068784215292 -0.38039812762863318 0 0.45704383756855887 -0.40852568145111862 0 0.47817274307964991 -0.39023081774133989 0 0.45704383756855887 -0.40852568145111862 0 0.47817274307964991 -0.39023081774133989 0 0.45770084702167269 -0.39309855714307967 0 0.45704383756855887 -0.40852568145111862 0 0.45770084702167269 -0.39309855714307967 0 0.45159631706915582 -0.39676097990778092 0 0.44396832360534982 -0.40683384994410582 0 0.45159631706915582 -0.39676097990778092 0 0.44164955650955973 -0.39718978419749101 0 0.44396832360534982 -0.40683384994410582 0 0.45704383756855887 -0.40852568145111862 0 0.45159631706915582 -0.39676097990778092 0 0.44396832360534982 -0.40683384994410582 0 0.44164955650955973 -0.39718978419749101 0 0.43363697482200708 -0.40487225900324109 0 0.44164955650955973 -0.39718978419749101 0 0.44163593123879102 -0.38681675720678471 0 0.43330667948663709 -0.39196243253810309 0 0.45159631706915582 -0.39676097990778092 0 0.44164955650955973 -0.39718978419749101 0 0.44163593123879102 -0.38681675720678471 0 0.45159631706915582 -0.39676097990778092 0 0.45123068784215292 -0.38039812762863318 0 0.45159631706915582 -0.39676097990778092 0 0.44163593123879102 -0.38681675720678471 0 0.45123068784215292 -0.38039812762863318 0 0.43916938855457222 -0.37362281887085852 0 0.44163593123879102 -0.38681675720678471 0 0.43267609445335692 -0.3804944804787847 0 0.43916938855457222 -0.37362281887085852 0 0.44163593123879102 -0.38681675720678471 0 0.45123068784215292 -0.38039812762863318 0 0.4229722790167712 -0.38245537923423872 0 0.43267609445335692 -0.3804944804787847 0 0.43330667948663709 -0.39196243253810309 0 0.4229722790167712 -0.38245537923423872 0 0.43330667948663709 -0.39196243253810309 0 0.42113981882739182 -0.3955853470869925 0 0.42606065878879418 -0.3714946162826479 0 0.4229722790167712 -0.38245537923423872 0 0.43267609445335692 -0.3804944804787847 0 0.43916938855457222 -0.37362281887085852 0 0.42606065878879418 -0.3714946162826479 0 0.43267609445335692 -0.3804944804787847 0 0.44163593123879102 -0.38681675720678471 0 0.43267609445335692 -0.3804944804787847 0 0.43330667948663709 -0.39196243253810309 0 0.44164955650955973 -0.39718978419749101 0 0.43330667948663709 -0.39196243253810309 0 0.43363697482200708 -0.40487225900324109 0 0.43363697482200708 -0.40487225900324109 0 0.42113981882739182 -0.3955853470869925 0 0.42160118843188821 -0.41085878272312981 0 0.43330667948663709 -0.39196243253810309 0 0.43363697482200708 -0.40487225900324109 0 0.42113981882739182 -0.3955853470869925 0 0.42113981882739182 -0.3955853470869925 0 0.40633062439975948 -0.40092002942492561 0 0.42160118843188821 -0.41085878272312981 0 0.42113981882739182 -0.3955853470869925 0 0.40633062439975948 -0.40092002942492561 0 0.4118710931323939 -0.38533351412702233 0 0.4229722790167712 -0.38245537923423872 0 0.42113981882739182 -0.3955853470869925 0 0.4118710931323939 -0.38533351412702233 0 0.41273025958263332 -0.37067013525411291 0 0.4229722790167712 -0.38245537923423872 0 0.4118710931323939 -0.38533351412702233 0 0.41273025958263332 -0.37067013525411291 0 0.4118710931323939 -0.38533351412702233 0 0.40456610974079871 -0.37796430622437821 0 0.40456610974079871 -0.37796430622437821 0 0.39965190165507453 -0.38756441170527139 0 0.39540771361069338 -0.37743696221084561 0 0.4118710931323939 -0.38533351412702233 0 0.40456610974079871 -0.37796430622437821 0 0.39965190165507453 -0.38756441170527139 0 0.39965190165507453 -0.38756441170527139 0 0.39540771361069338 -0.37743696221084561 0 0.3885883612983001 -0.38594487763067448 0 0.39965190165507453 -0.38756441170527139 0 0.3885883612983001 -0.38594487763067448 0 0.3911475077485016 -0.39778678061378248 0 0.38858811793443843 -0.37478139525663529 0 0.39540771361069338 -0.37743696221084561 0 0.3885883612983001 -0.38594487763067448 0 0.38858811793443843 -0.37478139525663529 0 0.3885883612983001 -0.38594487763067448 0 0.37549628442055649 -0.38446264978734329 0 0.3885883612983001 -0.38594487763067448 0 0.37549628442055649 -0.38446264978734329 0 0.37935681853712688 -0.39889960707608191 0 0.37935681853712688 -0.39889960707608191 0 0.3911475077485016 -0.39778678061378248 0 0.39048899687318589 -0.41795236813227238 0 0.3885883612983001 -0.38594487763067448 0 0.37935681853712688 -0.39889960707608191 0 0.3911475077485016 -0.39778678061378248 0 0.40633062439975948 -0.40092002942492561 0 0.3911475077485016 -0.39778678061378248 0 0.39048899687318589 -0.41795236813227238 0 0.40633062439975948 -0.40092002942492561 0 0.4118710931323939 -0.38533351412702233 0 0.39965190165507453 -0.38756441170527139 0 0.40633062439975948 -0.40092002942492561 0 0.39965190165507453 -0.38756441170527139 0 0.3911475077485016 -0.39778678061378248 0 0.40633062439975948 -0.40092002942492561 0 0.39048899687318589 -0.41795236813227238 0 0.40884579218581613 -0.42528158950364592 0 0.39048899687318589 -0.41795236813227238 0 0.37548337450279867 -0.42840129688791501 0 0.3607518234764191 -0.4191529296869318 0 0.37935681853712688 -0.39889960707608191 0 0.39048899687318589 -0.41795236813227238 0 0.36629372395372473 -0.40858994043926822 0 0.39048899687318589 -0.41795236813227238 0 0.3607518234764191 -0.4191529296869318 0 0.37548337450279867 -0.42840129688791501 0 0.38829900876450518 -0.43881993842227229 0 0.3724987380473973 -0.43811057589302699 0 0.39048899687318589 -0.41795236813227238 0 0.37548337450279867 -0.42840129688791501 0 0.38829900876450518 -0.43881993842227229 0 0.39048899687318589 -0.41795236813227238 0 0.40884579218581613 -0.42528158950364592 0 0.38829900876450518 -0.43881993842227229 0 0.40884579218581613 -0.42528158950364592 0 0.41478602654637681 -0.44511540887067608 0 0.38829900876450518 -0.43881993842227229 0 0.40884579218581613 -0.42528158950364592 0 0.4359149320574679 -0.42682054516089729 0 0.41478602654637681 -0.44511540887067608 0 0.40633062439975948 -0.40092002942492561 0 0.40884579218581613 -0.42528158950364592 0 0.42160118843188821 -0.41085878272312981 0 0.40884579218581613 -0.42528158950364592 0 0.42160118843188821 -0.41085878272312981 0 0.4359149320574679 -0.42682054516089729 0 0.43363697482200708 -0.40487225900324109 0 0.42160118843188821 -0.41085878272312981 0 0.4359149320574679 -0.42682054516089729 0 0.4359149320574679 -0.42682054516089729 0 0.41478602654637681 -0.44511540887067608 0 0.43352877439350768 -0.5 0 0.35139931001309971 -0.50000000000000799 0 0.37252821552419457 -0.4817051362902337 0 0.44171814154889161 -0.45487113992204048 0 0.4359149320574679 -0.42682054516089729 0 0.41478602654637681 -0.44511540887067608 0 0.44171814154889161 -0.45487113992204048 0 0.41478602654637681 -0.44511540887067608 0 0.41777522129345529 -0.47164651894870752 0 0.41478602654637681 -0.44511540887067608 0 0.39365712103528572 -0.46341027258045492 0 0.41777522129345529 -0.47164651894870752 0 0.41478602654637681 -0.44511540887067608 0 0.38829900876450518 -0.43881993842227229 0 0.39365712103528572 -0.46341027258045492 0 0.38829900876450518 -0.43881993842227229 0 0.37232265437563961 -0.45385461658856169 0 0.3724987380473973 -0.43811057589302699 0 0.38829900876450518 -0.43881993842227229 0 0.39365712103528572 -0.46341027258045492 0 0.37232265437563961 -0.45385461658856169 0 0.39365712103528572 -0.46341027258045492 0 0.37252821552419457 -0.4817051362902337 0 0.37232265437563961 -0.45385461658856169 0 0.41478602654637681 -0.44511540887067608 0 0.39365712103528572 -0.46341027258045492 0 0.39365712103528572 -0.46341027258045492 0 0.41777522129345529 -0.47164651894870752 0 0.37252821552419457 -0.4817051362902337 0 0.39365712103528572 -0.46341027258045492 0 0.37252821552419457 -0.4817051362902337 0 0.44171814154889161 -0.45487113992204048 0 0.43352877439350768 -0.5 0 0.41777522129345529 -0.47164651894870752 0 0.43352877439350768 -0.5 0 0.41777522129345529 -0.47164651894870752 0 0.37252821552419457 -0.4817051362902337 0 0.32056733686174721 -0.48964886063509028 0 0.32624616512545312 -0.5 0 0.31007391207358947 -0.49720625399739948 0 0.32056733686174721 -0.48964886063509028 0 0.31265939059256032 -0.4808735391469956 0 0.31007391207358947 -0.49720625399739948 0 0.32056733686174721 -0.48964886063509028 0 0.32438778864029721 -0.47685849291225452 0 0.3346382262376521 -0.48729374572087208 0 0.32056733686174721 -0.48964886063509028 0 0.32624616512545312 -0.5 0 0.3346382262376521 -0.48729374572087208 0 0.32056733686174721 -0.48964886063509028 0 0.31265939059256032 -0.4808735391469956 0 0.32438778864029721 -0.47685849291225452 0 0.31265939059256032 -0.4808735391469956 0 0.32438778864029721 -0.47685849291225452 0 0.31336321830030611 -0.46770634080847612 0 0.32438778864029721 -0.47685849291225452 0 0.3346382262376521 -0.48729374572087208 0 0.34435712771744142 -0.47533890257284772 0 0.32438778864029721 -0.47685849291225452 0 0.34435712771744142 -0.47533890257284772 0 0.32782215655366692 -0.45991027968836168 0 0.3346382262376521 -0.48729374572087208 0 0.35139931001309971 -0.50000000000000799 0 0.34435712771744142 -0.47533890257284772 0 0.32624616512545312 -0.5 0 0.3346382262376521 -0.48729374572087208 0 0.35139931001309971 -0.50000000000000799 0 0.35139931001309971 -0.50000000000000799 0 0.37252821552419457 -0.4817051362902337 0 0.34435712771744142 -0.47533890257284772 0 0.35139931001309971 -0.50000000000000799 0 0.37252821552419457 -0.4817051362902337 0 0.37252821552419457 -0.4817051362902337 0 0.34435712771744142 -0.47533890257284772 0 0.35386555560878702 -0.45887549078399897 0 0.34435712771744142 -0.47533890257284772 0 0.35386555560878702 -0.45887549078399897 0 0.34078407870123389 -0.45399132091730038 0 0.37252821552419457 -0.4817051362902337 0 0.35386555560878702 -0.45887549078399897 0 0.37232265437563961 -0.45385461658856169 0 0.37232265437563961 -0.45385461658856169 0 0.3724987380473973 -0.43811057589302699 0 0.35964418176794521 -0.44194827065919251 0 0.35386555560878702 -0.45887549078399897 0 0.37232265437563961 -0.45385461658856169 0 0.35964418176794521 -0.44194827065919251 0 0.35386555560878702 -0.45887549078399897 0 0.34541968474936419 -0.44255233216769491 0 0.34078407870123389 -0.45399132091730038 0 0.35964418176794521 -0.44194827065919251 0 0.34541968474936419 -0.44255233216769491 0 0.35040522234628729 -0.43050717115664061 0 0.35386555560878702 -0.45887549078399897 0 0.35964418176794521 -0.44194827065919251 0 0.34541968474936419 -0.44255233216769491 0 0.34541968474936419 -0.44255233216769491 0 0.33129456182674411 -0.44585293566203821 0 0.33626246234743967 -0.43488315202843131 0 0.33129456182674411 -0.44585293566203821 0 0.32181918499864748 -0.43520469634077752 0 0.33626246234743967 -0.43488315202843131 0 0.34541968474936419 -0.44255233216769491 0 0.33129456182674411 -0.44585293566203821 0 0.34078407870123389 -0.45399132091730038 0 0.34435712771744142 -0.47533890257284772 0 0.34078407870123389 -0.45399132091730038 0 0.32782215655366692 -0.45991027968836168 0 0.33129456182674411 -0.44585293566203821 0 0.34078407870123389 -0.45399132091730038 0 0.32782215655366692 -0.45991027968836168 0 0.32438778864029721 -0.47685849291225452 0 0.32782215655366692 -0.45991027968836168 0 0.31336321830030611 -0.46770634080847612 0 0.32782215655366692 -0.45991027968836168 0 0.31336321830030611 -0.46770634080847612 0 0.31126471218114121 -0.45011076786655119 0 0.32782215655366692 -0.45991027968836168 0 0.31126471218114121 -0.45011076786655119 0 0.33129456182674411 -0.44585293566203821 0 0.32181918499864748 -0.43520469634077752 0 0.31126471218114121 -0.45011076786655119 0 0.33129456182674411 -0.44585293566203821 0 0.32782215655366692 -0.45991027968836168 0 0.31126471218114121 -0.45011076786655119 0 0.32181918499864748 -0.43520469634077752 0 0.3083093359432531 -0.4357570665023528 0 0.31126471218114121 -0.45011076786655119 0 0.32181918499864748 -0.43520469634077752 0 0.31126471218114121 -0.45011076786655119 0 0.32181918499864748 -0.43520469634077752 0 0.3144704070371736 -0.42102142231502199 0 0.3323736578161568 -0.42029862481500602 0 0.32181918499864748 -0.43520469634077752 0 0.3323736578161568 -0.42029862481500602 0 0.32181918499864748 -0.43520469634077752 0 0.3144704070371736 -0.42102142231502199 0 0.3083093359432531 -0.4357570665023528 0 0.3144704070371736 -0.42102142231502199 0 0.3323736578161568 -0.42029862481500602 0 0.31771862418106628 -0.40725394573873303 0 0.3323736578161568 -0.42029862481500602 0 0.33041102023925872 -0.40181641043478139 0 0.3144704070371736 -0.42102142231502199 0 0.31771862418106628 -0.40725394573873303 0 0.3323736578161568 -0.42029862481500602 0 0.3323736578161568 -0.42029862481500602 0 0.3490188236464663 -0.3967906735686495 0 0.33041102023925872 -0.40181641043478139 0 0.3323736578161568 -0.42029862481500602 0 0.3490188236464663 -0.3967906735686495 0 0.3323736578161568 -0.42029862481500602 0 0.33626246234743967 -0.43488315202843131 0 0.35040522234628729 -0.43050717115664061 0 0.32181918499864748 -0.43520469634077752 0 0.3323736578161568 -0.42029862481500602 0 0.33626246234743967 -0.43488315202843131 0 0.34541968474936419 -0.44255233216769491 0 0.33626246234743967 -0.43488315202843131 0 0.35040522234628729 -0.43050717115664061 0 0.3323736578161568 -0.42029862481500602 0 0.35040522234628729 -0.43050717115664061 0 0.3607518234764191 -0.4191529296869318 0 0.35040522234628729 -0.43050717115664061 0 0.36537830535248578 -0.42797067230507191 0 0.3607518234764191 -0.4191529296869318 0 0.35964418176794521 -0.44194827065919251 0 0.35040522234628729 -0.43050717115664061 0 0.36537830535248578 -0.42797067230507191 0 0.3724987380473973 -0.43811057589302699 0 0.35964418176794521 -0.44194827065919251 0 0.36537830535248578 -0.42797067230507191 0 0.36537830535248578 -0.42797067230507191 0 0.3607518234764191 -0.4191529296869318 0 0.37548337450279867 -0.42840129688791501 0 0.36537830535248578 -0.42797067230507191 0 0.3607518234764191 -0.4191529296869318 0 0.37548337450279867 -0.42840129688791501 0 0.3724987380473973 -0.43811057589302699 0 0.36537830535248578 -0.42797067230507191 0 0.3607518234764191 -0.4191529296869318 0 0.36629372395372473 -0.40858994043926822 0 0.3599451611117373 -0.40124292018579832 0 0.39048899687318589 -0.41795236813227238 0 0.3607518234764191 -0.4191529296869318 0 0.36629372395372473 -0.40858994043926822 0 0.3323736578161568 -0.42029862481500602 0 0.3607518234764191 -0.4191529296869318 0 0.3490188236464663 -0.3967906735686495 0 0.3323736578161568 -0.42029862481500602 0 0.3607518234764191 -0.4191529296869318 0 0.3607518234764191 -0.4191529296869318 0 0.3490188236464663 -0.3967906735686495 0 0.3607518234764191 -0.4191529296869318 0 0.3490188236464663 -0.3967906735686495 0 0.3599451611117373 -0.40124292018579832 0 0.3490188236464663 -0.3967906735686495 0 0.35520600299253141 -0.38805252629499098 0 0.3490188236464663 -0.3967906735686495 0 0.3599451611117373 -0.40124292018579832 0 0.35520600299253141 -0.38805252629499098 0 0.37549628442055649 -0.38446264978734329 0 0.36629372395372473 -0.40858994043926822 0 0.36845543148954357 -0.39362853093915051 0 0.37549628442055649 -0.38446264978734329 0 0.37935681853712688 -0.39889960707608191 0 0.36629372395372473 -0.40858994043926822 0 0.36629372395372473 -0.40858994043926822 0 0.3599451611117373 -0.40124292018579832 0 0.36845543148954357 -0.39362853093915051 0 0.37549628442055649 -0.38446264978734329 0 0.36629372395372473 -0.40858994043926822 0 0.36845543148954357 -0.39362853093915051 0 0.35520600299253141 -0.38805252629499098 0 0.3599451611117373 -0.40124292018579832 0 0.36845543148954357 -0.39362853093915051 0 0.35520600299253141 -0.38805252629499098 0 0.37549628442055649 -0.38446264978734329 0 0.37242863952391181 -0.37555121513872047 0 0.36429298253496822 -0.38498981470370092 0 0.37549628442055649 -0.38446264978734329 0 0.36845543148954357 -0.39362853093915051 0 0.36429298253496822 -0.38498981470370092 0 0.36429298253496822 -0.38498981470370092 0 0.36416379075267502 -0.37540145149721582 0 0.35520600299253141 -0.38805252629499098 0 0.36845543148954357 -0.39362853093915051 0 0.36429298253496822 -0.38498981470370092 0 0.35520600299253141 -0.38805252629499098 0 0.36416379075267502 -0.37540145149721582 0 0.35520600299253141 -0.38805252629499098 0 0.37242863952391181 -0.37555121513872047 0 0.36429298253496822 -0.38498981470370092 0 0.36416379075267502 -0.37540145149721582 0 0.36416379075267502 -0.37540145149721582 0 0.35289675037090312 -0.37859743212683211 0 0.35520600299253141 -0.38805252629499098 0 0.35289675037090312 -0.37859743212683211 0 0.35520600299253141 -0.38805252629499098 0 0.34138151334009348 -0.38223450791612301 0 0.3490188236464663 -0.3967906735686495 0 0.35520600299253141 -0.38805252629499098 0 0.34138151334009348 -0.38223450791612301 0 0.35520600299253141 -0.38805252629499098 0 0.34138151334009348 -0.38223450791612301 0 0.3490188236464663 -0.3967906735686495 0 0.34138151334009348 -0.38223450791612301 0 0.35289675037090312 -0.37859743212683211 0 0.34138151334009348 -0.38223450791612301 0 0.35083569439831191 -0.36870124279900002 0 0.34138151334009348 -0.38223450791612301 0 0.3319056956646585 -0.39042564581702499 0 0.31623547556305071 -0.37165183082490788 0 0.34138151334009348 -0.38223450791612301 0 0.31623547556305071 -0.37165183082490788 0 0.3490188236464663 -0.3967906735686495 0 0.34138151334009348 -0.38223450791612301 0 0.3319056956646585 -0.39042564581702499 0 0.3490188236464663 -0.3967906735686495 0 0.3319056956646585 -0.39042564581702499 0 0.33041102023925872 -0.40181641043478139 0 0.31771862418106628 -0.40725394573873303 0 0.32103829988794558 -0.39431316223449348 0 0.30596787319302171 -0.390895282270947 0 0.3319056956646585 -0.39042564581702499 0 0.33041102023925872 -0.40181641043478139 0 0.32103829988794558 -0.39431316223449348 0 0.31771862418106628 -0.40725394573873303 0 0.33041102023925872 -0.40181641043478139 0 0.32103829988794558 -0.39431316223449348 0 0.3319056956646585 -0.39042564581702499 0 0.32103829988794558 -0.39431316223449348 0 0.31623547556305071 -0.37165183082490788 0 0.32103829988794558 -0.39431316223449348 0 0.30596787319302171 -0.390895282270947 0 0.31623547556305071 -0.37165183082490788 0 0.30596787319302171 -0.390895282270947 0 0.29535170876549521 -0.37816480645353728 0 0.31623547556305071 -0.37165183082490788 0 0.30596787319302171 -0.390895282270947 0 0.29450990563430451 -0.38968532847873649 0 0.29535170876549521 -0.37816480645353728 0 0.30596787319302171 -0.390895282270947 0 0.29731567157365107 -0.39770812900888308 0 0.30444779147891848 -0.40657427859296658 0 0.31771862418106628 -0.40725394573873303 0 0.30596787319302171 -0.390895282270947 0 0.30444779147891848 -0.40657427859296658 0 0.29731567157365107 -0.39770812900888308 0 0.29366379664604297 -0.40663821166536568 0 0.30444779147891848 -0.40657427859296658 0 0.30596787319302171 -0.390895282270947 0 0.29731567157365107 -0.39770812900888308 0 0.29450990563430451 -0.38968532847873649 0 0.29731567157365107 -0.39770812900888308 0 0.28894995372848409 -0.39651127404197878 0 0.29450990563430451 -0.38968532847873649 0 0.29731567157365107 -0.39770812900888308 0 0.28894995372848409 -0.39651127404197878 0 0.29366379664604297 -0.40663821166536568 0 0.28894995372848409 -0.39651127404197878 0 0.2815092983686337 -0.40710072550750348 0 0.29366379664604297 -0.40663821166536568 0 0.28894995372848409 -0.39651127404197878 0 0.27616815359807662 -0.39439336948851023 0 0.2815092983686337 -0.40710072550750348 0 0.28894995372848409 -0.39651127404197878 0 0.28496432091087037 -0.38514715061833621 0 0.27616815359807662 -0.39439336948851023 0 0.28894995372848409 -0.39651127404197878 0 0.28496432091087037 -0.38514715061833621 0 0.29450990563430451 -0.38968532847873649 0 0.28496432091087037 -0.38514715061833621 0 0.29450990563430451 -0.38968532847873649 0 0.29535170876549521 -0.37816480645353728 0 0.28496432091087037 -0.38514715061833621 0 0.29535170876549521 -0.37816480645353728 0 0.28177906844467188 -0.37331109614804658 0 0.28496432091087037 -0.38514715061833621 0 0.27417348254937129 -0.38194079516095197 0 0.28177906844467188 -0.37331109614804658 0 0.27417348254937129 -0.38194079516095197 0 0.28177906844467188 -0.37331109614804658 0 0.26962957393813108 -0.37145162001575421 0 0.28496432091087037 -0.38514715061833621 0 0.27417348254937129 -0.38194079516095197 0 0.27616815359807662 -0.39439336948851023 0 0.27417348254937129 -0.38194079516095197 0 0.26499543035128209 -0.38662700064025812 0 0.27616815359807662 -0.39439336948851023 0 0.27417348254937129 -0.38194079516095197 0 0.25917113102860018 -0.37807428704217833 0 0.26499543035128209 -0.38662700064025812 0 0.27417348254937129 -0.38194079516095197 0 0.25917113102860018 -0.37807428704217833 0 0.26962957393813108 -0.37145162001575421 0 0.25917113102860018 -0.37807428704217833 0 0.26499543035128209 -0.38662700064025812 0 0.25624724933655108 -0.39128642178475592 0 0.25917113102860018 -0.37807428704217833 0 0.25624724933655108 -0.39128642178475592 0 0.24734391795286381 -0.38441917376600698 0 0.25624724933655108 -0.39128642178475592 0 0.25981884882988138 -0.40398287739287808 0 0.2491629991534493 -0.40150080443638358 0 0.25624724933655108 -0.39128642178475592 0 0.25981884882988138 -0.40398287739287808 0 0.26566283660620382 -0.3962874570397894 0 0.26499543035128209 -0.38662700064025812 0 0.25624724933655108 -0.39128642178475592 0 0.26566283660620382 -0.3962874570397894 0 0.27153816795931468 -0.40577031629477522 0 0.26566283660620382 -0.3962874570397894 0 0.27616815359807662 -0.39439336948851023 0 0.25981884882988138 -0.40398287739287808 0 0.27153816795931468 -0.40577031629477522 0 0.26566283660620382 -0.3962874570397894 0 0.26499543035128209 -0.38662700064025812 0 0.26566283660620382 -0.3962874570397894 0 0.27616815359807662 -0.39439336948851023 0 0.27153816795931468 -0.40577031629477522 0 0.27616815359807662 -0.39439336948851023 0 0.2815092983686337 -0.40710072550750348 0 0.27439446467920658 -0.41276222724855249 0 0.27955027561715462 -0.41724549304455028 0 0.2815092983686337 -0.40710072550750348 0 0.27153816795931468 -0.40577031629477522 0 0.27439446467920658 -0.41276222724855249 0 0.2815092983686337 -0.40710072550750348 0 0.27955027561715462 -0.41724549304455028 0 0.27763057560152132 -0.4223548138795396 0 0.28361350279284969 -0.42144012080746879 0 0.27439446467920658 -0.41276222724855249 0 0.27955027561715462 -0.41724549304455028 0 0.27303659032236482 -0.41922001595279001 0 0.27955027561715462 -0.41724549304455028 0 0.27303659032236482 -0.41922001595279001 0 0.27763057560152132 -0.4223548138795396 0 0.26633799112856538 -0.41447458544314342 0 0.27303659032236482 -0.41922001595279001 0 0.27097215381067702 -0.4264213842037935 0 0.27439446467920658 -0.41276222724855249 0 0.26633799112856538 -0.41447458544314342 0 0.27303659032236482 -0.41922001595279001 0 0.25981884882988138 -0.40398287739287808 0 0.27153816795931468 -0.40577031629477522 0 0.26633799112856538 -0.41447458544314342 0 0.27153816795931468 -0.40577031629477522 0 0.27439446467920658 -0.41276222724855249 0 0.26633799112856538 -0.41447458544314342 0 0.26633799112856538 -0.41447458544314342 0 0.27097215381067702 -0.4264213842037935 0 0.24974699242630519 -0.41370154864014491 0 0.25981884882988138 -0.40398287739287808 0 0.26633799112856538 -0.41447458544314342 0 0.24974699242630519 -0.41370154864014491 0 0.27097215381067702 -0.4264213842037935 0 0.24974699242630519 -0.41370154864014491 0 0.25981884882988138 -0.40398287739287808 0 0.24974699242630519 -0.41370154864014491 0 0.2491629991534493 -0.40150080443638358 0 0.26063297104264288 -0.42585595616586541 0 0.27097215381067702 -0.4264213842037935 0 0.24974699242630519 -0.41370154864014491 0 0.25055220863009692 -0.42848970676854908 0 0.2639577585467161 -0.43270764679546181 0 0.25753091473130918 -0.43980992396812418 0 0.25055220863009692 -0.42848970676854908 0 0.25753091473130918 -0.43980992396812418 0 0.24325533924919579 -0.44161904974508898 0 0.25055220863009692 -0.42848970676854908 0 0.26063297104264288 -0.42585595616586541 0 0.24974699242630519 -0.41370154864014491 0 0.25055220863009692 -0.42848970676854908 0 0.26063297104264288 -0.42585595616586541 0 0.2639577585467161 -0.43270764679546181 0 0.26063297104264288 -0.42585595616586541 0 0.2639577585467161 -0.43270764679546181 0 0.26764215056028551 -0.42901441774765942 0 0.2639577585467161 -0.43270764679546181 0 0.26708825074498449 -0.43717353628010708 0 0.25753091473130918 -0.43980992396812418 0 0.27097215381067702 -0.4264213842037935 0 0.29075880559619582 -0.43797436145774932 0 0.2639577585467161 -0.43270764679546181 0 0.26708825074498449 -0.43717353628010708 0 0.26927057340000271 -0.4324143928931683 0 0.27066355849006318 -0.42991932500225288 0 0.27097215381067702 -0.4264213842037935 0 0.27357090814651858 -0.43504459727457162 0 0.27097215381067702 -0.4264213842037935 0 0.27357090814651858 -0.43504459727457162 0 0.2834768419446877 -0.44905828752215771 0 0.2639577585467161 -0.43270764679546181 0 0.26927057340000271 -0.4324143928931683 0 0.26764215056028551 -0.42901441774765942 0 0.26927057340000271 -0.4324143928931683 0 0.27066355849006318 -0.42991932500225288 0 0.26764215056028551 -0.42901441774765942 0 0.26927057340000271 -0.4324143928931683 0 0.27066355849006318 -0.42991932500225288 0 0.27357090814651858 -0.43504459727457162 0 0.26708825074498449 -0.43717353628010708 0 0.27357090814651858 -0.43504459727457162 0 0.27027744776249618 -0.43958811483667659 0 0.26708825074498449 -0.43717353628010708 0 0.26927057340000271 -0.4324143928931683 0 0.27357090814651858 -0.43504459727457162 0 0.26063297104264288 -0.42585595616586541 0 0.26764215056028551 -0.42901441774765942 0 0.27097215381067702 -0.4264213842037935 0 0.27066355849006318 -0.42991932500225288 0 0.26764215056028551 -0.42901441774765942 0 0.26999857296554741 -0.42785608700574518 0 0.27066355849006318 -0.42991932500225288 0 0.26999857296554741 -0.42785608700574518 0 0.27097215381067702 -0.4264213842037935 0 0.26764215056028551 -0.42901441774765942 0 0.26999857296554741 -0.42785608700574518 0 0.27097215381067702 -0.4264213842037935 0 0.27097215381067702 -0.4264213842037935 0 0.27763057560152132 -0.4223548138795396 0 0.2824924724951976 -0.42746281048118689 0 0.27303659032236482 -0.41922001595279001 0 0.27097215381067702 -0.4264213842037935 0 0.27763057560152132 -0.4223548138795396 0 0.27763057560152132 -0.4223548138795396 0 0.2824924724951976 -0.42746281048118689 0 0.28361350279284969 -0.42144012080746879 0 0.29103081100320388 -0.42596206374315693 0 0.2824924724951976 -0.42746281048118689 0 0.29075880559619582 -0.43797436145774932 0 0.27097215381067702 -0.4264213842037935 0 0.2824924724951976 -0.42746281048118689 0 0.29075880559619582 -0.43797436145774932 0 0.29103081100320388 -0.42596206374315693 0 0.30093832001302112 -0.42770599611641319 0 0.29075880559619582 -0.43797436145774932 0 0.29103081100320388 -0.42596206374315693 0 0.2824924724951976 -0.42746281048118689 0 0.28361350279284969 -0.42144012080746879 0 0.27955027561715462 -0.41724549304455028 0 0.28361350279284969 -0.42144012080746879 0 0.28815447239797892 -0.41570953500653718 0 0.29103081100320388 -0.42596206374315693 0 0.28361350279284969 -0.42144012080746879 0 0.28815447239797892 -0.41570953500653718 0 0.28815447239797892 -0.41570953500653718 0 0.2815092983686337 -0.40710072550750348 0 0.29366379664604297 -0.40663821166536568 0 0.27955027561715462 -0.41724549304455028 0 0.28815447239797892 -0.41570953500653718 0 0.2815092983686337 -0.40710072550750348 0 0.28815447239797892 -0.41570953500653718 0 0.29366379664604297 -0.40663821166536568 0 0.29902992271380519 -0.41702185987915708 0 0.29103081100320388 -0.42596206374315693 0 0.28815447239797892 -0.41570953500653718 0 0.29902992271380519 -0.41702185987915708 0 0.29366379664604297 -0.40663821166536568 0 0.29902992271380519 -0.41702185987915708 0 0.30444779147891848 -0.40657427859296658 0 0.3144704070371736 -0.42102142231502199 0 0.31771862418106628 -0.40725394573873303 0 0.30444779147891848 -0.40657427859296658 0 0.3144704070371736 -0.42102142231502199 0 0.29902992271380519 -0.41702185987915708 0 0.30444779147891848 -0.40657427859296658 0 0.3144704070371736 -0.42102142231502199 0 0.29902992271380519 -0.41702185987915708 0 0.30093832001302112 -0.42770599611641319 0 0.3083093359432531 -0.4357570665023528 0 0.30093832001302112 -0.42770599611641319 0 0.29075880559619582 -0.43797436145774932 0 0.3144704070371736 -0.42102142231502199 0 0.3083093359432531 -0.4357570665023528 0 0.30093832001302112 -0.42770599611641319 0 0.29103081100320388 -0.42596206374315693 0 0.29902992271380519 -0.41702185987915708 0 0.30093832001302112 -0.42770599611641319 0 0.3083093359432531 -0.4357570665023528 0 0.31126471218114121 -0.45011076786655119 0 0.29075880559619582 -0.43797436145774932 0 0.31126471218114121 -0.45011076786655119 0 0.29075880559619582 -0.43797436145774932 0 0.31126471218114121 -0.45011076786655119 0 0.29565423478465269 -0.44835983485896702 0 0.29075880559619582 -0.43797436145774932 0 0.31126471218114121 -0.45011076786655119 0 0.29711657941658798 -0.45629592258941132 0 0.29565423478465269 -0.44835983485896702 0 0.31126471218114121 -0.45011076786655119 0 0.29711657941658798 -0.45629592258941132 0 0.29598153007869821 -0.47169519084052208 0 0.31336321830030611 -0.46770634080847612 0 0.31126471218114121 -0.45011076786655119 0 0.29598153007869821 -0.47169519084052208 0 0.31126471218114121 -0.45011076786655119 0 0.29598153007869821 -0.47169519084052208 0 0.2834768419446877 -0.44905828752215771 0 0.27957602047477081 -0.45991186036750198 0 0.29598153007869821 -0.47169519084052208 0 0.2834768419446877 -0.44905828752215771 0 0.29598153007869821 -0.47169519084052208 0 0.27957602047477081 -0.45991186036750198 0 0.27954497957318181 -0.46861725648546138 0 0.29598153007869821 -0.47169519084052208 0 0.29711657941658798 -0.45629592258941132 0 0.2834768419446877 -0.44905828752215771 0 0.29598153007869821 -0.47169519084052208 0 0.27097215381067702 -0.4264213842037935 0 0.2834768419446877 -0.44905828752215771 0 0.29075880559619582 -0.43797436145774932 0 0.29711657941658798 -0.45629592258941132 0 0.2834768419446877 -0.44905828752215771 0 0.29565423478465269 -0.44835983485896702 0 0.2834768419446877 -0.44905828752215771 0 0.29565423478465269 -0.44835983485896702 0 0.29075880559619582 -0.43797436145774932 0 0.27357090814651858 -0.43504459727457162 0 0.2834768419446877 -0.44905828752215771 0 0.27677428529051729 -0.44378246647296637 0 0.27097215381067702 -0.4264213842037935 0 0.2834768419446877 -0.44905828752215771 0 0.27357090814651858 -0.43504459727457162 0 0.27439129528981399 -0.44214757876530081 0 0.27677428529051729 -0.44378246647296637 0 0.27439129528981399 -0.44214757876530081 0 0.27677428529051729 -0.44378246647296637 0 0.275658095781049 -0.44887940232983542 0 0.2834768419446877 -0.44905828752215771 0 0.27677428529051729 -0.44378246647296637 0 0.275658095781049 -0.44887940232983542 0 0.2834768419446877 -0.44905828752215771 0 0.275658095781049 -0.44887940232983542 0 0.27957602047477081 -0.45991186036750198 0 0.27439129528981399 -0.44214757876530081 0 0.275658095781049 -0.44887940232983542 0 0.26605933686866762 -0.44398674702672741 0 0.27439129528981399 -0.44214757876530081 0 0.27027744776249618 -0.43958811483667659 0 0.26605933686866762 -0.44398674702672741 0 0.27357090814651858 -0.43504459727457162 0 0.27439129528981399 -0.44214757876530081 0 0.27027744776249618 -0.43958811483667659 0 0.26708825074498449 -0.43717353628010708 0 0.27027744776249618 -0.43958811483667659 0 0.26605933686866762 -0.44398674702672741 0 0.26708825074498449 -0.43717353628010708 0 0.26605933686866762 -0.44398674702672741 0 0.25753091473130918 -0.43980992396812418 0 0.26605933686866762 -0.44398674702672741 0 0.25753091473130918 -0.43980992396812418 0 0.24690134972361449 -0.45780391691628047 0 0.275658095781049 -0.44887940232983542 0 0.26605933686866762 -0.44398674702672741 0 0.24690134972361449 -0.45780391691628047 0 0.275658095781049 -0.44887940232983542 0 0.24690134972361449 -0.45780391691628047 0 0.275658095781049 -0.44887940232983542 0 0.26919399677712702 -0.46566941480999557 0 0.24690134972361449 -0.45780391691628047 0 0.26919399677712702 -0.46566941480999557 0 0.25851468836889691 -0.48015031187998147 0 0.24690134972361449 -0.45780391691628047 0 0.275658095781049 -0.44887940232983542 0 0.26919399677712702 -0.46566941480999557 0 0.27957602047477081 -0.45991186036750198 0 0.26919399677712702 -0.46566941480999557 0 0.27957602047477081 -0.45991186036750198 0 0.27954497957318181 -0.46861725648546138 0 0.26919399677712702 -0.46566941480999557 0 0.27954497957318181 -0.46861725648546138 0 0.27467261647664848 -0.47901899880423282 0 0.26919399677712702 -0.46566941480999557 0 0.27467261647664848 -0.47901899880423282 0 0.25851468836889691 -0.48015031187998147 0 0.27954497957318181 -0.46861725648546138 0 0.27467261647664848 -0.47901899880423282 0 0.28596070271442853 -0.48584759542025951 0 0.25851468836889691 -0.48015031187998147 0 0.27593987535016012 -0.49999999999999772 0 0.24840868062813529 -0.5 0 0.25851468836889691 -0.48015031187998147 0 0.24840868062813529 -0.5 0 0.24386290002639691 -0.47991278089067091 0 0.27467261647664848 -0.47901899880423282 0 0.27593987535016012 -0.49999999999999772 0 0.28596070271442853 -0.48584759542025951 0 0.27467261647664848 -0.47901899880423282 0 0.25851468836889691 -0.48015031187998147 0 0.27593987535016012 -0.49999999999999772 0 0.27593987535016012 -0.49999999999999772 0 0.28596070271442853 -0.48584759542025951 0 0.28596070271442853 -0.48584759542025951 0 0.29598153007869821 -0.47169519084052208 0 0.3010930202378066 -0.5 0 0.27593987535016012 -0.49999999999999772 0 0.28596070271442853 -0.48584759542025951 0 0.3010930202378066 -0.5 0 0.27954497957318181 -0.46861725648546138 0 0.28596070271442853 -0.48584759542025951 0 0.29598153007869821 -0.47169519084052208 0 0.28596070271442853 -0.48584759542025951 0 0.29598153007869821 -0.47169519084052208 0 0.31265939059256032 -0.4808735391469956 0 0.31336321830030611 -0.46770634080847612 0 0.29598153007869821 -0.47169519084052208 0 0.31265939059256032 -0.4808735391469956 0 0.29598153007869821 -0.47169519084052208 0 0.31007391207358947 -0.49720625399739948 0 0.29598153007869821 -0.47169519084052208 0 0.31007391207358947 -0.49720625399739948 0 0.32624616512545312 -0.5 0 0.3010930202378066 -0.5 0 0.31007391207358947 -0.49720625399739948 0 0.29598153007869821 -0.47169519084052208 0 0.3010930202378066 -0.5 0 0.31007391207358947 -0.49720625399739948 0 0.33745709777281108 -0.28654841139457188 0 0.33328406457009868 -0.29697244432242548 0 0.35055765701934299 -0.29889144224840858 0 0.33745709777281108 -0.28654841139457188 0 0.33328406457009868 -0.29697244432242548 0 0.32783827500084017 -0.28881756245386048 0 0.33745709777281108 -0.28654841139457188 0 0.32783827500084017 -0.28881756245386048 0 0.33111846635805342 -0.27881395066646641 0 0.35055765701934299 -0.29889144224840858 0 0.33326356423954973 -0.31634621051853501 0 0.33091233838665651 -0.31163645728041439 0 0.35055765701934299 -0.29889144224840858 0 0.33091233838665651 -0.31163645728041439 0 0.33328406457009868 -0.29697244432242548 0 0.35055765701934299 -0.29889144224840858 0 0.33091233838665651 -0.31163645728041439 0 0.35055765701934299 -0.29889144224840858 0 0.33326356423954973 -0.31634621051853501 0 0.33091233838665651 -0.31163645728041439 0 0.33328406457009868 -0.29697244432242548 0 0.31990736383551549 -0.301243210787001 0 0.31990736383551549 -0.301243210787001 0 0.31831298911890699 -0.28718630380448151 0 0.3069844095119601 -0.29202602878287198 0 0.33328406457009868 -0.29697244432242548 0 0.31990736383551549 -0.301243210787001 0 0.32783827500084017 -0.28881756245386048 0 0.31990736383551549 -0.301243210787001 0 0.32783827500084017 -0.28881756245386048 0 0.31831298911890699 -0.28718630380448151 0 0.31831298911890699 -0.28718630380448151 0 0.33111846635805342 -0.27881395066646641 0 0.32783827500084017 -0.28881756245386048 0 0.31831298911890699 -0.28718630380448151 0 0.33111846635805342 -0.27881395066646641 0 0.31831298911890699 -0.28718630380448151 0 0.32775472239112868 -0.27804833647462179 0 0.33111846635805342 -0.27881395066646641 0 0.31831298911890699 -0.28718630380448151 0 0.31943454580334962 -0.27799716772982269 0 0.30894275617869349 -0.28097996543997389 0 0.31943454580334962 -0.27799716772982269 0 0.31328414491916318 -0.2721365281860576 0 0.30894275617869349 -0.28097996543997389 0 0.31943454580334962 -0.27799716772982269 0 0.31328414491916318 -0.2721365281860576 0 0.320629592332286 -0.27069203077961629 0 0.31328414491916318 -0.2721365281860576 0 0.320629592332286 -0.27069203077961629 0 0.3126828127692412 -0.26078667732085881 0 0.320629592332286 -0.27069203077961629 0 0.3269405571611475 -0.2717081536848337 0 0.33153212659078263 -0.26726087665248199 0 0.31831298911890699 -0.28718630380448151 0 0.31943454580334962 -0.27799716772982269 0 0.32775472239112868 -0.27804833647462179 0 0.31943454580334962 -0.27799716772982269 0 0.3269405571611475 -0.2717081536848337 0 0.32775472239112868 -0.27804833647462179 0 0.31943454580334962 -0.27799716772982269 0 0.320629592332286 -0.27069203077961629 0 0.3269405571611475 -0.2717081536848337 0 0.320629592332286 -0.27069203077961629 0 0.32546114100035839 -0.25096911166471841 0 0.320629592332286 -0.27069203077961629 0 0.32546114100035839 -0.25096911166471841 0 0.33153212659078263 -0.26726087665248199 0 0.320629592332286 -0.27069203077961629 0 0.3126828127692412 -0.26078667732085881 0 0.32546114100035839 -0.25096911166471841 0 0.31333578311129251 -0.24688137415892061 0 0.3126828127692412 -0.26078667732085881 0 0.32546114100035839 -0.25096911166471841 0 0.33682175483416033 -0.23998261405678609 0 0.32546114100035839 -0.25096911166471841 0 0.34289542313465499 -0.266030606943093 0 0.33682175483416033 -0.23998261405678609 0 0.34289542313465499 -0.266030606943093 0 0.34482713688762151 -0.25159308428585442 0 0.33682175483416033 -0.23998261405678609 0 0.34289542313465499 -0.266030606943093 0 0.32546114100035839 -0.25096911166471841 0 0.33153212659078263 -0.26726087665248199 0 0.34289542313465499 -0.266030606943093 0 0.33745709777281108 -0.28654841139457188 0 0.33111846635805342 -0.27881395066646641 0 0.34392394359720102 -0.2704415975284532 0 0.32775472239112868 -0.27804833647462179 0 0.33111846635805342 -0.27881395066646641 0 0.34289542313465499 -0.266030606943093 0 0.32775472239112868 -0.27804833647462179 0 0.33153212659078263 -0.26726087665248199 0 0.34289542313465499 -0.266030606943093 0 0.3269405571611475 -0.2717081536848337 0 0.32775472239112868 -0.27804833647462179 0 0.33153212659078263 -0.26726087665248199 0 0.32775472239112868 -0.27804833647462179 0 0.34289542313465499 -0.266030606943093 0 0.33111846635805342 -0.27881395066646641 0 0.34289542313465499 -0.266030606943093 0 0.34392394359720102 -0.2704415975284532 0 0.34289542313465499 -0.266030606943093 0 0.34392394359720102 -0.2704415975284532 0 0.33111846635805342 -0.27881395066646641 0 0.34392394359720102 -0.2704415975284532 0 0.34392394359720102 -0.2704415975284532 0 0.35699228011096229 -0.27474467911101191 0 0.36362174633351529 -0.25756297086959801 0 0.34392394359720102 -0.2704415975284532 0 0.35699228011096229 -0.27474467911101191 0 0.35036281388841067 -0.29192638735242621 0 0.34482713688762151 -0.25159308428585442 0 0.36245329046492442 -0.25050681027277272 0 0.34289542313465499 -0.266030606943093 0 0.34392394359720102 -0.2704415975284532 0 0.36362174633351529 -0.25756297086959801 0 0.34289542313465499 -0.266030606943093 0 0.36245329046492442 -0.25050681027277272 0 0.36362174633351529 -0.25756297086959801 0 0.34289542313465499 -0.266030606943093 0 0.36245329046492442 -0.25050681027277272 0 0.34392394359720102 -0.2704415975284532 0 0.36362174633351529 -0.25756297086959801 0 0.34289542313465499 -0.266030606943093 0 0.34482713688762151 -0.25159308428585442 0 0.36245329046492442 -0.25050681027277272 0 0.36643910530968188 -0.25026117034527051 0 0.36245329046492442 -0.25050681027277272 0 0.36643910530968188 -0.25026117034527051 0 0.36245329046492442 -0.25050681027277272 0 0.36362174633351529 -0.25756297086959801 0 0.36643910530968188 -0.25026117034527051 0 0.36362174633351529 -0.25756297086959801 0 0.37565887922929531 -0.24969296919058201 0 0.36362174633351529 -0.25756297086959801 0 0.37565887922929531 -0.24969296919058201 0 0.36643910530968188 -0.25026117034527051 0 0.36362174633351529 -0.25756297086959801 0 0.37565887922929531 -0.24969296919058201 0 0.36362174633351529 -0.25756297086959801 0 0.37039766593308249 -0.26530491786777149 0 0.35699228011096229 -0.27474467911101191 0 0.36362174633351529 -0.25756297086959801 0 0.35699228011096229 -0.27474467911101191 0 0.36362174633351529 -0.25756297086959801 0 0.37039766593308249 -0.26530491786777149 0 0.37846357976979139 -0.27847271787954059 0 0.37039766593308249 -0.26530491786777149 0 0.36734355168217941 -0.28194959364858868 0 0.35699228011096229 -0.27474467911101191 0 0.37039766593308249 -0.26530491786777149 0 0.36734355168217941 -0.28194959364858868 0 0.35699228011096229 -0.27474467911101191 0 0.36734355168217941 -0.28194959364858868 0 0.35763338902298941 -0.28486187279625808 0 0.37846357976979139 -0.27847271787954059 0 0.35362394961069332 -0.29579666142862998 0 0.37846357976979139 -0.27847271787954059 0 0.36734355168217941 -0.28194959364858868 0 0.35362394961069332 -0.29579666142862998 0 0.37668291268412779 -0.30656527081950691 0 0.37846357976979139 -0.27847271787954059 0 0.35362394961069332 -0.29579666142862998 0 0.36734355168217941 -0.28194959364858868 0 0.35362394961069332 -0.29579666142862998 0 0.36734355168217941 -0.28194959364858868 0 0.35763338902298941 -0.28486187279625808 0 0.35362394961069332 -0.29579666142862998 0 0.35699228011096229 -0.27474467911101191 0 0.35036281388841067 -0.29192638735242621 0 0.34392394359720102 -0.2704415975284532 0 0.35055765701934299 -0.29889144224840858 0 0.34392394359720102 -0.2704415975284532 0 0.35036281388841067 -0.29192638735242621 0 0.35055765701934299 -0.29889144224840858 0 0.33745709777281108 -0.28654841139457188 0 0.34392394359720102 -0.2704415975284532 0 0.35055765701934299 -0.29889144224840858 0 0.35699228011096229 -0.27474467911101191 0 0.35763338902298941 -0.28486187279625808 0 0.35036281388841067 -0.29192638735242621 0 0.35763338902298941 -0.28486187279625808 0 0.35362394961069332 -0.29579666142862998 0 0.35036281388841067 -0.29192638735242621 0 0.35362394961069332 -0.29579666142862998 0 0.35036281388841067 -0.29192638735242621 0 0.35055765701934299 -0.29889144224840858 0 0.35055765701934299 -0.29889144224840858 0 0.36156373635495709 -0.30972979717960081 0 0.35648650181240349 -0.3243183340958305 0 0.35055765701934299 -0.29889144224840858 0 0.35648650181240349 -0.3243183340958305 0 0.35362394961069332 -0.29579666142862998 0 0.35055765701934299 -0.29889144224840858 0 0.36156373635495709 -0.30972979717960081 0 0.35362394961069332 -0.29579666142862998 0 0.35055765701934299 -0.29889144224840858 0 0.37668291268412779 -0.30656527081950691 0 0.35362394961069332 -0.29579666142862998 0 0.36156373635495709 -0.30972979717960081 0 0.36156373635495709 -0.30972979717960081 0 0.37490224559847363 -0.33465782375947378 0 0.35648650181240349 -0.3243183340958305 0 0.37668291268412779 -0.30656527081950691 0 0.36156373635495709 -0.30972979717960081 0 0.37490224559847363 -0.33465782375947378 0 0.35648650181240349 -0.3243183340958305 0 0.36241534660546632 -0.34974522594325169 0 0.37490224559847363 -0.33465782375947378 0 0.35648650181240349 -0.3243183340958305 0 0.36241534660546632 -0.34974522594325169 0 0.35648650181240349 -0.3243183340958305 0 0.35241056966696332 -0.34551506717349062 0 0.34344151124575339 -0.34128078080625601 0 0.35648650181240349 -0.3243183340958305 0 0.36241534660546632 -0.34974522594325169 0 0.35241056966696332 -0.34551506717349062 0 0.35648650181240349 -0.3243183340958305 0 0.34344151124575339 -0.34128078080625601 0 0.33293608566834648 -0.33165099694907191 0 0.35055765701934299 -0.29889144224840858 0 0.35648650181240349 -0.3243183340958305 0 0.33326356423954973 -0.31634621051853501 0 0.36416379075267502 -0.37540145149721582 0 0.3731215785128188 -0.36275037669944071 0 0.36095363985473561 -0.3636315678826389 0 0.36416379075267502 -0.37540145149721582 0 0.37278764284911858 -0.36801868619234562 0 0.3731215785128188 -0.36275037669944071 0 0.37242863952391181 -0.37555121513872047 0 0.36416379075267502 -0.37540145149721582 0 0.37278764284911858 -0.36801868619234562 0 0.36416379075267502 -0.37540145149721582 0 0.3731215785128188 -0.36275037669944071 0 0.37278764284911858 -0.36801868619234562 0 0.3731215785128188 -0.36275037669944071 0 0.37490224559847363 -0.33465782375947378 0 0.3731215785128188 -0.36275037669944071 0 0.37490224559847363 -0.33465782375947378 0 0.3731215785128188 -0.36275037669944071 0 0.36241534660546632 -0.34974522594325169 0 0.3731215785128188 -0.36275037669944071 0 0.36095363985473561 -0.3636315678826389 0 0.36241534660546632 -0.34974522594325169 0 0.36241534660546632 -0.34974522594325169 0 0.35241056966696332 -0.34551506717349062 0 0.35300834318766061 -0.35788204111902039 0 0.35241056966696332 -0.34551506717349062 0 0.3464198571855619 -0.35266651533788262 0 0.34344151124575339 -0.34128078080625601 0 0.35241056966696332 -0.34551506717349062 0 0.3464198571855619 -0.35266651533788262 0 0.35300834318766061 -0.35788204111902039 0 0.3464198571855619 -0.35266651533788262 0 0.35300834318766061 -0.35788204111902039 0 0.34433985949979479 -0.3629947750213508 0 0.36095363985473561 -0.3636315678826389 0 0.36241534660546632 -0.34974522594325169 0 0.35300834318766061 -0.35788204111902039 0 0.34138151334009348 -0.38223450791612301 0 0.34433985949979479 -0.3629947750213508 0 0.35083569439831191 -0.36870124279900002 0 0.36095363985473561 -0.3636315678826389 0 0.35300834318766061 -0.35788204111902039 0 0.35083569439831191 -0.36870124279900002 0 0.35300834318766061 -0.35788204111902039 0 0.34433985949979479 -0.3629947750213508 0 0.35083569439831191 -0.36870124279900002 0 0.36416379075267502 -0.37540145149721582 0 0.35289675037090312 -0.37859743212683211 0 0.35083569439831191 -0.36870124279900002 0 0.36416379075267502 -0.37540145149721582 0 0.36095363985473561 -0.3636315678826389 0 0.35083569439831191 -0.36870124279900002 0 0.34138151334009348 -0.38223450791612301 0 0.32954035595489839 -0.35966611125522668 0 0.31623547556305071 -0.37165183082490788 0 0.34138151334009348 -0.38223450791612301 0 0.34433985949979479 -0.3629947750213508 0 0.33427297210759221 -0.35949342197203682 0 0.34138151334009348 -0.38223450791612301 0 0.33427297210759221 -0.35949342197203682 0 0.32954035595489839 -0.35966611125522668 0 0.34138151334009348 -0.38223450791612301 0 0.32954035595489839 -0.35966611125522668 0 0.33427297210759221 -0.35949342197203682 0 0.32954035595489839 -0.35966611125522668 0 0.33427297210759221 -0.35949342197203682 0 0.32954035595489839 -0.35966611125522668 0 0.33246783397293961 -0.34681626532572118 0 0.33427297210759221 -0.35949342197203682 0 0.34018840680232842 -0.35265035169264952 0 0.33246783397293961 -0.34681626532572118 0 0.3464198571855619 -0.35266651533788262 0 0.34433985949979479 -0.3629947750213508 0 0.34018840680232842 -0.35265035169264952 0 0.34433985949979479 -0.3629947750213508 0 0.33427297210759221 -0.35949342197203682 0 0.34018840680232842 -0.35265035169264952 0 0.3464198571855619 -0.35266651533788262 0 0.34018840680232842 -0.35265035169264952 0 0.34344151124575339 -0.34128078080625601 0 0.34018840680232842 -0.35265035169264952 0 0.33246783397293961 -0.34681626532572118 0 0.34344151124575339 -0.34128078080625601 0 0.32954035595489839 -0.35966611125522668 0 0.31596947145975518 -0.33380097878866022 0 0.31031489687045272 -0.36036763249446202 0 0.32954035595489839 -0.35966611125522668 0 0.31596947145975518 -0.33380097878866022 0 0.32954035595489839 -0.35966611125522668 0 0.33246783397293961 -0.34681626532572118 0 0.31596947145975518 -0.33380097878866022 0 0.32954035595489839 -0.35966611125522668 0 0.31623547556305071 -0.37165183082490788 0 0.31031489687045272 -0.36036763249446202 0 0.32954035595489839 -0.35966611125522668 0 0.31031489687045272 -0.36036763249446202 0 0.35648650181240349 -0.3243183340958305 0 0.33326356423954973 -0.31634621051853501 0 0.33293608566834648 -0.33165099694907191 0 0.33246783397293961 -0.34681626532572118 0 0.34344151124575339 -0.34128078080625601 0 0.33293608566834648 -0.33165099694907191 0 0.33246783397293961 -0.34681626532572118 0 0.33293608566834648 -0.33165099694907191 0 0.31596947145975518 -0.33380097878866022 0 0.31596947145975518 -0.33380097878866022 0 0.31145880291606509 -0.32520396807522101 0 0.33091233838665651 -0.31163645728041439 0 0.31145880291606509 -0.32520396807522101 0 0.33326356423954973 -0.31634621051853501 0 0.33293608566834648 -0.33165099694907191 0 0.31596947145975518 -0.33380097878866022 0 0.33326356423954973 -0.31634621051853501 0 0.31596947145975518 -0.33380097878866022 0 0.33091233838665651 -0.31163645728041439 0 0.31990736383551549 -0.301243210787001 0 0.31145880291606509 -0.32520396807522101 0 0.33326356423954973 -0.31634621051853501 0 0.31596947145975518 -0.33380097878866022 0 0.31145880291606509 -0.32520396807522101 0 0.33091233838665651 -0.31163645728041439 0 0.33326356423954973 -0.31634621051853501 0 0.31145880291606509 -0.32520396807522101 0 0.30205645425177491 -0.32110500594707309 0 0.31145880291606509 -0.32520396807522101 0 0.30233214952752918 -0.307809221332284 0 0.31145880291606509 -0.32520396807522101 0 0.30233214952752918 -0.307809221332284 0 0.30205645425177491 -0.32110500594707309 0 0.29233713328709499 -0.31967415892926149 0 0.30233214952752918 -0.307809221332284 0 0.30205645425177491 -0.32110500594707309 0 0.30209773127640938 -0.33173267545152457 0 0.29233713328709499 -0.31967415892926149 0 0.30205645425177491 -0.32110500594707309 0 0.31145880291606509 -0.32520396807522101 0 0.30209773127640938 -0.33173267545152457 0 0.31145880291606509 -0.32520396807522101 0 0.30209773127640938 -0.33173267545152457 0 0.31596947145975518 -0.33380097878866022 0 0.30209773127640938 -0.33173267545152457 0 0.31596947145975518 -0.33380097878866022 0 0.29760954182451382 -0.34148238350840671 0 0.29772503640121339 -0.35221491875192168 0 0.31596947145975518 -0.33380097878866022 0 0.29760954182451382 -0.34148238350840671 0 0.30209773127640938 -0.33173267545152457 0 0.31596947145975518 -0.33380097878866022 0 0.31145880291606509 -0.32520396807522101 0 0.30209773127640938 -0.33173267545152457 0 0.31596947145975518 -0.33380097878866022 0 0.29772503640121339 -0.35221491875192168 0 0.30209773127640938 -0.33173267545152457 0 0.27971125961437998 -0.32868883628495998 0 0.30209773127640938 -0.33173267545152457 0 0.28690954286370018 -0.34232539832981712 0 0.27971125961437998 -0.32868883628495998 0 0.30209773127640938 -0.33173267545152457 0 0.28690954286370018 -0.34232539832981712 0 0.29760954182451382 -0.34148238350840671 0 0.30209773127640938 -0.33173267545152457 0 0.28690954286370018 -0.34232539832981712 0 0.30209773127640938 -0.33173267545152457 0 0.29233713328709499 -0.31967415892926149 0 0.27971125961437998 -0.32868883628495998 0 0.29233713328709499 -0.31967415892926149 0 0.27971125961437998 -0.32868883628495998 0 0.27526514204567692 -0.30802973585386922 0 0.31031489687045272 -0.36036763249446202 0 0.29108943778600671 -0.36106915373369608 0 0.31623547556305071 -0.37165183082490788 0 0.29108943778600671 -0.36106915373369608 0 0.31623547556305071 -0.37165183082490788 0 0.31031489687045272 -0.36036763249446202 0 0.29108943778600671 -0.36106915373369608 0 0.29535170876549521 -0.37816480645353728 0 0.31623547556305071 -0.37165183082490788 0 0.29108943778600671 -0.36106915373369608 0 0.31031489687045272 -0.36036763249446202 0 0.29772503640121339 -0.35221491875192168 0 0.29108943778600671 -0.36106915373369608 0 0.31596947145975518 -0.33380097878866022 0 0.31031489687045272 -0.36036763249446202 0 0.29772503640121339 -0.35221491875192168 0 0.28690954286370018 -0.34232539832981712 0 0.28842064364690312 -0.35120948022013532 0 0.27172135445099188 -0.35291812120811128 0 0.28842064364690312 -0.35120948022013532 0 0.29108943778600671 -0.36106915373369608 0 0.27172135445099188 -0.35291812120811128 0 0.29108943778600671 -0.36106915373369608 0 0.27172135445099188 -0.35291812120811128 0 0.29760954182451382 -0.34148238350840671 0 0.29772503640121339 -0.35221491875192168 0 0.28842064364690312 -0.35120948022013532 0 0.29760954182451382 -0.34148238350840671 0 0.28690954286370018 -0.34232539832981712 0 0.28842064364690312 -0.35120948022013532 0 0.29772503640121339 -0.35221491875192168 0 0.28842064364690312 -0.35120948022013532 0 0.29108943778600671 -0.36106915373369608 0 0.29535170876549521 -0.37816480645353728 0 0.29108943778600671 -0.36106915373369608 0 0.28177906844467188 -0.37331109614804658 0 0.29108943778600671 -0.36106915373369608 0 0.28177906844467188 -0.37331109614804658 0 0.27470454181800641 -0.36166702515376409 0 0.29108943778600671 -0.36106915373369608 0 0.27470454181800641 -0.36166702515376409 0 0.27470454181800641 -0.36166702515376409 0 0.25831964585000589 -0.36226489657383087 0 0.26962957393813108 -0.37145162001575421 0 0.27470454181800641 -0.36166702515376409 0 0.25831964585000589 -0.36226489657383087 0 0.28177906844467188 -0.37331109614804658 0 0.26962957393813108 -0.37145162001575421 0 0.27470454181800641 -0.36166702515376409 0 0.29108943778600671 -0.36106915373369608 0 0.27470454181800641 -0.36166702515376409 0 0.27172135445099188 -0.35291812120811128 0 0.27470454181800641 -0.36166702515376409 0 0.27172135445099188 -0.35291812120811128 0 0.25831964585000589 -0.36226489657383087 0 0.28690954286370018 -0.34232539832981712 0 0.27172135445099188 -0.35291812120811128 0 0.26905682998965952 -0.33860743415915739 0 0.28690954286370018 -0.34232539832981712 0 0.27172135445099188 -0.35291812120811128 0 0.27172135445099188 -0.35291812120811128 0 0.25696125275277609 -0.34670635172416209 0 0.26905682998965952 -0.33860743415915739 0 0.27172135445099188 -0.35291812120811128 0 0.25696125275277609 -0.34670635172416209 0 0.25696125275277609 -0.34670635172416209 0 0.25831964585000589 -0.36226489657383087 0 0.24791248246126721 -0.35315300130981692 0 0.27172135445099188 -0.35291812120811128 0 0.25696125275277609 -0.34670635172416209 0 0.25831964585000589 -0.36226489657383087 0 0.27172135445099188 -0.35291812120811128 0 0.25831964585000589 -0.36226489657383087 0 0.25917113102860018 -0.37807428704217833 0 0.25831964585000589 -0.36226489657383087 0 0.24291518253543351 -0.37300845640770652 0 0.25917113102860018 -0.37807428704217833 0 0.26962957393813108 -0.37145162001575421 0 0.25831964585000589 -0.36226489657383087 0 0.25831964585000589 -0.36226489657383087 0 0.24291518253543351 -0.37300845640770652 0 0.27971125961437998 -0.32868883628495998 0 0.25732478795235059 -0.32564499711839567 0 0.25732478795235059 -0.32564499711839567 0 0.27526514204567692 -0.30802973585386922 0 0.27971125961437998 -0.32868883628495998 0 0.25732478795235059 -0.32564499711839567 0 0.27526514204567692 -0.30802973585386922 0 0.27971125961437998 -0.32868883628495998 0 0.26905682998965952 -0.33860743415915739 0 0.25732478795235059 -0.32564499711839567 0 0.28690954286370018 -0.34232539832981712 0 0.27971125961437998 -0.32868883628495998 0 0.26905682998965952 -0.33860743415915739 0 0.25696125275277609 -0.34670635172416209 0 0.25732478795235059 -0.32564499711839567 0 0.2422011510545605 -0.34049458224021267 0 0.25696125275277609 -0.34670635172416209 0 0.26905682998965952 -0.33860743415915739 0 0.25732478795235059 -0.32564499711839567 0 0.25732478795235059 -0.32564499711839567 0 0.25765292763049308 -0.29698199606932518 0 0.24458665002710139 -0.31075868603106471 0 0.25732478795235059 -0.32564499711839567 0 0.25765292763049308 -0.29698199606932518 0 0.27526514204567692 -0.30802973585386922 0 0.25765292763049308 -0.29698199606932518 0 0.26302026009822688 -0.27945866640137501 0 0.2457004051126091 -0.28421829612496519 0 0.25765292763049308 -0.29698199606932518 0 0.27538882122166769 -0.28539379217500033 0 0.26302026009822688 -0.27945866640137501 0 0.25765292763049308 -0.29698199606932518 0 0.27538882122166769 -0.28539379217500033 0 0.27526514204567692 -0.30802973585386922 0 0.27538882122166769 -0.28539379217500033 0 0.27526514204567692 -0.30802973585386922 0 0.28341761824563622 -0.28961227250785249 0 0.27526514204567692 -0.30802973585386922 0 0.29320549613900271 -0.29041447458934211 0 0.30233214952752918 -0.307809221332284 0 0.27526514204567692 -0.30802973585386922 0 0.29320549613900271 -0.29041447458934211 0 0.29233713328709499 -0.31967415892926149 0 0.27526514204567692 -0.30802973585386922 0 0.30233214952752918 -0.307809221332284 0 0.27526514204567692 -0.30802973585386922 0 0.28341761824563622 -0.28961227250785249 0 0.29320549613900271 -0.29041447458934211 0 0.27538882122166769 -0.28539379217500033 0 0.28341761824563622 -0.28961227250785249 0 0.28831972619625967 -0.28110254751373892 0 0.28341761824563622 -0.28961227250785249 0 0.29320549613900271 -0.29041447458934211 0 0.28831972619625967 -0.28110254751373892 0 0.29456917107464198 -0.28142939043590343 0 0.29320549613900271 -0.29041447458934211 0 0.28831972619625967 -0.28110254751373892 0 0.29320549613900271 -0.29041447458934211 0 0.28831972619625967 -0.28110254751373892 0 0.29456917107464198 -0.28142939043590343 0 0.29320549613900271 -0.29041447458934211 0 0.29920570227211241 -0.28452299674414949 0 0.29320549613900271 -0.29041447458934211 0 0.29920570227211241 -0.28452299674414949 0 0.29320549613900271 -0.29041447458934211 0 0.3069844095119601 -0.29202602878287198 0 0.30233214952752918 -0.307809221332284 0 0.29320549613900271 -0.29041447458934211 0 0.29920570227211241 -0.28452299674414949 0 0.3069844095119601 -0.29202602878287198 0 0.29456917107464198 -0.28142939043590343 0 0.29920570227211241 -0.28452299674414949 0 0.29996602210790302 -0.27781159206728578 0 0.31831298911890699 -0.28718630380448151 0 0.3069844095119601 -0.29202602878287198 0 0.30894275617869349 -0.28097996543997389 0 0.29920570227211241 -0.28452299674414949 0 0.3069844095119601 -0.29202602878287198 0 0.30894275617869349 -0.28097996543997389 0 0.29320549613900271 -0.29041447458934211 0 0.30233214952752918 -0.307809221332284 0 0.31990736383551549 -0.301243210787001 0 0.3069844095119601 -0.29202602878287198 0 0.30233214952752918 -0.307809221332284 0 0.31990736383551549 -0.301243210787001 0 0.31145880291606509 -0.32520396807522101 0 0.30233214952752918 -0.307809221332284 0 0.3126828127692412 -0.26078667732085881 0 0.30057311758140542 -0.25356939058847511 0 0.30473101751224541 -0.27022679966001589 0 0.31333578311129251 -0.24688137415892061 0 0.3126828127692412 -0.26078667732085881 0 0.30057311758140542 -0.25356939058847511 0 0.31328414491916318 -0.2721365281860576 0 0.3126828127692412 -0.26078667732085881 0 0.30473101751224541 -0.27022679966001589 0 0.30057311758140542 -0.25356939058847511 0 0.30473101751224541 -0.27022679966001589 0 0.29240161994957597 -0.27485757961828938 0 0.31328414491916318 -0.2721365281860576 0 0.30473101751224541 -0.27022679966001589 0 0.30894275617869349 -0.28097996543997389 0 0.29920570227211241 -0.28452299674414949 0 0.30894275617869349 -0.28097996543997389 0 0.29996602210790302 -0.27781159206728578 0 0.30473101751224541 -0.27022679966001589 0 0.29996602210790302 -0.27781159206728578 0 0.29240161994957597 -0.27485757961828938 0 0.30473101751224541 -0.27022679966001589 0 0.30894275617869349 -0.28097996543997389 0 0.29996602210790302 -0.27781159206728578 0 0.29456917107464198 -0.28142939043590343 0 0.29996602210790302 -0.27781159206728578 0 0.29240161994957597 -0.27485757961828938 0 0.29456917107464198 -0.28142939043590343 0 0.29240161994957597 -0.27485757961828938 0 0.28831972619625967 -0.28110254751373892 0 0.27538882122166769 -0.28539379217500033 0 0.28389626817420188 -0.27388881769382689 0 0.28831972619625967 -0.28110254751373892 0 0.29240161994957597 -0.27485757961828938 0 0.28389626817420188 -0.27388881769382689 0 0.28831972619625967 -0.28110254751373892 0 0.28389626817420188 -0.27388881769382689 0 0.28746854242809039 -0.26512508358349568 0 0.27614980616117962 -0.26868250918501457 0 0.29240161994957597 -0.27485757961828938 0 0.28389626817420188 -0.27388881769382689 0 0.28746854242809039 -0.26512508358349568 0 0.30057311758140542 -0.25356939058847511 0 0.29240161994957597 -0.27485757961828938 0 0.28746854242809039 -0.26512508358349568 0 0.28746854242809039 -0.26512508358349568 0 0.28432190027408932 -0.25462712083187278 0 0.27614980616117962 -0.26868250918501457 0 0.30057311758140542 -0.25356939058847511 0 0.28746854242809039 -0.26512508358349568 0 0.28432190027408932 -0.25462712083187278 0 0.30057311758140542 -0.25356939058847511 0 0.29240161994957597 -0.27485757961828938 0 0.28432190027408932 -0.25462712083187278 0 0.27222306591769241 -0.25984777323646219 0 0.26853814997914588 -0.25061537758681363 0 0.28432190027408932 -0.25462712083187278 0 0.27222306591769241 -0.25984777323646219 0 0.27614980616117962 -0.26868250918501457 0 0.27222306591769241 -0.25984777323646219 0 0.26853814997914588 -0.25061537758681363 0 0.26233576048129481 -0.26471970207618939 0 0.27222306591769241 -0.25984777323646219 0 0.27614980616117962 -0.26868250918501457 0 0.26233576048129481 -0.26471970207618939 0 0.27538882122166769 -0.28539379217500033 0 0.27614980616117962 -0.26868250918501457 0 0.26302026009822688 -0.27945866640137501 0 0.27538882122166769 -0.28539379217500033 0 0.28389626817420188 -0.27388881769382689 0 0.27614980616117962 -0.26868250918501457 0 0.27614980616117962 -0.26868250918501457 0 0.26302026009822688 -0.27945866640137501 0 0.26233576048129481 -0.26471970207618939 0 0.26302026009822688 -0.27945866640137501 0 0.24494074978137581 -0.26833904787292961 0 0.2457004051126091 -0.28421829612496519 0 0.26302026009822688 -0.27945866640137501 0 0.26233576048129481 -0.26471970207618939 0 0.24494074978137581 -0.26833904787292961 0 0.26302026009822688 -0.27945866640137501 0 0.24494074978137581 -0.26833904787292961 0 0.25939332029667372 -0.24436000081709169 0 0.26853814997914588 -0.25061537758681363 0 0.249017018895621 -0.26157890960729158 0 0.26853814997914588 -0.25061537758681363 0 0.26233576048129481 -0.26471970207618939 0 0.249017018895621 -0.26157890960729158 0 0.26233576048129481 -0.26471970207618939 0 0.249017018895621 -0.26157890960729158 0 0.24494074978137581 -0.26833904787292961 0 0.25939332029667372 -0.24436000081709169 0 0.249017018895621 -0.26157890960729158 0 0.24776568051229031 -0.24923037600136069 0 0.26853814997914588 -0.25061537758681363 0 0.249017018895621 -0.26157890960729158 0 0.25939332029667372 -0.24436000081709169 0 0.249017018895621 -0.26157890960729158 0 0.2405796920342643 -0.25577910624290839 0 0.22364459586333399 -0.25524106548614017 0 0.23952988749967771 -0.24502616546444969 0 0.2405796920342643 -0.25577910624290839 0 0.23952988749967771 -0.24502616546444969 0 0.24776568051229031 -0.24923037600136069 0 0.249017018895621 -0.26157890960729158 0 0.2405796920342643 -0.25577910624290839 0 0.24776568051229031 -0.24923037600136069 0 0.2405796920342643 -0.25577910624290839 0 0.2411411859895369 -0.26600216489328582 0 0.22364459586333399 -0.25524106548614017 0 0.249017018895621 -0.26157890960729158 0 0.24494074978137581 -0.26833904787292961 0 0.2411411859895369 -0.26600216489328582 0 0.249017018895621 -0.26157890960729158 0 0.2405796920342643 -0.25577910624290839 0 0.2411411859895369 -0.26600216489328582 0 0.249017018895621 -0.26157890960729158 0 0.2411411859895369 -0.26600216489328582 0 0.249017018895621 -0.26157890960729158 0 0.24494074978137581 -0.26833904787292961 0 0.2411411859895369 -0.26600216489328582 0 0.2319917034456728 -0.28480324534786089 0 0.2457004051126091 -0.28421829612496519 0 0.24494074978137581 -0.26833904787292961 0 0.2411411859895369 -0.26600216489328582 0 0.2457004051126091 -0.28421829612496519 0 0.24494074978137581 -0.26833904787292961 0 0.2411411859895369 -0.26600216489328582 0 0.2411411859895369 -0.26600216489328582 0 0.22239746779781391 -0.26726880536985798 0 0.2148508128114365 -0.28076746445175921 0 0.2411411859895369 -0.26600216489328582 0 0.2148508128114365 -0.28076746445175921 0 0.2319917034456728 -0.28480324534786089 0 0.2411411859895369 -0.26600216489328582 0 0.2148508128114365 -0.28076746445175921 0 0.22239746779781391 -0.26726880536985798 0 0.22126561585408061 -0.26214671604507078 0 0.2148508128114365 -0.28076746445175921 0 0.2411411859895369 -0.26600216489328582 0 0.22239746779781391 -0.26726880536985798 0 0.22126561585408061 -0.26214671604507078 0 0.2411411859895369 -0.26600216489328582 0 0.22364459586333399 -0.25524106548614017 0 0.2411411859895369 -0.26600216489328582 0 0.22126561585408061 -0.26214671604507078 0 0.22364459586333399 -0.25524106548614017 0 0.22239746779781391 -0.26726880536985798 0 0.22126561585408061 -0.26214671604507078 0 0.22126561585408061 -0.26214671604507078 0 0.22364459586333399 -0.25524106548614017 0 0.22126561585408061 -0.26214671604507078 0 0.22364459586333399 -0.25524106548614017 0 0.21912545351961199 -0.25246161305313097 0 0.22126561585408061 -0.26214671604507078 0 0.21912545351961199 -0.25246161305313097 0 0.22364459586333399 -0.25524106548614017 0 0.21912545351961199 -0.25246161305313097 0 0.22126561585408061 -0.26214671604507078 0 0.21912545351961199 -0.25246161305313097 0 0.204482504977478 -0.25705322038503142 0 0.22126561585408061 -0.26214671604507078 0 0.204482504977478 -0.25705322038503142 0 0.2102778905908621 -0.26850471615154292 0 0.204482504977478 -0.25705322038503142 0 0.2102778905908621 -0.26850471615154292 0 0.200512628720453 -0.27405146372431088 0 0.22126561585408061 -0.26214671604507078 0 0.2148508128114365 -0.28076746445175921 0 0.22126561585408061 -0.26214671604507078 0 0.2148508128114365 -0.28076746445175921 0 0.2102778905908621 -0.26850471615154292 0 0.2148508128114365 -0.28076746445175921 0 0.2102778905908621 -0.26850471615154292 0 0.200512628720453 -0.27405146372431088 0 0.19099637950278439 -0.27463164331408441 0 0.19130962352468001 -0.28337537387545531 0 0.18219069027275309 -0.27712350265800628 0 0.200512628720453 -0.27405146372431088 0 0.19099637950278439 -0.27463164331408441 0 0.19130962352468001 -0.28337537387545531 0 0.200512628720453 -0.27405146372431088 0 0.19099637950278439 -0.27463164331408441 0 0.18926497556930161 -0.26522802513740912 0 0.204482504977478 -0.25705322038503142 0 0.18926497556930161 -0.26522802513740912 0 0.18526108334034891 -0.24993342049705089 0 0.204482504977478 -0.25705322038503142 0 0.200512628720453 -0.27405146372431088 0 0.18926497556930161 -0.26522802513740912 0 0.204482504977478 -0.25705322038503142 0 0.200512628720453 -0.27405146372431088 0 0.1927632639360419 -0.30723274691850683 0 0.19654275246343 -0.2910497070635909 0 0.20864892144287511 -0.29877017755953772 0 0.20864892144287511 -0.29877017755953772 0 0.20244703007431281 -0.3167728906673159 0 0.19629382954622421 -0.31330696211932318 0 0.1927632639360419 -0.30723274691850683 0 0.19654275246343 -0.2910497070635909 0 0.1927632639360419 -0.30723274691850683 0 0.20864892144287511 -0.29877017755953772 0 0.19629382954622421 -0.31330696211932318 0 0.1927632639360419 -0.30723274691850683 0 0.19362909335199041 -0.29268608739567209 0 0.19654275246343 -0.2910497070635909 0 0.1927632639360419 -0.30723274691850683 0 0.19362909335199041 -0.29268608739567209 0 0.18463111213085709 -0.29988289052315681 0 0.200512628720453 -0.27405146372431088 0 0.19654275246343 -0.2910497070635909 0 0.200512628720453 -0.27405146372431088 0 0.19130962352468001 -0.28337537387545531 0 0.19654275246343 -0.2910497070635909 0 0.19362909335199041 -0.29268608739567209 0 0.19654275246343 -0.2910497070635909 0 0.19362909335199041 -0.29268608739567209 0 0.19130962352468001 -0.28337537387545531 0 0.18399018389056199 -0.29013063531583472 0 0.19362909335199041 -0.29268608739567209 0 0.19130962352468001 -0.28337537387545531 0 0.19654275246343 -0.2910497070635909 0 0.2148508128114365 -0.28076746445175921 0 0.19654275246343 -0.2910497070635909 0 0.20864892144287511 -0.29877017755953772 0 0.2148508128114365 -0.28076746445175921 0 0.20864892144287511 -0.29877017755953772 0 0.22185909642121401 -0.29636439407958531 0 0.2148508128114365 -0.28076746445175921 0 0.19654275246343 -0.2910497070635909 0 0.2148508128114365 -0.28076746445175921 0 0.20864892144287511 -0.29877017755953772 0 0.2148508128114365 -0.28076746445175921 0 0.200512628720453 -0.27405146372431088 0 0.19654275246343 -0.2910497070635909 0 0.20864892144287511 -0.29877017755953772 0 0.2136199151071044 -0.31126008441641828 0 0.20244703007431281 -0.3167728906673159 0 0.20864892144287511 -0.29877017755953772 0 0.20244703007431281 -0.3167728906673159 0 0.20864892144287511 -0.29877017755953772 0 0.2136199151071044 -0.31126008441641828 0 0.22185909642121401 -0.29636439407958531 0 0.2136199151071044 -0.31126008441641828 0 0.2273472773210804 -0.30873998478895798 0 0.22185909642121401 -0.29636439407958531 0 0.2273472773210804 -0.30873998478895798 0 0.22185909642121401 -0.29636439407958531 0 0.2364070168935673 -0.29666390718970909 0 0.2148508128114365 -0.28076746445175921 0 0.22185909642121401 -0.29636439407958531 0 0.2319917034456728 -0.28480324534786089 0 0.22185909642121401 -0.29636439407958531 0 0.2319917034456728 -0.28480324534786089 0 0.2364070168935673 -0.29666390718970909 0 0.25765292763049308 -0.29698199606932518 0 0.2364070168935673 -0.29666390718970909 0 0.2457004051126091 -0.28421829612496519 0 0.2319917034456728 -0.28480324534786089 0 0.2364070168935673 -0.29666390718970909 0 0.2457004051126091 -0.28421829612496519 0 0.2273472773210804 -0.30873998478895798 0 0.2364070168935673 -0.29666390718970909 0 0.24458665002710139 -0.31075868603106471 0 0.25765292763049308 -0.29698199606932518 0 0.2364070168935673 -0.29666390718970909 0 0.24458665002710139 -0.31075868603106471 0 0.2273472773210804 -0.30873998478895798 0 0.24458665002710139 -0.31075868603106471 0 0.23134355680460419 -0.32211238643472012 0 0.25732478795235059 -0.32564499711839567 0 0.24458665002710139 -0.31075868603106471 0 0.23134355680460419 -0.32211238643472012 0 0.25732478795235059 -0.32564499711839567 0 0.23134355680460419 -0.32211238643472012 0 0.25732478795235059 -0.32564499711839567 0 0.2422011510545605 -0.34049458224021267 0 0.23134355680460419 -0.32211238643472012 0 0.25732478795235059 -0.32564499711839567 0 0.2422011510545605 -0.34049458224021267 0 0.25696125275277609 -0.34670635172416209 0 0.2422011510545605 -0.34049458224021267 0 0.2422011510545605 -0.34049458224021267 0 0.22127234458417941 -0.33168672142554512 0 0.2422011510545605 -0.34049458224021267 0 0.22127234458417941 -0.33168672142554512 0 0.23134355680460419 -0.32211238643472012 0 0.2422011510545605 -0.34049458224021267 0 0.22127234458417941 -0.33168672142554512 0 0.22432724695671999 -0.34446313882500762 0 0.22127234458417941 -0.33168672142554512 0 0.22432724695671999 -0.34446313882500762 0 0.2109408040148267 -0.34622005426941138 0 0.22127234458417941 -0.33168672142554512 0 0.22091915900550871 -0.31877074216228563 0 0.23134355680460419 -0.32211238643472012 0 0.2273472773210804 -0.30873998478895798 0 0.22091915900550871 -0.31877074216228563 0 0.23134355680460419 -0.32211238643472012 0 0.2136199151071044 -0.31126008441641828 0 0.2273472773210804 -0.30873998478895798 0 0.22091915900550871 -0.31877074216228563 0 0.25831964585000589 -0.36226489657383087 0 0.24791248246126721 -0.35315300130981692 0 0.23416788018772611 -0.36314617470106347 0 0.25831964585000589 -0.36226489657383087 0 0.24291518253543351 -0.37300845640770652 0 0.23416788018772611 -0.36314617470106347 0 0.25831964585000589 -0.36226489657383087 0 0.23416788018772611 -0.36314617470106347 0 0.2422011510545605 -0.34049458224021267 0 0.24791248246126721 -0.35315300130981692 0 0.23416788018772611 -0.36314617470106347 0 0.25696125275277609 -0.34670635172416209 0 0.2422011510545605 -0.34049458224021267 0 0.24791248246126721 -0.35315300130981692 0 0.2422011510545605 -0.34049458224021267 0 0.2228946881733132 -0.35945119736486181 0 0.2422011510545605 -0.34049458224021267 0 0.22432724695671999 -0.34446313882500762 0 0.2228946881733132 -0.35945119736486181 0 0.2422011510545605 -0.34049458224021267 0 0.23416788018772611 -0.36314617470106347 0 0.2228946881733132 -0.35945119736486181 0 0.22432724695671999 -0.34446313882500762 0 0.2228946881733132 -0.35945119736486181 0 0.2109408040148267 -0.34622005426941138 0 0.24291518253543351 -0.37300845640770652 0 0.23416788018772611 -0.36314617470106347 0 0.2242089779473655 -0.37179950871056722 0 0.23416788018772611 -0.36314617470106347 0 0.2228946881733132 -0.35945119736486181 0 0.2100161145254463 -0.36402745282829729 0 0.23416788018772611 -0.36314617470106347 0 0.2242089779473655 -0.37179950871056722 0 0.2100161145254463 -0.36402745282829729 0 0.23416788018772611 -0.36314617470106347 0 0.2100161145254463 -0.36402745282829729 0 0.2242089779473655 -0.37179950871056722 0 0.2100161145254463 -0.36402745282829729 0 0.20643499326736109 -0.37506344337418801 0 0.2100161145254463 -0.36402745282829729 0 0.2109408040148267 -0.34622005426941138 0 0.19998130272298029 -0.35476250845911111 0 0.2228946881733132 -0.35945119736486181 0 0.2100161145254463 -0.36402745282829729 0 0.2109408040148267 -0.34622005426941138 0 0.193103943488482 -0.34389379578320473 0 0.1858643488631665 -0.36490873095553128 0 0.193103943488482 -0.34389379578320473 0 0.18424871791314429 -0.34369038837889032 0 0.1858643488631665 -0.36490873095553128 0 0.2109408040148267 -0.34622005426941138 0 0.193103943488482 -0.34389379578320473 0 0.19998130272298029 -0.35476250845911111 0 0.193103943488482 -0.34389379578320473 0 0.19998130272298029 -0.35476250845911111 0 0.1858643488631665 -0.36490873095553128 0 0.2100161145254463 -0.36402745282829729 0 0.1858643488631665 -0.36490873095553128 0 0.1853592673138609 -0.3663748705068115 0 0.20643499326736109 -0.37506344337418801 0 0.19495058931479739 -0.38037920614636611 0 0.1853592673138609 -0.3663748705068115 0 0.1858643488631665 -0.36490873095553128 0 0.20643499326736109 -0.37506344337418801 0 0.2100161145254463 -0.36402745282829729 0 0.19998130272298029 -0.35476250845911111 0 0.1858643488631665 -0.36490873095553128 0 0.1853592673138609 -0.3663748705068115 0 0.20643499326736109 -0.37506344337418801 0 0.2100161145254463 -0.36402745282829729 0 0.1858643488631665 -0.36490873095553128 0 0.20643499326736109 -0.37506344337418801 0 0.18332475330090359 -0.37228061278967151 0 0.1853592673138609 -0.3663748705068115 0 0.19495058931479739 -0.38037920614636611 0 0.22127234458417941 -0.33168672142554512 0 0.20034353811379799 -0.32287886061087823 0 0.22127234458417941 -0.33168672142554512 0 0.21172039737698059 -0.3202738598564886 0 0.20034353811379799 -0.32287886061087823 0 0.2136199151071044 -0.31126008441641828 0 0.21172039737698059 -0.3202738598564886 0 0.20244703007431281 -0.3167728906673159 0 0.2136199151071044 -0.31126008441641828 0 0.20244703007431281 -0.3167728906673159 0 0.21172039737698059 -0.3202738598564886 0 0.20034353811379799 -0.32287886061087823 0 0.20244703007431281 -0.3167728906673159 0 0.2136199151071044 -0.31126008441641828 0 0.22091915900550871 -0.31877074216228563 0 0.21172039737698059 -0.3202738598564886 0 0.22127234458417941 -0.33168672142554512 0 0.22091915900550871 -0.31877074216228563 0 0.21172039737698059 -0.3202738598564886 0 0.22127234458417941 -0.33168672142554512 0 0.2109408040148267 -0.34622005426941138 0 0.20034353811379799 -0.32287886061087823 0 0.193103943488482 -0.34389379578320473 0 0.18898377540865441 -0.32341578677342281 0 0.20034353811379799 -0.32287886061087823 0 0.2109408040148267 -0.34622005426941138 0 0.193103943488482 -0.34389379578320473 0 0.20034353811379799 -0.32287886061087823 0 0.193103943488482 -0.34389379578320473 0 0.20034353811379799 -0.32287886061087823 0 0.193103943488482 -0.34389379578320473 0 0.18898377540865441 -0.32341578677342281 0 0.18424871791314429 -0.34369038837889032 0 0.1927632639360419 -0.30723274691850683 0 0.18898377540865441 -0.32341578677342281 0 0.18898377540865441 -0.32341578677342281 0 0.19480015003112139 -0.3205459329906114 0 0.20034353811379799 -0.32287886061087823 0 0.1927632639360419 -0.30723274691850683 0 0.18898377540865441 -0.32341578677342281 0 0.19134806799729751 -0.31909312878423252 0 0.18898377540865441 -0.32341578677342281 0 0.19480015003112139 -0.3205459329906114 0 0.18898377540865441 -0.32341578677342281 0 0.19480015003112139 -0.3205459329906114 0 0.19134806799729751 -0.31909312878423252 0 0.19480015003112139 -0.3205459329906114 0 0.20034353811379799 -0.32287886061087823 0 0.20034353811379799 -0.32287886061087823 0 0.20244703007431281 -0.3167728906673159 0 0.19480015003112139 -0.3205459329906114 0 0.20244703007431281 -0.3167728906673159 0 0.19480015003112139 -0.3205459329906114 0 0.20034353811379799 -0.32287886061087823 0 0.20244703007431281 -0.3167728906673159 0 0.19480015003112139 -0.3205459329906114 0 0.20244703007431281 -0.3167728906673159 0 0.19629382954622421 -0.31330696211932318 0 0.1927632639360419 -0.30723274691850683 0 0.19629382954622421 -0.31330696211932318 0 0.19134806799729751 -0.31909312878423252 0 0.19480015003112139 -0.3205459329906114 0 0.19629382954622421 -0.31330696211932318 0 0.19134806799729751 -0.31909312878423252 0 0.19480015003112139 -0.3205459329906114 0 0.19134806799729751 -0.31909312878423252 0 0.18898377540865441 -0.32341578677342281 0 0.16516088704675849 -0.33517022329455659 0 0.1782386935586418 -0.31178833214512602 0 0.1927632639360419 -0.30723274691850683 0 0.18898377540865441 -0.32341578677342281 0 0.1782386935586418 -0.31178833214512602 0 0.18898377540865441 -0.32341578677342281 0 0.18424871791314429 -0.34369038837889032 0 0.18898377540865441 -0.32341578677342281 0 0.16516088704675849 -0.33517022329455659 0 0.18424871791314429 -0.34369038837889032 0 0.16516088704675849 -0.33517022329455659 0 0.17967825701388421 -0.34755153318550269 0 0.18898377540865441 -0.32341578677342281 0 0.18424871791314429 -0.34369038837889032 0 0.16516088704675849 -0.33517022329455659 0 0.16516088704675849 -0.33517022329455659 0 0.17967825701388421 -0.34755153318550269 0 0.16516088704675849 -0.33517022329455659 0 0.16675495418240399 -0.34656021340743182 0 0.14390811692616479 -0.34565653937369317 0 0.16516088704675849 -0.33517022329455659 0 0.17967825701388421 -0.34755153318550269 0 0.16675495418240399 -0.34656021340743182 0 0.16516088704675849 -0.33517022329455659 0 0.1453227466818682 -0.3182510317279037 0 0.16057656025761161 -0.30771936678600598 0 0.16516088704675849 -0.33517022329455659 0 0.1782386935586418 -0.31178833214512602 0 0.16057656025761161 -0.30771936678600598 0 0.17454716481801569 -0.36934180115874121 0 0.1792379422180706 -0.36514556205909932 0 0.16868844538370309 -0.36930335474239728 0 0.17454716481801569 -0.36934180115874121 0 0.17795423583996789 -0.37374339981504617 0 0.1712062196078965 -0.37556276957269169 0 0.17454716481801569 -0.36934180115874121 0 0.17799358118127309 -0.36894893941989959 0 0.17795423583996789 -0.37374339981504617 0 0.17454716481801569 -0.36934180115874121 0 0.17799358118127309 -0.36894893941989959 0 0.1792379422180706 -0.36514556205909932 0 0.17799358118127309 -0.36894893941989959 0 0.17795423583996789 -0.37374339981504617 0 0.180827141379894 -0.3689759458364022 0 0.17799358118127309 -0.36894893941989959 0 0.180827141379894 -0.3689759458364022 0 0.1792379422180706 -0.36514556205909932 0 0.17795423583996789 -0.37374339981504617 0 0.18332475330090359 -0.37228061278967151 0 0.180827141379894 -0.3689759458364022 0 0.18332475330090359 -0.37228061278967151 0 0.1853592673138609 -0.3663748705068115 0 0.18332475330090359 -0.37228061278967151 0 0.180827141379894 -0.3689759458364022 0 0.1853592673138609 -0.3663748705068115 0 0.180827141379894 -0.3689759458364022 0 0.18213303189639499 -0.36504209009908112 0 0.1853592673138609 -0.3663748705068115 0 0.180827141379894 -0.3689759458364022 0 0.18213303189639499 -0.36504209009908112 0 0.1792379422180706 -0.36514556205909932 0 0.18213303189639499 -0.36504209009908112 0 0.1792379422180706 -0.36514556205909932 0 0.18213303189639499 -0.36504209009908112 0 0.1853592673138609 -0.3663748705068115 0 0.18213303189639499 -0.36504209009908112 0 0.1853592673138609 -0.3663748705068115 0 0.1858643488631665 -0.36490873095553128 0 0.18213303189639499 -0.36504209009908112 0 0.1858643488631665 -0.36490873095553128 0 0.1853592673138609 -0.3663748705068115 0 0.1858643488631665 -0.36490873095553128 0 0.18424871791314429 -0.34369038837889032 0 0.18213303189639499 -0.36504209009908112 0 0.1792379422180706 -0.36514556205909932 0 0.18424871791314429 -0.34369038837889032 0 0.18213303189639499 -0.36504209009908112 0 0.1858643488631665 -0.36490873095553128 0 0.1792379422180706 -0.36514556205909932 0 0.17249845220822221 -0.35339265270908748 0 0.17967825701388421 -0.34755153318550269 0 0.18424871791314429 -0.34369038837889032 0 0.1792379422180706 -0.36514556205909932 0 0.18424871791314429 -0.34369038837889032 0 0.1792379422180706 -0.36514556205909932 0 0.17967825701388421 -0.34755153318550269 0 0.17249845220822221 -0.35339265270908748 0 0.17967825701388421 -0.34755153318550269 0 0.16675495418240399 -0.34656021340743182 0 0.16675495418240399 -0.34656021340743182 0 0.161814800245804 -0.35666854683398957 0 0.14390811692616479 -0.34565653937369317 0 0.1792379422180706 -0.36514556205909932 0 0.17249845220822221 -0.35339265270908748 0 0.161814800245804 -0.35666854683398957 0 0.17249845220822221 -0.35339265270908748 0 0.16675495418240399 -0.34656021340743182 0 0.161814800245804 -0.35666854683398957 0 0.1792379422180706 -0.36514556205909932 0 0.161814800245804 -0.35666854683398957 0 0.1622112212404391 -0.36577181418952981 0 0.1792379422180706 -0.36514556205909932 0 0.1622112212404391 -0.36577181418952981 0 0.16868844538370309 -0.36930335474239728 0 0.161814800245804 -0.35666854683398957 0 0.1622112212404391 -0.36577181418952981 0 0.1460030775925491 -0.36089758149444912 0 0.1792379422180706 -0.36514556205909932 0 0.161814800245804 -0.35666854683398957 0 0.1792379422180706 -0.36514556205909932 0 0.1622112212404391 -0.36577181418952981 0 0.1622112212404391 -0.36577181418952981 0 0.15011464259650931 -0.37203526457508179 0 0.16200890588442471 -0.37530208022097628 0 0.1622112212404391 -0.36577181418952981 0 0.16868844538370309 -0.36930335474239728 0 0.16200890588442471 -0.37530208022097628 0 0.16868844538370309 -0.36930335474239728 0 0.1712062196078965 -0.37556276957269169 0 0.16200890588442471 -0.37530208022097628 0 0.17454716481801569 -0.36934180115874121 0 0.16868844538370309 -0.36930335474239728 0 0.1712062196078965 -0.37556276957269169 0 0.1622112212404391 -0.36577181418952981 0 0.1460030775925491 -0.36089758149444912 0 0.15011464259650931 -0.37203526457508179 0 0.1460030775925491 -0.36089758149444912 0 0.15011464259650931 -0.37203526457508179 0 0.1320557156387141 -0.3688478742013287 0 0.161814800245804 -0.35666854683398957 0 0.1460030775925491 -0.36089758149444912 0 0.14390811692616479 -0.34565653937369317 0 0.1460030775925491 -0.36089758149444912 0 0.14390811692616479 -0.34565653937369317 0 0.1226553468055713 -0.35614285545282981 0 0.14390811692616479 -0.34565653937369317 0 0.1226553468055713 -0.35614285545282981 0 0.14390811692616479 -0.34565653937369317 0 0.1164120666912927 -0.34183440338541049 0 0.1226553468055713 -0.35614285545282981 0 0.15011464259650931 -0.37203526457508179 0 0.1320557156387141 -0.3688478742013287 0 0.13729641414346869 -0.38217025962500001 0 0.1460030775925491 -0.36089758149444912 0 0.1320557156387141 -0.3688478742013287 0 0.1226553468055713 -0.35614285545282981 0 0.16516088704675849 -0.33517022329455659 0 0.1453227466818682 -0.3182510317279037 0 0.16516088704675849 -0.33517022329455659 0 0.14390811692616479 -0.34565653937369317 0 0.16516088704675849 -0.33517022329455659 0 0.14390811692616479 -0.34565653937369317 0 0.1453227466818682 -0.3182510317279037 0 0.14390811692616479 -0.34565653937369317 0 0.1234881940305048 -0.32646184031532172 0 0.1164120666912927 -0.34183440338541049 0 0.14390811692616479 -0.34565653937369317 0 0.1453227466818682 -0.3182510317279037 0 0.1234881940305048 -0.32646184031532172 0 0.1453227466818682 -0.3182510317279037 0 0.12548460631697761 -0.30133184016125109 0 0.1234881940305048 -0.32646184031532172 0 0.1453227466818682 -0.3182510317279037 0 0.12548460631697761 -0.30133184016125109 0 0.1453227466818682 -0.3182510317279037 0 0.12548460631697761 -0.30133184016125109 0 0.14608268902088001 -0.30318211822999358 0 0.12548460631697761 -0.30133184016125109 0 0.14608268902088001 -0.30318211822999358 0 0.14327426678781929 -0.29641891645397 0 0.14608268902088001 -0.30318211822999358 0 0.153106537636364 -0.29560945772013331 0 0.14327426678781929 -0.29641891645397 0 0.14608268902088001 -0.30318211822999358 0 0.153106537636364 -0.29560945772013331 0 0.16057656025761161 -0.30771936678600598 0 0.1453227466818682 -0.3182510317279037 0 0.14608268902088001 -0.30318211822999358 0 0.16057656025761161 -0.30771936678600598 0 0.14842323417705519 -0.28555224970450249 0 0.1452316578868682 -0.28115378557770881 0 0.16492854430883289 -0.28804979164636219 0 0.1452316578868682 -0.28115378557770881 0 0.16492854430883289 -0.28804979164636219 0 0.1452316578868682 -0.28115378557770881 0 0.15843695477752071 -0.2784186021505366 0 0.16492854430883289 -0.28804979164636219 0 0.153106537636364 -0.29560945772013331 0 0.14842323417705519 -0.28555224970450249 0 0.16492854430883289 -0.28804979164636219 0 0.153106537636364 -0.29560945772013331 0 0.14327426678781929 -0.29641891645397 0 0.14842323417705519 -0.28555224970450249 0 0.14143845490836349 -0.28612660547136681 0 0.14842323417705519 -0.28555224970450249 0 0.1362306816278144 -0.29066786873342959 0 0.14143845490836349 -0.28612660547136681 0 0.14842323417705519 -0.28555224970450249 0 0.1438744906464427 -0.28412662309222392 0 0.14842323417705519 -0.28555224970450249 0 0.1438744906464427 -0.28412662309222392 0 0.1452316578868682 -0.28115378557770881 0 0.1438744906464427 -0.28412662309222392 0 0.1404046156134838 -0.28367385161531761 0 0.1452316578868682 -0.28115378557770881 0 0.14143845490836349 -0.28612660547136681 0 0.1438744906464427 -0.28412662309222392 0 0.1404046156134838 -0.28367385161531761 0 0.1404046156134838 -0.28367385161531761 0 0.13608549596031619 -0.28593740254525618 0 0.13446469743841921 -0.28032931992471333 0 0.12548460631697761 -0.30133184016125109 0 0.14842323417705519 -0.28555224970450249 0 0.1362306816278144 -0.29066786873342959 0 0.12548460631697761 -0.30133184016125109 0 0.14327426678781929 -0.29641891645397 0 0.14842323417705519 -0.28555224970450249 0 0.1404046156134838 -0.28367385161531761 0 0.13446469743841921 -0.28032931992471333 0 0.1452316578868682 -0.28115378557770881 0 0.12548460631697761 -0.30133184016125109 0 0.14842323417705519 -0.28555224970450249 0 0.14143845490836349 -0.28612660547136681 0 0.1404046156134838 -0.28367385161531761 0 0.13608549596031619 -0.28593740254525618 0 0.14143845490836349 -0.28612660547136681 0 0.13608549596031619 -0.28593740254525618 0 0.1362306816278144 -0.29066786873342959 0 0.13608549596031619 -0.28593740254525618 0 0.1362306816278144 -0.29066786873342959 0 0.1325616885714454 -0.28897687537844507 0 0.13608549596031619 -0.28593740254525618 0 0.131415824566393 -0.28634888981253293 0 0.1325616885714454 -0.28897687537844507 0 0.13608549596031619 -0.28593740254525618 0 0.131415824566393 -0.28634888981253293 0 0.13446469743841921 -0.28032931992471333 0 0.1362306816278144 -0.29066786873342959 0 0.13004254577757421 -0.29274645077518441 0 0.1325616885714454 -0.28897687537844507 0 0.12548460631697761 -0.30133184016125109 0 0.1362306816278144 -0.29066786873342959 0 0.13004254577757421 -0.29274645077518441 0 0.12548460631697761 -0.30133184016125109 0 0.13004254577757421 -0.29274645077518441 0 0.1261097900802623 -0.29449150984196393 0 0.13004254577757421 -0.29274645077518441 0 0.1325616885714454 -0.28897687537844507 0 0.1286093164254179 -0.2887596828116249 0 0.13004254577757421 -0.29274645077518441 0 0.12523133040235679 -0.29045393838619737 0 0.1286093164254179 -0.2887596828116249 0 0.13004254577757421 -0.29274645077518441 0 0.12523133040235679 -0.29045393838619737 0 0.1261097900802623 -0.29449150984196393 0 0.1299188874233122 -0.28189240923735132 0 0.131415824566393 -0.28634888981253293 0 0.13446469743841921 -0.28032931992471333 0 0.1299188874233122 -0.28189240923735132 0 0.131415824566393 -0.28634888981253293 0 0.12735455052642761 -0.28529551239677459 0 0.131415824566393 -0.28634888981253293 0 0.1325616885714454 -0.28897687537844507 0 0.1286093164254179 -0.2887596828116249 0 0.131415824566393 -0.28634888981253293 0 0.12735455052642761 -0.28529551239677459 0 0.1286093164254179 -0.2887596828116249 0 0.12735455052642761 -0.28529551239677459 0 0.1286093164254179 -0.2887596828116249 0 0.1235083741144246 -0.28714055874716521 0 0.12523133040235679 -0.29045393838619737 0 0.1286093164254179 -0.2887596828116249 0 0.1235083741144246 -0.28714055874716521 0 0.1299188874233122 -0.28189240923735132 0 0.12735455052642761 -0.28529551239677459 0 0.12598568784125469 -0.2815087530436528 0 0.12735455052642761 -0.28529551239677459 0 0.12598568784125469 -0.2815087530436528 0 0.1218736263182264 -0.28340730483075433 0 0.12553477146490369 -0.27425777950905461 0 0.13875688942717571 -0.2722300739507913 0 0.14751756987647169 -0.25371240423406272 0 0.1299188874233122 -0.28189240923735132 0 0.12553477146490369 -0.27425777950905461 0 0.13446469743841921 -0.28032931992471333 0 0.1299188874233122 -0.28189240923735132 0 0.12598568784125469 -0.2815087530436528 0 0.12553477146490369 -0.27425777950905461 0 0.12553477146490369 -0.27425777950905461 0 0.13446469743841921 -0.28032931992471333 0 0.1452316578868682 -0.28115378557770881 0 0.12553477146490369 -0.27425777950905461 0 0.1452316578868682 -0.28115378557770881 0 0.12553477146490369 -0.27425777950905461 0 0.13875688942717571 -0.2722300739507913 0 0.1452316578868682 -0.28115378557770881 0 0.12553477146490369 -0.27425777950905461 0 0.12995820875369279 -0.25235635345497848 0 0.14751756987647169 -0.25371240423406272 0 0.12553477146490369 -0.27425777950905461 0 0.14751756987647169 -0.25371240423406272 0 0.13875688942717571 -0.2722300739507913 0 0.14751756987647169 -0.25371240423406272 0 0.1478942332044979 -0.26739150796765548 0 0.14751756987647169 -0.25371240423406272 0 0.1478942332044979 -0.26739150796765548 0 0.16157845838820231 -0.25657455779082111 0 0.13875688942717571 -0.2722300739507913 0 0.14590378781658259 -0.27390914029633978 0 0.1452316578868682 -0.28115378557770881 0 0.14590378781658259 -0.27390914029633978 0 0.1452316578868682 -0.28115378557770881 0 0.15173237074778881 -0.2748611936892037 0 0.13875688942717571 -0.2722300739507913 0 0.14590378781658259 -0.27390914029633978 0 0.1478942332044979 -0.26739150796765548 0 0.1478942332044979 -0.26739150796765548 0 0.15173237074778881 -0.2748611936892037 0 0.15987273321916301 -0.27091271560137647 0 0.14590378781658259 -0.27390914029633978 0 0.1478942332044979 -0.26739150796765548 0 0.15173237074778881 -0.2748611936892037 0 0.1452316578868682 -0.28115378557770881 0 0.15173237074778881 -0.2748611936892037 0 0.15843695477752071 -0.2784186021505366 0 0.15843695477752071 -0.2784186021505366 0 0.15987273321916301 -0.27091271560137647 0 0.17041946772495059 -0.27711552423803187 0 0.15173237074778881 -0.2748611936892037 0 0.15843695477752071 -0.2784186021505366 0 0.15987273321916301 -0.27091271560137647 0 0.15987273321916301 -0.27091271560137647 0 0.17041946772495059 -0.27711552423803187 0 0.17442985721634999 -0.26362809694871148 0 0.15843695477752071 -0.2784186021505366 0 0.17041946772495059 -0.27711552423803187 0 0.16492854430883289 -0.28804979164636219 0 0.1478942332044979 -0.26739150796765548 0 0.15987273321916301 -0.27091271560137647 0 0.16157845838820231 -0.25657455779082111 0 0.15987273321916301 -0.27091271560137647 0 0.16157845838820231 -0.25657455779082111 0 0.17442985721634999 -0.26362809694871148 0 0.16157845838820231 -0.25657455779082111 0 0.17269244180823551 -0.25082577604891387 0 0.17442985721634999 -0.26362809694871148 0 0.17269244180823551 -0.25082577604891387 0 0.17442985721634999 -0.26362809694871148 0 0.18526108334034891 -0.24993342049705089 0 0.18926497556930161 -0.26522802513740912 0 0.17442985721634999 -0.26362809694871148 0 0.18526108334034891 -0.24993342049705089 0 0.17041946772495059 -0.27711552423803187 0 0.18219069027275309 -0.27712350265800628 0 0.17521264242282961 -0.28599922093977592 0 0.17041946772495059 -0.27711552423803187 0 0.17442985721634999 -0.26362809694871148 0 0.18219069027275309 -0.27712350265800628 0 0.18926497556930161 -0.26522802513740912 0 0.17442985721634999 -0.26362809694871148 0 0.18219069027275309 -0.27712350265800628 0 0.19099637950278439 -0.27463164331408441 0 0.18926497556930161 -0.26522802513740912 0 0.18219069027275309 -0.27712350265800628 0 0.19130962352468001 -0.28337537387545531 0 0.18219069027275309 -0.27712350265800628 0 0.18399018389056199 -0.29013063531583472 0 0.18219069027275309 -0.27712350265800628 0 0.17521264242282961 -0.28599922093977592 0 0.18399018389056199 -0.29013063531583472 0 0.17521264242282961 -0.28599922093977592 0 0.18399018389056199 -0.29013063531583472 0 0.17453432591704929 -0.29757665084064422 0 0.18399018389056199 -0.29013063531583472 0 0.18463111213085709 -0.29988289052315681 0 0.17453432591704929 -0.29757665084064422 0 0.19362909335199041 -0.29268608739567209 0 0.18399018389056199 -0.29013063531583472 0 0.18463111213085709 -0.29988289052315681 0 0.1927632639360419 -0.30723274691850683 0 0.18463111213085709 -0.29988289052315681 0 0.1782386935586418 -0.31178833214512602 0 0.18463111213085709 -0.29988289052315681 0 0.1782386935586418 -0.31178833214512602 0 0.17453432591704929 -0.29757665084064422 0 0.1782386935586418 -0.31178833214512602 0 0.17453432591704929 -0.29757665084064422 0 0.16057656025761161 -0.30771936678600598 0 0.153106537636364 -0.29560945772013331 0 0.16057656025761161 -0.30771936678600598 0 0.16492854430883289 -0.28804979164636219 0 0.17453432591704929 -0.29757665084064422 0 0.16057656025761161 -0.30771936678600598 0 0.16492854430883289 -0.28804979164636219 0 0.17041946772495059 -0.27711552423803187 0 0.17521264242282961 -0.28599922093977592 0 0.16492854430883289 -0.28804979164636219 0 0.17521264242282961 -0.28599922093977592 0 0.17453432591704929 -0.29757665084064422 0 0.16492854430883289 -0.28804979164636219 0 0.19334629118408611 -0.5 0 0.20700193411841111 -0.4876963543616758 0 0.18415236199864479 -0.48195148884846117 0 0.20232248250208579 -0.47163874892304269 0 0.20700193411841111 -0.4876963543616758 0 0.18415236199864479 -0.48195148884846117 0 0.20232248250208579 -0.47163874892304269 0 0.1781102501660374 -0.45970279164374428 0 0.18415236199864479 -0.48195148884846117 0 0.20232248250208579 -0.47163874892304269 0 0.21275757600124939 -0.47687621001561942 0 0.20700193411841111 -0.4876963543616758 0 0.20232248250208579 -0.47163874892304269 0 0.21275757600124939 -0.47687621001561942 0 0.2181446036661801 -0.46672843150272569 0 0.21275757600124939 -0.47687621001561942 0 0.20700193411841111 -0.4876963543616758 0 0.22356128371832079 -0.48144130527503359 0 0.20232248250208579 -0.47163874892304269 0 0.2181446036661801 -0.46672843150272569 0 0.21275757600124939 -0.47687621001561942 0 0.22356128371832079 -0.48144130527503359 0 0.2181446036661801 -0.46672843150272569 0 0.19334629118408611 -0.5 0 0.20700193411841111 -0.4876963543616758 0 0.2208774859061107 -0.5 0 0.20700193411841111 -0.4876963543616758 0 0.2208774859061107 -0.5 0 0.22356128371832079 -0.48144130527503359 0 0.2208774859061107 -0.5 0 0.22897796377046151 -0.4961541790473416 0 0.22356128371832079 -0.48144130527503359 0 0.2208774859061107 -0.5 0 0.22897796377046151 -0.4961541790473416 0 0.24840868062813529 -0.5 0 0.22897796377046151 -0.4961541790473416 0 0.22356128371832079 -0.48144130527503359 0 0.22897796377046151 -0.4961541790473416 0 0.23464308184349469 -0.48653314367154621 0 0.22356128371832079 -0.48144130527503359 0 0.22897796377046151 -0.4961541790473416 0 0.24840868062813529 -0.5 0 0.23464308184349469 -0.48653314367154621 0 0.24840868062813529 -0.5 0 0.23464308184349469 -0.48653314367154621 0 0.24386290002639691 -0.47991278089067091 0 0.24386290002639691 -0.47991278089067091 0 0.2334226437956014 -0.47448391565125142 0 0.24690134972361449 -0.45780391691628047 0 0.25851468836889691 -0.48015031187998147 0 0.24386290002639691 -0.47991278089067091 0 0.24690134972361449 -0.45780391691628047 0 0.23464308184349469 -0.48653314367154621 0 0.24386290002639691 -0.47991278089067091 0 0.2334226437956014 -0.47448391565125142 0 0.23464308184349469 -0.48653314367154621 0 0.2334226437956014 -0.47448391565125142 0 0.22356128371832079 -0.48144130527503359 0 0.2334226437956014 -0.47448391565125142 0 0.22356128371832079 -0.48144130527503359 0 0.2181446036661801 -0.46672843150272569 0 0.22356128371832079 -0.48144130527503359 0 0.2181446036661801 -0.46672843150272569 0 0.24690134972361449 -0.45780391691628047 0 0.2181446036661801 -0.46672843150272569 0 0.24690134972361449 -0.45780391691628047 0 0.22755136898578379 -0.44789982653309879 0 0.2181446036661801 -0.46672843150272569 0 0.2334226437956014 -0.47448391565125142 0 0.24690134972361449 -0.45780391691628047 0 0.2181446036661801 -0.46672843150272569 0 0.24690134972361449 -0.45780391691628047 0 0.24325533924919579 -0.44161904974508898 0 0.22755136898578379 -0.44789982653309879 0 0.25753091473130918 -0.43980992396812418 0 0.24690134972361449 -0.45780391691628047 0 0.24325533924919579 -0.44161904974508898 0 0.24325533924919579 -0.44161904974508898 0 0.22755136898578379 -0.44789982653309879 0 0.23374085417517451 -0.43409187453939219 0 0.22755136898578379 -0.44789982653309879 0 0.20968319733881779 -0.44374542308569942 0 0.2181446036661801 -0.46672843150272569 0 0.22755136898578379 -0.44789982653309879 0 0.20968319733881779 -0.44374542308569942 0 0.21791941024017139 -0.42882980559401968 0 0.20232248250208579 -0.47163874892304269 0 0.2181446036661801 -0.46672843150272569 0 0.1962310246338333 -0.45332201030314229 0 0.20968319733881779 -0.44374542308569942 0 0.2181446036661801 -0.46672843150272569 0 0.1962310246338333 -0.45332201030314229 0 0.20968319733881779 -0.44374542308569942 0 0.2181446036661801 -0.46672843150272569 0 0.20232248250208579 -0.47163874892304269 0 0.1962310246338333 -0.45332201030314229 0 0.1781102501660374 -0.45970279164374428 0 0.20968319733881779 -0.44374542308569942 0 0.1962310246338333 -0.45332201030314229 0 0.19521316090412311 -0.43655673247077931 0 0.1962310246338333 -0.45332201030314229 0 0.19521316090412311 -0.43655673247077931 0 0.1784591243333952 -0.43271061578325859 0 0.19521316090412311 -0.43655673247077931 0 0.20122179101145529 -0.42076241466867309 0 0.1784591243333952 -0.43271061578325859 0 0.20122179101145529 -0.42076241466867309 0 0.1784591243333952 -0.43271061578325859 0 0.20968319733881779 -0.44374542308569942 0 0.19521316090412311 -0.43655673247077931 0 0.20122179101145529 -0.42076241466867309 0 0.18828353400414061 -0.41920468730849531 0 0.20122179101145529 -0.42076241466867309 0 0.1784591243333952 -0.43271061578325859 0 0.1971230253456239 -0.40962928122103343 0 0.20122179101145529 -0.42076241466867309 0 0.20679391766702629 -0.40260513783237728 0 0.18828353400414061 -0.41920468730849531 0 0.1971230253456239 -0.40962928122103343 0 0.17814458602434161 -0.41222885102462642 0 0.1971230253456239 -0.40962928122103343 0 0.18888567107604889 -0.39997289856246471 0 0.17814458602434161 -0.41222885102462642 0 0.1971230253456239 -0.40962928122103343 0 0.20122179101145529 -0.42076241466867309 0 0.18828353400414061 -0.41920468730849531 0 0.1971230253456239 -0.40962928122103343 0 0.20122179101145529 -0.42076241466867309 0 0.20122179101145529 -0.42076241466867309 0 0.21872703818392639 -0.4115738509236847 0 0.21791941024017139 -0.42882980559401968 0 0.20122179101145529 -0.42076241466867309 0 0.21872703818392639 -0.4115738509236847 0 0.20122179101145529 -0.42076241466867309 0 0.21872703818392639 -0.4115738509236847 0 0.20679391766702629 -0.40260513783237728 0 0.20968319733881779 -0.44374542308569942 0 0.20122179101145529 -0.42076241466867309 0 0.21791941024017139 -0.42882980559401968 0 0.20968319733881779 -0.44374542308569942 0 0.20122179101145529 -0.42076241466867309 0 0.22755136898578379 -0.44789982653309879 0 0.21791941024017139 -0.42882980559401968 0 0.23374085417517451 -0.43409187453939219 0 0.21791941024017139 -0.42882980559401968 0 0.23374085417517451 -0.43409187453939219 0 0.2344860885944903 -0.41879913096012478 0 0.25055220863009692 -0.42848970676854908 0 0.23374085417517451 -0.43409187453939219 0 0.2344860885944903 -0.41879913096012478 0 0.25055220863009692 -0.42848970676854908 0 0.24325533924919579 -0.44161904974508898 0 0.23374085417517451 -0.43409187453939219 0 0.25055220863009692 -0.42848970676854908 0 0.2344860885944903 -0.41879913096012478 0 0.24974699242630519 -0.41370154864014491 0 0.2344860885944903 -0.41879913096012478 0 0.24974699242630519 -0.41370154864014491 0 0.23623228535639809 -0.40238528717869759 0 0.21872703818392639 -0.4115738509236847 0 0.21791941024017139 -0.42882980559401968 0 0.2344860885944903 -0.41879913096012478 0 0.21872703818392639 -0.4115738509236847 0 0.23623228535639809 -0.40238528717869759 0 0.21872703818392639 -0.4115738509236847 0 0.2344860885944903 -0.41879913096012478 0 0.23623228535639809 -0.40238528717869759 0 0.22690754681932779 -0.39462058160409852 0 0.23623228535639809 -0.40238528717869759 0 0.23413909468179181 -0.38648459699876803 0 0.21872703818392639 -0.4115738509236847 0 0.22690754681932779 -0.39462058160409852 0 0.21649996337878591 -0.39143126554678709 0 0.21872703818392639 -0.4115738509236847 0 0.22690754681932779 -0.39462058160409852 0 0.23623228535639809 -0.40238528717869759 0 0.23623228535639809 -0.40238528717869759 0 0.24424693218194199 -0.39324210659662617 0 0.23413909468179181 -0.38648459699876803 0 0.25624724933655108 -0.39128642178475592 0 0.24424693218194199 -0.39324210659662617 0 0.2491629991534493 -0.40150080443638358 0 0.23623228535639809 -0.40238528717869759 0 0.24424693218194199 -0.39324210659662617 0 0.2491629991534493 -0.40150080443638358 0 0.24974699242630519 -0.41370154864014491 0 0.23623228535639809 -0.40238528717869759 0 0.2491629991534493 -0.40150080443638358 0 0.25917113102860018 -0.37807428704217833 0 0.24291518253543351 -0.37300845640770652 0 0.24734391795286381 -0.38441917376600698 0 0.25624724933655108 -0.39128642178475592 0 0.24424693218194199 -0.39324210659662617 0 0.24734391795286381 -0.38441917376600698 0 0.24424693218194199 -0.39324210659662617 0 0.24734391795286381 -0.38441917376600698 0 0.23413909468179181 -0.38648459699876803 0 0.24291518253543351 -0.37300845640770652 0 0.23413909468179181 -0.38648459699876803 0 0.22751071922085661 -0.38375201624157562 0 0.24291518253543351 -0.37300845640770652 0 0.24734391795286381 -0.38441917376600698 0 0.23413909468179181 -0.38648459699876803 0 0.24291518253543351 -0.37300845640770652 0 0.22751071922085661 -0.38375201624157562 0 0.2242089779473655 -0.37179950871056722 0 0.22751071922085661 -0.38375201624157562 0 0.20643499326736109 -0.37506344337418801 0 0.24291518253543351 -0.37300845640770652 0 0.2242089779473655 -0.37179950871056722 0 0.22751071922085661 -0.38375201624157562 0 0.22690754681932779 -0.39462058160409852 0 0.23413909468179181 -0.38648459699876803 0 0.22751071922085661 -0.38375201624157562 0 0.23413909468179181 -0.38648459699876803 0 0.22751071922085661 -0.38375201624157562 0 0.22690754681932779 -0.39462058160409852 0 0.22751071922085661 -0.38375201624157562 0 0.21649996337878591 -0.39143126554678709 0 0.22751071922085661 -0.38375201624157562 0 0.21649996337878591 -0.39143126554678709 0 0.22751071922085661 -0.38375201624157562 0 0.20643499326736109 -0.37506344337418801 0 0.21649996337878591 -0.39143126554678709 0 0.1986598632626129 -0.39291935016666391 0 0.19495058931479739 -0.38037920614636611 0 0.22751071922085661 -0.38375201624157562 0 0.20643499326736109 -0.37506344337418801 0 0.21649996337878591 -0.39143126554678709 0 0.20643499326736109 -0.37506344337418801 0 0.21649996337878591 -0.39143126554678709 0 0.19495058931479739 -0.38037920614636611 0 0.21649996337878591 -0.39143126554678709 0 0.20679391766702629 -0.40260513783237728 0 0.1986598632626129 -0.39291935016666391 0 0.21872703818392639 -0.4115738509236847 0 0.21649996337878591 -0.39143126554678709 0 0.20679391766702629 -0.40260513783237728 0 0.20679391766702629 -0.40260513783237728 0 0.1986598632626129 -0.39291935016666391 0 0.19786561933782801 -0.40128166694563477 0 0.1971230253456239 -0.40962928122103343 0 0.20679391766702629 -0.40260513783237728 0 0.19786561933782801 -0.40128166694563477 0 0.1971230253456239 -0.40962928122103343 0 0.19786561933782801 -0.40128166694563477 0 0.18888567107604889 -0.39997289856246471 0 0.1986598632626129 -0.39291935016666391 0 0.19786561933782801 -0.40128166694563477 0 0.18888567107604889 -0.39997289856246471 0 0.1986598632626129 -0.39291935016666391 0 0.18888567107604889 -0.39997289856246471 0 0.18929933612091521 -0.39251555814241551 0 0.1986598632626129 -0.39291935016666391 0 0.18929933612091521 -0.39251555814241551 0 0.18881897592042321 -0.38549640026476839 0 0.1986598632626129 -0.39291935016666391 0 0.18881897592042321 -0.38549640026476839 0 0.19495058931479739 -0.38037920614636611 0 0.18881897592042321 -0.38549640026476839 0 0.19495058931479739 -0.38037920614636611 0 0.18555630875963411 -0.37908850037567332 0 0.18332475330090359 -0.37228061278967151 0 0.19495058931479739 -0.38037920614636611 0 0.18555630875963411 -0.37908850037567332 0 0.17837584944100529 -0.38200870655219732 0 0.18083283422457561 -0.39167358357576509 0 0.1684160496373279 -0.38711404938985622 0 0.17837584944100529 -0.38200870655219732 0 0.1684160496373279 -0.38711404938985622 0 0.1712062196078965 -0.37556276957269169 0 0.17795423583996789 -0.37374339981504617 0 0.17837584944100529 -0.38200870655219732 0 0.1712062196078965 -0.37556276957269169 0 0.17795423583996789 -0.37374339981504617 0 0.17837584944100529 -0.38200870655219732 0 0.18555630875963411 -0.37908850037567332 0 0.18881897592042321 -0.38549640026476839 0 0.17837584944100529 -0.38200870655219732 0 0.18555630875963411 -0.37908850037567332 0 0.17795423583996789 -0.37374339981504617 0 0.18332475330090359 -0.37228061278967151 0 0.18555630875963411 -0.37908850037567332 0 0.18929933612091521 -0.39251555814241551 0 0.18881897592042321 -0.38549640026476839 0 0.18083283422457561 -0.39167358357576509 0 0.18881897592042321 -0.38549640026476839 0 0.17837584944100529 -0.38200870655219732 0 0.18083283422457561 -0.39167358357576509 0 0.18888567107604889 -0.39997289856246471 0 0.18929933612091521 -0.39251555814241551 0 0.18083283422457561 -0.39167358357576509 0 0.18888567107604889 -0.39997289856246471 0 0.18083283422457561 -0.39167358357576509 0 0.17525924605870641 -0.39902030467514538 0 0.18888567107604889 -0.39997289856246471 0 0.17525924605870641 -0.39902030467514538 0 0.17814458602434161 -0.41222885102462642 0 0.17525924605870641 -0.39902030467514538 0 0.16289683266541241 -0.40104670636940642 0 0.17814458602434161 -0.41222885102462642 0 0.18083283422457561 -0.39167358357576509 0 0.17525924605870641 -0.39902030467514538 0 0.1684160496373279 -0.38711404938985622 0 0.17525924605870641 -0.39902030467514538 0 0.16289683266541241 -0.40104670636940642 0 0.1684160496373279 -0.38711404938985622 0 0.16289683266541241 -0.40104670636940642 0 0.1684160496373279 -0.38711404938985622 0 0.15473905703432331 -0.38440269230224938 0 0.1684160496373279 -0.38711404938985622 0 0.1712062196078965 -0.37556276957269169 0 0.16200890588442471 -0.37530208022097628 0 0.1684160496373279 -0.38711404938985622 0 0.16200890588442471 -0.37530208022097628 0 0.15473905703432331 -0.38440269230224938 0 0.15473905703432331 -0.38440269230224938 0 0.13729641414346869 -0.38217025962500001 0 0.14516465197046771 -0.39759163452138457 0 0.15011464259650931 -0.37203526457508179 0 0.15473905703432331 -0.38440269230224938 0 0.13729641414346869 -0.38217025962500001 0 0.15011464259650931 -0.37203526457508179 0 0.16200890588442471 -0.37530208022097628 0 0.15473905703432331 -0.38440269230224938 0 0.13729641414346869 -0.38217025962500001 0 0.12256412464068531 -0.39793282435142191 0 0.1152607278426057 -0.37684903944505921 0 0.1320557156387141 -0.3688478742013287 0 0.13729641414346869 -0.38217025962500001 0 0.1152607278426057 -0.37684903944505921 0 0.13729641414346869 -0.38217025962500001 0 0.14516465197046771 -0.39759163452138457 0 0.12256412464068531 -0.39793282435142191 0 0.14516465197046771 -0.39759163452138457 0 0.13736028543369699 -0.41271904482153321 0 0.12256412464068531 -0.39793282435142191 0 0.16289683266541241 -0.40104670636940642 0 0.15473905703432331 -0.38440269230224938 0 0.14516465197046771 -0.39759163452138457 0 0.16289683266541241 -0.40104670636940642 0 0.14516465197046771 -0.39759163452138457 0 0.15104056192802609 -0.40859223385183091 0 0.15104056192802609 -0.40859223385183091 0 0.13736028543369699 -0.41271904482153321 0 0.15715866763252959 -0.42159458426377999 0 0.14516465197046771 -0.39759163452138457 0 0.15104056192802609 -0.40859223385183091 0 0.13736028543369699 -0.41271904482153321 0 0.13736028543369699 -0.41271904482153321 0 0.13600707465786491 -0.43295394887718669 0 0.1100121008960176 -0.42045483689860891 0 0.13600707465786491 -0.43295394887718669 0 0.15715866763252959 -0.42159458426377999 0 0.15569645765533571 -0.44465881689784542 0 0.13736028543369699 -0.41271904482153321 0 0.13600707465786491 -0.43295394887718669 0 0.15715866763252959 -0.42159458426377999 0 0.15715866763252959 -0.42159458426377999 0 0.1784591243333952 -0.43271061578325859 0 0.15569645765533571 -0.44465881689784542 0 0.15715866763252959 -0.42159458426377999 0 0.17814458602434161 -0.41222885102462642 0 0.1784591243333952 -0.43271061578325859 0 0.16289683266541241 -0.40104670636940642 0 0.15104056192802609 -0.40859223385183091 0 0.15715866763252959 -0.42159458426377999 0 0.16289683266541241 -0.40104670636940642 0 0.15715866763252959 -0.42159458426377999 0 0.17814458602434161 -0.41222885102462642 0 0.18828353400414061 -0.41920468730849531 0 0.17814458602434161 -0.41222885102462642 0 0.1784591243333952 -0.43271061578325859 0 0.1962310246338333 -0.45332201030314229 0 0.1784591243333952 -0.43271061578325859 0 0.1781102501660374 -0.45970279164374428 0 0.1781102501660374 -0.45970279164374428 0 0.15569645765533571 -0.44465881689784542 0 0.15831811755918701 -0.47267103816230471 0 0.1784591243333952 -0.43271061578325859 0 0.15569645765533571 -0.44465881689784542 0 0.1784591243333952 -0.43271061578325859 0 0.1781102501660374 -0.45970279164374428 0 0.15569645765533571 -0.44465881689784542 0 0.13600707465786491 -0.43295394887718669 0 0.15569645765533571 -0.44465881689784542 0 0.1388331263269961 -0.45585326328940468 0 0.13600707465786491 -0.43295394887718669 0 0.1388331263269961 -0.45585326328940468 0 0.1185388948134764 -0.44540794550726759 0 0.1388331263269961 -0.45585326328940468 0 0.1270656887309351 -0.47036105411592638 0 0.1185388948134764 -0.44540794550726759 0 0.1388331263269961 -0.45585326328940468 0 0.14110952809124849 -0.47618229237266357 0 0.1270656887309351 -0.47036105411592638 0 0.15569645765533571 -0.44465881689784542 0 0.1388331263269961 -0.45585326328940468 0 0.15831811755918701 -0.47267103816230471 0 0.1388331263269961 -0.45585326328940468 0 0.14110952809124849 -0.47618229237266357 0 0.15831811755918701 -0.47267103816230471 0 0.14110952809124849 -0.47618229237266357 0 0.14729531000159329 -0.48967674198641642 0 0.15831811755918701 -0.47267103816230471 0 0.1270656887309351 -0.47036105411592638 0 0.13559248264839391 -0.49531416272458523 0 0.14110952809124849 -0.47618229237266357 0 0.1270656887309351 -0.47036105411592638 0 0.13559248264839391 -0.49531416272458523 0 0.1382839017400366 -0.49999999999999978 0 0.11454070371648491 -0.49926309986027378 0 0.1270656887309351 -0.47036105411592638 0 0.13559248264839391 -0.49531416272458523 0 0.12423364320100171 -0.49284817598305358 0 0.1382839017400366 -0.49999999999999978 0 0.11454070371648491 -0.49926309986027378 0 0.12423364320100171 -0.49284817598305358 0 0.1382839017400366 -0.49999999999999978 0 0.13559248264839391 -0.49531416272458523 0 0.12423364320100171 -0.49284817598305358 0 0.1382839017400366 -0.49999999999999978 0 0.13559248264839391 -0.49531416272458523 0 0.14729531000159329 -0.48967674198641642 0 0.14110952809124849 -0.47618229237266357 0 0.13559248264839391 -0.49531416272458523 0 0.14729531000159329 -0.48967674198641642 0 0.1382839017400366 -0.49999999999999978 0 0.14729531000159329 -0.48967674198641642 0 0.1658150964620613 -0.5 0 0.14729531000159329 -0.48967674198641642 0 0.1658150964620613 -0.5 0 0.15831811755918701 -0.47267103816230471 0 0.1658150964620613 -0.5 0 0.15831811755918701 -0.47267103816230471 0 0.18415236199864479 -0.48195148884846117 0 0.1781102501660374 -0.45970279164374428 0 0.15831811755918701 -0.47267103816230471 0 0.18415236199864479 -0.48195148884846117 0 0.19334629118408611 -0.5 0 0.1658150964620613 -0.5 0 0.18415236199864479 -0.48195148884846117 0 0.067054307669381696 -0.49778929958082241 0 0.083874226880780944 -0.5 0 0.056669389451153178 -0.5 0 0.073818568314492752 -0.49030933551536088 0 0.067054307669381696 -0.49778929958082241 0 0.083670085070544589 -0.49173288148918548 0 0.073818568314492752 -0.49030933551536088 0 0.068077961459141245 -0.48602330882303491 0 0.07938830607865266 -0.4832590681756429 0 0.067054307669381696 -0.49778929958082241 0 0.068077961459141245 -0.48602330882303491 0 0.056453052244573462 -0.48890732663799019 0 0.073818568314492752 -0.49030933551536088 0 0.067054307669381696 -0.49778929958082241 0 0.068077961459141245 -0.48602330882303491 0 0.071851484212900857 -0.47542987984420509 0 0.078873714980636667 -0.46351047661630729 0 0.060835100993874909 -0.46820840556564458 0 0.068077961459141245 -0.48602330882303491 0 0.071851484212900857 -0.47542987984420509 0 0.059902050234846023 -0.4804449431841884 0 0.071851484212900857 -0.47542987984420509 0 0.060835100993874909 -0.46820840556564458 0 0.059902050234846023 -0.4804449431841884 0 0.068077961459141245 -0.48602330882303491 0 0.071851484212900857 -0.47542987984420509 0 0.07938830607865266 -0.4832590681756429 0 0.071851484212900857 -0.47542987984420509 0 0.07938830607865266 -0.4832590681756429 0 0.087924014642995471 -0.47398976935526632 0 0.071851484212900857 -0.47542987984420509 0 0.087924014642995471 -0.47398976935526632 0 0.078873714980636667 -0.46351047661630729 0 0.07938830607865266 -0.4832590681756429 0 0.087924014642995471 -0.47398976935526632 0 0.092298425623818431 -0.48519561589966143 0 0.067054307669381696 -0.49778929958082241 0 0.083874226880780944 -0.5 0 0.090797505692933322 -0.49852619972054812 0 0.067054307669381696 -0.49778929958082241 0 0.083670085070544589 -0.49173288148918548 0 0.090797505692933322 -0.49852619972054812 0 0.092417517438613081 -0.49169480328754339 0 0.092298425623818431 -0.48519561589966143 0 0.083670085070544589 -0.49173288148918548 0 0.067054307669381696 -0.49778929958082241 0 0.090797505692933322 -0.49852619972054812 0 0.07938830607865266 -0.4832590681756429 0 0.092298425623818431 -0.48519561589966143 0 0.083670085070544589 -0.49173288148918548 0 0.073818568314492752 -0.49030933551536088 0 0.07938830607865266 -0.4832590681756429 0 0.083670085070544589 -0.49173288148918548 0 0.092417517438613081 -0.49169480328754339 0 0.083670085070544589 -0.49173288148918548 0 0.090797505692933322 -0.49852619972054812 0 0.092417517438613081 -0.49169480328754339 0 0.090797505692933322 -0.49852619972054812 0 0.102904053367156 -0.49132451604077892 0 0.090797505692933322 -0.49852619972054812 0 0.102904053367156 -0.49132451604077892 0 0.11454070371648491 -0.49926309986027378 0 0.090797505692933322 -0.49852619972054812 0 0.1110790643104088 -0.5 0 0.11454070371648491 -0.49926309986027378 0 0.090797505692933322 -0.49852619972054812 0 0.11454070371648491 -0.49926309986027378 0 0.083874226880780944 -0.5 0 0.090797505692933322 -0.49852619972054812 0 0.1110790643104088 -0.5 0 0.092417517438613081 -0.49169480328754339 0 0.092298425623818431 -0.48519561589966143 0 0.102904053367156 -0.49132451604077892 0 0.092298425623818431 -0.48519561589966143 0 0.102904053367156 -0.49132451604077892 0 0.10429953465417249 -0.47821525253783298 0 0.102904053367156 -0.49132451604077892 0 0.11120486402585709 -0.49100919135913101 0 0.10429953465417249 -0.47821525253783298 0 0.102904053367156 -0.49132451604077892 0 0.11454070371648491 -0.49926309986027378 0 0.11120486402585709 -0.49100919135913101 0 0.1382839017400366 -0.49999999999999978 0 0.1110790643104088 -0.5 0 0.11454070371648491 -0.49926309986027378 0 0.11454070371648491 -0.49926309986027378 0 0.11681173493269439 -0.49236437598102778 0 0.11120486402585709 -0.49100919135913101 0 0.11120486402585709 -0.49100919135913101 0 0.1159610875460438 -0.48468305827804342 0 0.10429953465417249 -0.47821525253783298 0 0.11681173493269439 -0.49236437598102778 0 0.11120486402585709 -0.49100919135913101 0 0.1159610875460438 -0.48468305827804342 0 0.11681173493269439 -0.49236437598102778 0 0.1159610875460438 -0.48468305827804342 0 0.12423364320100171 -0.49284817598305358 0 0.11454070371648491 -0.49926309986027378 0 0.11681173493269439 -0.49236437598102778 0 0.12423364320100171 -0.49284817598305358 0 0.1270656887309351 -0.47036105411592638 0 0.10429953465417249 -0.47821525253783298 0 0.097673386526071854 -0.45939407724860393 0 0.1270656887309351 -0.47036105411592638 0 0.1159610875460438 -0.48468305827804342 0 0.12423364320100171 -0.49284817598305358 0 0.1270656887309351 -0.47036105411592638 0 0.1159610875460438 -0.48468305827804342 0 0.10429953465417249 -0.47821525253783298 0 0.087924014642995471 -0.47398976935526632 0 0.092298425623818431 -0.48519561589966143 0 0.10429953465417249 -0.47821525253783298 0 0.087924014642995471 -0.47398976935526632 0 0.10429953465417249 -0.47821525253783298 0 0.097673386526071854 -0.45939407724860393 0 0.1270656887309351 -0.47036105411592638 0 0.097673386526071854 -0.45939407724860393 0 0.1185388948134764 -0.44540794550726759 0 0.1270656887309351 -0.47036105411592638 0 0.1185388948134764 -0.44540794550726759 0 0.097673386526071854 -0.45939407724860393 0 0.1185388948134764 -0.44540794550726759 0 0.088874238601021199 -0.43514814086801618 0 0.097673386526071854 -0.45939407724860393 0 0.077580270539657048 -0.44934266634316922 0 0.088874238601021199 -0.43514814086801618 0 0.097673386526071854 -0.45939407724860393 0 0.078873714980636667 -0.46351047661630729 0 0.077580270539657048 -0.44934266634316922 0 0.087924014642995471 -0.47398976935526632 0 0.097673386526071854 -0.45939407724860393 0 0.078873714980636667 -0.46351047661630729 0 0.078873714980636667 -0.46351047661630729 0 0.06250466334069954 -0.45436036404074409 0 0.060835100993874909 -0.46820840556564458 0 0.078873714980636667 -0.46351047661630729 0 0.06250466334069954 -0.45436036404074409 0 0.077580270539657048 -0.44934266634316922 0 0.06250466334069954 -0.45436036404074409 0 0.077580270539657048 -0.44934266634316922 0 0.059975349249855953 -0.43430027294217433 0 0.077580270539657048 -0.44934266634316922 0 0.088874238601021199 -0.43514814086801618 0 0.059975349249855953 -0.43430027294217433 0 0.070935134209543504 -0.42020193825530922 0 0.088874238601021199 -0.43514814086801618 0 0.059975349249855953 -0.43430027294217433 0 0.070935134209543504 -0.42020193825530922 0 0.065691311618180259 -0.40316532523672272 0 0.053255629232072728 -0.41576475924890649 0 0.070935134209543504 -0.42020193825530922 0 0.087276799008940364 -0.41314537846223182 0 0.065691311618180259 -0.40316532523672272 0 0.070935134209543504 -0.42020193825530922 0 0.087276799008940364 -0.41314537846223182 0 0.088874238601021199 -0.43514814086801618 0 0.087276799008940364 -0.41314537846223182 0 0.088874238601021199 -0.43514814086801618 0 0.1100121008960176 -0.42045483689860891 0 0.1185388948134764 -0.44540794550726759 0 0.088874238601021199 -0.43514814086801618 0 0.1100121008960176 -0.42045483689860891 0 0.1185388948134764 -0.44540794550726759 0 0.1100121008960176 -0.42045483689860891 0 0.13600707465786491 -0.43295394887718669 0 0.1185388948134764 -0.44540794550726759 0 0.1100121008960176 -0.42045483689860891 0 0.13736028543369699 -0.41271904482153321 0 0.1100121008960176 -0.42045483689860891 0 0.12256412464068531 -0.39793282435142191 0 0.1100121008960176 -0.42045483689860891 0 0.1014853069785588 -0.39550172828995001 0 0.087276799008940364 -0.41314537846223182 0 0.1100121008960176 -0.42045483689860891 0 0.1014853069785588 -0.39550172828995001 0 0.1100121008960176 -0.42045483689860891 0 0.1014853069785588 -0.39550172828995001 0 0.12256412464068531 -0.39793282435142191 0 0.1014853069785588 -0.39550172828995001 0 0.12256412464068531 -0.39793282435142191 0 0.1152607278426057 -0.37684903944505921 0 0.1014853069785588 -0.39550172828995001 0 0.09295851306110009 -0.37054861968129121 0 0.1014853069785588 -0.39550172828995001 0 0.1152607278426057 -0.37684903944505921 0 0.09295851306110009 -0.37054861968129121 0 0.1014853069785588 -0.39550172828995001 0 0.077883508297157997 -0.38457364525744142 0 0.09295851306110009 -0.37054861968129121 0 0.087276799008940364 -0.41314537846223182 0 0.1014853069785588 -0.39550172828995001 0 0.077883508297157997 -0.38457364525744142 0 0.065691311618180259 -0.40316532523672272 0 0.077883508297157997 -0.38457364525744142 0 0.056725564565641498 -0.38454571870881071 0 0.087276799008940364 -0.41314537846223182 0 0.065691311618180259 -0.40316532523672272 0 0.077883508297157997 -0.38457364525744142 0 0.077883508297157997 -0.38457364525744142 0 0.056725564565641498 -0.38454571870881071 0 0.06287179252101785 -0.36914496787019352 0 0.056725564565641498 -0.38454571870881071 0 0.040792549774975977 -0.38265895870638122 0 0.046922580176367877 -0.37114302360188428 0 0.056725564565641498 -0.38454571870881071 0 0.046191645006149001 -0.39658839158024101 0 0.040792549774975977 -0.38265895870638122 0 0.065691311618180259 -0.40316532523672272 0 0.056725564565641498 -0.38454571870881071 0 0.046191645006149001 -0.39658839158024101 0 0.065691311618180259 -0.40316532523672272 0 0.046191645006149001 -0.39658839158024101 0 0.053255629232072728 -0.41576475924890649 0 0.046191645006149001 -0.39658839158024101 0 0.03152021316922618 -0.38855427280775429 0 0.035555839692165803 -0.40707929119970487 0 0.046191645006149001 -0.39658839158024101 0 0.03152021316922618 -0.38855427280775429 0 0.040792549774975977 -0.38265895870638122 0 0.040792549774975977 -0.38265895870638122 0 0.046922580176367877 -0.37114302360188428 0 0.033539814630865597 -0.3748460541253168 0 0.03152021316922618 -0.38855427280775429 0 0.040792549774975977 -0.38265895870638122 0 0.033539814630865597 -0.3748460541253168 0 0.03152021316922618 -0.38855427280775429 0 0.016737533982398339 -0.37594092426208692 0 0.033539814630865597 -0.3748460541253168 0 0.03152021316922618 -0.38855427280775429 0 0.016737533982398339 -0.37594092426208692 0 0.01630389592880235 -0.3942120169727954 0 -0.0029480478345611238 -0.38134474274588581 0 0.01630389592880235 -0.3942120169727954 0 -0.0029480478345611238 -0.38134474274588581 0 0.016737533982398339 -0.37594092426208692 0 0.01630389592880235 -0.3942120169727954 0 -0.0029480478345611238 -0.38134474274588581 0 0.0023567555045513411 -0.39424368807509219 0 0.01630389592880235 -0.3942120169727954 0 -0.0053933531450689126 -0.40583935730940551 0 0.0023567555045513411 -0.39424368807509219 0 0.0113342753813368 -0.41256277494006283 0 0.0023567555045513411 -0.39424368807509219 0 0.01630389592880235 -0.3942120169727954 0 0.0113342753813368 -0.41256277494006283 0 0.01630389592880235 -0.3942120169727954 0 0.0113342753813368 -0.41256277494006283 0 0.035555839692165803 -0.40707929119970487 0 0.01630389592880235 -0.3942120169727954 0 0.035555839692165803 -0.40707929119970487 0 0.03152021316922618 -0.38855427280775429 0 0.01630389592880235 -0.3942120169727954 0 0.035555839692165803 -0.40707929119970487 0 0.0113342753813368 -0.41256277494006283 0 0.034701872907281987 -0.43408252339393388 0 0.035555839692165803 -0.40707929119970487 0 -0.01023817967651721 -0.41905057484993791 0 0.0113342753813368 -0.41256277494006283 0 0.0094283965647081157 -0.43386477384569372 0 0.0094283965647081157 -0.43386477384569372 0 0.034701872907281987 -0.43408252339393388 0 0.0113342753813368 -0.41256277494006283 0 0.0094283965647081157 -0.43386477384569372 0 0.034701872907281987 -0.43408252339393388 0 0.046191645006149001 -0.39658839158024101 0 0.035555839692165803 -0.40707929119970487 0 0.053255629232072728 -0.41576475924890649 0 0.034701872907281987 -0.43408252339393388 0 0.035555839692165803 -0.40707929119970487 0 0.053255629232072728 -0.41576475924890649 0 0.034701872907281987 -0.43408252339393388 0 0.059975349249855953 -0.43430027294217433 0 0.070935134209543504 -0.42020193825530922 0 0.053255629232072728 -0.41576475924890649 0 0.059975349249855953 -0.43430027294217433 0 0.034701872907281987 -0.43408252339393388 0 0.053255629232072728 -0.41576475924890649 0 0.059975349249855953 -0.43430027294217433 0 0.06250466334069954 -0.45436036404074409 0 0.059975349249855953 -0.43430027294217433 0 0.043131746294161999 -0.45116754788316998 0 0.06250466334069954 -0.45436036404074409 0 0.048365135309260177 -0.46580385385779038 0 0.043131746294161999 -0.45116754788316998 0 0.06250466334069954 -0.45436036404074409 0 0.060835100993874909 -0.46820840556564458 0 0.048365135309260177 -0.46580385385779038 0 0.032203889205875927 -0.46605417778854591 0 0.043131746294161999 -0.45116754788316998 0 0.021039567751998431 -0.4524040952758317 0 0.048365135309260177 -0.46580385385779038 0 0.032203889205875927 -0.46605417778854591 0 0.043131746294161999 -0.45116754788316998 0 0.034701872907281987 -0.43408252339393388 0 0.059975349249855953 -0.43430027294217433 0 0.043131746294161999 -0.45116754788316998 0 0.034701872907281987 -0.43408252339393388 0 0.043131746294161999 -0.45116754788316998 0 0.021039567751998431 -0.4524040952758317 0 0.0094283965647081157 -0.43386477384569372 0 0.034701872907281987 -0.43408252339393388 0 0.021039567751998431 -0.4524040952758317 0 0.0094283965647081157 -0.43386477384569372 0 0.021039567751998431 -0.4524040952758317 0 0.0071471274566425411 -0.45023480780884062 0 -0.0058504529610899324 -0.44990152804784911 0 0.0094283965647081157 -0.43386477384569372 0 0.0071471274566425411 -0.45023480780884062 0 0.021039567751998431 -0.4524040952758317 0 0.0071471274566425411 -0.45023480780884062 0 0.0039709984709535521 -0.46476883406598812 0 0.021039567751998431 -0.4524040952758317 0 0.0039709984709535521 -0.46476883406598812 0 0.017935382878602649 -0.47640210638911701 0 -0.0058504529610899324 -0.44990152804784911 0 0.0071471274566425411 -0.45023480780884062 0 0.0039709984709535521 -0.46476883406598812 0 0.032203889205875927 -0.46605417778854591 0 0.021039567751998431 -0.4524040952758317 0 0.017935382878602649 -0.47640210638911701 0 0.032203889205875927 -0.46605417778854591 0 0.017935382878602649 -0.47640210638911701 0 0.033257830351245653 -0.48207974702950612 0 0.017935382878602649 -0.47640210638911701 0 0.026425360216540079 -0.48981402674646929 0 0.033257830351245653 -0.48207974702950612 0 0.0039709984709535521 -0.46476883406598812 0 0.017935382878602649 -0.47640210638911701 0 0.003558453197493754 -0.47918030164141068 0 0.017935382878602649 -0.47640210638911701 0 0.0096132321850488679 -0.48410570635862332 0 0.01416520248222692 -0.48952742593735632 0 0.017935382878602649 -0.47640210638911701 0 0.0096132321850488679 -0.48410570635862332 0 0.003558453197493754 -0.47918030164141068 0 0.0096132321850488679 -0.48410570635862332 0 0.003558453197493754 -0.47918030164141068 0 0.0030684139669997592 -0.48764090158259221 0 -0.0042147194705703427 -0.48381737062913271 0 0.003558453197493754 -0.47918030164141068 0 0.0030684139669997592 -0.48764090158259221 0 -0.0071170797511046196 -0.47591162345199173 0 0.0039709984709535521 -0.46476883406598812 0 0.003558453197493754 -0.47918030164141068 0 9.6776935416854892e-06 -0.49687009603016702 0 0.029464552021525332 -0.5 0 9.6776935416854892e-06 -0.49687009603016702 0 0.01416520248222692 -0.48952742593735632 0 0.029464552021525332 -0.5 0 0.0048481237265801669 -0.5 0 9.6776935416854892e-06 -0.49687009603016702 0 0.029464552021525332 -0.5 0 9.6776935416854892e-06 -0.49687009603016702 0 0.0030684139669997592 -0.48764090158259221 0 0.01416520248222692 -0.48952742593735632 0 0.0096132321850488679 -0.48410570635862332 0 0.0030684139669997592 -0.48764090158259221 0 0.01416520248222692 -0.48952742593735632 0 0.01416520248222692 -0.48952742593735632 0 0.026425360216540079 -0.48981402674646929 0 0.029464552021525332 -0.5 0 0.017935382878602649 -0.47640210638911701 0 0.01416520248222692 -0.48952742593735632 0 0.026425360216540079 -0.48981402674646929 0 0.029464552021525332 -0.5 0 0.043311109645830008 -0.49705239944109658 0 0.056669389451153178 -0.5 0 0.043311109645830008 -0.49705239944109658 0 0.033257830351245653 -0.48207974702950612 0 0.047069235399419353 -0.48013871596257252 0 0.026425360216540079 -0.48981402674646929 0 0.043311109645830008 -0.49705239944109658 0 0.033257830351245653 -0.48207974702950612 0 0.026425360216540079 -0.48981402674646929 0 0.029464552021525332 -0.5 0 0.043311109645830008 -0.49705239944109658 0 0.048365135309260177 -0.46580385385779038 0 0.032203889205875927 -0.46605417778854591 0 0.047069235399419353 -0.48013871596257252 0 0.032203889205875927 -0.46605417778854591 0 0.033257830351245653 -0.48207974702950612 0 0.047069235399419353 -0.48013871596257252 0 0.047069235399419353 -0.48013871596257252 0 0.059902050234846023 -0.4804449431841884 0 0.056453052244573462 -0.48890732663799019 0 0.060835100993874909 -0.46820840556564458 0 0.048365135309260177 -0.46580385385779038 0 0.047069235399419353 -0.48013871596257252 0 0.060835100993874909 -0.46820840556564458 0 0.047069235399419353 -0.48013871596257252 0 0.059902050234846023 -0.4804449431841884 0 0.043311109645830008 -0.49705239944109658 0 0.047069235399419353 -0.48013871596257252 0 0.056453052244573462 -0.48890732663799019 0 0.067054307669381696 -0.49778929958082241 0 0.043311109645830008 -0.49705239944109658 0 0.056669389451153178 -0.5 0 0.067054307669381696 -0.49778929958082241 0 0.043311109645830008 -0.49705239944109658 0 0.056453052244573462 -0.48890732663799019 0 0.068077961459141245 -0.48602330882303491 0 0.059902050234846023 -0.4804449431841884 0 0.056453052244573462 -0.48890732663799019 0 0.067054307669381696 -0.49778929958082241 0 0.043311109645830008 -0.49705239944109658 0 0.084069283358381014 -0.29327744624775109 0 0.091214140244612552 -0.30633423469431892 0 0.097713414616837441 -0.28785402247308162 0 0.084069283358381014 -0.29327744624775109 0 0.088557249922364217 -0.2830700500711365 0 0.076949367591435863 -0.28110586613744859 0 0.084069283358381014 -0.29327744624775109 0 0.088557249922364217 -0.2830700500711365 0 0.097713414616837441 -0.28785402247308162 0 0.091214140244612552 -0.30633423469431892 0 0.078533917269483972 -0.30472749062510179 0 0.074604077186426476 -0.31683555516197281 0 0.084069283358381014 -0.29327744624775109 0 0.091214140244612552 -0.30633423469431892 0 0.078533917269483972 -0.30472749062510179 0 0.078533917269483972 -0.30472749062510179 0 0.07092129649406223 -0.30882401684131677 0 0.071447610505552109 -0.29657301348541992 0 0.084069283358381014 -0.29327744624775109 0 0.078533917269483972 -0.30472749062510179 0 0.071447610505552109 -0.29657301348541992 0 0.078533917269483972 -0.30472749062510179 0 0.07092129649406223 -0.30882401684131677 0 0.074604077186426476 -0.31683555516197281 0 0.07092129649406223 -0.30882401684131677 0 0.064756441613239929 -0.31850303163859672 0 0.062266877878042207 -0.30713621996074331 0 0.07092129649406223 -0.30882401684131677 0 0.071447610505552109 -0.29657301348541992 0 0.062266877878042207 -0.30713621996074331 0 0.071447610505552109 -0.29657301348541992 0 0.059176892630314462 -0.29392585810347349 0 0.062266877878042207 -0.30713621996074331 0 0.071447610505552109 -0.29657301348541992 0 0.066926207552154712 -0.2853462175169123 0 0.059176892630314462 -0.29392585810347349 0 0.084069283358381014 -0.29327744624775109 0 0.071447610505552109 -0.29657301348541992 0 0.076949367591435863 -0.28110586613744859 0 0.071447610505552109 -0.29657301348541992 0 0.066926207552154712 -0.2853462175169123 0 0.076949367591435863 -0.28110586613744859 0 0.075428607925503488 -0.2586409926186895 0 0.078971228011400496 -0.27032024366815782 0 0.060001453046871857 -0.27505184771500968 0 0.076949367591435863 -0.28110586613744859 0 0.078971228011400496 -0.27032024366815782 0 0.060001453046871857 -0.27505184771500968 0 0.066926207552154712 -0.2853462175169123 0 0.076949367591435863 -0.28110586613744859 0 0.060001453046871857 -0.27505184771500968 0 0.074391824527062972 -0.25635230628365763 0 0.060001453046871857 -0.27505184771500968 0 0.075428607925503488 -0.2586409926186895 0 0.074391824527062972 -0.25635230628365763 0 0.060001453046871857 -0.27505184771500968 0 0.067720681390576964 -0.26252295075521481 0 0.074391824527062972 -0.25635230628365763 0 0.060001453046871857 -0.27505184771500968 0 0.067720681390576964 -0.26252295075521481 0 0.074391824527062972 -0.25635230628365763 0 0.061427279401925668 -0.25181333601470368 0 0.074391824527062972 -0.25635230628365763 0 0.061427279401925668 -0.25181333601470368 0 0.068741634782336344 -0.24612800292814049 0 0.074391824527062972 -0.25635230628365763 0 0.061427279401925668 -0.25181333601470368 0 0.074391824527062972 -0.25635230628365763 0 0.081749243712162481 -0.24679172161987331 0 0.075428607925503488 -0.2586409926186895 0 0.09084552592243797 -0.27178949263732838 0 0.096289262474385545 -0.26401873953294208 0 0.074391824527062972 -0.25635230628365763 0 0.096289262474385545 -0.26401873953294208 0 0.074391824527062972 -0.25635230628365763 0 0.096289262474385545 -0.26401873953294208 0 0.081749243712162481 -0.24679172161987331 0 0.096289262474385545 -0.26401873953294208 0 0.081749243712162481 -0.24679172161987331 0 0.075428607925503488 -0.2586409926186895 0 0.074391824527062972 -0.25635230628365763 0 0.096289262474385545 -0.26401873953294208 0 0.075428607925503488 -0.2586409926186895 0 0.09084552592243797 -0.27178949263732838 0 0.088557249922364217 -0.2830700500711365 0 0.09084552592243797 -0.27178949263732838 0 0.097713414616837441 -0.28785402247308162 0 0.076949367591435863 -0.28110586613744859 0 0.08383084286190963 -0.27657141312851791 0 0.078971228011400496 -0.27032024366815782 0 0.088557249922364217 -0.2830700500711365 0 0.076949367591435863 -0.28110586613744859 0 0.08383084286190963 -0.27657141312851791 0 0.08383084286190963 -0.27657141312851791 0 0.078971228011400496 -0.27032024366815782 0 0.09084552592243797 -0.27178949263732838 0 0.075428607925503488 -0.2586409926186895 0 0.078971228011400496 -0.27032024366815782 0 0.09084552592243797 -0.27178949263732838 0 0.088557249922364217 -0.2830700500711365 0 0.08383084286190963 -0.27657141312851791 0 0.09084552592243797 -0.27178949263732838 0 0.09084552592243797 -0.27178949263732838 0 0.1070385377156477 -0.27675448356202692 0 0.096289262474385545 -0.26401873953294208 0 0.09084552592243797 -0.27178949263732838 0 0.1062624439193729 -0.28493799265596681 0 0.09084552592243797 -0.27178949263732838 0 0.1070385377156477 -0.27675448356202692 0 0.1062624439193729 -0.28493799265596681 0 0.10801204215132471 -0.26812295976662781 0 0.096289262474385545 -0.26401873953294208 0 0.10801204215132471 -0.26812295976662781 0 0.1070385377156477 -0.27675448356202692 0 0.096289262474385545 -0.26401873953294208 0 0.10801204215132471 -0.26812295976662781 0 0.1070385377156477 -0.27675448356202692 0 0.10801204215132471 -0.26812295976662781 0 0.1097134624376946 -0.27728303992923498 0 0.1070385377156477 -0.27675448356202692 0 0.096289262474385545 -0.26401873953294208 0 0.1070385377156477 -0.27675448356202692 0 0.1062624439193729 -0.28493799265596681 0 0.10801204215132471 -0.26812295976662781 0 0.1070385377156477 -0.27675448356202692 0 0.1097134624376946 -0.27728303992923498 0 0.096289262474385545 -0.26401873953294208 0 0.081749243712162481 -0.24679172161987331 0 0.1038116942218397 -0.2455091916969975 0 0.10801204215132471 -0.26812295976662781 0 0.1098843437794145 -0.24674692530778741 0 0.1038116942218397 -0.2455091916969975 0 0.10801204215132471 -0.26812295976662781 0 0.096289262474385545 -0.26401873953294208 0 0.1038116942218397 -0.2455091916969975 0 0.10801204215132471 -0.26812295976662781 0 0.1038116942218397 -0.2455091916969975 0 0.10801204215132471 -0.26812295976662781 0 0.1098843437794145 -0.24674692530778741 0 0.12995820875369279 -0.25235635345497848 0 0.1184792223514632 -0.27178758658304503 0 0.10801204215132471 -0.26812295976662781 0 0.1177530590751522 -0.25825238830246849 0 0.1098843437794145 -0.24674692530778741 0 0.12995820875369279 -0.25235635345497848 0 0.1177530590751522 -0.25825238830246849 0 0.1184792223514632 -0.27178758658304503 0 0.1177530590751522 -0.25825238830246849 0 0.1211580271231746 -0.24512581039290279 0 0.1098843437794145 -0.24674692530778741 0 0.10801204215132471 -0.26812295976662781 0 0.1177530590751522 -0.25825238830246849 0 0.1130384518173512 -0.26643343544310388 0 0.1177530590751522 -0.25825238830246849 0 0.1130384518173512 -0.26643343544310388 0 0.1184792223514632 -0.27178758658304503 0 0.12995820875369279 -0.25235635345497848 0 0.1177530590751522 -0.25825238830246849 0 0.1211580271231746 -0.24512581039290279 0 0.12553477146490369 -0.27425777950905461 0 0.12995820875369279 -0.25235635345497848 0 0.1184792223514632 -0.27178758658304503 0 0.1184792223514632 -0.27178758658304503 0 0.11204259359061169 -0.28268329023041833 0 0.1184792223514632 -0.27178758658304503 0 0.11401693075750589 -0.28502248540593578 0 0.11204259359061169 -0.28268329023041833 0 0.1097134624376946 -0.27728303992923498 0 0.1184792223514632 -0.27178758658304503 0 0.11204259359061169 -0.28268329023041833 0 0.1070385377156477 -0.27675448356202692 0 0.11204259359061169 -0.28268329023041833 0 0.1070385377156477 -0.27675448356202692 0 0.1097134624376946 -0.27728303992923498 0 0.11204259359061169 -0.28268329023041833 0 0.10801204215132471 -0.26812295976662781 0 0.1184792223514632 -0.27178758658304503 0 0.10801204215132471 -0.26812295976662781 0 0.1097134624376946 -0.27728303992923498 0 0.1184792223514632 -0.27178758658304503 0 0.10801204215132471 -0.26812295976662781 0 0.1130384518173512 -0.26643343544310388 0 0.1184792223514632 -0.27178758658304503 0 0.12553477146490369 -0.27425777950905461 0 0.1184792223514632 -0.27178758658304503 0 0.12553477146490369 -0.27425777950905461 0 0.11401693075750589 -0.28502248540593578 0 0.12553477146490369 -0.27425777950905461 0 0.1218736263182264 -0.28340730483075433 0 0.11401693075750589 -0.28502248540593578 0 0.12598568784125469 -0.2815087530436528 0 0.12553477146490369 -0.27425777950905461 0 0.1218736263182264 -0.28340730483075433 0 0.12553477146490369 -0.27425777950905461 0 0.1184792223514632 -0.27178758658304503 0 0.11401693075750589 -0.28502248540593578 0 0.12523133040235679 -0.29045393838619737 0 0.1235083741144246 -0.28714055874716521 0 0.11401693075750589 -0.28502248540593578 0 0.1218736263182264 -0.28340730483075433 0 0.1235083741144246 -0.28714055874716521 0 0.11401693075750589 -0.28502248540593578 0 0.12548460631697761 -0.30133184016125109 0 0.1261097900802623 -0.29449150984196393 0 0.11401693075750589 -0.28502248540593578 0 0.12548460631697761 -0.30133184016125109 0 0.11401693075750589 -0.28502248540593578 0 0.12548460631697761 -0.30133184016125109 0 0.11401693075750589 -0.28502248540593578 0 0.110364281570605 -0.28843629318817482 0 0.12735455052642761 -0.28529551239677459 0 0.1218736263182264 -0.28340730483075433 0 0.1235083741144246 -0.28714055874716521 0 0.12548460631697761 -0.30133184016125109 0 0.110364281570605 -0.28843629318817482 0 0.12523133040235679 -0.29045393838619737 0 0.1261097900802623 -0.29449150984196393 0 0.11401693075750589 -0.28502248540593578 0 0.110364281570605 -0.28843629318817482 0 0.10652335526304541 -0.29202606692466387 0 0.1124009960826783 -0.30056090626794318 0 0.12548460631697761 -0.30133184016125109 0 0.110364281570605 -0.28843629318817482 0 0.1124009960826783 -0.30056090626794318 0 0.11401693075750589 -0.28502248540593578 0 0.110364281570605 -0.28843629318817482 0 0.11204259359061169 -0.28268329023041833 0 0.110364281570605 -0.28843629318817482 0 0.11204259359061169 -0.28268329023041833 0 0.110364281570605 -0.28843629318817482 0 0.11204259359061169 -0.28268329023041833 0 0.1062624439193729 -0.28493799265596681 0 0.11401693075750589 -0.28502248540593578 0 0.110364281570605 -0.28843629318817482 0 0.11401693075750589 -0.28502248540593578 0 0.11204259359061169 -0.28268329023041833 0 0.091214140244612552 -0.30633423469431892 0 0.10652335526304541 -0.29202606692466387 0 0.097713414616837441 -0.28785402247308162 0 0.1062624439193729 -0.28493799265596681 0 0.1058114182360739 -0.28969382603411198 0 0.097713414616837441 -0.28785402247308162 0 0.09084552592243797 -0.27178949263732838 0 0.1062624439193729 -0.28493799265596681 0 0.097713414616837441 -0.28785402247308162 0 0.1070385377156477 -0.27675448356202692 0 0.11204259359061169 -0.28268329023041833 0 0.1062624439193729 -0.28493799265596681 0 0.1062624439193729 -0.28493799265596681 0 0.1058114182360739 -0.28969382603411198 0 0.110364281570605 -0.28843629318817482 0 0.1062624439193729 -0.28493799265596681 0 0.1058114182360739 -0.28969382603411198 0 0.110364281570605 -0.28843629318817482 0 0.1062624439193729 -0.28493799265596681 0 0.10652335526304541 -0.29202606692466387 0 0.1070808953627716 -0.29724556208805192 0 0.1124009960826783 -0.30056090626794318 0 0.110364281570605 -0.28843629318817482 0 0.1058114182360739 -0.28969382603411198 0 0.10652335526304541 -0.29202606692466387 0 0.1058114182360739 -0.28969382603411198 0 0.10652335526304541 -0.29202606692466387 0 0.097713414616837441 -0.28785402247308162 0 0.110364281570605 -0.28843629318817482 0 0.10652335526304541 -0.29202606692466387 0 0.091214140244612552 -0.30633423469431892 0 0.1030810211186541 -0.30402194367854002 0 0.1040560868273193 -0.31607261993691349 0 0.091214140244612552 -0.30633423469431892 0 0.10652335526304541 -0.29202606692466387 0 0.1030810211186541 -0.30402194367854002 0 0.091214140244612552 -0.30633423469431892 0 0.10652335526304541 -0.29202606692466387 0 0.10652335526304541 -0.29202606692466387 0 0.1030810211186541 -0.30402194367854002 0 0.1070808953627716 -0.29724556208805192 0 0.1030810211186541 -0.30402194367854002 0 0.1070808953627716 -0.29724556208805192 0 0.1124009960826783 -0.30056090626794318 0 0.1030810211186541 -0.30402194367854002 0 0.1124009960826783 -0.30056090626794318 0 0.1040560868273193 -0.31607261993691349 0 0.12548460631697761 -0.30133184016125109 0 0.1124009960826783 -0.30056090626794318 0 0.1040560868273193 -0.31607261993691349 0 0.12548460631697761 -0.30133184016125109 0 0.1040560868273193 -0.31607261993691349 0 0.1234881940305048 -0.32646184031532172 0 0.10574554073940561 -0.3356246073067588 0 0.1040560868273193 -0.31607261993691349 0 0.12548460631697761 -0.30133184016125109 0 0.1234881940305048 -0.32646184031532172 0 0.1040560868273193 -0.31607261993691349 0 0.1234881940305048 -0.32646184031532172 0 0.1164120666912927 -0.34183440338541049 0 0.10574554073940561 -0.3356246073067588 0 0.10574554073940561 -0.3356246073067588 0 0.09426639826135233 -0.33666720000350492 0 0.1004901154738356 -0.35404156438911538 0 0.10574554073940561 -0.3356246073067588 0 0.09426639826135233 -0.33666720000350492 0 0.1040560868273193 -0.31607261993691349 0 0.091214140244612552 -0.30633423469431892 0 0.1040560868273193 -0.31607261993691349 0 0.08845067990894305 -0.31846566420194539 0 0.1152607278426057 -0.37684903944505921 0 0.1226553468055713 -0.35614285545282981 0 0.1004901154738356 -0.35404156438911538 0 0.1320557156387141 -0.3688478742013287 0 0.1152607278426057 -0.37684903944505921 0 0.1226553468055713 -0.35614285545282981 0 0.1164120666912927 -0.34183440338541049 0 0.1226553468055713 -0.35614285545282981 0 0.1004901154738356 -0.35404156438911538 0 0.1164120666912927 -0.34183440338541049 0 0.10574554073940561 -0.3356246073067588 0 0.1004901154738356 -0.35404156438911538 0 0.1152607278426057 -0.37684903944505921 0 0.1004901154738356 -0.35404156438911538 0 0.09295851306110009 -0.37054861968129121 0 0.09295851306110009 -0.37054861968129121 0 0.084431719143641337 -0.34559551107263242 0 0.076989777111241275 -0.36431955513319469 0 0.077883508297157997 -0.38457364525744142 0 0.09295851306110009 -0.37054861968129121 0 0.076989777111241275 -0.36431955513319469 0 0.1004901154738356 -0.35404156438911538 0 0.09295851306110009 -0.37054861968129121 0 0.084431719143641337 -0.34559551107263242 0 0.09426639826135233 -0.33666720000350492 0 0.1004901154738356 -0.35404156438911538 0 0.084431719143641337 -0.34559551107263242 0 0.09295851306110009 -0.37054861968129121 0 0.084431719143641337 -0.34559551107263242 0 0.084431719143641337 -0.34559551107263242 0 0.066803352533289062 -0.35173503178441501 0 0.070436314993802887 -0.33795490241753329 0 0.084431719143641337 -0.34559551107263242 0 0.066803352533289062 -0.35173503178441501 0 0.076989777111241275 -0.36431955513319469 0 0.066803352533289062 -0.35173503178441501 0 0.070436314993802887 -0.33795490241753329 0 0.060953212906195792 -0.34410694157730642 0 0.077883508297157997 -0.38457364525744142 0 0.06287179252101785 -0.36914496787019352 0 0.076989777111241275 -0.36431955513319469 0 0.066803352533289062 -0.35173503178441501 0 0.06287179252101785 -0.36914496787019352 0 0.076989777111241275 -0.36431955513319469 0 0.1040560868273193 -0.31607261993691349 0 0.082627567337660926 -0.33081339971257562 0 0.1040560868273193 -0.31607261993691349 0 0.08845067990894305 -0.31846566420194539 0 0.082627567337660926 -0.33081339971257562 0 0.091214140244612552 -0.30633423469431892 0 0.075904925226180142 -0.32064240246397452 0 0.074604077186426476 -0.31683555516197281 0 0.09426639826135233 -0.33666720000350492 0 0.1040560868273193 -0.31607261993691349 0 0.082627567337660926 -0.33081339971257562 0 0.08845067990894305 -0.31846566420194539 0 0.082627567337660926 -0.33081339971257562 0 0.075904925226180142 -0.32064240246397452 0 0.091214140244612552 -0.30633423469431892 0 0.075904925226180142 -0.32064240246397452 0 0.091214140244612552 -0.30633423469431892 0 0.08845067990894305 -0.31846566420194539 0 0.075904925226180142 -0.32064240246397452 0 0.084431719143641337 -0.34559551107263242 0 0.075904925226180142 -0.32064240246397452 0 0.084431719143641337 -0.34559551107263242 0 0.082627567337660926 -0.33081339971257562 0 0.075904925226180142 -0.32064240246397452 0 0.09426639826135233 -0.33666720000350492 0 0.084431719143641337 -0.34559551107263242 0 0.082627567337660926 -0.33081339971257562 0 0.070436314993802887 -0.33795490241753329 0 0.075904925226180142 -0.32064240246397452 0 0.054690621407592913 -0.34046953388692852 0 0.084431719143641337 -0.34559551107263242 0 0.070436314993802887 -0.33795490241753329 0 0.075904925226180142 -0.32064240246397452 0 0.075904925226180142 -0.32064240246397452 0 0.054690621407592913 -0.34046953388692852 0 0.075904925226180142 -0.32064240246397452 0 0.064756441613239929 -0.31850303163859672 0 0.054690621407592913 -0.34046953388692852 0 0.075904925226180142 -0.32064240246397452 0 0.074604077186426476 -0.31683555516197281 0 0.064756441613239929 -0.31850303163859672 0 0.075904925226180142 -0.32064240246397452 0 0.074604077186426476 -0.31683555516197281 0 0.07092129649406223 -0.30882401684131677 0 0.074604077186426476 -0.31683555516197281 0 0.064756441613239929 -0.31850303163859672 0 0.064756441613239929 -0.31850303163859672 0 0.05015085148713691 -0.31711046151664568 0 0.062266877878042207 -0.30713621996074331 0 0.064756441613239929 -0.31850303163859672 0 0.05015085148713691 -0.31711046151664568 0 0.054690621407592913 -0.34046953388692852 0 0.070436314993802887 -0.33795490241753329 0 0.054690621407592913 -0.34046953388692852 0 0.060953212906195792 -0.34410694157730642 0 0.05015085148713691 -0.31711046151664568 0 0.054690621407592913 -0.34046953388692852 0 0.045212427036891337 -0.33258855836570411 0 0.05015085148713691 -0.31711046151664568 0 0.054690621407592913 -0.34046953388692852 0 0.03548341757843719 -0.32508481536694478 0 0.040524817674398812 -0.34768942269229741 0 0.029038381756716049 -0.33842186162005983 0 0.03548341757843719 -0.32508481536694478 0 0.040524817674398812 -0.34768942269229741 0 0.045212427036891337 -0.33258855836570411 0 0.03548341757843719 -0.32508481536694478 0 0.040524817674398812 -0.34768942269229741 0 0.054690621407592913 -0.34046953388692852 0 0.045212427036891337 -0.33258855836570411 0 0.040524817674398812 -0.34768942269229741 0 0.03548341757843719 -0.32508481536694478 0 0.030442017482475891 -0.30248020804159209 0 0.05015085148713691 -0.31711046151664568 0 0.03548341757843719 -0.32508481536694478 0 0.040770332738596003 -0.3079265366689059 0 0.05015085148713691 -0.31711046151664568 0 0.045212427036891337 -0.33258855836570411 0 0.03548341757843719 -0.32508481536694478 0 0.056725564565641498 -0.38454571870881071 0 0.06287179252101785 -0.36914496787019352 0 0.046922580176367877 -0.37114302360188428 0 0.06287179252101785 -0.36914496787019352 0 0.046922580176367877 -0.37114302360188428 0 0.053506986587080869 -0.35642065836679071 0 0.066803352533289062 -0.35173503178441501 0 0.06287179252101785 -0.36914496787019352 0 0.053506986587080869 -0.35642065836679071 0 0.054690621407592913 -0.34046953388692852 0 0.053506986587080869 -0.35642065836679071 0 0.035714077694995919 -0.35820522907450802 0 0.054690621407592913 -0.34046953388692852 0 0.053506986587080869 -0.35642065836679071 0 0.059039622234992387 -0.348445864232453 0 0.066803352533289062 -0.35173503178441501 0 0.053506986587080869 -0.35642065836679071 0 0.059039622234992387 -0.348445864232453 0 0.054690621407592913 -0.34046953388692852 0 0.059039622234992387 -0.348445864232453 0 0.060953212906195792 -0.34410694157730642 0 0.066803352533289062 -0.35173503178441501 0 0.059039622234992387 -0.348445864232453 0 0.060953212906195792 -0.34410694157730642 0 0.054690621407592913 -0.34046953388692852 0 0.035714077694995919 -0.35820522907450802 0 0.054690621407592913 -0.34046953388692852 0 0.040524817674398812 -0.34768942269229741 0 0.035714077694995919 -0.35820522907450802 0 0.040524817674398812 -0.34768942269229741 0 0.02673333570969531 -0.34898526585681872 0 0.029038381756716049 -0.33842186162005983 0 0.040524817674398812 -0.34768942269229741 0 0.035714077694995919 -0.35820522907450802 0 0.02673333570969531 -0.34898526585681872 0 0.046922580176367877 -0.37114302360188428 0 0.035714077694995919 -0.35820522907450802 0 0.033539814630865597 -0.3748460541253168 0 0.046922580176367877 -0.37114302360188428 0 0.053506986587080869 -0.35642065836679071 0 0.035714077694995919 -0.35820522907450802 0 0.016737533982398339 -0.37594092426208692 0 0.023136125258509169 -0.35910951941381919 0 0.0133595536469471 -0.3533066584618636 0 0.016737533982398339 -0.37594092426208692 0 0.035714077694995919 -0.35820522907450802 0 0.023136125258509169 -0.35910951941381919 0 0.016737533982398339 -0.37594092426208692 0 0.035714077694995919 -0.35820522907450802 0 0.033539814630865597 -0.3748460541253168 0 0.016737533982398339 -0.37594092426208692 0 0.035714077694995919 -0.35820522907450802 0 0.023136125258509169 -0.35910951941381919 0 0.02673333570969531 -0.34898526585681872 0 0.0133595536469471 -0.3533066584618636 0 0.035714077694995919 -0.35820522907450802 0 0.023136125258509169 -0.35910951941381919 0 0.02673333570969531 -0.34898526585681872 0 0.02673333570969531 -0.34898526585681872 0 0.0133595536469471 -0.3533066584618636 0 0.0161906997794189 -0.34218337207731231 0 -0.001397510826794308 -0.36155409714311598 0 0.0133595536469471 -0.3533066584618636 0 0.0044074928226207309 -0.33817554634418401 0 0.0133595536469471 -0.3533066584618636 0 0.0161906997794189 -0.34218337207731231 0 0.0044074928226207309 -0.33817554634418401 0 -0.001397510826794308 -0.36155409714311598 0 -0.0029480478345611238 -0.38134474274588581 0 0.016737533982398339 -0.37594092426208692 0 -0.001397510826794308 -0.36155409714311598 0 0.016737533982398339 -0.37594092426208692 0 0.0133595536469471 -0.3533066584618636 0 0.03548341757843719 -0.32508481536694478 0 0.025585414110518401 -0.31706044209762407 0 0.030442017482475891 -0.30248020804159209 0 0.025585414110518401 -0.31706044209762407 0 0.02072881073856064 -0.33164067615365589 0 0.0056592100768920166 -0.31809331474906261 0 0.025585414110518401 -0.31706044209762407 0 0.0056592100768920166 -0.31809331474906261 0 0.019786879018190599 -0.30754631040877761 0 0.025585414110518401 -0.31706044209762407 0 0.02072881073856064 -0.33164067615365589 0 0.03548341757843719 -0.32508481536694478 0 0.025585414110518401 -0.31706044209762407 0 0.02072881073856064 -0.33164067615365589 0 0.03548341757843719 -0.32508481536694478 0 0.029038381756716049 -0.33842186162005983 0 0.02072881073856064 -0.33164067615365589 0 0.02673333570969531 -0.34898526585681872 0 0.029038381756716049 -0.33842186162005983 0 0.0161906997794189 -0.34218337207731231 0 0.029038381756716049 -0.33842186162005983 0 0.0161906997794189 -0.34218337207731231 0 0.02072881073856064 -0.33164067615365589 0 0.0161906997794189 -0.34218337207731231 0 0.02072881073856064 -0.33164067615365589 0 0.0044074928226207309 -0.33817554634418401 0 0.02072881073856064 -0.33164067615365589 0 0.0044074928226207309 -0.33817554634418401 0 0.0056592100768920166 -0.31809331474906261 0 -0.0042533295162894714 -0.30291953266693478 0 0.0056592100768920166 -0.31809331474906261 0 0.01310959655978982 -0.29697040225337729 0 0.0056592100768920166 -0.31809331474906261 0 0.01310959655978982 -0.29697040225337729 0 0.019786879018190599 -0.30754631040877761 0 -0.0011038354285470269 -0.27759262811925578 0 0.01310959655978982 -0.29697040225337729 0 0.014535034689397489 -0.28054061878323389 0 -0.0042533295162894714 -0.30291953266693478 0 -0.0011038354285470269 -0.27759262811925578 0 0.01310959655978982 -0.29697040225337729 0 0.01310959655978982 -0.29697040225337729 0 0.027062272921760801 -0.28732612441388111 0 0.030442017482475891 -0.30248020804159209 0 0.01310959655978982 -0.29697040225337729 0 0.027062272921760801 -0.28732612441388111 0 0.014535034689397489 -0.28054061878323389 0 0.027062272921760801 -0.28732612441388111 0 0.030442017482475891 -0.30248020804159209 0 0.035767538634668777 -0.28649221418612197 0 0.027062272921760801 -0.28732612441388111 0 0.030442017482475891 -0.30248020804159209 0 0.01310959655978982 -0.29697040225337729 0 0.019786879018190599 -0.30754631040877761 0 0.030442017482475891 -0.30248020804159209 0 0.025585414110518401 -0.31706044209762407 0 0.030442017482475891 -0.30248020804159209 0 0.025585414110518401 -0.31706044209762407 0 0.019786879018190599 -0.30754631040877761 0 0.030442017482475891 -0.30248020804159209 0 0.05015085148713691 -0.31711046151664568 0 0.045611081566682081 -0.29375138914636278 0 0.044009049137395471 -0.29583314720431741 0 0.05015085148713691 -0.31711046151664568 0 0.040770332738596003 -0.3079265366689059 0 0.044009049137395471 -0.29583314720431741 0 0.03548341757843719 -0.32508481536694478 0 0.030442017482475891 -0.30248020804159209 0 0.040770332738596003 -0.3079265366689059 0 0.040770332738596003 -0.3079265366689059 0 0.037753237049634868 -0.29711055801319353 0 0.044009049137395471 -0.29583314720431741 0 0.030442017482475891 -0.30248020804159209 0 0.040770332738596003 -0.3079265366689059 0 0.037753237049634868 -0.29711055801319353 0 0.045611081566682081 -0.29375138914636278 0 0.048541104528198417 -0.28111933062525851 0 0.041093059786861598 -0.2705042203306518 0 0.039983942805357053 -0.2910782895994205 0 0.045611081566682081 -0.29375138914636278 0 0.041093059786861598 -0.2705042203306518 0 0.035767538634668777 -0.28649221418612197 0 0.039983942805357053 -0.2910782895994205 0 0.041093059786861598 -0.2705042203306518 0 0.037753237049634868 -0.29711055801319353 0 0.035767538634668777 -0.28649221418612197 0 0.039983942805357053 -0.2910782895994205 0 0.045611081566682081 -0.29375138914636278 0 0.041093059786861598 -0.2705042203306518 0 0.030442017482475891 -0.30248020804159209 0 0.035767538634668777 -0.28649221418612197 0 0.030442017482475891 -0.30248020804159209 0 0.037753237049634868 -0.29711055801319353 0 0.035767538634668777 -0.28649221418612197 0 0.027062272921760801 -0.28732612441388111 0 0.035767538634668777 -0.28649221418612197 0 0.031881897376816501 -0.27634787204352979 0 0.037753237049634868 -0.29711055801319353 0 0.039983942805357053 -0.2910782895994205 0 0.044009049137395471 -0.29583314720431741 0 0.039983942805357053 -0.2910782895994205 0 0.045611081566682081 -0.29375138914636278 0 0.044009049137395471 -0.29583314720431741 0 0.045611081566682081 -0.29375138914636278 0 0.044009049137395471 -0.29583314720431741 0 0.045611081566682081 -0.29375138914636278 0 0.060001453046871857 -0.27505184771500968 0 0.066926207552154712 -0.2853462175169123 0 0.059176892630314462 -0.29392585810347349 0 0.060001453046871857 -0.27505184771500968 0 0.045611081566682081 -0.29375138914636278 0 0.059176892630314462 -0.29392585810347349 0 0.060001453046871857 -0.27505184771500968 0 0.045611081566682081 -0.29375138914636278 0 0.060001453046871857 -0.27505184771500968 0 0.048541104528198417 -0.28111933062525851 0 0.05015085148713691 -0.31711046151664568 0 0.045611081566682081 -0.29375138914636278 0 0.05015085148713691 -0.31711046151664568 0 0.045611081566682081 -0.29375138914636278 0 0.062266877878042207 -0.30713621996074331 0 0.045611081566682081 -0.29375138914636278 0 0.059176892630314462 -0.29392585810347349 0 0.062266877878042207 -0.30713621996074331 0 0.067720681390576964 -0.26252295075521481 0 0.04687883850936421 -0.25066157351144219 0 0.055322798427125133 -0.25045030680810948 0 0.067720681390576964 -0.26252295075521481 0 0.04687883850936421 -0.25066157351144219 0 0.055258736328047522 -0.2634873830687785 0 0.041093059786861598 -0.2705042203306518 0 0.046350997172513293 -0.25471912283279668 0 0.067720681390576964 -0.26252295075521481 0 0.04687883850936421 -0.25066157351144219 0 0.055258736328047522 -0.2634873830687785 0 0.04687883850936421 -0.25066157351144219 0 0.055258736328047522 -0.2634873830687785 0 0.046350997172513293 -0.25471912283279668 0 0.067720681390576964 -0.26252295075521481 0 0.055322798427125133 -0.25045030680810948 0 0.061427279401925668 -0.25181333601470368 0 0.067720681390576964 -0.26252295075521481 0 0.055258736328047522 -0.2634873830687785 0 0.060001453046871857 -0.27505184771500968 0 0.055258736328047522 -0.2634873830687785 0 0.060001453046871857 -0.27505184771500968 0 0.051223588422494852 -0.2725406954349246 0 0.048541104528198417 -0.28111933062525851 0 0.051223588422494852 -0.2725406954349246 0 0.041093059786861598 -0.2705042203306518 0 0.060001453046871857 -0.27505184771500968 0 0.048541104528198417 -0.28111933062525851 0 0.051223588422494852 -0.2725406954349246 0 0.055258736328047522 -0.2634873830687785 0 0.051223588422494852 -0.2725406954349246 0 0.041093059786861598 -0.2705042203306518 0 0.035767538634668777 -0.28649221418612197 0 0.041093059786861598 -0.2705042203306518 0 0.035767538634668777 -0.28649221418612197 0 0.041093059786861598 -0.2705042203306518 0 0.031881897376816501 -0.27634787204352979 0 0.041093059786861598 -0.2705042203306518 0 0.031881897376816501 -0.27634787204352979 0 0.03106940688168278 -0.26527976427422878 0 0.041093059786861598 -0.2705042203306518 0 0.038446977721826051 -0.25688898794269049 0 0.03106940688168278 -0.26527976427422878 0 0.038446977721826051 -0.25688898794269049 0 0.02985511644275252 -0.25799549728209958 0 0.03106940688168278 -0.26527976427422878 0 0.041093059786861598 -0.2705042203306518 0 0.046350997172513293 -0.25471912283279668 0 0.041093059786861598 -0.2705042203306518 0 0.046350997172513293 -0.25471912283279668 0 0.038446977721826051 -0.25688898794269049 0 0.041093059786861598 -0.2705042203306518 0 0.038446977721826051 -0.25688898794269049 0 0.046350997172513293 -0.25471912283279668 0 0.037673054087589093 -0.25000113343327313 0 0.038446977721826051 -0.25688898794269049 0 0.04687883850936421 -0.25066157351144219 0 0.046350997172513293 -0.25471912283279668 0 0.037673054087589093 -0.25000113343327313 0 0.038446977721826051 -0.25688898794269049 0 0.028805809295611551 -0.2512097145086889 0 0.02985511644275252 -0.25799549728209958 0 0.037673054087589093 -0.25000113343327313 0 0.038446977721826051 -0.25688898794269049 0 0.028805809295611551 -0.2512097145086889 0 0.028805809295611551 -0.2512097145086889 0 0.02985511644275252 -0.25799549728209958 0 0.021098271871889691 -0.25860352240279028 0 0.03106940688168278 -0.26527976427422878 0 0.021098271871889691 -0.25860352240279028 0 0.023682528361046059 -0.27217204078617002 0 0.02985511644275252 -0.25799549728209958 0 0.03106940688168278 -0.26527976427422878 0 0.021098271871889691 -0.25860352240279028 0 0.028805809295611551 -0.2512097145086889 0 0.021098271871889691 -0.25860352240279028 0 0.018280459298828561 -0.24757636525085719 0 0.027062272921760801 -0.28732612441388111 0 0.023682528361046059 -0.27217204078617002 0 0.027062272921760801 -0.28732612441388111 0 0.031881897376816501 -0.27634787204352979 0 0.023682528361046059 -0.27217204078617002 0 0.031881897376816501 -0.27634787204352979 0 0.03106940688168278 -0.26527976427422878 0 0.023682528361046059 -0.27217204078617002 0 0.021098271871889691 -0.25860352240279028 0 0.023682528361046059 -0.27217204078617002 0 0.012051531630596329 -0.26823490673260542 0 0.023682528361046059 -0.27217204078617002 0 0.014535034689397489 -0.28054061878323389 0 0.012051531630596329 -0.26823490673260542 0 0.027062272921760801 -0.28732612441388111 0 0.023682528361046059 -0.27217204078617002 0 0.014535034689397489 -0.28054061878323389 0 -0.0011038354285470269 -0.27759262811925578 0 0.014535034689397489 -0.28054061878323389 0 0.012051531630596329 -0.26823490673260542 0 -0.0011038354285470269 -0.27759262811925578 0 0.012051531630596329 -0.26823490673260542 0 0.002045658659195418 -0.25226572357157673 0 -0.0011038354285470269 -0.27759262811925578 0 0.002045658659195418 -0.25226572357157673 0 0.021098271871889691 -0.25860352240279028 0 0.012051531630596329 -0.26823490673260542 0 0.002045658659195418 -0.25226572357157673 0 0.021098271871889691 -0.25860352240279028 0 0.002045658659195418 -0.25226572357157673 0 0.018280459298828561 -0.24757636525085719 0 0.002045658659195418 -0.25226572357157673 0 0.011244779051839279 -0.2405503902729359 0 0.0051951527469382107 -0.2269388190238977 0 -0.0041937972378574863 -0.2384814372205343 0 0.002045658659195418 -0.25226572357157673 0 0.0051951527469382107 -0.2269388190238977 0 0.002045658659195418 -0.25226572357157673 0 0.011244779051839279 -0.2405503902729359 0 0.018280459298828561 -0.24757636525085719 0 0.002045658659195418 -0.25226572357157673 0 0.0051951527469382107 -0.2269388190238977 0 0.011244779051839279 -0.2405503902729359 0 0.0051951527469382107 -0.2269388190238977 0 0.02603699562815151 -0.2388001962676696 0 0.0051951527469382107 -0.2269388190238977 0 0.011742179822607401 -0.22647517341568449 0 0.02603699562815151 -0.2388001962676696 0 0.0051951527469382107 -0.2269388190238977 0 0.02603699562815151 -0.2388001962676696 0 0.005508109684769601 -0.2244221511810062 0 0.0091597614055564155 -0.2210627359476918 0 0.001564903750543953 -0.21508749120778081 0 0.0051951527469382107 -0.2269388190238977 0 0.005508109684769601 -0.2244221511810062 0 0.0051951527469382107 -0.2269388190238977 0 0.005508109684769601 -0.2244221511810062 0 0.0079505213992066975 -0.2247073179093127 0 0.005508109684769601 -0.2244221511810062 0 0.0091597614055564155 -0.2210627359476918 0 0.0079505213992066975 -0.2247073179093127 0 0.0091597614055564155 -0.2210627359476918 0 0.01484660876325879 -0.22079230525099861 0 0.0091691452499312303 -0.21536383839062179 0 0.0051951527469382107 -0.2269388190238977 0 0.0079505213992066975 -0.2247073179093127 0 0.011742179822607401 -0.22647517341568449 0 0.0091597614055564155 -0.2210627359476918 0 0.0079505213992066975 -0.2247073179093127 0 0.011742179822607401 -0.22647517341568449 0 0.0091597614055564155 -0.2210627359476918 0 0.011742179822607401 -0.22647517341568449 0 0.01484660876325879 -0.22079230525099861 0 0.03107668386331203 -0.22979640858640929 0 0.021354987341070959 -0.2135904640551588 0 0.03107668386331203 -0.22979640858640929 0 0.021354987341070959 -0.2135904640551588 0 0.034705280896153899 -0.21558182988449839 0 0.011742179822607401 -0.22647517341568449 0 0.021174013987469761 -0.22603482271835559 0 0.02603699562815151 -0.2388001962676696 0 0.021174013987469761 -0.22603482271835559 0 0.03107668386331203 -0.22979640858640929 0 0.021354987341070959 -0.2135904640551588 0 0.011742179822607401 -0.22647517341568449 0 0.01484660876325879 -0.22079230525099861 0 0.021174013987469761 -0.22603482271835559 0 0.01484660876325879 -0.22079230525099861 0 0.021174013987469761 -0.22603482271835559 0 0.021354987341070959 -0.2135904640551588 0 0.021174013987469761 -0.22603482271835559 0 0.03107668386331203 -0.22979640858640929 0 0.02603699562815151 -0.2388001962676696 0 0.028805809295611551 -0.2512097145086889 0 0.02603699562815151 -0.2388001962676696 0 0.018280459298828561 -0.24757636525085719 0 0.037673054087589093 -0.25000113343327313 0 0.028805809295611551 -0.2512097145086889 0 0.02603699562815151 -0.2388001962676696 0 0.011244779051839279 -0.2405503902729359 0 0.02603699562815151 -0.2388001962676696 0 0.018280459298828561 -0.24757636525085719 0 -0.0020900314666772268 -0.2056362374066513 0 -0.0072362567426319498 -0.1924080863237628 0 0.011015368670217639 -0.20413927921686631 0 0.01425453975357429 -0.20178440205379619 0 0.00016161218586271259 -0.1783170499424877 0 -0.0072362567426319498 -0.1924080863237628 0 0.011015368670217639 -0.20413927921686631 0 0.00016161218586271259 -0.1783170499424877 0 0.01425453975357429 -0.20178440205379619 0 0.011015368670217639 -0.20413927921686631 0 0.00016161218586271259 -0.1783170499424877 0 0.01425453975357429 -0.20178440205379619 0 0.011015368670217639 -0.20413927921686631 0 -0.0020900314666772268 -0.2056362374066513 0 0.021354987341070959 -0.2135904640551588 0 -0.0020900314666772268 -0.2056362374066513 0 0.011015368670217639 -0.20413927921686631 0 0.021354987341070959 -0.2135904640551588 0 -0.0020900314666772268 -0.2056362374066513 0 0.0091691452499312303 -0.21536383839062179 0 0.021354987341070959 -0.2135904640551588 0 0.01425453975357429 -0.20178440205379619 0 0.011015368670217639 -0.20413927921686631 0 0.021354987341070959 -0.2135904640551588 0 -0.0020900314666772268 -0.2056362374066513 0 0.001564903750543953 -0.21508749120778081 0 0.0091691452499312303 -0.21536383839062179 0 0.0091597614055564155 -0.2210627359476918 0 0.001564903750543953 -0.21508749120778081 0 0.0091691452499312303 -0.21536383839062179 0 0.01484660876325879 -0.22079230525099861 0 0.0091691452499312303 -0.21536383839062179 0 0.021354987341070959 -0.2135904640551588 0 0.01425453975357429 -0.20178440205379619 0 0.021354987341070959 -0.2135904640551588 0 0.031790105079028283 -0.20217458850019379 0 0.021354987341070959 -0.2135904640551588 0 0.031790105079028283 -0.20217458850019379 0 0.034705280896153899 -0.21558182988449839 0 0.01425453975357429 -0.20178440205379619 0 0.021354987341070959 -0.2135904640551588 0 0.01425453975357429 -0.20178440205379619 0 0.035719281229697523 -0.18617953642224741 0 0.018554992821627279 -0.17946904168417949 0 0.01425453975357429 -0.20178440205379619 0 0.035719281229697523 -0.18617953642224741 0 0.01425453975357429 -0.20178440205379619 0 0.031790105079028283 -0.20217458850019379 0 0.035719281229697523 -0.18617953642224741 0 0.031790105079028283 -0.20217458850019379 0 0.041222010837412067 -0.19597051263006299 0 0.035719281229697523 -0.18617953642224741 0 0.041222010837412067 -0.19597051263006299 0 0.048408253778191357 -0.1866768687542105 0 0.035719281229697523 -0.18617953642224741 0 0.041222010837412067 -0.19597051263006299 0 0.050471514642932751 -0.1983787975968033 0 0.048408253778191357 -0.1866768687542105 0 0.041222010837412067 -0.19597051263006299 0 0.04541411531369819 -0.20876538310954179 0 0.050471514642932751 -0.1983787975968033 0 0.031790105079028283 -0.20217458850019379 0 0.041222010837412067 -0.19597051263006299 0 0.04541411531369819 -0.20876538310954179 0 0.031790105079028283 -0.20217458850019379 0 0.04541411531369819 -0.20876538310954179 0 0.034705280896153899 -0.21558182988449839 0 0.04541411531369819 -0.20876538310954179 0 0.034705280896153899 -0.21558182988449839 0 0.043898239855422058 -0.22357766486695421 0 0.04541411531369819 -0.20876538310954179 0 0.060644542398981101 -0.21792749414755741 0 0.043898239855422058 -0.22357766486695421 0 0.04541411531369819 -0.20876538310954179 0 0.060644542398981101 -0.21792749414755741 0 0.058398330029931958 -0.2050308445951439 0 0.04541411531369819 -0.20876538310954179 0 0.058398330029931958 -0.2050308445951439 0 0.050471514642932751 -0.1983787975968033 0 0.058398330029931958 -0.2050308445951439 0 0.050471514642932751 -0.1983787975968033 0 0.061167309818916257 -0.1944131129870986 0 0.050471514642932751 -0.1983787975968033 0 0.061167309818916257 -0.1944131129870986 0 0.048408253778191357 -0.1866768687542105 0 0.04687883850936421 -0.25066157351144219 0 0.02603699562815151 -0.2388001962676696 0 0.03107668386331203 -0.22979640858640929 0 0.043450851783267609 -0.23490290560122801 0 0.040806107357315123 -0.24599771281342589 0 0.03107668386331203 -0.22979640858640929 0 0.040806107357315123 -0.24599771281342589 0 0.03107668386331203 -0.22979640858640929 0 0.02603699562815151 -0.2388001962676696 0 0.040806107357315123 -0.24599771281342589 0 0.04687883850936421 -0.25066157351144219 0 0.02603699562815151 -0.2388001962676696 0 0.040806107357315123 -0.24599771281342589 0 0.04687883850936421 -0.25066157351144219 0 0.037673054087589093 -0.25000113343327313 0 0.02603699562815151 -0.2388001962676696 0 0.043450851783267609 -0.23490290560122801 0 0.040806107357315123 -0.24599771281342589 0 0.04833812443013695 -0.24247593425878419 0 0.04687883850936421 -0.25066157351144219 0 0.040806107357315123 -0.24599771281342589 0 0.04833812443013695 -0.24247593425878419 0 0.03107668386331203 -0.22979640858640929 0 0.034705280896153899 -0.21558182988449839 0 0.043898239855422058 -0.22357766486695421 0 0.03107668386331203 -0.22979640858640929 0 0.043450851783267609 -0.23490290560122801 0 0.043898239855422058 -0.22357766486695421 0 0.043450851783267609 -0.23490290560122801 0 0.043898239855422058 -0.22357766486695421 0 0.053135103410151832 -0.23266680748056651 0 0.060644542398981101 -0.21792749414755741 0 0.053135103410151832 -0.23266680748056651 0 0.069006044419005846 -0.2316935758689615 0 0.060644542398981101 -0.21792749414755741 0 0.043898239855422058 -0.22357766486695421 0 0.053135103410151832 -0.23266680748056651 0 0.053135103410151832 -0.23266680748056651 0 0.057656211981169492 -0.24362179455802449 0 0.069006044419005846 -0.2316935758689615 0 0.043450851783267609 -0.23490290560122801 0 0.053135103410151832 -0.23266680748056651 0 0.04833812443013695 -0.24247593425878419 0 0.053135103410151832 -0.23266680748056651 0 0.04833812443013695 -0.24247593425878419 0 0.057656211981169492 -0.24362179455802449 0 0.055322798427125133 -0.25045030680810948 0 0.04833812443013695 -0.24247593425878419 0 0.057656211981169492 -0.24362179455802449 0 0.04687883850936421 -0.25066157351144219 0 0.055322798427125133 -0.25045030680810948 0 0.04833812443013695 -0.24247593425878419 0 0.055322798427125133 -0.25045030680810948 0 0.061427279401925668 -0.25181333601470368 0 0.057656211981169492 -0.24362179455802449 0 0.081749243712162481 -0.24679172161987331 0 0.082871062099559661 -0.23021529307688121 0 0.069006044419005846 -0.2316935758689615 0 0.061427279401925668 -0.25181333601470368 0 0.057656211981169492 -0.24362179455802449 0 0.068741634782336344 -0.24612800292814049 0 0.057656211981169492 -0.24362179455802449 0 0.068741634782336344 -0.24612800292814049 0 0.069006044419005846 -0.2316935758689615 0 0.068741634782336344 -0.24612800292814049 0 0.081749243712162481 -0.24679172161987331 0 0.069006044419005846 -0.2316935758689615 0 0.081749243712162481 -0.24679172161987331 0 0.069006044419005846 -0.2316935758689615 0 0.074391824527062972 -0.25635230628365763 0 0.068741634782336344 -0.24612800292814049 0 0.081749243712162481 -0.24679172161987331 0 0.081749243712162481 -0.24679172161987331 0 0.099713904752214172 -0.22344757627372039 0 0.082871062099559661 -0.23021529307688121 0 0.08101505551485591 -0.21892829854497031 0 0.099713904752214172 -0.22344757627372039 0 0.081749243712162481 -0.24679172161987331 0 0.082871062099559661 -0.23021529307688121 0 0.099713904752214172 -0.22344757627372039 0 0.060644542398981101 -0.21792749414755741 0 0.08101505551485591 -0.21892829854497031 0 0.069006044419005846 -0.2316935758689615 0 0.082871062099559661 -0.23021529307688121 0 0.08101505551485591 -0.21892829854497031 0 0.069006044419005846 -0.2316935758689615 0 0.060644542398981101 -0.21792749414755741 0 0.08101505551485591 -0.21892829854497031 0 0.071960971467164417 -0.20379210273649659 0 0.060644542398981101 -0.21792749414755741 0 0.058398330029931958 -0.2050308445951439 0 0.071960971467164417 -0.20379210273649659 0 0.071960971467164417 -0.20379210273649659 0 0.070461619908864154 -0.1918088203956855 0 0.080767145133696011 -0.18790694201456129 0 0.061167309818916257 -0.1944131129870986 0 0.070461619908864154 -0.1918088203956855 0 0.067951053215679957 -0.1811231238445854 0 0.061167309818916257 -0.1944131129870986 0 0.071960971467164417 -0.20379210273649659 0 0.070461619908864154 -0.1918088203956855 0 0.058398330029931958 -0.2050308445951439 0 0.061167309818916257 -0.1944131129870986 0 0.071960971467164417 -0.20379210273649659 0 0.071960971467164417 -0.20379210273649659 0 0.080767145133696011 -0.18790694201456129 0 0.095319910804942315 -0.19979125977539619 0 0.095319910804942315 -0.19979125977539619 0 0.090925916857668265 -0.17613494327707241 0 0.080767145133696011 -0.18790694201456129 0 0.095319910804942315 -0.19979125977539619 0 0.090925916857668265 -0.17613494327707241 0 0.08101505551485591 -0.21892829854497031 0 0.095319910804942315 -0.19979125977539619 0 0.099713904752214172 -0.22344757627372039 0 0.08101505551485591 -0.21892829854497031 0 0.071960971467164417 -0.20379210273649659 0 0.095319910804942315 -0.19979125977539619 0 0.095319910804942315 -0.19979125977539619 0 0.099713904752214172 -0.22344757627372039 0 0.095319910804942315 -0.19979125977539619 0 0.1138340639553141 -0.20509916168281231 0 0.099713904752214172 -0.22344757627372039 0 0.1138340639553141 -0.20509916168281231 0 0.099713904752214172 -0.22344757627372039 0 0.1138340639553141 -0.20509916168281231 0 0.11185920386736491 -0.2259230434952999 0 0.099713904752214172 -0.22344757627372039 0 0.095319910804942315 -0.19979125977539619 0 0.10365783962772469 -0.18861543749520979 0 0.1138340639553141 -0.20509916168281231 0 0.095319910804942315 -0.19979125977539619 0 0.10365783962772469 -0.18861543749520979 0 0.090925916857668265 -0.17613494327707241 0 0.1138340639553141 -0.20509916168281231 0 0.1310370370754356 -0.18274479028628399 0 0.1152425671181148 -0.19024722175369321 0 0.1164974382036728 -0.19911358623476469 0 0.1310370370754356 -0.18274479028628399 0 0.10365783962772469 -0.18861543749520979 0 0.1152425671181148 -0.19024722175369321 0 0.1138340639553141 -0.20509916168281231 0 0.1164974382036728 -0.19911358623476469 0 0.1138340639553141 -0.20509916168281231 0 0.1310370370754356 -0.18274479028628399 0 0.1152425671181148 -0.19024722175369321 0 0.1164974382036728 -0.19911358623476469 0 0.1152425671181148 -0.19024722175369321 0 0.1156360413974593 -0.18609823826908431 0 0.1152425671181148 -0.19024722175369321 0 0.1164974382036728 -0.19911358623476469 0 0.1138340639553141 -0.20509916168281231 0 0.1152425671181148 -0.19024722175369321 0 0.1138340639553141 -0.20509916168281231 0 0.1138340639553141 -0.20509916168281231 0 0.1190575905824279 -0.21828473585194541 0 0.13050871056543259 -0.20832441167824151 0 0.1138340639553141 -0.20509916168281231 0 0.11185920386736491 -0.2259230434952999 0 0.1138340639553141 -0.20509916168281231 0 0.1190575905824279 -0.21828473585194541 0 0.11185920386736491 -0.2259230434952999 0 0.1190575905824279 -0.21828473585194541 0 0.1200283839416008 -0.23379232655142851 0 0.13050871056543259 -0.20832441167824151 0 0.1190575905824279 -0.21828473585194541 0 0.11185920386736491 -0.2259230434952999 0 0.1200283839416008 -0.23379232655142851 0 0.11185920386736491 -0.2259230434952999 0 0.1200283839416008 -0.23379232655142851 0 0.1098843437794145 -0.24674692530778741 0 0.11185920386736491 -0.2259230434952999 0 0.1098843437794145 -0.24674692530778741 0 0.1200283839416008 -0.23379232655142851 0 0.1211580271231746 -0.24512581039290279 0 0.1098843437794145 -0.24674692530778741 0 0.11185920386736491 -0.2259230434952999 0 0.1098843437794145 -0.24674692530778741 0 0.1038116942218397 -0.2455091916969975 0 0.081749243712162481 -0.24679172161987331 0 0.1038116942218397 -0.2455091916969975 0 0.099713904752214172 -0.22344757627372039 0 0.1038116942218397 -0.2455091916969975 0 0.099713904752214172 -0.22344757627372039 0 0.11185920386736491 -0.2259230434952999 0 0.1038116942218397 -0.2455091916969975 0 0.099713904752214172 -0.22344757627372039 0 0.10730151500712121 -0.1341392572068997 0 0.109737050052069 -0.15134767141254241 0 0.086001732796643554 -0.14962419746325209 0 0.10730151500712121 -0.1341392572068997 0 0.086001732796643554 -0.14962419746325209 0 0.109737050052069 -0.15134767141254241 0 0.09912948919310817 -0.1613687623962278 0 0.086001732796643554 -0.14962419746325209 0 0.10730151500712121 -0.1341392572068997 0 0.109737050052069 -0.15134767141254241 0 0.10730151500712121 -0.1341392572068997 0 0.086001732796643554 -0.14962419746325209 0 0.093237019415289848 -0.1370389616240095 0 0.10730151500712121 -0.1341392572068997 0 0.09330525305103457 -0.1280316724612881 0 0.093237019415289848 -0.1370389616240095 0 0.10730151500712121 -0.1341392572068997 0 0.09330525305103457 -0.1280316724612881 0 0.099520147724360061 -0.1209815478789433 0 0.10730151500712121 -0.1341392572068997 0 0.1092563594043707 -0.11775996158525751 0 0.120219010926689 -0.12474823852889309 0 0.10730151500712121 -0.1341392572068997 0 0.1210136663870208 -0.13454681608983049 0 0.1209573165015211 -0.14393701063528189 0 0.10730151500712121 -0.1341392572068997 0 0.120219010926689 -0.12474823852889309 0 0.10730151500712121 -0.1341392572068997 0 0.1210136663870208 -0.13454681608983049 0 0.120219010926689 -0.12474823852889309 0 0.1210136663870208 -0.13454681608983049 0 0.120219010926689 -0.12474823852889309 0 0.13033544652893519 -0.13142463504060339 0 0.1210136663870208 -0.13454681608983049 0 0.1209573165015211 -0.14393701063528189 0 0.1300659421192398 -0.13905143622092861 0 0.10730151500712121 -0.1341392572068997 0 0.1209573165015211 -0.14393701063528189 0 0.109737050052069 -0.15134767141254241 0 0.1209573165015211 -0.14393701063528189 0 0.109737050052069 -0.15134767141254241 0 0.1217629365790301 -0.15487583447838049 0 0.109737050052069 -0.15134767141254241 0 0.1121725850970208 -0.1685560856181845 0 0.109737050052069 -0.15134767141254241 0 0.1217629365790301 -0.15487583447838049 0 0.1121725850970208 -0.1685560856181845 0 0.1121725850970208 -0.1685560856181845 0 0.13182097445505861 -0.1629723337750261 0 0.1217629365790301 -0.15487583447838049 0 0.1121725850970208 -0.1685560856181845 0 0.13182097445505861 -0.1629723337750261 0 0.1121725850970208 -0.1685560856181845 0 0.12471185084496871 -0.1735979207045413 0 0.13182097445505861 -0.1629723337750261 0 0.1137782120823024 -0.1799007362647593 0 0.1310370370754356 -0.18274479028628399 0 0.12471185084496871 -0.1735979207045413 0 0.1137782120823024 -0.1799007362647593 0 0.1310370370754356 -0.18274479028628399 0 0.1137782120823024 -0.1799007362647593 0 0.1156360413974593 -0.18609823826908431 0 0.1310370370754356 -0.18274479028628399 0 0.1152425671181148 -0.19024722175369321 0 0.1156360413974593 -0.18609823826908431 0 0.1310370370754356 -0.18274479028628399 0 0.1121725850970208 -0.1685560856181845 0 0.1137782120823024 -0.1799007362647593 0 0.1121725850970208 -0.1685560856181845 0 0.12471185084496871 -0.1735979207045413 0 0.1137782120823024 -0.1799007362647593 0 0.10365783962772469 -0.18861543749520979 0 0.1152425671181148 -0.19024722175369321 0 0.1137782120823024 -0.1799007362647593 0 0.1152425671181148 -0.19024722175369321 0 0.1137782120823024 -0.1799007362647593 0 0.1152425671181148 -0.19024722175369321 0 0.1137782120823024 -0.1799007362647593 0 0.1156360413974593 -0.18609823826908431 0 0.1121725850970208 -0.1685560856181845 0 0.1137782120823024 -0.1799007362647593 0 0.090925916857668265 -0.17613494327707241 0 0.10365783962772469 -0.18861543749520979 0 0.1137782120823024 -0.1799007362647593 0 0.090925916857668265 -0.17613494327707241 0 0.1137782120823024 -0.1799007362647593 0 0.090925916857668265 -0.17613494327707241 0 0.1121725850970208 -0.1685560856181845 0 0.090925916857668265 -0.17613494327707241 0 0.090654055589326155 -0.17467130079491469 0 0.1121725850970208 -0.1685560856181845 0 0.090654055589326155 -0.17467130079491469 0 0.109737050052069 -0.15134767141254241 0 0.1121725850970208 -0.1685560856181845 0 0.09912948919310817 -0.1613687623962278 0 0.1121725850970208 -0.1685560856181845 0 0.09912948919310817 -0.1613687623962278 0 0.090654055589326155 -0.17467130079491469 0 0.081616291293973228 -0.16660726723658631 0 0.090654055589326155 -0.17467130079491469 0 0.086001732796643554 -0.14962419746325209 0 0.09912948919310817 -0.1613687623962278 0 0.090654055589326155 -0.17467130079491469 0 0.086001732796643554 -0.14962419746325209 0 0.081616291293973228 -0.16660726723658631 0 0.07159287775123209 -0.16009943412697519 0 0.086001732796643554 -0.14962419746325209 0 0.090654055589326155 -0.17467130079491469 0 0.086001732796643554 -0.14962419746325209 0 0.081616291293973228 -0.16660726723658631 0 0.087493852653168391 -0.17556937893495991 0 0.072338937679495049 -0.17307202486282919 0 0.080767145133696011 -0.18790694201456129 0 0.087493852653168391 -0.17556937893495991 0 0.067951053215679957 -0.1811231238445854 0 0.080767145133696011 -0.18790694201456129 0 0.090925916857668265 -0.17613494327707241 0 0.087493852653168391 -0.17556937893495991 0 0.081616291293973228 -0.16660726723658631 0 0.090654055589326155 -0.17467130079491469 0 0.087493852653168391 -0.17556937893495991 0 0.090925916857668265 -0.17613494327707241 0 0.087493852653168391 -0.17556937893495991 0 0.090925916857668265 -0.17613494327707241 0 0.090654055589326155 -0.17467130079491469 0 0.090925916857668265 -0.17613494327707241 0 0.090654055589326155 -0.17467130079491469 0 0.087493852653168391 -0.17556937893495991 0 0.090654055589326155 -0.17467130079491469 0 0.087493852653168391 -0.17556937893495991 0 0.087493852653168391 -0.17556937893495991 0 0.072338937679495049 -0.17307202486282919 0 0.087493852653168391 -0.17556937893495991 0 0.067951053215679957 -0.1811231238445854 0 0.087493852653168391 -0.17556937893495991 0 0.072338937679495049 -0.17307202486282919 0 0.067951053215679957 -0.1811231238445854 0 0.070461619908864154 -0.1918088203956855 0 0.080767145133696011 -0.18790694201456129 0 0.067951053215679957 -0.1811231238445854 0 0.072338937679495049 -0.17307202486282919 0 0.067951053215679957 -0.1811231238445854 0 0.057184022705821479 -0.17057467079069949 0 0.07159287775123209 -0.16009943412697519 0 0.061721101914421587 -0.1508889195164001 0 0.057184022705821479 -0.17057467079069949 0 0.081616291293973228 -0.16660726723658631 0 0.072338937679495049 -0.17307202486282919 0 0.07159287775123209 -0.16009943412697519 0 0.07159287775123209 -0.16009943412697519 0 0.057184022705821479 -0.17057467079069949 0 0.072338937679495049 -0.17307202486282919 0 0.07159287775123209 -0.16009943412697519 0 0.057184022705821479 -0.17057467079069949 0 0.072338937679495049 -0.17307202486282919 0 0.057184022705821479 -0.17057467079069949 0 0.07159287775123209 -0.16009943412697519 0 0.073840492257681925 -0.1481146018307414 0 0.061721101914421587 -0.1508889195164001 0 0.073840492257681925 -0.1481146018307414 0 0.066247497620302284 -0.13641966802139061 0 0.061721101914421587 -0.1508889195164001 0 0.073840492257681925 -0.1481146018307414 0 0.080074082957030543 -0.1376346054981348 0 0.066247497620302284 -0.13641966802139061 0 0.07159287775123209 -0.16009943412697519 0 0.073840492257681925 -0.1481146018307414 0 0.086001732796643554 -0.14962419746325209 0 0.07159287775123209 -0.16009943412697519 0 0.086001732796643554 -0.14962419746325209 0 0.073840492257681925 -0.1481146018307414 0 0.082103860278770355 -0.14601724511995229 0 0.080074082957030543 -0.1376346054981348 0 0.083875466988418995 -0.14374679689161801 0 0.082103860278770355 -0.14601724511995229 0 0.080074082957030543 -0.1376346054981348 0 0.073840492257681925 -0.1481146018307414 0 0.082103860278770355 -0.14601724511995229 0 0.086001732796643554 -0.14962419746325209 0 0.083875466988418995 -0.14374679689161801 0 0.087359879735037352 -0.14191404255287529 0 0.080074082957030543 -0.1376346054981348 0 0.083875466988418995 -0.14374679689161801 0 0.087359879735037352 -0.14191404255287529 0 0.086001732796643554 -0.14962419746325209 0 0.083875466988418995 -0.14374679689161801 0 0.082103860278770355 -0.14601724511995229 0 0.086001732796643554 -0.14962419746325209 0 0.087359879735037352 -0.14191404255287529 0 0.086001732796643554 -0.14962419746325209 0 0.093237019415289848 -0.1370389616240095 0 0.09330525305103457 -0.1280316724612881 0 0.087106119948401631 -0.1344526861311354 0 0.082354442325948532 -0.12673985880105329 0 0.09330525305103457 -0.1280316724612881 0 0.093237019415289848 -0.1370389616240095 0 0.087106119948401631 -0.1344526861311354 0 0.087359879735037352 -0.14191404255287529 0 0.093237019415289848 -0.1370389616240095 0 0.087106119948401631 -0.1344526861311354 0 0.087106119948401631 -0.1344526861311354 0 0.080074082957030543 -0.1376346054981348 0 0.082354442325948532 -0.12673985880105329 0 0.087359879735037352 -0.14191404255287529 0 0.087106119948401631 -0.1344526861311354 0 0.080074082957030543 -0.1376346054981348 0 0.080074082957030543 -0.1376346054981348 0 0.082354442325948532 -0.12673985880105329 0 0.073207056259013734 -0.12808096387040599 0 0.080074082957030543 -0.1376346054981348 0 0.073207056259013734 -0.12808096387040599 0 0.066247497620302284 -0.13641966802139061 0 0.073207056259013734 -0.12808096387040599 0 0.066247497620302284 -0.13641966802139061 0 0.064352015854879929 -0.124012928121654 0 0.066247497620302284 -0.13641966802139061 0 0.056143271206335048 -0.12976389833915489 0 0.064352015854879929 -0.124012928121654 0 0.054913973079636962 -0.13973086366995061 0 0.046881983609629002 -0.15032980344898009 0 0.043576011047496872 -0.1312520290238271 0 0.056143271206335048 -0.12976389833915489 0 0.043576011047496872 -0.1312520290238271 0 0.051890864200379763 -0.11868494490789901 0 0.056143271206335048 -0.12976389833915489 0 0.054913973079636962 -0.13973086366995061 0 0.043576011047496872 -0.1312520290238271 0 0.066247497620302284 -0.13641966802139061 0 0.056143271206335048 -0.12976389833915489 0 0.054913973079636962 -0.13973086366995061 0 0.066247497620302284 -0.13641966802139061 0 0.054913973079636962 -0.13973086366995061 0 0.061721101914421587 -0.1508889195164001 0 0.054913973079636962 -0.13973086366995061 0 0.061721101914421587 -0.1508889195164001 0 0.046881983609629002 -0.15032980344898009 0 0.046881983609629002 -0.15032980344898009 0 0.031865912768471359 -0.14418803440915759 0 0.043576011047496872 -0.1312520290238271 0 0.046881983609629002 -0.15032980344898009 0 0.031865912768471359 -0.14418803440915759 0 0.031488746141869743 -0.16634038747911481 0 0.043576011047496872 -0.1312520290238271 0 0.024066503836519482 -0.12647219387591549 0 0.037625449065875297 -0.1194612291822995 0 0.031865912768471359 -0.14418803440915759 0 0.043576011047496872 -0.1312520290238271 0 0.024066503836519482 -0.12647219387591549 0 0.061167309818916257 -0.1944131129870986 0 0.067951053215679957 -0.1811231238445854 0 0.048408253778191357 -0.1866768687542105 0 0.048408253778191357 -0.1866768687542105 0 0.057184022705821479 -0.17057467079069949 0 0.035719281229697523 -0.18617953642224741 0 0.067951053215679957 -0.1811231238445854 0 0.048408253778191357 -0.1866768687542105 0 0.057184022705821479 -0.17057467079069949 0 0.067951053215679957 -0.1811231238445854 0 0.048408253778191357 -0.1866768687542105 0 0.061721101914421587 -0.1508889195164001 0 0.046881983609629002 -0.15032980344898009 0 0.057184022705821479 -0.17057467079069949 0 0.046881983609629002 -0.15032980344898009 0 0.057184022705821479 -0.17057467079069949 0 0.031488746141869743 -0.16634038747911481 0 0.057184022705821479 -0.17057467079069949 0 0.031488746141869743 -0.16634038747911481 0 0.057184022705821479 -0.17057467079069949 0 0.031488746141869743 -0.16634038747911481 0 0.035719281229697523 -0.18617953642224741 0 0.057184022705821479 -0.17057467079069949 0 0.035719281229697523 -0.18617953642224741 0 0.031488746141869743 -0.16634038747911481 0 0.035719281229697523 -0.18617953642224741 0 0.018554992821627279 -0.17946904168417949 0 0.031488746141869743 -0.16634038747911481 0 0.0057934695779179174 -0.1621061041675308 0 0.019763063344467331 -0.15365902286639629 0 0.031488746141869743 -0.16634038747911481 0 0.018554992821627279 -0.17946904168417949 0 0.0057934695779179174 -0.1621061041675308 0 0.031488746141869743 -0.16634038747911481 0 0.0057934695779179174 -0.1621061041675308 0 0.018554992821627279 -0.17946904168417949 0 0.0057934695779179174 -0.1621061041675308 0 0.00016161218586271259 -0.1783170499424877 0 0.01425453975357429 -0.20178440205379619 0 0.018554992821627279 -0.17946904168417949 0 0.00016161218586271259 -0.1783170499424877 0 0.031865912768471359 -0.14418803440915759 0 0.024066503836519482 -0.12647219387591549 0 0.015663025549151811 -0.14028165487470889 0 0.031865912768471359 -0.14418803440915759 0 0.031488746141869743 -0.16634038747911481 0 0.019763063344467331 -0.15365902286639629 0 0.031865912768471359 -0.14418803440915759 0 0.015663025549151811 -0.14028165487470889 0 0.019763063344467331 -0.15365902286639629 0 0.015663025549151811 -0.14028165487470889 0 0.0067517151124227561 -0.1502464962188175 0 0.0032140268818641178 -0.14153708485685071 0 0.015663025549151811 -0.14028165487470889 0 0.019763063344467331 -0.15365902286639629 0 0.0067517151124227561 -0.1502464962188175 0 0.0057934695779179174 -0.1621061041675308 0 0.019763063344467331 -0.15365902286639629 0 0.0067517151124227561 -0.1502464962188175 0 -0.0061180970615561971 -0.15098104411288141 0 0.0057934695779179174 -0.1621061041675308 0 0.0067517151124227561 -0.1502464962188175 0 -0.0061180970615561971 -0.15098104411288141 0 0.0067517151124227561 -0.1502464962188175 0 0.0032140268818641178 -0.14153708485685071 0 0.024066503836519482 -0.12647219387591549 0 0.015663025549151811 -0.14028165487470889 0 0.0061657884986084316 -0.12918962103613721 0 0.015663025549151811 -0.14028165487470889 0 0.0032140268818641178 -0.14153708485685071 0 0.0061657884986084316 -0.12918962103613721 0 -1.170615023791954e-05 -0.1034689084604536 0 -0.0051268486959103578 -0.122350190065947 0 0.010590465098306421 -0.11647466524778601 0 -0.0051268486959103578 -0.122350190065947 0 0.0061657884986084316 -0.12918962103613721 0 0.010590465098306421 -0.11647466524778601 0 0.024066503836519482 -0.12647219387591549 0 0.0061657884986084316 -0.12918962103613721 0 0.010590465098306421 -0.11647466524778601 0 0.024066503836519482 -0.12647219387591549 0 0.023047524557731461 -0.1052328942832514 0 0.037625449065875297 -0.1194612291822995 0 0.024066503836519482 -0.12647219387591549 0 0.010590465098306421 -0.11647466524778601 0 0.023047524557731461 -0.1052328942832514 0 0.023047524557731461 -0.1052328942832514 0 0.0055871776796167418 -0.096502554926749473 0 0.01329240485073465 -0.085293193931042233 0 0.023047524557731461 -0.1052328942832514 0 0.0055871776796167418 -0.096502554926749473 0 0.023047524557731461 -0.1052328942832514 0 0.010215874637284751 -0.1059557540903223 0 0.0055871776796167418 -0.096502554926749473 0 0.010590465098306421 -0.11647466524778601 0 0.023047524557731461 -0.1052328942832514 0 0.010215874637284751 -0.1059557540903223 0 -1.170615023791954e-05 -0.1034689084604536 0 0.010215874637284751 -0.1059557540903223 0 0.0055871776796167418 -0.096502554926749473 0 -1.170615023791954e-05 -0.1034689084604536 0 0.010590465098306421 -0.11647466524778601 0 0.010215874637284751 -0.1059557540903223 0 -1.170615023791954e-05 -0.1034689084604536 0 -0.0054880464665176369 -0.098150446906979827 0 0.0055871776796167418 -0.096502554926749473 0 0.0055871776796167418 -0.096502554926749473 0 0.0043764673912596299 -0.079956963037604731 0 0.01329240485073465 -0.085293193931042233 0 0.0043764673912596299 -0.079956963037604731 0 0.01329240485073465 -0.085293193931042233 0 0.01472151604931741 -0.069895153934734888 0 0.0043764673912596299 -0.079956963037604731 0 0.01472151604931741 -0.069895153934734888 0 0.00043414137965645799 -0.061061088137375992 0 0.01329240485073465 -0.085293193931042233 0 0.01472151604931741 -0.069895153934734888 0 0.03539465695266493 -0.077504734456034299 0 0.01472151604931741 -0.069895153934734888 0 0.03539465695266493 -0.077504734456034299 0 0.02408436756702179 -0.056165061874310453 0 0.01329240485073465 -0.085293193931042233 0 0.03539465695266493 -0.077504734456034299 0 0.023047524557731461 -0.1052328942832514 0 0.01329240485073465 -0.085293193931042233 0 0.02790683192969862 -0.09051432494890771 0 0.01329240485073465 -0.085293193931042233 0 0.02790683192969862 -0.09051432494890771 0 0.03539465695266493 -0.077504734456034299 0 0.02790683192969862 -0.09051432494890771 0 0.043348411875631362 -0.092504740327982393 0 0.03539465695266493 -0.077504734456034299 0 0.043348411875631362 -0.092504740327982393 0 0.03539465695266493 -0.077504734456034299 0 0.057496909054595237 -0.069716274981026352 0 0.03539465695266493 -0.077504734456034299 0 0.057496909054595237 -0.069716274981026352 0 0.042170783519918938 -0.060173197672559173 0 0.03539465695266493 -0.077504734456034299 0 0.057496909054595237 -0.069716274981026352 0 0.03539465695266493 -0.077504734456034299 0 0.02408436756702179 -0.056165061874310453 0 0.042170783519918938 -0.060173197672559173 0 0.043348411875631362 -0.092504740327982393 0 0.057496909054595237 -0.069716274981026352 0 0.063391545966866608 -0.091857318573479757 0 0.043348411875631362 -0.092504740327982393 0 0.055620651716451183 -0.1047669542865277 0 0.063391545966866608 -0.091857318573479757 0 0.043348411875631362 -0.092504740327982393 0 0.055620651716451183 -0.1047669542865277 0 0.04221450253157491 -0.10771351158838539 0 0.055620651716451183 -0.1047669542865277 0 0.051890864200379763 -0.11868494490789901 0 0.063453884172767636 -0.11382650688881719 0 0.056143271206335048 -0.12976389833915489 0 0.051890864200379763 -0.11868494490789901 0 0.064352015854879929 -0.124012928121654 0 0.051890864200379763 -0.11868494490789901 0 0.064352015854879929 -0.124012928121654 0 0.063453884172767636 -0.11382650688881719 0 0.055620651716451183 -0.1047669542865277 0 0.051890864200379763 -0.11868494490789901 0 0.04221450253157491 -0.10771351158838539 0 0.023047524557731461 -0.1052328942832514 0 0.037625449065875297 -0.1194612291822995 0 0.04221450253157491 -0.10771351158838539 0 0.051890864200379763 -0.11868494490789901 0 0.037625449065875297 -0.1194612291822995 0 0.04221450253157491 -0.10771351158838539 0 0.043576011047496872 -0.1312520290238271 0 0.051890864200379763 -0.11868494490789901 0 0.037625449065875297 -0.1194612291822995 0 0.023047524557731461 -0.1052328942832514 0 0.043348411875631362 -0.092504740327982393 0 0.04221450253157491 -0.10771351158838539 0 0.023047524557731461 -0.1052328942832514 0 0.02790683192969862 -0.09051432494890771 0 0.043348411875631362 -0.092504740327982393 0 -0.0045653430997711266 -0.018287619473552709 0 0.02504876253596517 -0.0076388332716327279 0 0.005904608835726727 -0.00024378440871443069 0 -0.0045653430997711266 -0.018287619473552709 0 0.02504876253596517 -0.0076388332716327279 0 0.01274145195781087 -0.034349960704504218 0 -0.0045653430997711266 -0.018287619473552709 0 -0.0056048939326261791 -0.039673260332606368 0 0.01274145195781087 -0.034349960704504218 0 0.02504876253596517 -0.0076388332716327279 0 0.01274145195781087 -0.034349960704504218 0 0.041673723819167119 -0.021345995674039539 0 0.02504876253596517 -0.0076388332716327279 0 0.01274145195781087 -0.034349960704504218 0 0.01274145195781087 -0.034349960704504218 0 0.02408436756702179 -0.056165061874310453 0 0.039625000983059613 -0.042565412497993817 0 -0.0056048939326261791 -0.039673260332606368 0 0.01274145195781087 -0.034349960704504218 0 0.00043414137965645799 -0.061061088137375992 0 0.01274145195781087 -0.034349960704504218 0 0.00043414137965645799 -0.061061088137375992 0 0.01274145195781087 -0.034349960704504218 0 0.00043414137965645799 -0.061061088137375992 0 0.02408436756702179 -0.056165061874310453 0 0.01472151604931741 -0.069895153934734888 0 0.00043414137965645799 -0.061061088137375992 0 0.02408436756702179 -0.056165061874310453 0 0.02408436756702179 -0.056165061874310453 0 0.042170783519918938 -0.060173197672559173 0 0.039625000983059613 -0.042565412497993817 0 0.057496909054595237 -0.069716274981026352 0 0.042170783519918938 -0.060173197672559173 0 0.059125828174125442 -0.050962194816853983 0 0.042170783519918938 -0.060173197672559173 0 0.059125828174125442 -0.050962194816853983 0 0.039625000983059613 -0.042565412497993817 0 0.059125828174125442 -0.050962194816853983 0 0.055196480385666782 -0.033528440586883902 0 0.07261190318880073 -0.03578167628516013 0 0.059125828174125442 -0.050962194816853983 0 0.055196480385666782 -0.033528440586883902 0 0.039625000983059613 -0.042565412497993817 0 0.055196480385666782 -0.033528440586883902 0 0.039625000983059613 -0.042565412497993817 0 0.041673723819167119 -0.021345995674039539 0 0.01274145195781087 -0.034349960704504218 0 0.039625000983059613 -0.042565412497993817 0 0.041673723819167119 -0.021345995674039539 0 0.055196480385666782 -0.033528440586883902 0 0.041673723819167119 -0.021345995674039539 0 0.062945945763181022 -0.01698692366037206 0 0.050151009438654581 0.0010426852504346359 0 0.041673723819167119 -0.021345995674039539 0 0.062945945763181022 -0.01698692366037206 0 0.050151009438654581 0.0010426852504346359 0 0.070155026607187643 0.0048614903205909579 0 0.062945945763181022 -0.01698692366037206 0 0.050151009438654581 0.0010426852504346359 0 0.062945945763181022 -0.01698692366037206 0 0.050151009438654581 0.0010426852504346359 0 0.02504876253596517 -0.0076388332716327279 0 0.041673723819167119 -0.021345995674039539 0 0.070155026607187643 0.0048614903205909579 0 0.092156790419798434 0.0087219627075932581 0 0.085876946045918556 -0.01609787401661043 0 0.070155026607187643 0.0048614903205909579 0 0.062945945763181022 -0.01698692366037206 0 0.085876946045918556 -0.01609787401661043 0 0.055196480385666782 -0.033528440586883902 0 0.062945945763181022 -0.01698692366037206 0 0.07261190318880073 -0.03578167628516013 0 0.062945945763181022 -0.01698692366037206 0 0.085876946045918556 -0.01609787401661043 0 0.07261190318880073 -0.03578167628516013 0 0.085876946045918556 -0.01609787401661043 0 0.091145399855767709 -0.037154699809372978 0 0.07261190318880073 -0.03578167628516013 0 0.085876946045918556 -0.01609787401661043 0 0.091145399855767709 -0.037154699809372978 0 0.099812361475043909 -0.0224058350039388 0 0.091145399855767709 -0.037154699809372978 0 0.07261190318880073 -0.03578167628516013 0 0.079599161156525489 -0.061927815506018447 0 0.057496909054595237 -0.069716274981026352 0 0.059125828174125442 -0.050962194816853983 0 0.079599161156525489 -0.061927815506018447 0 0.059125828174125442 -0.050962194816853983 0 0.07261190318880073 -0.03578167628516013 0 0.079599161156525489 -0.061927815506018447 0 0.079599161156525489 -0.061927815506018447 0 0.10170141325845559 -0.054139356031010548 0 0.091145399855767709 -0.037154699809372978 0 0.079599161156525489 -0.061927815506018447 0 0.10170141325845559 -0.054139356031010548 0 0.10170141325845559 -0.054139356031010548 0 0.1200793249631929 -0.057999034889130531 0 0.11527440869815291 -0.070894363050938561 0 0.10170141325845559 -0.054139356031010548 0 0.1200793249631929 -0.057999034889130531 0 0.1176913260746205 -0.045873692891969443 0 0.1200793249631929 -0.057999034889130531 0 0.1176913260746205 -0.045873692891969443 0 0.1335315377626268 -0.054091238588611402 0 0.1176913260746205 -0.045873692891969443 0 0.12441853162289419 -0.041728366852446713 0 0.1178628927107566 -0.034866190747789939 0 0.12441853162289419 -0.041728366852446713 0 0.1178628927107566 -0.034866190747789939 0 0.12858836994357309 -0.032082345181416103 0 0.1176913260746205 -0.045873692891969443 0 0.1178628927107566 -0.034866190747789939 0 0.1065035614986603 -0.033895097679603831 0 0.10170141325845559 -0.054139356031010548 0 0.1176913260746205 -0.045873692891969443 0 0.1065035614986603 -0.033895097679603831 0 0.091145399855767709 -0.037154699809372978 0 0.10170141325845559 -0.054139356031010548 0 0.1065035614986603 -0.033895097679603831 0 0.085876946045918556 -0.01609787401661043 0 0.099812361475043909 -0.0224058350039388 0 0.11037258018168571 -0.01168019123691148 0 0.1065035614986603 -0.033895097679603831 0 0.099812361475043909 -0.0224058350039388 0 0.11037258018168571 -0.01168019123691148 0 0.091145399855767709 -0.037154699809372978 0 0.1065035614986603 -0.033895097679603831 0 0.099812361475043909 -0.0224058350039388 0 0.11037258018168571 -0.01168019123691148 0 0.12858836994357309 -0.032082345181416103 0 0.1178628927107566 -0.034866190747789939 0 0.1065035614986603 -0.033895097679603831 0 0.11037258018168571 -0.01168019123691148 0 0.11037258018168571 -0.01168019123691148 0 0.1253231429190633 -0.015412787908653429 0 0.12748624211187801 -0.027175246159734729 0 0.1178628927107566 -0.034866190747789939 0 0.11037258018168571 -0.01168019123691148 0 0.12858836994357309 -0.032082345181416103 0 0.11037258018168571 -0.01168019123691148 0 0.12748624211187801 -0.027175246159734729 0 0.12858836994357309 -0.032082345181416103 0 0.1116446037739722 0.0061415384342651189 0 0.11037258018168571 -0.01168019123691148 0 0.12546205171341571 -0.0034538947084765959 0 0.11037258018168571 -0.01168019123691148 0 0.12546205171341571 -0.0034538947084765959 0 0.1253231429190633 -0.015412787908653429 0 0.092156790419798434 0.0087219627075932581 0 0.085876946045918556 -0.01609787401661043 0 0.11037258018168571 -0.01168019123691148 0 0.092156790419798434 0.0087219627075932581 0 0.11037258018168571 -0.01168019123691148 0 0.083811703292450163 -0.106757769922635 0 0.092254183228862613 -0.097808372748575928 0 0.077403160672149196 -0.096831856861526261 0 0.083811703292450163 -0.106757769922635 0 0.092650778047766044 -0.11222337156795011 0 0.095132549438549485 -0.1060676948739 0 0.083811703292450163 -0.106757769922635 0 0.092254183228862613 -0.097808372748575928 0 0.095132549438549485 -0.1060676948739 0 0.083811703292450163 -0.106757769922635 0 0.092650778047766044 -0.11222337156795011 0 0.087701868829095794 -0.1186736117858368 0 0.092650778047766044 -0.11222337156795011 0 0.087701868829095794 -0.1186736117858368 0 0.099520147724360061 -0.1209815478789433 0 0.09330525305103457 -0.1280316724612881 0 0.087701868829095794 -0.1186736117858368 0 0.099520147724360061 -0.1209815478789433 0 0.09330525305103457 -0.1280316724612881 0 0.082354442325948532 -0.12673985880105329 0 0.087701868829095794 -0.1186736117858368 0 0.082354442325948532 -0.12673985880105329 0 0.087701868829095794 -0.1186736117858368 0 0.074568888533015423 -0.1173074500831509 0 0.083811703292450163 -0.106757769922635 0 0.087701868829095794 -0.1186736117858368 0 0.074568888533015423 -0.1173074500831509 0 0.083811703292450163 -0.106757769922635 0 0.074568888533015423 -0.1173074500831509 0 0.069802609775563643 -0.10534379533908569 0 0.073207056259013734 -0.12808096387040599 0 0.074568888533015423 -0.1173074500831509 0 0.064352015854879929 -0.124012928121654 0 0.082354442325948532 -0.12673985880105329 0 0.073207056259013734 -0.12808096387040599 0 0.074568888533015423 -0.1173074500831509 0 0.074568888533015423 -0.1173074500831509 0 0.064352015854879929 -0.124012928121654 0 0.063453884172767636 -0.11382650688881719 0 0.074568888533015423 -0.1173074500831509 0 0.063453884172767636 -0.11382650688881719 0 0.069802609775563643 -0.10534379533908569 0 0.055620651716451183 -0.1047669542865277 0 0.063453884172767636 -0.11382650688881719 0 0.069802609775563643 -0.10534379533908569 0 0.083811703292450163 -0.106757769922635 0 0.069802609775563643 -0.10534379533908569 0 0.077403160672149196 -0.096831856861526261 0 0.055620651716451183 -0.1047669542865277 0 0.069802609775563643 -0.10534379533908569 0 0.063391545966866608 -0.091857318573479757 0 0.069802609775563643 -0.10534379533908569 0 0.077403160672149196 -0.096831856861526261 0 0.063391545966866608 -0.091857318573479757 0 0.057496909054595237 -0.069716274981026352 0 0.063391545966866608 -0.091857318573479757 0 0.077755761097002912 -0.082392027723854913 0 0.077403160672149196 -0.096831856861526261 0 0.063391545966866608 -0.091857318573479757 0 0.077755761097002912 -0.082392027723854913 0 0.057496909054595237 -0.069716274981026352 0 0.079599161156525489 -0.061927815506018447 0 0.057496909054595237 -0.069716274981026352 0 0.079599161156525489 -0.061927815506018447 0 0.077755761097002912 -0.082392027723854913 0 0.079599161156525489 -0.061927815506018447 0 0.10170141325845559 -0.054139356031010548 0 0.099387630412219874 -0.078223246321774104 0 0.079599161156525489 -0.061927815506018447 0 0.077755761097002912 -0.082392027723854913 0 0.099387630412219874 -0.078223246321774104 0 0.092254183228862613 -0.097808372748575928 0 0.077755761097002912 -0.082392027723854913 0 0.099387630412219874 -0.078223246321774104 0 0.092254183228862613 -0.097808372748575928 0 0.077403160672149196 -0.096831856861526261 0 0.077755761097002912 -0.082392027723854913 0 0.099387630412219874 -0.078223246321774104 0 0.1033445727096684 -0.1061812517643372 0 0.099387630412219874 -0.078223246321774104 0 0.11527440869815291 -0.070894363050938561 0 0.11028453098871679 -0.087592053904486572 0 0.099387630412219874 -0.078223246321774104 0 0.11028453098871679 -0.087592053904486572 0 0.1033445727096684 -0.1061812517643372 0 0.10170141325845559 -0.054139356031010548 0 0.099387630412219874 -0.078223246321774104 0 0.11527440869815291 -0.070894363050938561 0 0.1200793249631929 -0.057999034889130531 0 0.11527440869815291 -0.070894363050938561 0 0.13219793902210861 -0.064996523883122687 0 0.11527440869815291 -0.070894363050938561 0 0.1197828234047723 -0.08550800795681375 0 0.1275439853958687 -0.076884775978948439 0 0.11527440869815291 -0.070894363050938561 0 0.11028453098871679 -0.087592053904486572 0 0.1197828234047723 -0.08550800795681375 0 0.11028453098871679 -0.087592053904486572 0 0.1197828234047723 -0.08550800795681375 0 0.1136332197187705 -0.097153400428569237 0 0.1197828234047723 -0.08550800795681375 0 0.1136332197187705 -0.097153400428569237 0 0.12527198289055419 -0.09794485761484889 0 0.11664677183840701 -0.10252779214186571 0 0.1136332197187705 -0.097153400428569237 0 0.12527198289055419 -0.09794485761484889 0 0.1212834549155087 -0.10697196707242269 0 0.1090636856139979 -0.1047607839246807 0 0.1238288351874043 -0.1157675418236562 0 0.1212834549155087 -0.10697196707242269 0 0.11664677183840701 -0.10252779214186571 0 0.12527198289055419 -0.09794485761484889 0 0.1212834549155087 -0.10697196707242269 0 0.11664677183840701 -0.10252779214186571 0 0.1090636856139979 -0.1047607839246807 0 0.11664677183840701 -0.10252779214186571 0 0.1136332197187705 -0.097153400428569237 0 0.1090636856139979 -0.1047607839246807 0 0.11028453098871679 -0.087592053904486572 0 0.1136332197187705 -0.097153400428569237 0 0.1033445727096684 -0.1061812517643372 0 0.092254183228862613 -0.097808372748575928 0 0.099387630412219874 -0.078223246321774104 0 0.1033445727096684 -0.1061812517643372 0 0.1136332197187705 -0.097153400428569237 0 0.1090636856139979 -0.1047607839246807 0 0.1033445727096684 -0.1061812517643372 0 0.1090636856139979 -0.1047607839246807 0 0.1033445727096684 -0.1061812517643372 0 0.1090410989968572 -0.1115864609780122 0 0.092254183228862613 -0.097808372748575928 0 0.1033445727096684 -0.1061812517643372 0 0.095132549438549485 -0.1060676948739 0 0.1033445727096684 -0.1061812517643372 0 0.095132549438549485 -0.1060676948739 0 0.097662011980086005 -0.11136346652128259 0 0.10730151500712121 -0.1341392572068997 0 0.1033445727096684 -0.1061812517643372 0 0.10730151500712121 -0.1341392572068997 0 0.1033445727096684 -0.1061812517643372 0 0.099520147724360061 -0.1209815478789433 0 0.10730151500712121 -0.1341392572068997 0 0.1033445727096684 -0.1061812517643372 0 0.1092563594043707 -0.11775996158525751 0 0.1033445727096684 -0.1061812517643372 0 0.099520147724360061 -0.1209815478789433 0 0.097662011980086005 -0.11136346652128259 0 0.092650778047766044 -0.11222337156795011 0 0.099520147724360061 -0.1209815478789433 0 0.097662011980086005 -0.11136346652128259 0 0.092650778047766044 -0.11222337156795011 0 0.095132549438549485 -0.1060676948739 0 0.097662011980086005 -0.11136346652128259 0 0.1033445727096684 -0.1061812517643372 0 0.1090410989968572 -0.1115864609780122 0 0.1092563594043707 -0.11775996158525751 0 0.1092563594043707 -0.11775996158525751 0 0.1142817980258638 -0.1149245973680999 0 0.120219010926689 -0.12474823852889309 0 0.1238288351874043 -0.1157675418236562 0 0.120219010926689 -0.12474823852889309 0 0.13033544652893519 -0.13142463504060339 0 0.1090636856139979 -0.1047607839246807 0 0.1142817980258638 -0.1149245973680999 0 0.1238288351874043 -0.1157675418236562 0 0.1090636856139979 -0.1047607839246807 0 0.1238288351874043 -0.1157675418236562 0 0.1090636856139979 -0.1047607839246807 0 0.1090410989968572 -0.1115864609780122 0 0.1142817980258638 -0.1149245973680999 0 0.1090410989968572 -0.1115864609780122 0 0.1092563594043707 -0.11775996158525751 0 0.1142817980258638 -0.1149245973680999 0 0.1142817980258638 -0.1149245973680999 0 0.1238288351874043 -0.1157675418236562 0 0.120219010926689 -0.12474823852889309 0 0.1238288351874043 -0.1157675418236562 0 0.13859398476081131 -0.12677429972263091 0 0.1238288351874043 -0.1157675418236562 0 0.13033544652893519 -0.13142463504060339 0 0.13859398476081131 -0.12677429972263091 0 0.1238288351874043 -0.1157675418236562 0 0.1374024086429349 -0.1129659301307568 0 0.13004192684223909 -0.1071274133857686 0 0.1212834549155087 -0.10697196707242269 0 0.1238288351874043 -0.1157675418236562 0 0.13004192684223909 -0.1071274133857686 0 0.1238288351874043 -0.1157675418236562 0 0.1374024086429349 -0.1129659301307568 0 0.13859398476081131 -0.12677429972263091 0 0.14859164876071379 -0.1211446727001963 0 0.1435331771711969 -0.098622402348001459 0 0.16023253349551789 -0.11458975754514231 0 0.14859164876071379 -0.1211446727001963 0 0.13859398476081131 -0.12677429972263091 0 0.1374024086429349 -0.1129659301307568 0 0.14859164876071379 -0.1211446727001963 0 0.13859398476081131 -0.12677429972263091 0 0.14859164876071379 -0.1211446727001963 0 0.1435331771711969 -0.098622402348001459 0 0.1374024086429349 -0.1129659301307568 0 0.14859164876071379 -0.1211446727001963 0 0.1435331771711969 -0.098622402348001459 0 0.14859164876071379 -0.1211446727001963 0 0.16023253349551789 -0.11458975754514231 0 0.15818031160793411 -0.12690074118172709 0 0.14859164876071379 -0.1211446727001963 0 0.16023253349551789 -0.11458975754514231 0 0.1493536195385988 -0.095344944770474643 0 0.16023253349551789 -0.11458975754514231 0 0.1493536195385988 -0.095344944770474643 0 0.1435331771711969 -0.098622402348001459 0 0.16023253349551789 -0.11458975754514231 0 0.1435331771711969 -0.098622402348001459 0 0.12527198289055419 -0.09794485761484889 0 0.13092133488881441 -0.087012035178883895 0 0.1435331771711969 -0.098622402348001459 0 0.13004192684223909 -0.1071274133857686 0 0.12527198289055419 -0.09794485761484889 0 0.1374024086429349 -0.1129659301307568 0 0.1435331771711969 -0.098622402348001459 0 0.13004192684223909 -0.1071274133857686 0 0.1212834549155087 -0.10697196707242269 0 0.13004192684223909 -0.1071274133857686 0 0.12527198289055419 -0.09794485761484889 0 0.1435331771711969 -0.098622402348001459 0 0.13092133488881441 -0.087012035178883895 0 0.13847470558168001 -0.076100131995806772 0 0.1197828234047723 -0.08550800795681375 0 0.12527198289055419 -0.09794485761484889 0 0.13092133488881441 -0.087012035178883895 0 0.13092133488881441 -0.087012035178883895 0 0.1275439853958687 -0.076884775978948439 0 0.13847470558168001 -0.076100131995806772 0 0.1197828234047723 -0.08550800795681375 0 0.13092133488881441 -0.087012035178883895 0 0.1275439853958687 -0.076884775978948439 0 0.13847470558168001 -0.076100131995806772 0 0.1335315377626268 -0.054091238588611402 0 0.1434619608239821 -0.061477610795627483 0 0.13219793902210861 -0.064996523883122687 0 0.13847470558168001 -0.076100131995806772 0 0.1335315377626268 -0.054091238588611402 0 0.11527440869815291 -0.070894363050938561 0 0.13219793902210861 -0.064996523883122687 0 0.1275439853958687 -0.076884775978948439 0 0.13847470558168001 -0.076100131995806772 0 0.1335315377626268 -0.054091238588611402 0 0.13219793902210861 -0.064996523883122687 0 0.1275439853958687 -0.076884775978948439 0 0.13847470558168001 -0.076100131995806772 0 0.13219793902210861 -0.064996523883122687 0 0.13847470558168001 -0.076100131995806772 0 0.13847470558168001 -0.076100131995806772 0 0.15002465826388231 -0.070356589018943497 0 0.1434619608239821 -0.061477610795627483 0 0.13847470558168001 -0.076100131995806772 0 0.15002465826388231 -0.070356589018943497 0 0.15320666579918621 -0.081860430805388684 0 0.15002465826388231 -0.070356589018943497 0 0.15320666579918621 -0.081860430805388684 0 0.16116286758964871 -0.074884559716059215 0 0.15002465826388231 -0.070356589018943497 0 0.1434619608239821 -0.061477610795627483 0 0.15398981169329001 -0.060532614522711727 0 0.15002465826388231 -0.070356589018943497 0 0.16116286758964871 -0.074884559716059215 0 0.15398981169329001 -0.060532614522711727 0 0.1493536195385988 -0.095344944770474643 0 0.1435331771711969 -0.098622402348001459 0 0.13847470558168001 -0.076100131995806772 0 0.1493536195385988 -0.095344944770474643 0 0.13847470558168001 -0.076100131995806772 0 0.15320666579918621 -0.081860430805388684 0 0.1493536195385988 -0.095344944770474643 0 0.13847470558168001 -0.076100131995806772 0 0.1435331771711969 -0.098622402348001459 0 0.13847470558168001 -0.076100131995806772 0 0.1493536195385988 -0.095344944770474643 0 0.15320666579918621 -0.081860430805388684 0 0.16833592348600759 -0.089236504909406572 0 0.15320666579918621 -0.081860430805388684 0 0.16833592348600759 -0.089236504909406572 0 0.16116286758964871 -0.074884559716059215 0 0.16833592348600759 -0.089236504909406572 0 0.16116286758964871 -0.074884559716059215 0 0.17347989410755521 -0.080262762611184091 0 0.16833592348600759 -0.089236504909406572 0 0.16116286758964871 -0.074884559716059215 0 0.16116286758964871 -0.074884559716059215 0 0.165069404209613 -0.072942043656185382 0 0.15398981169329001 -0.060532614522711727 0 0.16116286758964871 -0.074884559716059215 0 0.15398981169329001 -0.060532614522711727 0 0.165069404209613 -0.072942043656185382 0 0.15398981169329001 -0.060532614522711727 0 0.165069404209613 -0.072942043656185382 0 0.15398981169329001 -0.060532614522711727 0 0.16699441180157809 -0.058836769932688722 0 0.165069404209613 -0.072942043656185382 0 0.1748885206672203 -0.068827708677214466 0 0.17347989410755521 -0.080262762611184091 0 0.16116286758964871 -0.074884559716059215 0 0.165069404209613 -0.072942043656185382 0 0.17347989410755521 -0.080262762611184091 0 0.165069404209613 -0.072942043656185382 0 0.1748885206672203 -0.068827708677214466 0 0.16699441180157809 -0.058836769932688722 0 0.1748885206672203 -0.068827708677214466 0 0.1861098475808505 -0.075327633577803157 0 0.18170366958553319 -0.057904077758479229 0 0.1748885206672203 -0.068827708677214466 0 0.1861098475808505 -0.075327633577803157 0 0.17347989410755521 -0.080262762611184091 0 0.1861098475808505 -0.075327633577803157 0 0.17347989410755521 -0.080262762611184091 0 0.185086681101372 -0.1005945301617418 0 0.16833592348600759 -0.089236504909406572 0 0.17347989410755521 -0.080262762611184091 0 0.185086681101372 -0.1005945301617418 0 0.185086681101372 -0.1005945301617418 0 0.16023253349551789 -0.11458975754514231 0 0.185086681101372 -0.1005945301617418 0 0.17698235222925379 -0.11819852528184641 0 0.19083396169934611 -0.12259923728331081 0 0.185086681101372 -0.1005945301617418 0 0.17698235222925379 -0.11819852528184641 0 0.16023253349551789 -0.11458975754514231 0 0.16023253349551789 -0.11458975754514231 0 0.1717762326207789 -0.13501057613719011 0 0.17698235222925379 -0.11819852528184641 0 0.16023253349551789 -0.11458975754514231 0 0.1717762326207789 -0.13501057613719011 0 0.1493536195385988 -0.095344944770474643 0 0.16833592348600759 -0.089236504909406572 0 0.16023253349551789 -0.11458975754514231 0 0.16833592348600759 -0.089236504909406572 0 0.185086681101372 -0.1005945301617418 0 0.16023253349551789 -0.11458975754514231 0 0.1541854101147071 -0.01484643015585833 0 0.14820201300634539 -0.003718295740844159 0 0.16113444179630981 -0.0069783374875720203 0 0.1541854101147071 -0.01484643015585833 0 0.14820201300634539 -0.003718295740844159 0 0.14505566032150691 -0.01588602845055417 0 0.14820201300634539 -0.003718295740844159 0 0.13711958973227861 -0.0073354970684072467 0 0.14505566032150691 -0.01588602845055417 0 0.13309451229529609 0.009536296927083663 0 0.14820201300634539 -0.003718295740844159 0 0.13711958973227861 -0.0073354970684072467 0 0.12546205171341571 -0.0034538947084765959 0 0.1253231429190633 -0.015412787908653429 0 0.1349713050400404 -0.022480134646554989 0 0.13711958973227861 -0.0073354970684072467 0 0.12546205171341571 -0.0034538947084765959 0 0.1349713050400404 -0.022480134646554989 0 0.12546205171341571 -0.0034538947084765959 0 0.1349713050400404 -0.022480134646554989 0 0.13309451229529609 0.009536296927083663 0 0.13711958973227861 -0.0073354970684072467 0 0.12546205171341571 -0.0034538947084765959 0 0.13711958973227861 -0.0073354970684072467 0 0.1349713050400404 -0.022480134646554989 0 0.14505566032150691 -0.01588602845055417 0 0.1253231429190633 -0.015412787908653429 0 0.1349713050400404 -0.022480134646554989 0 0.12748624211187801 -0.027175246159734729 0 0.1349713050400404 -0.022480134646554989 0 0.12748624211187801 -0.027175246159734729 0 0.13410787031588581 -0.031040428586035541 0 0.12748624211187801 -0.027175246159734729 0 0.12858836994357309 -0.032082345181416103 0 0.12748624211187801 -0.027175246159734729 0 0.13410787031588581 -0.031040428586035541 0 0.12858836994357309 -0.032082345181416103 0 0.1460576977158945 -0.030271268961375952 0 0.14276909975169619 -0.023397242002887311 0 0.15254762911755981 -0.026296576726334901 0 0.1349713050400404 -0.022480134646554989 0 0.1460576977158945 -0.030271268961375952 0 0.14276909975169619 -0.023397242002887311 0 0.14505566032150691 -0.01588602845055417 0 0.14276909975169619 -0.023397242002887311 0 0.15254762911755981 -0.026296576726334901 0 0.1349713050400404 -0.022480134646554989 0 0.14505566032150691 -0.01588602845055417 0 0.14276909975169619 -0.023397242002887311 0 0.1541854101147071 -0.01484643015585833 0 0.14505566032150691 -0.01588602845055417 0 0.15254762911755981 -0.026296576726334901 0 0.1349713050400404 -0.022480134646554989 0 0.1460576977158945 -0.030271268961375952 0 0.14448055836666501 -0.041506374584633417 0 0.1460576977158945 -0.030271268961375952 0 0.15254762911755981 -0.026296576726334901 0 0.15551989630351101 -0.037676016846469117 0 0.1460576977158945 -0.030271268961375952 0 0.15551989630351101 -0.037676016846469117 0 0.14448055836666501 -0.041506374584633417 0 0.15551989630351101 -0.037676016846469117 0 0.14448055836666501 -0.041506374584633417 0 0.15777178538405989 -0.048872251945800173 0 0.14128909081843161 -0.046307479852063828 0 0.14448055836666501 -0.041506374584633417 0 0.13711647236113891 -0.037734157051037227 0 0.12858836994357309 -0.032082345181416103 0 0.1335315377626268 -0.054091238588611402 0 0.1349713050400404 -0.022480134646554989 0 0.13410787031588581 -0.031040428586035541 0 0.14448055836666501 -0.041506374584633417 0 0.13410787031588581 -0.031040428586035541 0 0.13711647236113891 -0.037734157051037227 0 0.12858836994357309 -0.032082345181416103 0 0.1349713050400404 -0.022480134646554989 0 0.14448055836666501 -0.041506374584633417 0 0.13410787031588581 -0.031040428586035541 0 0.14448055836666501 -0.041506374584633417 0 0.13711647236113891 -0.037734157051037227 0 0.14128909081843161 -0.046307479852063828 0 0.13711647236113891 -0.037734157051037227 0 0.12858836994357309 -0.032082345181416103 0 0.14128909081843161 -0.046307479852063828 0 0.12858836994357309 -0.032082345181416103 0 0.1335315377626268 -0.054091238588611402 0 0.12441853162289419 -0.041728366852446713 0 0.12858836994357309 -0.032082345181416103 0 0.1335315377626268 -0.054091238588611402 0 0.14128909081843161 -0.046307479852063828 0 0.12858836994357309 -0.032082345181416103 0 0.1176913260746205 -0.045873692891969443 0 0.12441853162289419 -0.041728366852446713 0 0.1335315377626268 -0.054091238588611402 0 0.14128909081843161 -0.046307479852063828 0 0.1335315377626268 -0.054091238588611402 0 0.1434619608239821 -0.061477610795627483 0 0.1200793249631929 -0.057999034889130531 0 0.13219793902210861 -0.064996523883122687 0 0.1335315377626268 -0.054091238588611402 0 0.14448055836666501 -0.041506374584633417 0 0.15398981169329001 -0.060532614522711727 0 0.15777178538405989 -0.048872251945800173 0 0.14128909081843161 -0.046307479852063828 0 0.1434619608239821 -0.061477610795627483 0 0.15398981169329001 -0.060532614522711727 0 0.14128909081843161 -0.046307479852063828 0 0.14448055836666501 -0.041506374584633417 0 0.15398981169329001 -0.060532614522711727 0 0.14448055836666501 -0.041506374584633417 0 0.15398981169329001 -0.060532614522711727 0 0.14128909081843161 -0.046307479852063828 0 0.15398981169329001 -0.060532614522711727 0 0.15398981169329001 -0.060532614522711727 0 0.15777178538405989 -0.048872251945800173 0 0.16699441180157809 -0.058836769932688722 0 0.15777178538405989 -0.048872251945800173 0 0.16699441180157809 -0.058836769932688722 0 0.1683171592591331 -0.04417832806704719 0 0.18170366958553319 -0.057904077758479229 0 0.18282700099502999 -0.041414302771724483 0 0.1978356020582076 -0.04581855327385851 0 0.1748885206672203 -0.068827708677214466 0 0.16699441180157809 -0.058836769932688722 0 0.18170366958553319 -0.057904077758479229 0 0.18170366958553319 -0.057904077758479229 0 0.18282700099502999 -0.041414302771724483 0 0.1683171592591331 -0.04417832806704719 0 0.16699441180157809 -0.058836769932688722 0 0.18170366958553319 -0.057904077758479229 0 0.1683171592591331 -0.04417832806704719 0 0.18282700099502999 -0.041414302771724483 0 0.1764009313679939 -0.029489157169150251 0 0.19178298873369809 -0.025428178521616829 0 0.18282700099502999 -0.041414302771724483 0 0.1683171592591331 -0.04417832806704719 0 0.1764009313679939 -0.029489157169150251 0 0.16424199718880669 -0.031453722859392887 0 0.1683171592591331 -0.04417832806704719 0 0.1764009313679939 -0.029489157169150251 0 0.15551989630351101 -0.037676016846469117 0 0.15777178538405989 -0.048872251945800173 0 0.1683171592591331 -0.04417832806704719 0 0.15254762911755981 -0.026296576726334901 0 0.15551989630351101 -0.037676016846469117 0 0.16424199718880669 -0.031453722859392887 0 0.15551989630351101 -0.037676016846469117 0 0.16424199718880669 -0.031453722859392887 0 0.1683171592591331 -0.04417832806704719 0 0.15254762911755981 -0.026296576726334901 0 0.16424199718880669 -0.031453722859392887 0 0.16430642628770589 -0.021037636189080011 0 0.1541854101147071 -0.01484643015585833 0 0.15254762911755981 -0.026296576726334901 0 0.16430642628770589 -0.021037636189080011 0 0.16424199718880669 -0.031453722859392887 0 0.16430642628770589 -0.021037636189080011 0 0.1764009313679939 -0.029489157169150251 0 0.1764009313679939 -0.029489157169150251 0 0.17881872095859261 -0.01307389191319702 0 0.19178298873369809 -0.025428178521616829 0 0.16430642628770589 -0.021037636189080011 0 0.1764009313679939 -0.029489157169150251 0 0.17881872095859261 -0.01307389191319702 0 0.17155948924044981 0.0029446891077993861 0 0.17881872095859261 -0.01307389191319702 0 0.19323724650424601 -0.0056727131426336716 0 0.17155948924044981 0.0029446891077993861 0 0.17881872095859261 -0.01307389191319702 0 0.16113444179630981 -0.0069783374875720203 0 0.16430642628770589 -0.021037636189080011 0 0.17881872095859261 -0.01307389191319702 0 0.16113444179630981 -0.0069783374875720203 0 0.1541854101147071 -0.01484643015585833 0 0.16430642628770589 -0.021037636189080011 0 0.16113444179630981 -0.0069783374875720203 0 0.21512577951275161 0.0003575513731272871 0 0.19323724650424601 -0.0056727131426336716 0 0.20778209484144819 -0.01660246387467381 0 0.21512577951275161 0.0003575513731272871 0 0.20778209484144819 -0.01660246387467381 0 0.22279832619765111 -0.016242500858556799 0 0.17881872095859261 -0.01307389191319702 0 0.19323724650424601 -0.0056727131426336716 0 0.19178298873369809 -0.025428178521616829 0 0.19323724650424601 -0.0056727131426336716 0 0.19178298873369809 -0.025428178521616829 0 0.20778209484144819 -0.01660246387467381 0 0.19178298873369809 -0.025428178521616829 0 0.20778209484144819 -0.01660246387467381 0 0.20496607692676949 -0.03260845950319987 0 0.20778209484144819 -0.01660246387467381 0 0.20496607692676949 -0.03260845950319987 0 0.21935206489039041 -0.0292302659567544 0 0.20778209484144819 -0.01660246387467381 0 0.21935206489039041 -0.0292302659567544 0 0.22279832619765111 -0.016242500858556799 0 0.20496607692676949 -0.03260845950319987 0 0.1978356020582076 -0.04581855327385851 0 0.21521799394257499 -0.048545478953628242 0 0.20496607692676949 -0.03260845950319987 0 0.21521799394257499 -0.048545478953628242 0 0.21935206489039041 -0.0292302659567544 0 0.19178298873369809 -0.025428178521616829 0 0.20496607692676949 -0.03260845950319987 0 0.1978356020582076 -0.04581855327385851 0 0.18282700099502999 -0.041414302771724483 0 0.19178298873369809 -0.025428178521616829 0 0.1978356020582076 -0.04581855327385851 0 0.19178298873369809 -0.025428178521616829 0 0.1978356020582076 -0.04581855327385851 0 0.18170366958553319 -0.057904077758479229 0 0.1978356020582076 -0.04581855327385851 0 0.2038882153827172 -0.066208928026100247 0 0.1978356020582076 -0.04581855327385851 0 0.2038882153827172 -0.066208928026100247 0 0.21521799394257499 -0.048545478953628242 0 0.2038882153827172 -0.066208928026100247 0 0.21659697417887891 -0.068824411988667483 0 0.1978356020582076 -0.04581855327385851 0 0.21521799394257499 -0.048545478953628242 0 0.2038882153827172 -0.066208928026100247 0 0.21521799394257499 -0.048545478953628242 0 0.23102691720913199 -0.058423431534054347 0 0.21659697417887891 -0.068824411988667483 0 0.21521799394257499 -0.048545478953628242 0 0.23102691720913199 -0.058423431534054347 0 0.23171458013990801 -0.03815853731182061 0 0.23102691720913199 -0.058423431534054347 0 0.2455159746555155 -0.047865654197653443 0 0.24611665153357609 -0.075293756484378221 0 0.2455159746555155 -0.047865654197653443 0 0.24611665153357609 -0.075293756484378221 0 0.23102691720913199 -0.058423431534054347 0 0.2455159746555155 -0.047865654197653443 0 0.23171458013990801 -0.03815853731182061 0 0.2455159746555155 -0.047865654197653443 0 0.23171458013990801 -0.03815853731182061 0 0.24491529777745491 -0.020437551910928661 0 0.2519421459068964 -0.045554591633291973 0 0.24491529777745491 -0.020437551910928661 0 0.2519421459068964 -0.045554591633291973 0 0.2455159746555155 -0.047865654197653443 0 0.24491529777745491 -0.020437551910928661 0 0.2455159746555155 -0.047865654197653443 0 0.24491529777745491 -0.020437551910928661 0 0.21521799394257499 -0.048545478953628242 0 0.23171458013990801 -0.03815853731182061 0 0.21935206489039041 -0.0292302659567544 0 0.22279832619765111 -0.016242500858556799 0 0.23150996801552909 -0.023139005123643211 0 0.24022172372813619 -0.012598320710839869 0 0.21935206489039041 -0.0292302659567544 0 0.22279832619765111 -0.016242500858556799 0 0.23150996801552909 -0.023139005123643211 0 0.23171458013990801 -0.03815853731182061 0 0.21935206489039041 -0.0292302659567544 0 0.23150996801552909 -0.023139005123643211 0 0.23171458013990801 -0.03815853731182061 0 0.23150996801552909 -0.023139005123643211 0 0.24491529777745491 -0.020437551910928661 0 0.23150996801552909 -0.023139005123643211 0 0.24491529777745491 -0.020437551910928661 0 0.24022172372813619 -0.012598320710839869 0 0.23716813797051731 0.0073742097263363804 0 0.24491529777745491 -0.020437551910928661 0 0.248186192367364 -0.0029083560372354569 0 0.25436349861753688 -0.01633049199459868 0 0.24491529777745491 -0.020437551910928661 0 0.248186192367364 -0.0029083560372354569 0 0.23716813797051731 0.0073742097263363804 0 0.24491529777745491 -0.020437551910928661 0 0.23716813797051731 0.0073742097263363804 0 0.22764494036157859 0.0046275227758226962 0 0.24022172372813619 -0.012598320710839869 0 0.23716813797051731 0.0073742097263363804 0 0.24491529777745491 -0.020437551910928661 0 0.24022172372813619 -0.012598320710839869 0 0.22764494036157859 0.0046275227758226962 0 0.21512577951275161 0.0003575513731272871 0 0.24022172372813619 -0.012598320710839869 0 0.21512577951275161 0.0003575513731272871 0 0.24022172372813619 -0.012598320710839869 0 0.21512577951275161 0.0003575513731272871 0 0.22279832619765111 -0.016242500858556799 0 0.24022172372813619 -0.012598320710839869 0 0.185086681101372 -0.1005945301617418 0 0.21735556635137909 -0.1115784764257966 0 0.19083396169934611 -0.12259923728331081 0 0.185086681101372 -0.1005945301617418 0 0.21735556635137909 -0.1115784764257966 0 0.20994082870722641 -0.086599302778342185 0 0.21735556635137909 -0.1115784764257966 0 0.19083396169934611 -0.12259923728331081 0 0.22477030399553161 -0.13655765007325121 0 0.21735556635137909 -0.1115784764257966 0 0.20994082870722641 -0.086599302778342185 0 0.21735556635137909 -0.1115784764257966 0 0.20994082870722641 -0.086599302778342185 0 0.22335651222736011 -0.097324371073200425 0 0.185086681101372 -0.1005945301617418 0 0.20994082870722641 -0.086599302778342185 0 0.1861098475808505 -0.075327633577803157 0 0.185086681101372 -0.1005945301617418 0 0.19625639319304161 -0.082182598635996806 0 0.185086681101372 -0.1005945301617418 0 0.19625639319304161 -0.082182598635996806 0 0.20994082870722641 -0.086599302778342185 0 0.1861098475808505 -0.075327633577803157 0 0.18170366958553319 -0.057904077758479229 0 0.2038882153827172 -0.066208928026100247 0 0.1861098475808505 -0.075327633577803157 0 0.19625639319304161 -0.082182598635996806 0 0.2038882153827172 -0.066208928026100247 0 0.2038882153827172 -0.066208928026100247 0 0.21659697417887891 -0.068824411988667483 0 0.20994082870722641 -0.086599302778342185 0 0.2038882153827172 -0.066208928026100247 0 0.20994082870722641 -0.086599302778342185 0 0.19625639319304161 -0.082182598635996806 0 0.2038882153827172 -0.066208928026100247 0 0.20994082870722641 -0.086599302778342185 0 0.21659697417887891 -0.068824411988667483 0 0.20994082870722641 -0.086599302778342185 0 0.21879905649288131 -0.08161128572620853 0 0.20994082870722641 -0.086599302778342185 0 0.21879905649288131 -0.08161128572620853 0 0.22335651222736011 -0.097324371073200425 0 0.20994082870722641 -0.086599302778342185 0 0.21879905649288131 -0.08161128572620853 0 0.21879905649288131 -0.08161128572620853 0 0.2334015944970573 -0.086214304730828417 0 0.22335651222736011 -0.097324371073200425 0 0.21879905649288131 -0.08161128572620853 0 0.2334015944970573 -0.086214304730828417 0 0.2291882387823051 -0.074073438092827404 0 0.23102691720913199 -0.058423431534054347 0 0.21659697417887891 -0.068824411988667483 0 0.2291882387823051 -0.074073438092827404 0 0.21659697417887891 -0.068824411988667483 0 0.21879905649288131 -0.08161128572620853 0 0.2291882387823051 -0.074073438092827404 0 0.23102691720913199 -0.058423431534054347 0 0.2291882387823051 -0.074073438092827404 0 0.24611665153357609 -0.075293756484378221 0 0.2334015944970573 -0.086214304730828417 0 0.2291882387823051 -0.074073438092827404 0 0.24611665153357609 -0.075293756484378221 0 0.2518691933921911 -0.095332813920422074 0 0.24611665153357609 -0.075293756484378221 0 0.24671732841163671 -0.102721858771103 0 0.24611665153357609 -0.075293756484378221 0 0.24671732841163671 -0.102721858771103 0 0.2334015944970573 -0.086214304730828417 0 0.24611665153357609 -0.075293756484378221 0 0.24671732841163671 -0.102721858771103 0 0.2334015944970573 -0.086214304730828417 0 0.24671732841163671 -0.102721858771103 0 0.22335651222736011 -0.097324371073200425 0 0.24671732841163671 -0.102721858771103 0 0.22335651222736011 -0.097324371073200425 0 0.23230415713809671 -0.1193818931869824 0 0.21735556635137909 -0.1115784764257966 0 0.23230415713809671 -0.1193818931869824 0 0.22477030399553161 -0.13655765007325121 0 0.21735556635137909 -0.1115784764257966 0 0.22477030399553161 -0.13655765007325121 0 0.21735556635137909 -0.1115784764257966 0 0.22335651222736011 -0.097324371073200425 0 0.23230415713809671 -0.1193818931869824 0 0.24671732841163671 -0.102721858771103 0 0.24731800528969849 -0.13014996105782781 0 0.24671732841163671 -0.102721858771103 0 0.23230415713809671 -0.1193818931869824 0 0.24731800528969849 -0.13014996105782781 0 0.23230415713809671 -0.1193818931869824 0 0.24731800528969849 -0.13014996105782781 0 0.22477030399553161 -0.13655765007325121 0 0.24731800528969849 -0.13014996105782781 0 0.24781927526331571 -0.1530389461542046 0 0.22477030399553161 -0.13655765007325121 0 0.24731800528969849 -0.13014996105782781 0 0.22477030399553161 -0.13655765007325121 0 0.24781927526331571 -0.1530389461542046 0 0.22477030399553161 -0.13655765007325121 0 0.23139561152198959 -0.15887734837056031 0 0.24731800528969849 -0.13014996105782781 0 0.24781927526331571 -0.1530389461542046 0 0.22477030399553161 -0.13655765007325121 0 0.23139561152198959 -0.15887734837056031 0 0.22060493030855099 -0.15435638695511819 0 0.22477030399553161 -0.13655765007325121 0 0.23139561152198959 -0.15887734837056031 0 0.19083396169934611 -0.12259923728331081 0 0.22477030399553161 -0.13655765007325121 0 0.19832548136784009 -0.14407283742009369 0 0.22477030399553161 -0.13655765007325121 0 0.19832548136784009 -0.14407283742009369 0 0.22060493030855099 -0.15435638695511819 0 0.22477030399553161 -0.13655765007325121 0 0.2089820458300759 -0.1530198056556836 0 0.22477030399553161 -0.13655765007325121 0 0.2089820458300759 -0.1530198056556836 0 0.19832548136784009 -0.14407283742009369 0 0.19832548136784009 -0.14407283742009369 0 0.19509687612405721 -0.1557563918440506 0 0.17927022539456949 -0.15385777975150711 0 0.2089820458300759 -0.1530198056556836 0 0.19832548136784009 -0.14407283742009369 0 0.19509687612405721 -0.1557563918440506 0 0.202870187677688 -0.17889993910680221 0 0.18953091168415481 -0.16474549804850969 0 0.18470203388423029 -0.179217107988317 0 0.202870187677688 -0.17889993910680221 0 0.1939897733818273 -0.19383874118862279 0 0.18470203388423029 -0.179217107988317 0 0.20175625562697699 -0.17385894456941281 0 0.202870187677688 -0.17889993910680221 0 0.18953091168415481 -0.16474549804850969 0 0.20175625562697699 -0.17385894456941281 0 0.202870187677688 -0.17889993910680221 0 0.19509687612405721 -0.1557563918440506 0 0.18953091168415481 -0.16474549804850969 0 0.17927022539456949 -0.15385777975150711 0 0.19509687612405721 -0.1557563918440506 0 0.18953091168415481 -0.16474549804850969 0 0.19937571634364529 -0.1630860383444592 0 0.2089820458300759 -0.1530198056556836 0 0.19509687612405721 -0.1557563918440506 0 0.19937571634364529 -0.1630860383444592 0 0.20175625562697699 -0.17385894456941281 0 0.18953091168415481 -0.16474549804850969 0 0.19937571634364529 -0.1630860383444592 0 0.20175625562697699 -0.17385894456941281 0 0.19937571634364529 -0.1630860383444592 0 0.20175625562697699 -0.17385894456941281 0 0.18953091168415481 -0.16474549804850969 0 0.202870187677688 -0.17889993910680221 0 0.18953091168415481 -0.16474549804850969 0 0.20175625562697699 -0.17385894456941281 0 0.19937571634364529 -0.1630860383444592 0 0.20835367855762499 -0.16637182379665899 0 0.20175625562697699 -0.17385894456941281 0 0.20835367855762499 -0.16637182379665899 0 0.21422977298213469 -0.17447298016576851 0 0.2089820458300759 -0.1530198056556836 0 0.19937571634364529 -0.1630860383444592 0 0.20835367855762499 -0.16637182379665899 0 0.2089820458300759 -0.1530198056556836 0 0.20835367855762499 -0.16637182379665899 0 0.2195309434354327 -0.16619633227407879 0 0.22060493030855099 -0.15435638695511819 0 0.2089820458300759 -0.1530198056556836 0 0.2195309434354327 -0.16619633227407879 0 0.20835367855762499 -0.16637182379665899 0 0.21422977298213469 -0.17447298016576851 0 0.2195309434354327 -0.16619633227407879 0 0.20175625562697699 -0.17385894456941281 0 0.2196170183493851 -0.1871733434652183 0 0.20175625562697699 -0.17385894456941281 0 0.202870187677688 -0.17889993910680221 0 0.2196170183493851 -0.1871733434652183 0 0.20175625562697699 -0.17385894456941281 0 0.21422977298213469 -0.17447298016576851 0 0.2196170183493851 -0.1871733434652183 0 0.2196170183493851 -0.1871733434652183 0 0.2235360746744911 -0.17839276553162439 0 0.23448961261347501 -0.19121775862638099 0 0.2235360746744911 -0.17839276553162439 0 0.23265431407923101 -0.1740593385431381 0 0.23448961261347501 -0.19121775862638099 0 0.21422977298213469 -0.17447298016576851 0 0.2196170183493851 -0.1871733434652183 0 0.2235360746744911 -0.17839276553162439 0 0.21422977298213469 -0.17447298016576851 0 0.2235360746744911 -0.17839276553162439 0 0.2195309434354327 -0.16619633227407879 0 0.2235360746744911 -0.17839276553162439 0 0.23265431407923101 -0.1740593385431381 0 0.2195309434354327 -0.16619633227407879 0 0.22060493030855099 -0.15435638695511819 0 0.2195309434354327 -0.16619633227407879 0 0.23139561152198959 -0.15887734837056031 0 0.23265431407923101 -0.1740593385431381 0 0.2195309434354327 -0.16619633227407879 0 0.23139561152198959 -0.15887734837056031 0 0.24781927526331571 -0.1530389461542046 0 0.24148172900703271 -0.165741214637565 0 0.248320545236934 -0.1759279312505814 0 0.24781927526331571 -0.1530389461542046 0 0.248320545236934 -0.1759279312505814 0 0.24781927526331571 -0.1530389461542046 0 0.23139561152198959 -0.15887734837056031 0 0.24148172900703271 -0.165741214637565 0 0.23265431407923101 -0.1740593385431381 0 0.24148172900703271 -0.165741214637565 0 0.24098415856390171 -0.17339825971188691 0 0.23265431407923101 -0.1740593385431381 0 0.23139561152198959 -0.15887734837056031 0 0.24148172900703271 -0.165741214637565 0 0.24148172900703271 -0.165741214637565 0 0.24098415856390171 -0.17339825971188691 0 0.248320545236934 -0.1759279312505814 0 0.23265431407923101 -0.1740593385431381 0 0.2407074632453258 -0.1796645723903314 0 0.23448961261347501 -0.19121775862638099 0 0.2407074632453258 -0.1796645723903314 0 0.24805621810297609 -0.18437954832002859 0 0.23448961261347501 -0.19121775862638099 0 0.23265431407923101 -0.1740593385431381 0 0.24098415856390171 -0.17339825971188691 0 0.2407074632453258 -0.1796645723903314 0 0.25119966764876139 -0.1752548124969612 0 0.248320545236934 -0.1759279312505814 0 0.24805621810297609 -0.18437954832002859 0 0.24098415856390171 -0.17339825971188691 0 0.2407074632453258 -0.1796645723903314 0 0.248320545236934 -0.1759279312505814 0 0.25119966764876139 -0.1752548124969612 0 0.24805621810297609 -0.18437954832002859 0 0.2407074632453258 -0.1796645723903314 0 0.248320545236934 -0.1759279312505814 0 0.24805621810297609 -0.18437954832002859 0 0.25278334061465851 -0.20194747427335999 0 0.24805621810297609 -0.18437954832002859 0 0.23991901068976429 -0.20800005404206659 0 0.24805621810297609 -0.18437954832002859 0 0.23991901068976429 -0.20800005404206659 0 0.23448961261347501 -0.19121775862638099 0 0.23991901068976429 -0.20800005404206659 0 0.23088151273114429 -0.200577872634711 0 0.24805621810297609 -0.18437954832002859 0 0.23448961261347501 -0.19121775862638099 0 0.23991901068976429 -0.20800005404206659 0 0.24805621810297609 -0.18437954832002859 0 0.23448961261347501 -0.19121775862638099 0 0.25278334061465851 -0.20194747427335999 0 0.23991901068976429 -0.20800005404206659 0 0.24291625706960429 -0.2268715697819616 0 0.25278334061465851 -0.20194747427335999 0 0.24291625706960429 -0.2268715697819616 0 0.23991901068976429 -0.20800005404206659 0 0.23169914932706459 -0.2094906427278764 0 0.23088151273114429 -0.200577872634711 0 0.23991901068976429 -0.20800005404206659 0 0.23169914932706459 -0.2094906427278764 0 0.22815126831765151 -0.21954344279946769 0 0.23169914932706459 -0.2094906427278764 0 0.21895448202971529 -0.21173951997706761 0 0.22815126831765151 -0.21954344279946769 0 0.23169914932706459 -0.2094906427278764 0 0.22092300712397481 -0.19805596893273519 0 0.23169914932706459 -0.2094906427278764 0 0.21895448202971529 -0.21173951997706761 0 0.22046355493666531 -0.20574048003748979 0 0.23169914932706459 -0.2094906427278764 0 0.22046355493666531 -0.20574048003748979 0 0.22092300712397481 -0.19805596893273519 0 0.2196170183493851 -0.1871733434652183 0 0.23448961261347501 -0.19121775862638099 0 0.22092300712397481 -0.19805596893273519 0 0.23448961261347501 -0.19121775862638099 0 0.22092300712397481 -0.19805596893273519 0 0.23448961261347501 -0.19121775862638099 0 0.22092300712397481 -0.19805596893273519 0 0.23088151273114429 -0.200577872634711 0 0.23169914932706459 -0.2094906427278764 0 0.22092300712397481 -0.19805596893273519 0 0.23088151273114429 -0.200577872634711 0 0.25030848383521492 -0.23940769787506169 0 0.23952988749967771 -0.24502616546444969 0 0.24776568051229031 -0.24923037600136069 0 0.25030848383521492 -0.23940769787506169 0 0.23952988749967771 -0.24502616546444969 0 0.24113410792026169 -0.23573149822139419 0 0.23952988749967771 -0.24502616546444969 0 0.24113410792026169 -0.23573149822139419 0 0.23178180327654979 -0.2316205597641037 0 0.23991901068976429 -0.20800005404206659 0 0.23178180327654979 -0.2316205597641037 0 0.23991901068976429 -0.20800005404206659 0 0.24291625706960429 -0.2268715697819616 0 0.23178180327654979 -0.2316205597641037 0 0.24113410792026169 -0.23573149822139419 0 0.24291625706960429 -0.2268715697819616 0 0.23178180327654979 -0.2316205597641037 0 0.25030848383521492 -0.23940769787506169 0 0.24113410792026169 -0.23573149822139419 0 0.24291625706960429 -0.2268715697819616 0 0.25030848383521492 -0.23940769787506169 0 0.25617580749430352 -0.23088513540590999 0 0.24291625706960429 -0.2268715697819616 0 0.22815126831765151 -0.21954344279946769 0 0.23178180327654979 -0.2316205597641037 0 0.21370703157230361 -0.22794105507102139 0 0.23991901068976429 -0.20800005404206659 0 0.22815126831765151 -0.21954344279946769 0 0.23178180327654979 -0.2316205597641037 0 0.21895448202971529 -0.21173951997706761 0 0.22815126831765151 -0.21954344279946769 0 0.21370703157230361 -0.22794105507102139 0 0.22364459586333399 -0.25524106548614017 0 0.23952988749967771 -0.24502616546444969 0 0.23178180327654979 -0.2316205597641037 0 0.21912545351961199 -0.25246161305313097 0 0.23178180327654979 -0.2316205597641037 0 0.21370703157230361 -0.22794105507102139 0 0.22364459586333399 -0.25524106548614017 0 0.21912545351961199 -0.25246161305313097 0 0.23178180327654979 -0.2316205597641037 0 0.22364459586333399 -0.25524106548614017 0 0.23178180327654979 -0.2316205597641037 0 0.21912545351961199 -0.25246161305313097 0 0.19748938538536459 -0.2391545698925597 0 0.21912545351961199 -0.25246161305313097 0 0.21370703157230361 -0.22794105507102139 0 0.21912545351961199 -0.25246161305313097 0 0.21370703157230361 -0.22794105507102139 0 0.19748938538536459 -0.2391545698925597 0 0.21912545351961199 -0.25246161305313097 0 0.204482504977478 -0.25705322038503142 0 0.19748938538536459 -0.2391545698925597 0 0.21370703157230361 -0.22794105507102139 0 0.19748938538536459 -0.2391545698925597 0 0.18714697657574941 -0.21576397611414419 0 0.204482504977478 -0.25705322038503142 0 0.19748938538536459 -0.2391545698925597 0 0.18526108334034891 -0.24993342049705089 0 0.202870187677688 -0.17889993910680221 0 0.21188103518426801 -0.2026135501018583 0 0.20828860962499601 -0.20342049708891169 0 0.202870187677688 -0.17889993910680221 0 0.22092300712397481 -0.19805596893273519 0 0.21188103518426801 -0.2026135501018583 0 0.202870187677688 -0.17889993910680221 0 0.20828860962499601 -0.20342049708891169 0 0.202870187677688 -0.17889993910680221 0 0.22092300712397481 -0.19805596893273519 0 0.202870187677688 -0.17889993910680221 0 0.2196170183493851 -0.1871733434652183 0 0.22092300712397481 -0.19805596893273519 0 0.22046355493666531 -0.20574048003748979 0 0.22092300712397481 -0.19805596893273519 0 0.21188103518426801 -0.2026135501018583 0 0.22092300712397481 -0.19805596893273519 0 0.21188103518426801 -0.2026135501018583 0 0.21895448202971529 -0.21173951997706761 0 0.22046355493666531 -0.20574048003748979 0 0.21188103518426801 -0.2026135501018583 0 0.21895448202971529 -0.21173951997706761 0 0.21188103518426801 -0.2026135501018583 0 0.20828860962499601 -0.20342049708891169 0 0.21895448202971529 -0.21173951997706761 0 0.21370703157230361 -0.22794105507102139 0 0.20828860962499601 -0.20342049708891169 0 0.21370703157230361 -0.22794105507102139 0 0.20828860962499601 -0.20342049708891169 0 0.20828860962499601 -0.20342049708891169 0 0.1939897733818273 -0.19383874118862279 0 0.18714697657574941 -0.21576397611414419 0 0.21370703157230361 -0.22794105507102139 0 0.20828860962499601 -0.20342049708891169 0 0.18714697657574941 -0.21576397611414419 0 0.202870187677688 -0.17889993910680221 0 0.20828860962499601 -0.20342049708891169 0 0.1939897733818273 -0.19383874118862279 0 0.1939897733818273 -0.19383874118862279 0 0.17780632915678959 -0.1955803058152715 0 0.18470203388423029 -0.179217107988317 0 0.1939897733818273 -0.19383874118862279 0 0.17780632915678959 -0.1955803058152715 0 0.18714697657574941 -0.21576397611414419 0 0.17780632915678959 -0.1955803058152715 0 0.18714697657574941 -0.21576397611414419 0 0.17025033727519329 -0.21133026465966101 0 0.17780632915678959 -0.1955803058152715 0 0.18714697657574941 -0.21576397611414419 0 0.17025033727519329 -0.21133026465966101 0 0.1561949706534759 -0.19457713825532461 0 0.1529161815581517 -0.21349388719884549 0 0.17780632915678959 -0.1955803058152715 0 0.1561949706534759 -0.19457713825532461 0 0.16185041263224509 -0.18496159294645109 0 0.17780632915678959 -0.1955803058152715 0 0.17025033727519329 -0.21133026465966101 0 0.1561949706534759 -0.19457713825532461 0 0.1561949706534759 -0.19457713825532461 0 0.1512942029583223 -0.1850765999825843 0 0.16185041263224509 -0.18496159294645109 0 0.19748938538536459 -0.2391545698925597 0 0.18526108334034891 -0.24993342049705089 0 0.16950036828804069 -0.2331670289590721 0 0.17269244180823551 -0.25082577604891387 0 0.18526108334034891 -0.24993342049705089 0 0.16950036828804069 -0.2331670289590721 0 0.19748938538536459 -0.2391545698925597 0 0.18714697657574941 -0.21576397611414419 0 0.16950036828804069 -0.2331670289590721 0 0.18714697657574941 -0.21576397611414419 0 0.17025033727519329 -0.21133026465966101 0 0.16950036828804069 -0.2331670289590721 0 0.17025033727519329 -0.21133026465966101 0 0.16950036828804069 -0.2331670289590721 0 0.1529161815581517 -0.21349388719884549 0 0.14751756987647169 -0.25371240423406272 0 0.16157845838820231 -0.25657455779082111 0 0.16950036828804069 -0.2331670289590721 0 0.16157845838820231 -0.25657455779082111 0 0.17269244180823551 -0.25082577604891387 0 0.16950036828804069 -0.2331670289590721 0 0.14751756987647169 -0.25371240423406272 0 0.16950036828804069 -0.2331670289590721 0 0.14751756987647169 -0.25371240423406272 0 0.16950036828804069 -0.2331670289590721 0 0.14143719515592221 -0.23292512032691209 0 0.14143719515592221 -0.23292512032691209 0 0.1529161815581517 -0.21349388719884549 0 0.16950036828804069 -0.2331670289590721 0 0.14143719515592221 -0.23292512032691209 0 0.1529161815581517 -0.21349388719884549 0 0.1200283839416008 -0.23379232655142851 0 0.14143719515592221 -0.23292512032691209 0 0.13050871056543259 -0.20832441167824151 0 0.1200283839416008 -0.23379232655142851 0 0.13050871056543259 -0.20832441167824151 0 0.1200283839416008 -0.23379232655142851 0 0.1211580271231746 -0.24512581039290279 0 0.14143719515592221 -0.23292512032691209 0 0.12995820875369279 -0.25235635345497848 0 0.14143719515592221 -0.23292512032691209 0 0.12995820875369279 -0.25235635345497848 0 0.1211580271231746 -0.24512581039290279 0 0.14143719515592221 -0.23292512032691209 0 0.12995820875369279 -0.25235635345497848 0 0.14751756987647169 -0.25371240423406272 0 0.14143719515592221 -0.23292512032691209 0 0.14147695524426371 -0.19794762262202301 0 0.1561949706534759 -0.19457713825532461 0 0.1529161815581517 -0.21349388719884549 0 0.14147695524426371 -0.19794762262202301 0 0.14638448331033979 -0.1893225252512456 0 0.1561949706534759 -0.19457713825532461 0 0.14147695524426371 -0.19794762262202301 0 0.14638448331033979 -0.1893225252512456 0 0.14098903718926439 -0.1828564968050545 0 0.14638448331033979 -0.1893225252512456 0 0.1561949706534759 -0.19457713825532461 0 0.1512942029583223 -0.1850765999825843 0 0.14143719515592221 -0.23292512032691209 0 0.1529161815581517 -0.21349388719884549 0 0.13050871056543259 -0.20832441167824151 0 0.14147695524426371 -0.19794762262202301 0 0.1529161815581517 -0.21349388719884549 0 0.13050871056543259 -0.20832441167824151 0 0.14147695524426371 -0.19794762262202301 0 0.13050871056543259 -0.20832441167824151 0 0.14098903718926439 -0.1828564968050545 0 0.1138340639553141 -0.20509916168281231 0 0.13050871056543259 -0.20832441167824151 0 0.1310370370754356 -0.18274479028628399 0 0.13050871056543259 -0.20832441167824151 0 0.1310370370754356 -0.18274479028628399 0 0.13937567315642321 -0.18411890071904191 0 0.13050871056543259 -0.20832441167824151 0 0.14098903718926439 -0.1828564968050545 0 0.13050871056543259 -0.20832441167824151 0 0.13937567315642321 -0.18411890071904191 0 0.14098903718926439 -0.1828564968050545 0 0.12471185084496871 -0.1735979207045413 0 0.1310370370754356 -0.18274479028628399 0 0.1365144525734629 -0.17562717291392069 0 0.1365144525734629 -0.17562717291392069 0 0.14098903718926439 -0.1828564968050545 0 0.1410779406079459 -0.1686283600099375 0 0.1310370370754356 -0.18274479028628399 0 0.1365144525734629 -0.17562717291392069 0 0.1365144525734629 -0.17562717291392069 0 0.13937567315642321 -0.18411890071904191 0 0.14098903718926439 -0.1828564968050545 0 0.1310370370754356 -0.18274479028628399 0 0.13937567315642321 -0.18411890071904191 0 0.1310370370754356 -0.18274479028628399 0 0.1365144525734629 -0.17562717291392069 0 0.13937567315642321 -0.18411890071904191 0 0.14638448331033979 -0.1893225252512456 0 0.1460092483678192 -0.1841981261408816 0 0.14098903718926439 -0.1828564968050545 0 0.1460092483678192 -0.1841981261408816 0 0.14098903718926439 -0.1828564968050545 0 0.14703867106305291 -0.17520340619890551 0 0.14638448331033979 -0.1893225252512456 0 0.1460092483678192 -0.1841981261408816 0 0.1512942029583223 -0.1850765999825843 0 0.1460092483678192 -0.1841981261408816 0 0.14703867106305291 -0.17520340619890551 0 0.14968703488203111 -0.17637041991781721 0 0.14968703488203111 -0.17637041991781721 0 0.15549087865480801 -0.1741772851626763 0 0.1512942029583223 -0.1850765999825843 0 0.1460092483678192 -0.1841981261408816 0 0.14968703488203111 -0.17637041991781721 0 0.1512942029583223 -0.1850765999825843 0 0.15549087865480801 -0.1741772851626763 0 0.1512942029583223 -0.1850765999825843 0 0.16185041263224509 -0.18496159294645109 0 0.14098903718926439 -0.1828564968050545 0 0.1514693638130965 -0.1573885819318678 0 0.14703867106305291 -0.17520340619890551 0 0.14968703488203111 -0.17637041991781721 0 0.1514693638130965 -0.1573885819318678 0 0.14098903718926439 -0.1828564968050545 0 0.14703867106305291 -0.17520340619890551 0 0.1514693638130965 -0.1573885819318678 0 0.14098903718926439 -0.1828564968050545 0 0.1514693638130965 -0.1573885819318678 0 0.1410779406079459 -0.1686283600099375 0 0.14968703488203111 -0.17637041991781721 0 0.15549087865480801 -0.1741772851626763 0 0.1514693638130965 -0.1573885819318678 0 0.1514693638130965 -0.1573885819318678 0 0.1410779406079459 -0.1686283600099375 0 0.13182097445505861 -0.1629723337750261 0 0.15549087865480801 -0.1741772851626763 0 0.1514693638130965 -0.1573885819318678 0 0.15761886354435509 -0.1613373214650658 0 0.1514693638130965 -0.1573885819318678 0 0.13182097445505861 -0.1629723337750261 0 0.14479703817411069 -0.15101108835019361 0 0.1514693638130965 -0.1573885819318678 0 0.13182097445505861 -0.1629723337750261 0 0.1514693638130965 -0.1573885819318678 0 0.15641623655774869 -0.15598276136803091 0 0.15761886354435509 -0.1613373214650658 0 0.1514693638130965 -0.1573885819318678 0 0.15641623655774869 -0.15598276136803091 0 0.1365144525734629 -0.17562717291392069 0 0.1410779406079459 -0.1686283600099375 0 0.13182097445505861 -0.1629723337750261 0 0.12471185084496871 -0.1735979207045413 0 0.1365144525734629 -0.17562717291392069 0 0.13182097445505861 -0.1629723337750261 0 0.1217629365790301 -0.15487583447838049 0 0.13182097445505861 -0.1629723337750261 0 0.13412675678948099 -0.14756607095086779 0 0.1209573165015211 -0.14393701063528189 0 0.1217629365790301 -0.15487583447838049 0 0.13412675678948099 -0.14756607095086779 0 0.1209573165015211 -0.14393701063528189 0 0.13412675678948099 -0.14756607095086779 0 0.1300659421192398 -0.13905143622092861 0 0.13412675678948099 -0.14756607095086779 0 0.13904963152588931 -0.1370344415116595 0 0.14446058470231049 -0.1431937464266943 0 0.13412675678948099 -0.14756607095086779 0 0.1300659421192398 -0.13905143622092861 0 0.13904963152588931 -0.1370344415116595 0 0.13182097445505861 -0.1629723337750261 0 0.13412675678948099 -0.14756607095086779 0 0.14479703817411069 -0.15101108835019361 0 0.1210136663870208 -0.13454681608983049 0 0.13033544652893519 -0.13142463504060339 0 0.1300659421192398 -0.13905143622092861 0 0.13033544652893519 -0.13142463504060339 0 0.1300659421192398 -0.13905143622092861 0 0.13904963152588931 -0.1370344415116595 0 0.13904963152588931 -0.1370344415116595 0 0.13859398476081131 -0.12677429972263091 0 0.144199782639192 -0.1368384839737827 0 0.13033544652893519 -0.13142463504060339 0 0.13859398476081131 -0.12677429972263091 0 0.13033544652893519 -0.13142463504060339 0 0.13904963152588931 -0.1370344415116595 0 0.13859398476081131 -0.12677429972263091 0 0.14859164876071379 -0.1211446727001963 0 0.15212083155472861 -0.13685795834437869 0 0.14859164876071379 -0.1211446727001963 0 0.15212083155472861 -0.13685795834437869 0 0.1502460985920181 -0.1354604288616458 0 0.14859164876071379 -0.1211446727001963 0 0.15212083155472861 -0.13685795834437869 0 0.15818031160793411 -0.12690074118172709 0 0.14859164876071379 -0.1211446727001963 0 0.13859398476081131 -0.12677429972263091 0 0.1502460985920181 -0.1354604288616458 0 0.13859398476081131 -0.12677429972263091 0 0.1502460985920181 -0.1354604288616458 0 0.13859398476081131 -0.12677429972263091 0 0.144199782639192 -0.1368384839737827 0 0.1502460985920181 -0.1354604288616458 0 0.13904963152588931 -0.1370344415116595 0 0.144199782639192 -0.1368384839737827 0 0.14446058470231049 -0.1431937464266943 0 0.144199782639192 -0.1368384839737827 0 0.14446058470231049 -0.1431937464266943 0 0.14881037920368759 -0.14151250092506709 0 0.144199782639192 -0.1368384839737827 0 0.1502460985920181 -0.1354604288616458 0 0.14881037920368759 -0.14151250092506709 0 0.1502460985920181 -0.1354604288616458 0 0.1535260092468313 -0.14311435245758489 0 0.15212083155472861 -0.13685795834437869 0 0.1502460985920181 -0.1354604288616458 0 0.1535260092468313 -0.14311435245758489 0 0.1502460985920181 -0.1354604288616458 0 0.14881037920368759 -0.14151250092506709 0 0.1535260092468313 -0.14311435245758489 0 0.15212083155472861 -0.13685795834437869 0 0.1535260092468313 -0.14311435245758489 0 0.15212083155472861 -0.13685795834437869 0 0.1502460985920181 -0.1354604288616458 0 0.14479703817411069 -0.15101108835019361 0 0.14446058470231049 -0.1431937464266943 0 0.1497984025748644 -0.14776671978537059 0 0.13412675678948099 -0.14756607095086779 0 0.14479703817411069 -0.15101108835019361 0 0.14446058470231049 -0.1431937464266943 0 0.14446058470231049 -0.1431937464266943 0 0.1497984025748644 -0.14776671978537059 0 0.14881037920368759 -0.14151250092506709 0 0.1497984025748644 -0.14776671978537059 0 0.1535260092468313 -0.14311435245758489 0 0.15350867040522709 -0.15243292658324339 0 0.1497984025748644 -0.14776671978537059 0 0.14881037920368759 -0.14151250092506709 0 0.1535260092468313 -0.14311435245758489 0 0.1514693638130965 -0.1573885819318678 0 0.14479703817411069 -0.15101108835019361 0 0.15350867040522709 -0.15243292658324339 0 0.1535260092468313 -0.14311435245758489 0 0.15641623655774869 -0.15598276136803091 0 0.1535260092468313 -0.14311435245758489 0 0.15350867040522709 -0.15243292658324339 0 0.15641623655774869 -0.15598276136803091 0 0.14479703817411069 -0.15101108835019361 0 0.1497984025748644 -0.14776671978537059 0 0.15350867040522709 -0.15243292658324339 0 0.1514693638130965 -0.1573885819318678 0 0.15350867040522709 -0.15243292658324339 0 0.15641623655774869 -0.15598276136803091 0 0.1514693638130965 -0.1573885819318678 0 0.15350867040522709 -0.15243292658324339 0 0.15212083155472861 -0.13685795834437869 0 0.1535260092468313 -0.14311435245758489 0 0.17188065874014979 -0.15158802476693969 0 0.15212083155472861 -0.13685795834437869 0 0.17188065874014979 -0.15158802476693969 0 0.1535260092468313 -0.14311435245758489 0 0.15641623655774869 -0.15598276136803091 0 0.15912503431886951 -0.1552129652175262 0 0.1535260092468313 -0.14311435245758489 0 0.15912503431886951 -0.1552129652175262 0 0.15212083155472861 -0.13685795834437869 0 0.1717762326207789 -0.13501057613719011 0 0.17188065874014979 -0.15158802476693969 0 0.15641623655774869 -0.15598276136803091 0 0.15912503431886951 -0.1552129652175262 0 0.1535260092468313 -0.14311435245758489 0 0.15912503431886951 -0.1552129652175262 0 0.17188065874014979 -0.15158802476693969 0 0.15912503431886951 -0.1552129652175262 0 0.17188065874014979 -0.15158802476693969 0 0.16023253349551789 -0.11458975754514231 0 0.1717762326207789 -0.13501057613719011 0 0.15818031160793411 -0.12690074118172709 0 0.15212083155472861 -0.13685795834437869 0 0.1717762326207789 -0.13501057613719011 0 0.15818031160793411 -0.12690074118172709 0 0.17698235222925379 -0.11819852528184641 0 0.19083396169934611 -0.12259923728331081 0 0.1717762326207789 -0.13501057613719011 0 0.19083396169934611 -0.12259923728331081 0 0.19832548136784009 -0.14407283742009369 0 0.1717762326207789 -0.13501057613719011 0 0.19832548136784009 -0.14407283742009369 0 0.1717762326207789 -0.13501057613719011 0 0.17188065874014979 -0.15158802476693969 0 0.19832548136784009 -0.14407283742009369 0 0.17188065874014979 -0.15158802476693969 0 0.17927022539456949 -0.15385777975150711 0 0.19832548136784009 -0.14407283742009369 0 0.17188065874014979 -0.15158802476693969 0 0.18953091168415481 -0.16474549804850969 0 0.17188065874014979 -0.15158802476693969 0 0.18953091168415481 -0.16474549804850969 0 0.17188065874014979 -0.15158802476693969 0 0.17639951925312189 -0.16621759843051381 0 0.18953091168415481 -0.16474549804850969 0 0.17927022539456949 -0.15385777975150711 0 0.18953091168415481 -0.16474549804850969 0 0.17188065874014979 -0.15158802476693969 0 0.17927022539456949 -0.15385777975150711 0 0.17188065874014979 -0.15158802476693969 0 0.17639951925312189 -0.16621759843051381 0 0.16896772351249259 -0.16210380598284399 0 0.18953091168415481 -0.16474549804850969 0 0.17639951925312189 -0.16621759843051381 0 0.18470203388423029 -0.179217107988317 0 0.17780632915678959 -0.1955803058152715 0 0.16846568173782969 -0.17539663551639881 0 0.17780632915678959 -0.1955803058152715 0 0.18470203388423029 -0.179217107988317 0 0.16846568173782969 -0.17539663551639881 0 0.17639951925312189 -0.16621759843051381 0 0.18470203388423029 -0.179217107988317 0 0.16846568173782969 -0.17539663551639881 0 0.17780632915678959 -0.1955803058152715 0 0.16846568173782969 -0.17539663551639881 0 0.16185041263224509 -0.18496159294645109 0 0.15549087865480801 -0.1741772851626763 0 0.16846568173782969 -0.17539663551639881 0 0.16185041263224509 -0.18496159294645109 0 0.15912503431886951 -0.1552129652175262 0 0.16846568173782969 -0.17539663551639881 0 0.15549087865480801 -0.1741772851626763 0 0.16846568173782969 -0.17539663551639881 0 0.15761886354435509 -0.1613373214650658 0 0.15912503431886951 -0.1552129652175262 0 0.16846568173782969 -0.17539663551639881 0 0.15761886354435509 -0.1613373214650658 0 0.15912503431886951 -0.1552129652175262 0 0.16846568173782969 -0.17539663551639881 0 0.16896772351249259 -0.16210380598284399 0 0.15641623655774869 -0.15598276136803091 0 0.15761886354435509 -0.1613373214650658 0 0.15641623655774869 -0.15598276136803091 0 0.15912503431886951 -0.1552129652175262 0 0.15761886354435509 -0.1613373214650658 0 0.15912503431886951 -0.1552129652175262 0 0.17188065874014979 -0.15158802476693969 0 0.16896772351249259 -0.16210380598284399 0 0.17639951925312189 -0.16621759843051381 0 0.16846568173782969 -0.17539663551639881 0 0.16896772351249259 -0.16210380598284399 0 
</DataArray>
</Points>
<Cells>
<DataArray type="UInt32" Name="connectivity" format="ascii">
0 1 2 3 4 5 6 7 8 9 10 11 12 13 14 15 16 17 18 19 20 21 22 23 24 25 26 27 28 29 30 31 32 33 34 35 36 37 38 39 40 41 42 43 44 45 46 47 48 49 50 51 52 53 54 55 56 57 58 59 60 61 62 63 64 65 66 67 68 69 70 71 72 73 74 75 76 77 78 79 80 81 82 83 84 85 86 87 88 89 90 91 92 93 94 95 96 97 98 99 100 101 102 103 104 105 106 107 108 109 110 111 112 113 114 115 116 117 118 119 120 121 122 123 124 125 126 127 128 129 130 131 132 133 134 135 136 137 138 139 140 141 142 143 144 145 146 147 148 149 150 151 152 153 154 155 156 157 158 159 160 161 162 163 164 165 166 167 168 169 170 171 172 173 174 175 176 177 178 179 180 181 182 183 184 185 186 187 188 189 190 191 192 193 194 195 196 197 198 199 200 201 202 203 204 205 206 207 208 209 210 211 212 213 214 215 216 217 218 219 220 221 222 223 224 225 226 227 228 229 230 231 232 233 234 235 236 237 238 239 240 241 242 243 244 245 246 247 248 249 250 251 252 253 254 255 256 257 258 259 260 261 262 263 264 265 266 267 268 269 270 271 272 273 274 275 276 277 278 279 280 281 282 283 284 285 286 287 288 289 290 291 292 293 294 295 296 297 298 299 300 301 302 303 304 305 306 307 308 309 310 311 312 313 314 315 316 317 318 319 320 321 322 323 324 325 326 327 328 329 330 331 332 333 334 335 336 337 338 339 340 341 342 343 344 345 346 347 348 349 350 351 352 353 354 355 356 357 358 359 360 361 362 363 364 365 366 367 368 369 370 371 372 373 374 375 376 377 378 379 380 381 382 383 384 385 386 387 388 389 390 391 392 393 394 395 396 397 398 399 400 401 402 403 404 405 406 407 408 409 410 411 412 413 414 415 416 417 418 419 420 421 422 423 424 425 426 427 428 429 430 431 432 433 434 435 436 437 438 439 440 441 442 443 444 445 446 447 448 449 450 451 452 453 454 455 456 457 458 459 460 461 462 463 464 465 466 467 468 469 470 471 472 473 474 475 476 477 478 479 480 481 482 483 484 485 486 487 488 489 490 491 492 493 494 495 496 497 498 499 500 501 502 503 504 505 506 507 508 509 510 511 512 513 514 515 516 517 518 519 520 521 522 523 524 525 526 527 528 529 530 531 532 533 534 535 536 537 538 539 540 541 542 543 544 545 546 547 548 549 550 551 552 553 554 555 556 557 558 559 560 561 562 563 564 565 566 567 568 569 570 571 572 573 574 575 576 577 578 579 580 581 582 583 584 585 586 587 588 589 590 591 592 593 594 595 596 597 598 599 600 601 602 603 604 605 606 607 608 609 610 611 612 613 614 615 616 617 618 619 620 621 622 623 624 625 626 627 628 629 630 631 632 633 634 635 636 637 638 639 640 641 642 643 644 645 646 647 648 649 650 651 652 653 654 655 656 657 658 659 660 661 662 663 664 665 666 667 668 669 670 671 672 673 674 675 676 677 678 679 680 681 682 683 684 685 686 687 688 689 690 691 692 693 694 695 696 697 698 699 700 701 702 703 704 705 706 707 708 709 710 711 712 713 714 715 716 717 718 719 720 721 722 723 724 725 726 727 728 729 730 731 732 733 734 735 736 737 738 739 740 741 742 743 744 745 746 747 748 749 750 751 752 753 754 755 756 757 758 759 760 761 762 763 764 765 766 767 768 769 770 771 772 773 774 775 776 777 778 779 780 781 782 783 784 785 786 787 788 789 790 791 792 793 794 795 796 797 798 799 800 801 802 803 804 805 806 807 808 809 810 811 812 813 814 815 816 817 818 819 820 821 822 823 824 825 826 827 828 829 830 831 832 833 834 835 836 837 838 839 840 841 842 843 844 845 846 847 848 849 850 851 852 853 854 855 856 857 858 859 860 861 862 863 864 865 866 867 868 869 870 871 872 873 874 875 876 877 878 879 880 881 882 883 884 885 886 887 888 889 890 891 892 893 894 895 896 897 898 899 900 901 902 903 904 905 906 907 908 909 910 911 912 913 914 915 916 917 918 919 920 921 922 923 924 925 926 927 928 929 930 931 932 933 934 935 936 937 938 939 940 941 942 943 944 945 946 947 948 949 950 951 952 953 954 955 956 957 958 959 960 961 962 963 964 965 966 967 968 969 970 971 972 973 974 975 976 977 978 979 980 981 982 983 984 985 986 987 988 989 990 991 992 993 994 995 996 997 998 999 1000 1001 1002 1003 1004 1005 1006 1007 1008 1009 1010 1011 1012 1013 1014 1015 1016 1017 1018 1019 1020 1021 1022 1023 1024 1025 1026 1027 1028 1029 1030 1031 1032 1033 1034 1035 1036 1037 1038 1039 1040 1041 1042 1043 1044 1045 1046 1047 1048 1049 1050 1051 1052 1053 1054 1055 1056 1057 1058 1059 1060 1061 1062 1063 1064 1065 1066 1067 1068 1069 1070 1071 1072 1073 1074 1075 1076 1077 1078 1079 1080 1081 1082 1083 1084 1085 1086 1087 1088 1089 1090 1091 1092 1093 1094 1095 1096 1097 1098 1099 1100 1101 1102 1103 1104 1105 1106 1107 1108 1109 1110 1111 1112 1113 1114 1115 1116 1117 1118 1119 1120 1121 1122 1123 1124 1125 1126 1127 1128 1129 1130 1131 1132 1133 1134 1135 1136 1137 1138 1139 1140 1141 1142 1143 1144 1145 1146 1147 1148 1149 1150 1151 1152 1153 1154 1155 1156 1157 1158 1159 1160 1161 1162 1163 1164 1165 1166 1167 1168 1169 1170 1171 1172 1173 1174 1175 1176 1177 1178 1179 1180 1181 1182 1183 1184 1185 1186 1187 1188 1189 1190 1191 1192 1193 1194 1195 1196 1197 1198 1199 1200 1201 1202 1203 1204 1205 1206 1207 1208 1209 1210 1211 1212 1213 1214 1215 1216 1217 1218 1219 1220 1221 1222 1223 1224 1225 1226 1227 1228 1229 1230 1231 1232 1233 1234 1235 1236 1237 1238 1239 1240 1241 1242 1243 1244 1245 1246 1247 1248 1249 1250 1251 1252 1253 1254 1255 1256 1257 1258 1259 1260 1261 1262 1263 1264 1265 1266 1267 1268 1269 1270 1271 1272 1273 1274 1275 1276 1277 1278 1279 1280 1281 1282 1283 1284 1285 1286 1287 1288 1289 1290 1291 1292 1293 1294 1295 1296 1297 1298 1299 1300 1301 1302 1303 1304 1305 1306 1307 1308 1309 1310 1311 1312 1313 1314 1315 1316 1317 1318 1319 1320 1321 1322 1323 1324 1325 1326 1327 1328 1329 1330 1331 1332 1333 1334 1335 1336 1337 1338 1339 1340 1341 1342 1343 1344 1345 1346 1347 1348 1349 1350 1351 1352 1353 1354 1355 1356 1357 1358 1359 1360 1361 1362 1363 1364 1365 1366 1367 1368 1369 1370 1371 1372 1373 1374 1375 1376 1377 1378 1379 1380 1381 1382 1383 1384 1385 1386 1387 1388 1389 1390 1391 1392 1393 1394 1395 1396 1397 1398 1399 1400 1401 1402 1403 1404 1405 1406 1407 1408 1409 1410 1411 1412 1413 1414 1415 1416 1417 1418 1419 1420 1421 1422 1423 1424 1425 1426 1427 1428 1429 1430 1431 1432 1433 1434 1435 1436 1437 1438 1439 1440 1441 1442 1443 1444 1445 1446 1447 1448 1449 1450 1451 1452 1453 1454 1455 1456 1457 1458 1459 1460 1461 1462 1463 1464 1465 1466 1467 1468 1469 1470 1471 1472 1473 1474 1475 1476 1477 1478 1479 1480 1481 1482 1483 1484 1485 1486 1487 1488 1489 1490 1491 1492 1493 1494 1495 1496 1497 1498 1499 1500 1501 1502 1503 1504 1505 1506 1507 1508 1509 1510 1511 1512 1513 1514 1515 1516 1517 1518 1519 1520 1521 1522 1523 1524 1525 1526 1527 1528 1529 1530 1531 1532 1533 1534 1535 1536 1537 1538 1539 1540 1541 1542 1543 1544 1545 1546 1547 1548 1549 1550 1551 1552 1553 1554 1555 1556 1557 1558 1559 1560 1561 1562 1563 1564 1565 1566 1567 1568 1569 1570 1571 1572 1573 1574 1575 1576 1577 1578 1579 1580 1581 1582 1583 1584 1585 1586 1587 1588 1589 1590 1591 1592 1593 1594 1595 1596 1597 1598 1599 1600 1601 1602 1603 1604 1605 1606 1607 1608 1609 1610 1611 1612 1613 1614 1615 1616 1617 1618 1619 1620 1621 1622 1623 1624 1625 1626 1627 1628 1629 1630 1631 1632 1633 1634 1635 1636 1637 1638 1639 1640 1641 1642 1643 1644 1645 1646 1647 1648 1649 1650 1651 1652 1653 1654 1655 1656 1657 1658 1659 1660 1661 1662 1663 1664 1665 1666 1667 1668 1669 1670 1671 1672 1673 1674 1675 1676 1677 1678 1679 1680 1681 1682 1683 1684 1685 1686 1687 1688 1689 1690 1691 1692 1693 1694 1695 1696 1697 1698 1699 1700 1701 1702 1703 1704 1705 1706 1707 1708 1709 1710 1711 1712 1713 1714 1715 1716 1717 1718 1719 1720 1721 1722 1723 1724 1725 1726 1727 1728 1729 1730 1731 1732 1733 1734 1735 1736 1737 1738 1739 1740 1741 1742 1743 1744 1745 1746 1747 1748 1749 1750 1751 1752 1753 1754 1755 1756 1757 1758 1759 1760 1761 1762 1763 1764 1765 1766 1767 1768 1769 1770 1771 1772 1773 1774 1775 1776 1777 1778 1779 1780 1781 1782 1783 1784 1785 1786 1787 1788 1789 1790 1791 1792 1793 1794 1795 1796 1797 1798 1799 1800 1801 1802 1803 1804 1805 1806 1807 1808 1809 1810 1811 1812 1813 1814 1815 1816 1817 1818 1819 1820 1821 1822 1823 1824 1825 1826 1827 1828 1829 1830 1831 1832 1833 1834 1835 1836 1837 1838 1839 1840 1841 1842 1843 1844 1845 1846 1847 1848 1849 1850 1851 1852 1853 1854 1855 1856 1857 1858 1859 1860 1861 1862 1863 1864 1865 1866 1867 1868 1869 1870 1871 1872 1873 1874 1875 1876 1877 1878 1879 1880 1881 1882 1883 1884 1885 1886 1887 1888 1889 1890 1891 1892 1893 1894 1895 1896 1897 1898 1899 1900 1901 1902 1903 1904 1905 1906 1907 1908 1909 1910 1911 1912 1913 1914 1915 1916 1917 1918 1919 1920 1921 1922 1923 1924 1925 1926 1927 1928 1929 1930 1931 1932 1933 1934 1935 1936 1937 1938 1939 1940 1941 1942 1943 1944 1945 1946 1947 1948 1949 1950 1951 1952 1953 1954 1955 1956 1957 1958 1959 1960 1961 1962 1963 1964 1965 1966 1967 1968 1969 1970 1971 1972 1973 1974 1975 1976 1977 1978 1979 1980 1981 1982 1983 1984 1985 1986 1987 1988 1989 1990 1991 1992 1993 1994 1995 1996 1997 1998 1999 2000 2001 2002 2003 2004 2005 2006 2007 2008 2009 2010 2011 2012 2013 2014 2015 2016 2017 2018 2019 2020 2021 2022 2023 2024 2025 2026 2027 2028 2029 2030 2031 2032 2033 2034 2035 2036 2037 2038 2039 2040 2041 2042 2043 2044 2045 2046 2047 2048 2049 2050 2051 2052 2053 2054 2055 2056 2057 2058 2059 2060 2061 2062 2063 2064 2065 2066 2067 2068 2069 2070 2071 2072 2073 2074 2075 2076 2077 2078 2079 2080 2081 2082 2083 2084 2085 2086 2087 2088 2089 2090 2091 2092 2093 2094 2095 2096 2097 2098 2099 2100 2101 2102 2103 2104 2105 2106 2107 2108 2109 2110 2111 2112 2113 2114 2115 2116 2117 2118 2119 2120 2121 2122 2123 2124 2125 2126 2127 2128 2129 2130 2131 2132 2133 2134 2135 2136 2137 2138 2139 2140 2141 2142 2143 2144 2145 2146 2147 2148 2149 2150 2151 2152 2153 2154 2155 2156 2157 2158 2159 2160 2161 2162 2163 2164 2165 2166 2167 2168 2169 2170 2171 2172 2173 2174 2175 2176 2177 2178 2179 2180 2181 2182 2183 2184 2185 2186 2187 2188 2189 2190 2191 2192 2193 2194 2195 2196 2197 2198 2199 2200 2201 2202 2203 2204 2205 2206 2207 2208 2209 2210 2211 2212 2213 2214 2215 2216 2217 2218 2219 2220 2221 2222 2223 2224 2225 2226 2227 2228 2229 2230 2231 2232 2233 2234 2235 2236 2237 2238 2239 2240 2241 2242 2243 2244 2245 2246 2247 2248 2249 2250 2251 2252 2253 2254 2255 2256 2257 2258 2259 2260 2261 2262 2263 2264 2265 2266 2267 2268 2269 2270 2271 2272 2273 2274 2275 2276 2277 2278 2279 2280 2281 2282 2283 2284 2285 2286 2287 2288 2289 2290 2291 2292 2293 2294 2295 2296 2297 2298 2299 2300 2301 2302 2303 2304 2305 2306 2307 2308 2309 2310 2311 2312 2313 2314 2315 2316 2317 2318 2319 2320 2321 2322 2323 2324 2325 2326 2327 2328 2329 2330 2331 2332 2333 2334 2335 2336 2337 2338 2339 2340 2341 2342 2343 2344 2345 2346 2347 2348 2349 2350 2351 2352 2353 2354 2355 2356 2357 2358 2359 2360 2361 2362 2363 2364 2365 2366 2367 2368 2369 2370 2371 2372 2373 2374 2375 2376 2377 2378 2379 2380 2381 2382 2383 2384 2385 2386 2387 2388 2389 2390 2391 2392 2393 2394 2395 2396 2397 2398 2399 2400 2401 2402 2403 2404 2405 2406 2407 2408 2409 2410 2411 2412 2413 2414 2415 2416 2417 2418 2419 2420 2421 2422 2423 2424 2425 2426 2427 2428 2429 2430 2431 2432 2433 2434 2435 2436 2437 2438 2439 2440 2441 2442 2443 2444 2445 2446 2447 2448 2449 2450 2451 2452 2453 2454 2455 2456 2457 2458 2459 2460 2461 2462 2463 2464 2465 2466 2467 2468 2469 2470 2471 2472 2473 2474 2475 2476 2477 2478 2479 2480 2481 2482 2483 2484 2485 2486 2487 2488 2489 2490 2491 2492 2493 2494 2495 2496 2497 2498 2499 2500 2501 2502 2503 2504 2505 2506 2507 2508 2509 2510 2511 2512 2513 2514 2515 2516 2517 2518 2519 2520 2521 2522 2523 2524 2525 2526 2527 2528 2529 2530 2531 2532 2533 2534 2535 2536 2537 2538 2539 2540 2541 2542 2543 2544 2545 2546 2547 2548 2549 2550 2551 2552 2553 2554 2555 2556 2557 2558 2559 2560 2561 2562 2563 2564 2565 2566 2567 2568 2569 2570 2571 2572 2573 2574 2575 2576 2577 2578 2579 2580 2581 2582 2583 2584 2585 2586 2587 2588 2589 2590 2591 2592 2593 2594 2595 2596 2597 2598 2599 2600 2601 2602 2603 2604 2605 2606 2607 2608 2609 2610 2611 2612 2613 2614 2615 2616 2617 2618 2619 2620 2621 2622 2623 2624 2625 2626 2627 2628 2629 2630 2631 2632 2633 2634 2635 2636 2637 2638 2639 2640 2641 2642 2643 2644 2645 2646 2647 2648 2649 2650 2651 2652 2653 2654 2655 2656 2657 2658 2659 2660 2661 2662 2663 2664 2665 2666 2667 2668 2669 2670 2671 2672 2673 2674 2675 2676 2677 2678 2679 2680 2681 2682 2683 2684 2685 2686 2687 2688 2689 2690 2691 2692 2693 2694 2695 2696 2697 2698 2699 2700 2701 2702 2703 2704 2705 2706 2707 2708 2709 2710 2711 2712 2713 2714 2715 2716 2717 2718 2719 2720 2721 2722 2723 2724 2725 2726 2727 2728 2729 2730 2731 2732 2733 2734 2735 2736 2737 2738 2739 2740 2741 2742 2743 2744 2745 2746 2747 2748 2749 2750 2751 2752 2753 2754 2755 2756 2757 2758 2759 2760 2761 2762 2763 2764 2765 2766 2767 2768 2769 2770 2771 2772 2773 2774 2775 2776 2777 2778 2779 2780 2781 2782 2783 2784 2785 2786 2787 2788 2789 2790 2791 2792 2793 2794 2795 2796 2797 2798 2799 2800 2801 2802 2803 2804 2805 2806 2807 2808 2809 2810 2811 2812 2813 2814 2815 2816 2817 2818 2819 2820 2821 2822 2823 2824 2825 2826 2827 2828 2829 2830 2831 2832 2833 2834 2835 2836 2837 2838 2839 2840 2841 2842 2843 2844 2845 2846 2847 2848 2849 2850 2851 2852 2853 2854 2855 2856 2857 2858 2859 2860 2861 2862 2863 2864 2865 2866 2867 2868 2869 2870 2871 2872 2873 2874 2875 2876 2877 2878 2879 2880 2881 2882 2883 2884 2885 2886 2887 2888 2889 2890 2891 2892 2893 2894 2895 2896 2897 2898 2899 2900 2901 2902 2903 2904 2905 2906 2907 2908 2909 2910 2911 2912 2913 2914 2915 2916 2917 2918 2919 2920 2921 2922 2923 2924 2925 2926 2927 2928 2929 2930 2931 2932 2933 2934 2935 2936 2937 2938 2939 2940 2941 2942 2943 2944 2945 2946 2947 2948 2949 2950 2951 2952 2953 2954 2955 2956 2957 2958 2959 2960 2961 2962 2963 2964 2965 2966 2967 2968 2969 2970 2971 2972 2973 2974 2975 2976 2977 2978 2979 2980 2981 2982 2983 2984 2985 2986 2987 2988 2989 2990 2991 2992 2993 2994 2995 2996 2997 2998 2999 3000 3001 3002 3003 3004 3005 3006 3007 3008 3009 3010 3011 3012 3013 3014 3015 3016 3017 3018 3019 3020 3021 3022 3023 3024 3025 3026 3027 3028 3029 3030 3031 3032 3033 3034 3035 3036 3037 3038 3039 3040 3041 3042 3043 3044 3045 3046 3047 3048 3049 3050 3051 3052 3053 3054 3055 3056 3057 3058 3059 3060 3061 3062 3063 3064 3065 3066 3067 3068 3069 3070 3071 3072 3073 3074 3075 3076 3077 3078 3079 3080 3081 3082 3083 3084 3085 3086 3087 3088 3089 3090 3091 3092 3093 3094 3095 3096 3097 3098 3099 3100 3101 3102 3103 3104 3105 3106 3107 3108 3109 3110 3111 3112 3113 3114 3115 3116 3117 3118 3119 3120 3121 3122 3123 3124 3125 3126 3127 3128 3129 3130 3131 3132 3133 3134 3135 3136 3137 3138 3139 3140 3141 3142 3143 3144 3145 3146 3147 3148 3149 3150 3151 3152 3153 3154 3155 3156 3157 3158 3159 3160 3161 3162 3163 3164 3165 3166 3167 3168 3169 3170 3171 3172 3173 3174 3175 3176 3177 3178 3179 3180 3181 3182 3183 3184 3185 3186 3187 3188 3189 3190 3191 3192 3193 3194 3195 3196 3197 3198 3199 3200 3201 3202 3203 3204 3205 3206 3207 3208 3209 3210 3211 3212 3213 3214 3215 3216 3217 3218 3219 3220 3221 3222 3223 3224 3225 3226 3227 3228 3229 3230 3231 3232 3233 3234 3235 3236 3237 3238 3239 3240 3241 3242 3243 3244 3245 3246 3247 3248 3249 3250 3251 3252 3253 3254 3255 3256 3257 3258 3259 3260 3261 3262 3263 3264 3265 3266 3267 3268 3269 3270 3271 3272 3273 3274 3275 3276 3277 3278 3279 3280 3281 3282 3283 3284 3285 3286 3287 3288 3289 3290 3291 3292 3293 3294 3295 3296 3297 3298 3299 3300 3301 3302 3303 3304 3305 3306 3307 3308 3309 3310 3311 3312 3313 3314 3315 3316 3317 3318 3319 3320 3321 3322 3323 3324 3325 3326 3327 3328 3329 3330 3331 3332 3333 3334 3335 3336 3337 3338 3339 3340 3341 3342 3343 3344 3345 3346 3347 3348 3349 3350 3351 3352 3353 3354 3355 3356 3357 3358 3359 3360 3361 3362 3363 3364 3365 3366 3367 3368 3369 3370 3371 3372 3373 3374 3375 3376 3377 3378 3379 3380 3381 3382 3383 3384 3385 3386 3387 3388 3389 3390 3391 3392 3393 3394 3395 3396 3397 3398 3399 3400 3401 3402 3403 3404 3405 3406 3407 3408 3409 3410 3411 3412 3413 3414 3415 3416 3417 3418 3419 3420 3421 3422 3423 3424 3425 3426 3427 3428 3429 3430 3431 3432 3433 3434 3435 3436 3437 3438 3439 3440 3441 3442 3443 3444 3445 3446 3447 3448 3449 3450 3451 3452 3453 3454 3455 3456 3457 3458 3459 3460 3461 3462 3463 3464 3465 3466 3467 3468 3469 3470 3471 3472 3473 3474 3475 3476 3477 3478 3479 3480 3481 3482 3483 3484 3485 3486 3487 3488 3489 3490 3491 3492 3493 3494 3495 3496 3497 3498 3499 3500 3501 3502 3503 3504 3505 3506 3507 3508 3509 3510 3511 3512 3513 3514 3515 3516 3517 3518 3519 3520 3521 3522 3523 3524 3525 3526 3527 3528 3529 3530 3531 3532 3533 3534 3535 3536 3537 3538 3539 3540 3541 3542 3543 3544 3545 3546 3547 3548 3549 3550 3551 3552 3553 3554 3555 3556 3557 3558 3559 3560 3561 3562 3563 3564 3565 3566 3567 3568 3569 3570 3571 3572 3573 3574 3575 3576 3577 3578 3579 3580 3581 3582 3583 3584 3585 3586 3587 3588 3589 3590 3591 3592 3593 3594 3595 3596 3597 3598 3599 3600 3601 3602 3603 3604 3605 3606 3607 3608 3609 3610 3611 3612 3613 3614 3615 3616 3617 3618 3619 3620 3621 3622 3623 3624 3625 3626 3627 3628 3629 3630 3631 3632 3633 3634 3635 3636 3637 3638 3639 3640 3641 3642 3643 3644 3645 3646 3647 3648 3649 3650 3651 3652 3653 3654 3655 3656 3657 3658 3659 3660 3661 3662 3663 3664 3665 3666 3667 3668 3669 3670 3671 3672 3673 3674 3675 3676 3677 3678 3679 3680 3681 3682 3683 3684 3685 3686 3687 3688 3689 3690 3691 3692 3693 3694 3695 3696 3697 3698 3699 3700 3701 3702 3703 3704 3705 3706 3707 3708 3709 3710 3711 3712 3713 3714 3715 3716 3717 3718 3719 3720 3721 3722 3723 3724 3725 3726 3727 3728 3729 3730 3731 3732 3733 3734 3735 3736 3737 3738 3739 3740 3741 3742 3743 3744 3745 3746 3747 3748 3749 3750 3751 3752 3753 3754 3755 3756 3757 3758 3759 3760 3761 3762 3763 3764 3765 3766 3767 3768 3769 3770 3771 3772 3773 3774 3775 3776 3777 3778 3779 3780 3781 3782 3783 3784 3785 3786 3787 3788 3789 3790 3791 3792 3793 3794 3795 3796 3797 3798 3799 3800 3801 3802 3803 3804 3805 3806 3807 3808 3809 3810 3811 3812 3813 3814 3815 3816 3817 3818 3819 3820 3821 3822 3823 3824 3825 3826 3827 3828 3829 3830 3831 3832 3833 3834 3835 3836 3837 3838 3839 3840 3841 3842 3843 3844 3845 3846 3847 3848 3849 3850 3851 3852 3853 3854 3855 3856 3857 3858 3859 3860 3861 3862 3863 3864 3865 3866 3867 3868 3869 3870 3871 3872 3873 3874 3875 3876 3877 3878 3879 3880 3881 3882 3883 3884 3885 3886 3887 3888 3889 3890 3891 3892 3893 3894 3895 3896 3897 3898 3899 3900 3901 3902 3903 3904 3905 3906 3907 3908 3909 3910 3911 3912 3913 3914 3915 3916 3917 3918 3919 3920 3921 3922 3923 3924 3925 3926 3927 3928 3929 3930 3931 3932 3933 3934 3935 3936 3937 3938 3939 3940 3941 3942 3943 3944 3945 3946 3947 3948 3949 3950 3951 3952 3953 3954 3955 3956 3957 3958 3959 3960 3961 3962 3963 3964 3965 3966 3967 3968 3969 3970 3971 3972 3973 3974 3975 3976 3977 3978 3979 3980 3981 3982 3983 3984 3985 3986 3987 3988 3989 3990 3991 3992 3993 3994 3995 3996 3997 3998 3999 4000 4001 4002 4003 4004 4005 4006 4007 4008 4009 4010 4011 4012 4013 4014 4015 4016 4017 4018 4019 4020 4021 4022 4023 4024 4025 4026 4027 4028 4029 4030 4031 4032 4033 4034 4035 4036 4037 4038 4039 4040 4041 4042 4043 4044 4045 4046 4047 4048 4049 4050 4051 4052 4053 4054 4055 4056 4057 4058 4059 4060 4061 4062 4063 4064 4065 4066 4067 4068 4069 4070 4071 4072 4073 4074 4075 4076 4077 4078 4079 4080 4081 4082 4083 4084 4085 4086 4087 4088 4089 4090 4091 4092 4093 4094 4095 4096 4097 4098 4099 4100 4101 4102 4103 4104 4105 4106 4107 4108 4109 4110 4111 4112 4113 4114 4115 4116 4117 4118 4119 4120 4121 4122 4123 4124 4125 4126 4127 4128 4129 4130 4131 4132 4133 4134 4135 4136 4137 4138 4139 4140 4141 4142 4143 4144 4145 4146 4147 4148 4149 4150 4151 4152 4153 4154 4155 4156 4157 4158 4159 4160 4161 4162 4163 4164 4165 4166 4167 4168 4169 4170 4171 4172 4173 4174 4175 4176 4177 4178 4179 4180 4181 4182 4183 4184 4185 4186 4187 4188 4189 4190 4191 4192 4193 4194 4195 4196 4197 4198 4199 4200 4201 4202 4203 4204 4205 4206 4207 4208 4209 4210 4211 4212 4213 4214 4215 4216 4217 4218 4219 4220 4221 4222 4223 4224 4225 4226 4227 4228 4229 4230 4231 4232 4233 4234 4235 4236 4237 4238 4239 4240 4241 4242 4243 4244 4245 4246 4247 4248 4249 4250 4251 4252 4253 4254 4255 4256 4257 4258 4259 4260 4261 4262 4263 4264 4265 4266 4267 4268 4269 4270 4271 4272 4273 4274 4275 4276 4277 4278 4279 4280 4281 4282 4283 4284 4285 4286 4287 4288 4289 4290 4291 4292 4293 4294 4295 4296 4297 4298 4299 4300 4301 4302 4303 4304 4305 4306 4307 4308 4309 4310 4311 4312 4313 4314 4315 4316 4317 4318 4319 4320 4321 4322 4323 4324 4325 4326 4327 4328 4329 4330 4331 4332 4333 4334 4335 4336 4337 4338 4339 4340 4341 4342 4343 4344 4345 4346 4347 4348 4349 4350 4351 4352 4353 4354 4355 4356 4357 4358 4359 4360 4361 4362 4363 4364 4365 4366 4367 4368 4369 4370 4371 4372 4373 4374 4375 4376 4377 4378 4379 4380 4381 4382 4383 4384 4385 4386 4387 4388 4389 4390 4391 4392 4393 4394 4395 4396 4397 4398 4399 4400 4401 4402 4403 4404 4405 4406 4407 4408 4409 4410 4411 4412 4413 4414 4415 4416 4417 4418 4419 4420 4421 4422 4423 4424 4425 4426 4427 4428 4429 4430 4431 4432 4433 4434 4435 4436 4437 4438 4439 4440 4441 4442 4443 4444 4445 4446 4447 4448 4449 4450 4451 4452 4453 4454 4455 4456 4457 4458 4459 4460 4461 4462 4463 4464 4465 4466 4467 4468 4469 4470 4471 4472 4473 4474 4475 4476 4477 4478 4479 4480 4481 4482 4483 4484 4485 4486 4487 4488 4489 4490 4491 4492 4493 4494 4495 4496 4497 4498 4499 4500 4501 4502 4503 4504 4505 4506 4507 4508 4509 4510 4511 4512 4513 4514 4515 4516 4517 4518 4519 4520 4521 4522 4523 4524 4525 4526 4527 4528 4529 4530 4531 4532 4533 4534 4535 4536 4537 4538 4539 4540 4541 4542 4543 4544 4545 4546 4547 4548 4549 4550 4551 4552 4553 4554 4555 4556 4557 4558 4559 4560 4561 4562 4563 4564 4565 4566 4567 4568 4569 4570 4571 4572 4573 4574 4575 4576 4577 4578 4579 4580 4581 4582 4583 4584 4585 4586 4587 4588 4589 4590 4591 4592 4593 4594 4595 4596 4597 4598 4599 4600 4601 4602 4603 4604 4605 4606 4607 4608 4609 4610 4611 4612 4613 4614 4615 4616 4617 4618 4619 4620 4621 4622 4623 4624 4625 4626 4627 4628 4629 4630 4631 4632 4633 4634 4635 4636 4637 4638 4639 4640 4641 4642 4643 4644 4645 4646 4647 4648 4649 4650 4651 4652 4653 4654 4655 4656 4657 4658 4659 4660 4661 4662 4663 4664 4665 4666 4667 4668 4669 4670 4671 4672 4673 4674 4675 4676 4677 4678 4679 4680 4681 4682 4683 4684 4685 4686 4687 4688 4689 4690 4691 4692 4693 4694 4695 4696 4697 4698 4699 4700 4701 4702 4703 4704 4705 4706 4707 4708 4709 4710 4711 4712 4713 4714 4715 4716 4717 4718 4719 4720 4721 4722 4723 4724 4725 4726 4727 4728 4729 4730 4731 4732 4733 4734 4735 4736 4737 4738 4739 4740 4741 4742 4743 4744 4745 4746 4747 4748 4749 4750 4751 4752 4753 4754 4755 4756 4757 4758 4759 4760 4761 4762 4763 4764 4765 4766 4767 4768 4769 4770 4771 4772 4773 4774 4775 4776 4777 4778 4779 4780 4781 4782 4783 4784 4785 4786 4787 4788 4789 4790 4791 4792 4793 4794 4795 4796 4797 4798 4799 4800 4801 4802 4803 4804 4805 4806 4807 4808 4809 4810 4811 4812 4813 4814 4815 4816 4817 4818 4819 4820 4821 4822 4823 4824 4825 4826 4827 4828 4829 4830 4831 4832 4833 4834 4835 4836 4837 4838 4839 4840 4841 4842 4843 4844 4845 4846 4847 4848 4849 4850 4851 4852 4853 4854 4855 4856 4857 4858 4859 4860 4861 4862 4863 4864 4865 4866 4867 4868 4869 4870 4871 4872 4873 4874 4875 4876 4877 4878 4879 4880 4881 4882 4883 4884 4885 4886 4887 4888 4889 4890 4891 4892 4893 4894 4895 4896 4897 4898 4899 4900 4901 4902 4903 4904 4905 4906 4907 4908 4909 4910 4911 4912 4913 4914 4915 4916 4917 4918 4919 4920 4921 4922 4923 4924 4925 4926 4927 4928 4929 4930 4931 4932 4933 4934 4935 4936 4937 4938 4939 4940 4941 4942 4943 4944 4945 4946 4947 4948 4949 4950 4951 4952 4953 4954 4955 4956 4957 4958 4959 4960 4961 4962 4963 4964 4965 4966 4967 4968 4969 4970 4971 4972 4973 4974 4975 4976 4977 4978 4979 4980 4981 4982 4983 4984 4985 4986 4987 4988 4989 4990 4991 4992 4993 4994 4995 4996 4997 4998 4999 5000 5001 5002 5003 5004 5005 5006 5007 5008 5009 5010 5011 5012 5013 5014 5015 5016 5017 5018 5019 5020 5021 5022 5023 5024 5025 5026 5027 5028 5029 5030 5031 5032 5033 5034 5035 5036 5037 5038 5039 5040 5041 5042 5043 5044 5045 5046 5047 5048 5049 5050 5051 5052 5053 5054 5055 5056 5057 5058 5059 5060 5061 5062 5063 5064 5065 5066 5067 5068 5069 5070 5071 5072 5073 5074 5075 5076 5077 5078 5079 5080 5081 5082 5083 5084 5085 5086 5087 5088 5089 5090 5091 5092 5093 5094 5095 5096 5097 5098 5099 5100 5101 5102 5103 5104 5105 5106 5107 5108 5109 5110 5111 5112 5113 5114 5115 5116 5117 5118 5119 5120 5121 5122 5123 5124 5125 5126 5127 5128 5129 5130 5131 5132 5133 5134 5135 5136 5137 5138 5139 5140 5141 5142 5143 5144 5145 5146 5147 5148 5149 5150 5151 5152 5153 5154 5155 5156 5157 5158 5159 5160 5161 5162 5163 5164 5165 5166 5167 5168 5169 5170 5171 5172 5173 5174 5175 5176 5177 5178 5179 5180 5181 5182 5183 5184 5185 5186 5187 5188 5189 5190 5191 5192 5193 5194 5195 5196 5197 5198 5199 5200 5201 5202 5203 5204 5205 5206 5207 5208 5209 5210 5211 5212 5213 5214 5215 5216 5217 5218 5219 5220 5221 5222 5223 5224 5225 5226 5227 5228 5229 5230 5231 5232 5233 5234 5235 5236 5237 5238 5239 5240 5241 5242 5243 5244 5245 5246 5247 5248 5249 5250 5251 5252 5253 5254 5255 5256 5257 5258 5259 5260 5261 5262 5263 5264 5265 5266 5267 5268 5269 5270 5271 5272 5273 5274 5275 5276 5277 5278 5279 5280 5281 5282 5283 5284 5285 5286 5287 5288 5289 5290 5291 5292 5293 5294 5295 5296 5297 5298 5299 5300 5301 5302 5303 5304 5305 5306 5307 5308 5309 5310 5311 5312 5313 5314 5315 5316 5317 5318 5319 5320 5321 5322 5323 5324 5325 5326 5327 5328 5329 5330 5331 5332 5333 5334 5335 5336 5337 5338 5339 5340 5341 5342 5343 5344 5345 5346 5347 5348 5349 5350 5351 5352 5353 5354 5355 5356 5357 5358 5359 5360 5361 5362 5363 5364 5365 5366 5367 5368 5369 5370 5371 5372 5373 5374 5375 5376 5377 5378 5379 5380 5381 5382 5383 5384 5385 5386 5387 5388 5389 5390 5391 5392 5393 5394 5395 5396 5397 5398 5399 5400 5401 5402 5403 5404 5405 5406 5407 5408 5409 5410 5411 5412 5413 5414 5415 5416 5417 5418 5419 5420 5421 5422 5423 5424 5425 5426 5427 5428 5429 5430 5431 5432 5433 5434 5435 5436 5437 5438 5439 5440 5441 5442 5443 5444 5445 5446 5447 5448 5449 5450 5451 5452 5453 5454 5455 5456 5457 5458 5459 5460 5461 5462 5463 5464 5465 5466 5467 5468 5469 5470 5471 5472 5473 5474 5475 5476 5477 5478 5479 5480 5481 5482 5483 5484 5485 5486 5487 5488 5489 5490 5491 5492 5493 5494 5495 5496 5497 5498 5499 5500 5501 5502 5503 5504 5505 5506 5507 5508 5509 5510 5511 5512 5513 5514 5515 5516 5517 5518 5519 5520 5521 5522 5523 5524 5525 5526 5527 5528 5529 5530 5531 5532 5533 5534 5535 5536 5537 5538 5539 5540 5541 5542 5543 5544 5545 5546 5547 5548 5549 5550 5551 5552 5553 5554 5555 5556 5557 5558 5559 5560 5561 5562 5563 5564 5565 5566 5567 5568 5569 5570 5571 5572 5573 5574 5575 5576 5577 5578 5579 5580 5581 5582 5583 5584 5585 5586 5587 5588 5589 5590 5591 5592 5593 5594 5595 5596 5597 5598 5599 5600 5601 5602 5603 5604 5605 5606 5607 5608 5609 5610 5611 5612 5613 5614 5615 5616 5617 5618 5619 5620 5621 5622 5623 5624 5625 5626 5627 5628 5629 5630 5631 5632 5633 5634 5635 5636 5637 5638 5639 5640 5641 5642 5643 5644 5645 5646 5647 5648 5649 5650 5651 5652 5653 5654 5655 5656 5657 5658 5659 5660 5661 5662 5663 5664 5665 5666 5667 5668 5669 5670 5671 5672 5673 5674 5675 5676 5677 5678 5679 5680 5681 5682 5683 5684 5685 5686 5687 5688 5689 5690 5691 5692 5693 5694 5695 5696 5697 5698 5699 5700 5701 5702 5703 5704 5705 5706 5707 5708 5709 5710 5711 5712 5713 5714 5715 5716 5717 5718 5719 5720 5721 5722 5723 5724 5725 5726 5727 5728 5729 5730 5731 5732 5733 5734 5735 5736 5737 5738 5739 5740 5741 5742 5743 5744 5745 5746 5747 5748 5749 5750 5751 5752 5753 5754 5755 5756 5757 5758 5759 5760 5761 5762 5763 5764 5765 5766 5767 5768 5769 5770 5771 5772 5773 5774 5775 5776 5777 5778 5779 5780 5781 5782 5783 5784 5785 5786 5787 5788 5789 5790 5791 5792 5793 5794 5795 5796 5797 5798 5799 5800 5801 5802 5803 5804 5805 5806 5807 5808 5809 5810 5811 5812 5813 5814 5815 5816 5817 5818 5819 5820 5821 5822 5823 5824 5825 5826 5827 5828 5829 5830 5831 5832 5833 5834 5835 5836 5837 5838 5839 5840 5841 5842 5843 5844 5845 5846 5847 5848 5849 5850 5851 5852 5853 5854 5855 5856 5857 5858 5859 5860 5861 5862 5863 5864 5865 5866 5867 5868 5869 5870 5871 5872 5873 5874 5875 5876 5877 5878 5879 5880 5881 5882 5883 5884 5885 5886 5887 5888 5889 5890 5891 5892 5893 5894 5895 5896 5897 5898 5899 5900 5901 5902 5903 5904 5905 5906 5907 5908 5909 5910 5911 5912 5913 5914 5915 5916 5917 5918 5919 5920 5921 5922 5923 5924 5925 5926 5927 5928 5929 5930 5931 5932 5933 5934 5935 5936 5937 5938 5939 5940 5941 5942 5943 5944 5945 5946 5947 5948 5949 5950 5951 5952 5953 5954 5955 5956 5957 5958 5959 5960 5961 5962 5963 5964 5965 5966 5967 5968 5969 5970 5971 5972 5973 5974 5975 5976 5977 5978 5979 5980 5981 5982 5983 5984 5985 5986 5987 5988 5989 5990 5991 5992 5993 5994 5995 5996 5997 5998 5999 6000 6001 6002 6003 6004 6005 6006 6007 6008 6009 6010 6011 6012 6013 6014 6015 6016 6017 6018 6019 6020 6021 6022 6023 6024 6025 6026 6027 6028 6029 6030 6031 6032 6033 6034 6035 6036 6037 6038 6039 6040 6041 6042 6043 6044 6045 6046 6047 6048 6049 6050 6051 6052 6053 6054 6055 6056 6057 6058 6059 6060 6061 6062 6063 6064 6065 6066 6067 6068 6069 6070 6071 6072 6073 6074 6075 6076 6077 6078 6079 6080 6081 6082 6083 6084 6085 6086 6087 6088 6089 6090 6091 6092 6093 6094 6095 6096 6097 6098 6099 6100 6101 6102 6103 6104 6105 6106 6107 6108 6109 6110 6111 6112 6113 6114 6115 6116 6117 6118 6119 6120 6121 6122 6123 6124 6125 6126 6127 6128 6129 6130 6131 6132 6133 6134 6135 6136 6137 6138 6139 6140 6141 6142 6143 6144 6145 6146 6147 6148 6149 6150 6151 6152 6153 6154 6155 6156 6157 6158 6159 6160 6161 6162 6163 6164 6165 6166 6167 6168 6169 6170 6171 6172 6173 6174 6175 6176 6177 6178 6179 6180 6181 6182 6183 6184 6185 6186 6187 6188 6189 6190 6191 6192 6193 6194 6195 6196 6197 6198 6199 6200 6201 6202 6203 6204 6205 6206 6207 6208 6209 6210 6211 6212 6213 6214 6215 6216 6217 6218 6219 6220 6221 6222 6223 6224 6225 6226 6227 6228 6229 6230 6231 6232 6233 6234 6235 6236 6237 6238 6239 6240 6241 6242 6243 6244 6245 6246 6247 6248 6249 6250 6251 6252 6253 6254 6255 6256 6257 6258 6259 6260 6261 6262 6263 6264 6265 6266 6267 6268 6269 6270 6271 6272 6273 6274 6275 6276 6277 6278 6279 6280 6281 6282 6283 6284 6285 6286 6287 6288 6289 6290 6291 6292 6293 6294 6295 6296 6297 6298 6299 6300 6301 6302 6303 6304 6305 6306 6307 6308 6309 6310 6311 6312 6313 6314 6315 6316 6317 6318 6319 6320 6321 6322 6323 6324 6325 6326 6327 6328 6329 6330 6331 6332 6333 6334 6335 6336 6337 6338 6339 6340 6341 6342 6343 6344 6345 6346 6347 6348 6349 6350 6351 6352 6353 6354 6355 6356 6357 6358 6359 6360 6361 6362 6363 6364 6365 6366 6367 6368 6369 6370 6371 6372 6373 6374 6375 6376 6377 6378 6379 6380 6381 6382 6383 6384 6385 6386 6387 6388 6389 6390 6391 6392 6393 6394 6395 6396 6397 6398 6399 6400 6401 6402 6403 6404 6405 6406 6407 6408 6409 6410 6411 6412 6413 6414 6415 6416 6417 6418 6419 6420 6421 6422 6423 6424 6425 6426 6427 6428 6429 6430 6431 6432 6433 6434 6435 6436 6437 6438 6439 6440 6441 6442 6443 6444 6445 6446 6447 6448 6449 6450 6451 6452 6453 6454 6455 6456 6457 6458 6459 6460 6461 6462 6463 6464 6465 6466 6467 6468 6469 6470 6471 6472 6473 6474 6475 6476 6477 6478 6479 6480 6481 6482 6483 6484 6485 6486 6487 6488 6489 6490 6491 6492 6493 6494 6495 6496 6497 6498 6499 6500 6501 6502 6503 6504 6505 6506 6507 6508 6509 6510 6511 6512 6513 6514 6515 6516 6517 6518 6519 6520 6521 6522 6523 6524 6525 6526 6527 6528 6529 6530 6531 6532 6533 6534 6535 6536 6537 6538 6539 6540 6541 6542 6543 6544 6545 6546 6547 6548 6549 6550 6551 6552 6553 6554 6555 6556 6557 6558 6559 6560 6561 6562 6563 6564 6565 6566 6567 6568 6569 6570 6571 6572 6573 6574 6575 6576 6577 6578 6579 6580 6581 6582 6583 6584 6585 6586 6587 6588 6589 6590 6591 6592 6593 6594 6595 6596 6597 6598 6599 6600 6601 6602 6603 6604 6605 6606 6607 6608 6609 6610 6611 6612 6613 6614 6615 6616 6617 6618 6619 6620 6621 6622 6623 6624 6625 6626 6627 6628 6629 6630 6631 6632 6633 6634 6635 6636 6637 6638 6639 6640 6641 6642 6643 6644 6645 6646 6647 6648 6649 6650 6651 6652 6653 6654 6655 6656 6657 6658 6659 6660 6661 6662 6663 6664 6665 6666 6667 6668 6669 6670 6671 6672 6673 6674 6675 6676 6677 6678 6679 6680 6681 6682 6683 6684 6685 6686 6687 6688 6689 6690 6691 6692 6693 6694 6695 6696 6697 6698 6699 6700 6701 6702 6703 6704 6705 6706 6707 6708 6709 6710 6711 6712 6713 6714 6715 6716 6717 6718 6719 6720 6721 6722 6723 6724 6725 6726 6727 6728 6729 6730 6731 6732 6733 6734 6735 6736 6737 6738 6739 6740 6741 6742 6743 6744 6745 6746 6747 6748 6749 6750 6751 6752 6753 6754 6755 6756 6757 6758 6759 6760 6761 6762 6763 6764 6765 6766 6767 6768 6769 6770 6771 6772 6773 6774 6775 6776 6777 6778 6779 6780 6781 6782 6783 6784 6785 6786 6787 6788 6789 6790 6791 6792 6793 6794 6795 6796 6797 6798 6799 6800 6801 6802 6803 6804 6805 6806 6807 6808 6809 6810 6811 6812 6813 6814 6815 6816 6817 6818 6819 6820 6821 6822 6823 6824 6825 6826 6827 6828 6829 6830 6831 6832 6833 6834 6835 6836 6837 6838 6839 6840 6841 6842 6843 6844 6845 6846 6847 6848 6849 6850 6851 6852 6853 6854 6855 6856 6857 6858 6859 6860 6861 6862 6863 6864 6865 6866 6867 6868 6869 6870 6871 6872 6873 6874 6875 6876 6877 6878 6879 6880 6881 6882 6883 6884 6885 6886 6887 6888 6889 6890 6891 6892 6893 6894 6895 6896 6897 6898 6899 6900 6901 6902 6903 6904 6905 6906 6907 6908 6909 6910 6911 6912 6913 6914 6915 6916 6917 6918 6919 6920 6921 6922 6923 6924 6925 6926 6927 6928 6929 6930 6931 6932 6933 6934 6935 6936 6937 6938 6939 6940 6941 6942 6943 6944 6945 6946 6947 6948 6949 6950 6951 6952 6953 6954 6955 6956 6957 6958 6959 6960 6961 6962 6963 6964 6965 6966 6967 6968 6969 6970 6971 6972 6973 6974 6975 6976 6977 6978 6979 6980 6981 6982 6983 6984 6985 6986 6987 6988 6989 6990 6991 6992 6993 6994 6995 6996 6997 6998 6999 7000 7001 7002 7003 7004 7005 7006 7007 7008 7009 7010 7011 7012 7013 7014 7015 7016 7017 7018 7019 7020 7021 7022 7023 7024 7025 7026 7027 7028 7029 7030 7031 7032 7033 7034 7035 7036 7037 7038 7039 7040 7041 7042 7043 7044 7045 7046 7047 7048 7049 7050 7051 7052 7053 7054 7055 7056 7057 7058 7059 7060 7061 7062 7063 7064 7065 7066 7067 7068 7069 7070 7071 7072 7073 7074 7075 7076 7077 7078 7079 7080 7081 7082 7083 7084 7085 7086 7087 7088 7089 7090 7091 7092 7093 7094 7095 7096 7097 7098 7099 7100 7101 7102 7103 7104 7105 7106 7107 7108 7109 7110 7111 7112 7113 7114 7115 7116 7117 7118 7119 7120 7121 7122 7123 7124 7125 7126 7127 7128 7129 7130 7131 7132 7133 7134 7135 7136 7137 7138 7139 7140 7141 7142 7143 7144 7145 7146 7147 7148 7149 7150 7151 7152 7153 7154 7155 7156 7157 7158 7159 7160 7161 7162 7163 7164 7165 7166 7167 7168 7169 7170 7171 7172 7173 7174 7175 7176 7177 7178 7179 7180 7181 7182 7183 7184 7185 7186 7187 7188 7189 7190 7191 7192 7193 7194 7195 7196 7197 7198 7199 7200 7201 7202 7203 7204 7205 7206 7207 7208 7209 7210 7211 7212 7213 7214 7215 7216 7217 7218 7219 7220 7221 7222 7223 7224 7225 7226 7227 7228 7229 7230 7231 7232 7233 7234 7235 7236 7237 7238 7239 7240 7241 7242 7243 7244 7245 7246 7247 7248 7249 7250 7251 7252 7253 7254 7255 7256 7257 7258 7259 7260 7261 7262 7263 7264 7265 7266 7267 7268 7269 7270 7271 7272 7273 7274 7275 7276 7277 7278 7279 7280 7281 7282 7283 7284 7285 7286 7287 7288 7289 7290 7291 7292 7293 7294 7295 7296 7297 7298 7299 7300 7301 7302 7303 7304 7305 7306 7307 7308 7309 7310 7311 7312 7313 7314 7315 7316 7317 7318 7319 7320 7321 7322 7323 7324 7325 7326 7327 7328 7329 7330 7331 7332 7333 7334 7335 7336 7337 7338 7339 7340 7341 7342 7343 7344 7345 7346 7347 7348 7349 7350 7351 7352 7353 7354 7355 7356 7357 7358 7359 7360 7361 7362 7363 7364 7365 7366 7367 7368 7369 7370 7371 7372 7373 7374 7375 7376 7377 7378 7379 7380 7381 7382 7383 7384 7385 7386 7387 7388 7389 7390 7391 7392 7393 7394 7395 7396 7397 7398 7399 7400 7401 7402 7403 7404 7405 7406 7407 7408 7409 7410 7411 7412 7413 7414 7415 7416 7417 7418 7419 7420 7421 7422 7423 7424 7425 7426 7427 7428 7429 7430 7431 7432 7433 7434 7435 7436 7437 7438 7439 7440 7441 7442 7443 7444 7445 7446 7447 7448 7449 7450 7451 7452 7453 7454 7455 7456 7457 7458 7459 7460 7461 7462 7463 7464 7465 7466 7467 7468 7469 7470 7471 7472 7473 7474 7475 7476 7477 7478 7479 7480 7481 7482 7483 7484 7485 7486 7487 7488 7489 7490 7491 7492 7493 7494 7495 7496 7497 7498 7499 7500 7501 7502 7503 7504 7505 7506 7507 7508 7509 7510 7511 7512 7513 7514 7515 7516 7517 7518 7519 7520 7521 7522 7523 7524 7525 7526 7527 7528 7529 7530 7531 7532 7533 7534 7535 7536 7537 7538 7539 7540 7541 7542 7543 7544 7545 7546 7547 7548 7549 7550 7551 7552 7553 7554 7555 7556 7557 7558 7559 7560 7561 7562 7563 7564 7565 7566 7567 7568 7569 7570 7571 7572 7573 7574 7575 7576 7577 7578 7579 7580 7581 7582 7583 7584 7585 7586 7587 7588 7589 7590 7591 7592 7593 7594 7595 7596 7597 7598 7599 7600 7601 7602 7603 7604 7605 7606 7607 7608 7609 7610 7611 7612 7613 7614 7615 7616 7617 7618 7619 7620 7621 7622 7623 7624 7625 7626 7627 7628 7629 7630 7631 7632 7633 7634 7635 7636 7637 7638 7639 7640 7641 7642 7643 7644 7645 7646 7647 7648 7649 7650 7651 7652 7653 7654 7655 7656 7657 7658 7659 7660 7661 7662 7663 7664 7665 7666 7667 7668 7669 7670 7671 7672 7673 7674 7675 7676 7677 7678 7679 7680 7681 7682 7683 7684 7685 7686 7687 7688 7689 7690 7691 7692 7693 7694 7695 7696 7697 7698 7699 7700 7701 7702 7703 7704 7705 7706 7707 7708 7709 7710 7711 7712 7713 7714 7715 7716 7717 7718 7719 7720 7721 7722 7723 7724 7725 7726 7727 7728 7729 7730 7731 7732 7733 7734 7735 7736 7737 7738 7739 7740 7741 7742 7743 7744 7745 7746 7747 7748 7749 7750 7751 7752 7753 7754 7755 7756 7757 7758 7759 7760 7761 7762 7763 7764 7765 7766 7767 7768 7769 7770 7771 7772 7773 7774 7775 7776 7777 7778 7779 7780 7781 7782 7783 7784 7785 7786 7787 7788 7789 7790 7791 7792 7793 7794 7795 7796 7797 7798 7799 7800 7801 7802 7803 7804 7805 7806 7807 7808 7809 7810 7811 7812 7813 7814 7815 7816 7817 7818 7819 7820 7821 7822 7823 7824 7825 7826 7827 7828 7829 7830 7831 7832 7833 7834 7835 7836 7837 7838 7839 7840 7841 7842 7843 7844 7845 7846 7847 7848 7849 7850 7851 7852 7853 7854 7855 7856 7857 7858 7859 7860 7861 7862 7863 7864 7865 7866 7867 7868 7869 7870 7871 7872 7873 7874 7875 7876 7877 7878 7879 7880 7881 7882 7883 7884 7885 7886 7887 7888 7889 7890 7891 7892 7893 7894 7895 7896 7897 7898 7899 7900 7901 7902 7903 7904 7905 7906 7907 7908 7909 7910 7911 7912 7913 7914 7915 7916 7917 7918 7919 7920 7921 7922 7923 7924 7925 7926 7927 7928 7929 7930 7931 7932 7933 7934 7935 7936 7937 7938 7939 7940 7941 7942 7943 7944 7945 7946 7947 7948 7949 7950 7951 7952 7953 7954 7955 7956 7957 7958 7959 7960 7961 7962 7963 7964 7965 7966 7967 7968 7969 7970 7971 7972 7973 7974 7975 7976 7977 7978 7979 7980 7981 7982 7983 7984 7985 7986 7987 7988 7989 7990 7991 7992 7993 7994 7995 7996 7997 7998 7999 8000 8001 8002 8003 8004 8005 8006 8007 8008 8009 8010 8011 8012 8013 8014 8015 8016 8017 8018 8019 8020 8021 8022 8023 8024 8025 8026 8027 8028 8029 8030 8031 8032 8033 8034 8035 8036 8037 8038 8039 8040 8041 8042 8043 8044 8045 8046 8047 8048 8049 8050 8051 8052 8053 8054 8055 8056 8057 8058 8059 8060 8061 8062 8063 8064 8065 8066 8067 8068 8069 8070 8071 8072 8073 8074 8075 8076 8077 8078 8079 8080 8081 8082 8083 8084 8085 8086 8087 8088 8089 8090 8091 8092 8093 8094 8095 8096 8097 8098 8099 8100 8101 8102 8103 8104 8105 8106 8107 8108 8109 8110 8111 8112 8113 8114 8115 8116 8117 8118 8119 8120 8121 8122 8123 8124 8125 8126 8127 8128 8129 8130 8131 8132 8133 8134 8135 8136 8137 8138 8139 8140 8141 8142 8143 8144 8145 8146 8147 8148 8149 8150 8151 8152 8153 8154 8155 8156 8157 8158 8159 8160 8161 8162 8163 8164 8165 8166 8167 8168 8169 8170 8171 8172 8173 8174 8175 8176 8177 8178 8179 8180 8181 8182 8183 8184 8185 8186 8187 8188 8189 8190 8191 8192 8193 8194 8195 8196 8197 8198 8199 8200 8201 8202 8203 8204 8205 8206 8207 8208 8209 8210 8211 8212 8213 8214 8215 8216 8217 8218 8219 8220 8221 8222 8223 8224 8225 8226 8227 8228 8229 8230 8231 8232 8233 8234 8235 8236 8237 8238 8239 8240 8241 8242 8243 8244 8245 8246 8247 8248 8249 8250 8251 8252 8253 8254 8255 8256 8257 8258 8259 8260 8261 8262 8263 8264 8265 8266 8267 8268 8269 8270 8271 8272 8273 8274 8275 8276 8277 8278 8279 8280 8281 8282 8283 8284 8285 8286 8287 8288 8289 8290 8291 8292 8293 8294 8295 8296 8297 8298 8299 8300 8301 8302 8303 8304 8305 8306 8307 8308 8309 8310 8311 8312 8313 8314 8315 8316 8317 8318 8319 8320 8321 8322 8323 8324 8325 8326 8327 8328 8329 8330 8331 8332 8333 8334 8335 8336 8337 8338 8339 8340 8341 8342 8343 8344 8345 8346 8347 8348 8349 8350 8351 8352 8353 8354 8355 8356 8357 8358 8359 8360 8361 8362 8363 8364 8365 8366 8367 8368 8369 8370 8371 8372 8373 8374 8375 8376 8377 8378 8379 8380 8381 8382 8383 8384 8385 8386 8387 8388 8389 8390 8391 8392 8393 8394 8395 8396 8397 8398 8399 8400 8401 8402 8403 8404 8405 8406 8407 8408 8409 8410 8411 8412 8413 8414 8415 8416 8417 8418 8419 8420 8421 8422 8423 8424 8425 8426 8427 8428 8429 8430 8431 8432 8433 8434 8435 8436 8437 8438 8439 8440 8441 8442 8443 8444 8445 8446 8447 8448 8449 8450 8451 8452 8453 8454 8455 8456 8457 8458 8459 8460 8461 8462 8463 8464 8465 8466 8467 8468 8469 8470 8471 8472 8473 8474 8475 8476 8477 8478 8479 8480 8481 8482 8483 8484 8485 8486 8487 8488 8489 8490 8491 8492 8493 8494 8495 8496 8497 8498 8499 8500 8501 8502 8503 8504 8505 8506 8507 8508 8509 8510 8511 8512 8513 8514 8515 8516 8517 8518 8519 8520 8521 8522 8523 8524 8525 8526 8527 8528 8529 8530 8531 8532 8533 8534 8535 8536 8537 8538 8539 8540 8541 8542 8543 8544 8545 8546 8547 8548 8549 8550 8551 8552 8553 8554 8555 8556 8557 8558 8559 8560 8561 8562 8563 8564 8565 8566 8567 8568 8569 8570 8571 8572 8573 8574 8575 8576 8577 8578 8579 8580 8581 8582 8583 8584 8585 8586 8587 8588 8589 8590 8591 8592 8593 8594 8595 8596 8597 8598 8599 8600 8601 8602 8603 8604 8605 8606 8607 8608 8609 8610 8611 8612 8613 8614 8615 8616 8617 8618 8619 8620 8621 8622 8623 8624 8625 8626 8627 8628 8629 8630 8631 8632 8633 8634 8635 8636 8637 8638 8639 8640 8641 8642 8643 8644 8645 8646 8647 8648 8649 8650 8651 8652 8653 8654 8655 8656 8657 8658 8659 8660 8661 8662 8663 8664 8665 8666 8667 8668 8669 8670 8671 8672 8673 8674 8675 8676 8677 8678 8679 8680 8681 8682 8683 8684 8685 8686 8687 8688 8689 8690 8691 8692 8693 8694 8695 8696 8697 8698 8699 8700 8701 8702 8703 8704 8705 8706 8707 8708 8709 8710 8711 8712 8713 8714 8715 8716 8717 8718 8719 8720 8721 8722 8723 8724 8725 8726 8727 8728 8729 8730 8731 8732 8733 8734 8735 8736 8737 8738 8739 8740 8741 8742 8743 8744 8745 8746 8747 8748 8749 8750 8751 8752 8753 8754 8755 8756 8757 8758 8759 8760 8761 8762 8763 8764 8765 8766 8767 8768 8769 8770 8771 8772 8773 8774 8775 8776 8777 8778 8779 8780 8781 8782 8783 8784 8785 8786 8787 8788 8789 8790 8791 8792 8793 8794 8795 8796 8797 8798 8799 8800 8801 8802 8803 8804 8805 8806 8807 8808 8809 8810 8811 8812 8813 8814 8815 8816 8817 8818 8819 8820 8821 8822 8823 8824 8825 8826 8827 8828 8829 8830 8831 8832 8833 8834 8835 8836 8837 8838 8839 8840 8841 8842 8843 8844 8845 8846 8847 8848 8849 8850 8851 8852 8853 8854 8855 8856 8857 8858 8859 8860 8861 8862 8863 8864 8865 8866 8867 8868 8869 8870 8871 8872 8873 8874 8875 8876 8877 8878 8879 8880 8881 8882 8883 8884 8885 8886 8887 8888 8889 8890 8891 8892 8893 8894 8895 8896 8897 8898 8899 8900 8901 8902 8903 8904 8905 8906 8907 8908 8909 8910 8911 8912 8913 8914 8915 8916 8917 8918 8919 8920 8921 8922 8923 8924 8925 8926 8927 8928 8929 8930 8931 8932 8933 8934 8935 8936 8937 8938 8939 8940 8941 8942 8943 8944 8945 8946 8947 8948 8949 8950 8951 8952 8953 8954 8955 8956 8957 8958 8959 8960 8961 8962 8963 8964 8965 8966 8967 8968 8969 8970 8971 8972 8973 8974 8975 8976 8977 8978 8979 8980 8981 8982 8983 8984 8985 8986 8987 8988 8989 8990 8991 8992 8993 8994 8995 8996 8997 8998 8999 9000 9001 9002 9003 9004 9005 9006 9007 9008 9009 9010 9011 9012 9013 9014 9015 9016 9017 9018 9019 9020 9021 9022 9023 9024 9025 9026 9027 9028 9029 9030 9031 9032 9033 9034 9035 9036 9037 9038 9039 9040 9041 9042 9043 9044 9045 9046 9047 9048 9049 9050 9051 9052 9053 9054 9055 9056 9057 9058 9059 9060 9061 9062 9063 9064 9065 9066 9067 9068 9069 9070 9071 9072 9073 9074 9075 9076 9077 9078 9079 9080 9081 9082 9083 9084 9085 9086 9087 9088 9089 9090 9091 9092 9093 9094 9095 9096 9097 9098 9099 9100 9101 9102 9103 9104 9105 9106 9107 9108 9109 9110 9111 9112 9113 9114 9115 9116 9117 9118 9119 9120 9121 9122 9123 9124 9125 9126 9127 9128 9129 9130 9131 9132 9133 9134 9135 9136 9137 9138 9139 9140 9141 9142 9143 9144 9145 9146 9147 9148 9149 9150 9151 9152 9153 9154 9155 9156 9157 9158 9159 9160 9161 9162 9163 9164 9165 9166 9167 9168 9169 9170 9171 9172 9173 9174 9175 9176 9177 9178 9179 9180 9181 9182 9183 9184 9185 9186 9187 9188 9189 9190 9191 9192 9193 9194 9195 9196 9197 9198 9199 9200 9201 9202 9203 9204 9205 9206 9207 9208 9209 9210 9211 9212 9213 9214 9215 9216 9217 9218 9219 9220 9221 9222 9223 9224 9225 9226 9227 9228 9229 9230 9231 9232 9233 9234 9235 9236 9237 9238 9239 9240 9241 9242 9243 9244 9245 9246 9247 9248 9249 9250 9251 9252 9253 9254 9255 9256 9257 9258 9259 9260 9261 9262 9263 9264 9265 9266 9267 9268 9269 9270 9271 9272 9273 9274 9275 9276 9277 9278 9279 9280 9281 9282 9283 9284 9285 9286 9287 9288 9289 9290 9291 9292 9293 9294 9295 9296 9297 9298 9299 9300 9301 9302 9303 9304 9305 9306 9307 9308 9309 9310 9311 9312 9313 9314 9315 9316 9317 9318 9319 9320 9321 9322 9323 9324 9325 9326 9327 9328 9329 9330 9331 9332 9333 9334 9335 9336 9337 9338 9339 9340 9341 9342 9343 9344 9345 9346 9347 9348 9349 9350 9351 9352 9353 9354 9355 9356 9357 9358 9359 9360 9361 9362 9363 9364 9365 9366 9367 9368 9369 9370 9371 9372 9373 9374 9375 9376 9377 9378 9379 9380 9381 9382 9383 9384 9385 9386 9387 9388 9389 9390 9391 9392 9393 9394 9395 9396 9397 9398 9399 9400 9401 9402 9403 9404 9405 9406 9407 9408 9409 9410 9411 9412 9413 9414 9415 9416 9417 9418 9419 9420 9421 9422 9423 9424 9425 9426 9427 9428 9429 9430 9431 9432 9433 9434 9435 9436 9437 9438 9439 9440 9441 9442 9443 9444 9445 9446 9447 9448 9449 9450 9451 9452 9453 9454 9455 9456 9457 9458 9459 9460 9461 9462 9463 9464 9465 9466 9467 9468 9469 9470 9471 9472 9473 9474 9475 9476 9477 9478 9479 9480 9481 9482 9483 9484 9485 9486 9487 9488 9489 9490 9491 9492 9493 9494 9495 9496 9497 9498 9499 9500 9501 9502 9503 9504 9505 9506 9507 9508 9509 9510 9511 9512 9513 9514 9515 9516 9517 9518 9519 9520 9521 9522 9523 9524 9525 9526 9527 9528 9529 9530 9531 9532 9533 9534 9535 9536 9537 9538 9539 9540 9541 9542 9543 9544 9545 9546 9547 9548 9549 9550 9551 9552 9553 9554 9555 9556 9557 9558 9559 9560 9561 9562 9563 9564 9565 9566 9567 9568 9569 9570 9571 9572 9573 9574 9575 9576 9577 9578 9579 9580 9581 9582 9583 9584 9585 9586 9587 9588 9589 9590 9591 9592 9593 9594 9595 9596 9597 9598 9599 9600 9601 9602 9603 9604 9605 9606 9607 9608 9609 9610 9611 9612 9613 9614 9615 9616 9617 9618 9619 9620 9621 9622 9623 9624 9625 9626 9627 9628 9629 9630 9631 9632 9633 9634 9635 9636 9637 9638 9639 9640 9641 9642 9643 9644 9645 9646 9647 9648 9649 9650 9651 9652 9653 9654 9655 9656 9657 9658 9659 9660 9661 9662 9663 9664 9665 9666 9667 9668 9669 9670 9671 9672 9673 9674 9675 9676 9677 9678 9679 9680 9681 9682 9683 9684 9685 9686 9687 9688 9689 9690 9691 9692 9693 9694 9695 9696 9697 9698 9699 9700 9701 9702 9703 9704 9705 9706 9707 9708 9709 9710 9711 9712 9713 9714 9715 9716 9717 9718 9719 9720 9721 9722 9723 9724 9725 9726 9727 9728 9729 9730 9731 9732 9733 9734 9735 9736 9737 9738 9739 9740 9741 9742 9743 9744 9745 9746 9747 9748 9749 9750 9751 9752 9753 9754 9755 9756 9757 9758 9759 9760 9761 9762 9763 9764 9765 9766 9767 9768 9769 9770 9771 9772 9773 9774 9775 9776 9777 9778 9779 9780 9781 9782 9783 9784 9785 9786 9787 9788 9789 9790 9791 9792 9793 9794 9795 9796 9797 9798 9799 9800 9801 9802 9803 9804 9805 9806 9807 9808 9809 9810 9811 9812 9813 9814 9815 9816 9817 9818 9819 9820 9821 9822 9823 9824 9825 9826 9827 9828 9829 9830 9831 9832 9833 9834 9835 9836 9837 9838 9839 9840 9841 9842 9843 9844 9845 9846 9847 9848 9849 9850 9851 9852 9853 9854 9855 9856 9857 9858 9859 9860 9861 9862 9863 9864 9865 9866 9867 9868 9869 9870 9871 9872 9873 9874 9875 9876 9877 9878 9879 9880 9881 9882 9883 9884 9885 9886 9887 9888 9889 9890 9891 9892 9893 9894 9895 9896 9897 9898 9899 9900 9901 9902 9903 9904 9905 9906 9907 9908 9909 9910 9911 9912 9913 9914 9915 9916 9917 9918 9919 9920 9921 9922 9923 9924 9925 9926 9927 9928 9929 9930 9931 9932 9933 9934 9935 9936 9937 9938 9939 9940 9941 9942 9943 9944 9945 9946 9947 9948 9949 9950 9951 9952 9953 9954 9955 9956 9957 9958 9959 9960 9961 9962 9963 9964 9965 9966 9967 9968 9969 9970 9971 9972 9973 9974 9975 9976 9977 9978 9979 9980 9981 9982 9983 9984 9985 9986 9987 9988 9989 9990 9991 9992 9993 9994 9995 9996 9997 9998 9999 10000 10001 10002 10003 10004 10005 10006 10007 10008 10009 10010 10011 10012 10013 10014 10015 10016 10017 10018 10019 10020 10021 10022 10023 10024 10025 10026 10027 10028 10029 10030 10031 10032 10033 10034 10035 10036 10037 10038 10039 10040 10041 10042 10043 10044 10045 10046 10047 10048 10049 10050 10051 10052 10053 10054 10055 10056 10057 10058 10059 10060 10061 10062 10063 10064 10065 10066 10067 10068 10069 10070 10071 10072 10073 10074 10075 10076 10077 10078 10079 10080 10081 10082 10083 10084 10085 10086 10087 10088 10089 10090 10091 10092 10093 10094 10095 10096 10097 10098 10099 10100 10101 10102 10103 10104 10105 10106 10107 10108 10109 10110 10111 10112 10113 10114 10115 10116 10117 10118 10119 10120 10121 10122 10123 10124 10125 10126 10127 10128 10129 10130 10131 10132 10133 10134 10135 10136 10137 10138 10139 10140 10141 10142 10143 10144 10145 10146 10147 10148 10149 10150 10151 10152 10153 10154 10155 10156 10157 10158 10159 10160 10161 10162 10163 10164 10165 10166 10167 10168 10169 10170 10171 10172 10173 10174 10175 10176 10177 10178 10179 10180 10181 10182 10183 10184 10185 10186 10187 10188 10189 10190 10191 10192 10193 10194 10195 10196 10197 10198 10199 10200 10201 10202 10203 10204 10205 10206 10207 10208 10209 10210 10211 10212 10213 10214 10215 10216 10217 10218 10219 10220 10221 10222 10223 10224 10225 10226 10227 10228 10229 10230 10231 10232 10233 10234 10235 10236 10237 10238 10239 10240 10241 10242 10243 10244 10245 10246 10247 10248 10249 10250 10251 10252 10253 10254 10255 10256 10257 10258 10259 10260 10261 10262 10263 10264 10265 10266 10267 10268 10269 10270 10271 10272 10273 10274 10275 10276 10277 10278 10279 10280 10281 10282 10283 10284 10285 10286 10287 10288 10289 10290 10291 10292 10293 10294 10295 10296 10297 10298 10299 10300 10301 10302 10303 10304 10305 10306 10307 10308 10309 10310 10311 10312 10313 10314 10315 10316 10317 10318 10319 10320 10321 10322 10323 10324 10325 10326 10327 10328 10329 10330 10331 10332 10333 10334 10335 10336 10337 10338 10339 10340 10341 10342 10343 10344 10345 10346 10347 10348 10349 10350 10351 10352 10353 10354 10355 10356 10357 10358 10359 10360 10361 10362 10363 10364 10365 10366 10367 10368 10369 10370 10371 10372 10373 10374 10375 10376 10377 10378 10379 10380 10381 10382 10383 10384 10385 10386 10387 10388 10389 10390 10391 10392 10393 10394 10395 10396 10397 10398 10399 10400 10401 10402 10403 10404 10405 10406 10407 10408 10409 10410 10411 10412 10413 10414 10415 10416 10417 10418 10419 10420 10421 10422 10423 10424 10425 10426 10427 10428 10429 10430 10431 10432 10433 10434 10435 10436 10437 10438 10439 10440 10441 10442 10443 10444 10445 10446 10447 10448 10449 10450 10451 10452 10453 10454 10455 10456 10457 10458 10459 10460 10461 10462 10463 10464 10465 10466 10467 10468 10469 10470 10471 10472 10473 10474 10475 10476 10477 10478 10479 10480 10481 10482 10483 10484 10485 10486 10487 10488 10489 10490 10491 10492 10493 10494 10495 10496 10497 10498 10499 10500 10501 10502 10503 10504 10505 10506 10507 10508 10509 10510 10511 10512 10513 10514 10515 10516 10517 10518 10519 10520 10521 10522 10523 10524 10525 10526 10527 10528 10529 10530 10531 10532 10533 10534 10535 10536 10537 10538 10539 10540 10541 10542 10543 10544 10545 10546 10547 10548 10549 10550 10551 10552 10553 10554 10555 10556 10557 10558 10559 10560 10561 10562 10563 10564 10565 10566 10567 10568 10569 10570 10571 10572 10573 10574 10575 10576 10577 10578 10579 10580 10581 10582 10583 10584 10585 10586 10587 10588 10589 10590 10591 10592 10593 10594 10595 10596 10597 10598 10599 10600 10601 10602 10603 10604 10605 10606 10607 10608 10609 10610 10611 10612 10613 10614 10615 10616 10617 10618 10619 10620 10621 10622 10623 10624 10625 10626 10627 10628 10629 10630 10631 10632 10633 10634 10635 10636 10637 10638 10639 10640 10641 10642 10643 10644 10645 10646 10647 10648 10649 10650 10651 10652 10653 10654 10655 10656 10657 10658 10659 10660 10661 10662 10663 10664 10665 10666 10667 10668 10669 10670 10671 10672 10673 10674 10675 10676 10677 10678 10679 10680 10681 10682 10683 10684 10685 10686 10687 10688 10689 10690 10691 10692 10693 10694 10695 10696 10697 10698 10699 10700 10701 10702 10703 10704 10705 10706 10707 10708 10709 10710 10711 10712 10713 10714 10715 10716 10717 10718 10719 10720 10721 10722 10723 10724 10725 10726 10727 10728 10729 10730 10731 10732 10733 10734 10735 10736 10737 10738 10739 10740 10741 10742 10743 10744 10745 10746 10747 10748 10749 10750 10751 10752 10753 10754 10755 10756 10757 10758 10759 10760 10761 10762 10763 10764 10765 10766 10767 10768 10769 10770 10771 10772 10773 10774 10775 10776 10777 10778 10779 10780 10781 10782 10783 10784 10785 10786 10787 10788 10789 10790 10791 10792 10793 10794 10795 10796 10797 10798 10799 10800 10801 10802 10803 10804 10805 10806 10807 10808 10809 10810 10811 10812 10813 10814 10815 10816 10817 10818 10819 10820 10821 10822 10823 10824 10825 10826 10827 10828 10829 10830 10831 10832 10833 10834 10835 10836 10837 10838 10839 10840 10841 10842 10843 10844 10845 10846 10847 10848 10849 10850 10851 10852 10853 10854 10855 10856 10857 10858 10859 10860 10861 10862 10863 10864 10865 10866 10867 10868 10869 10870 10871 10872 10873 10874 10875 10876 10877 10878 10879 10880 10881 10882 10883 10884 10885 10886 10887 10888 10889 10890 10891 10892 10893 10894 10895 10896 10897 10898 10899 10900 10901 10902 10903 10904 10905 10906 10907 10908 10909 10910 10911 10912 10913 10914 10915 10916 10917 10918 10919 10920 10921 10922 10923 10924 10925 10926 10927 10928 10929 10930 10931 10932 10933 10934 10935 10936 10937 10938 10939 10940 10941 10942 10943 10944 10945 10946 10947 10948 10949 10950 10951 10952 10953 10954 10955 10956 10957 10958 10959 10960 10961 10962 10963 10964 10965 10966 10967 10968 10969 10970 10971 10972 10973 10974 10975 10976 10977 10978 10979 10980 10981 10982 10983 10984 10985 10986 10987 10988 10989 10990 10991 10992 10993 10994 10995 10996 10997 10998 10999 11000 11001 11002 11003 11004 11005 11006 11007 11008 11009 11010 11011 11012 11013 11014 11015 11016 11017 11018 11019 11020 11021 11022 11023 11024 11025 11026 11027 11028 11029 11030 11031 11032 11033 11034 11035 11036 11037 11038 11039 11040 11041 11042 11043 11044 11045 11046 11047 11048 11049 11050 11051 11052 11053 11054 11055 11056 11057 11058 11059 11060 11061 11062 11063 11064 11065 11066 11067 11068 11069 11070 11071 11072 11073 11074 11075 11076 11077 11078 11079 11080 11081 11082 11083 11084 11085 11086 11087 11088 11089 11090 11091 11092 11093 11094 11095 11096 11097 11098 11099 11100 11101 11102 11103 11104 11105 11106 11107 11108 11109 11110 11111 11112 11113 11114 11115 11116 11117 11118 11119 11120 11121 11122 11123 11124 11125 11126 11127 11128 11129 11130 11131 11132 11133 11134 11135 11136 11137 11138 11139 11140 11141 11142 11143 11144 11145 11146 11147 11148 11149 11150 11151 11152 11153 11154 11155 11156 11157 11158 11159 11160 11161 11162 11163 11164 11165 11166 11167 11168 11169 11170 11171 11172 11173 11174 11175 11176 11177 11178 11179 11180 11181 11182 11183 11184 11185 11186 11187 11188 11189 11190 11191 11192 11193 11194 11195 11196 11197 11198 11199 11200 11201 11202 11203 11204 11205 11206 11207 11208 11209 11210 11211 11212 11213 11214 11215 11216 11217 11218 11219 11220 11221 11222 11223 11224 11225 11226 11227 11228 11229 11230 11231 11232 11233 11234 11235 11236 11237 11238 11239 11240 11241 11242 11243 11244 11245 11246 11247 11248 11249 11250 11251 11252 11253 11254 11255 11256 11257 11258 11259 11260 11261 11262 11263 11264 11265 11266 11267 11268 11269 11270 11271 11272 11273 11274 11275 11276 11277 11278 11279 11280 11281 11282 11283 11284 11285 11286 11287 11288 11289 11290 11291 11292 11293 11294 11295 11296 11297 11298 11299 11300 11301 11302 11303 11304 11305 11306 11307 11308 11309 11310 11311 11312 11313 11314 11315 11316 11317 11318 11319 11320 11321 11322 11323 11324 11325 11326 11327 11328 11329 11330 11331 11332 11333 11334 11335 11336 11337 11338 11339 11340 11341 11342 11343 11344 11345 11346 11347 11348 11349 11350 11351 11352 11353 11354 11355 11356 11357 11358 11359 11360 11361 11362 11363 11364 11365 11366 11367 11368 11369 11370 11371 11372 11373 11374 11375 11376 11377 11378 11379 11380 11381 11382 11383 11384 11385 11386 11387 11388 11389 11390 11391 11392 11393 11394 11395 11396 11397 11398 11399 11400 11401 11402 11403 11404 11405 11406 11407 11408 11409 11410 11411 11412 11413 11414 11415 11416 11417 11418 11419 11420 11421 11422 11423 11424 11425 11426 11427 11428 11429 11430 11431 11432 11433 11434 11435 11436 11437 11438 11439 11440 11441 11442 11443 11444 11445 11446 11447 11448 11449 11450 11451 11452 11453 11454 11455 11456 11457 11458 11459 11460 11461 11462 11463 11464 11465 11466 11467 11468 11469 11470 11471 11472 11473 11474 11475 11476 11477 11478 11479 11480 11481 11482 11483 11484 11485 11486 11487 11488 11489 11490 11491 11492 11493 11494 11495 11496 11497 11498 11499 11500 11501 11502 11503 11504 11505 11506 11507 11508 11509 11510 11511 11512 11513 11514 11515 11516 11517 11518 11519 11520 11521 11522 11523 11524 11525 11526 11527 11528 11529 11530 11531 11532 11533 11534 11535 11536 11537 11538 11539 11540 11541 11542 11543 11544 11545 11546 11547 11548 11549 11550 11551 11552 11553 11554 11555 11556 11557 11558 11559 11560 11561 11562 11563 11564 11565 11566 11567 11568 11569 11570 11571 11572 11573 11574 11575 11576 11577 11578 11579 11580 11581 11582 11583 11584 11585 11586 11587 11588 11589 11590 11591 11592 11593 11594 11595 11596 11597 11598 11599 11600 11601 11602 11603 11604 11605 11606 11607 11608 11609 11610 11611 11612 11613 11614 11615 11616 11617 11618 11619 11620 11621 11622 11623 11624 11625 11626 11627 11628 11629 11630 11631 11632 11633 11634 11635 11636 11637 11638 11639 11640 11641 11642 11643 11644 11645 11646 11647 11648 11649 11650 11651 11652 11653 11654 11655 11656 11657 11658 11659 11660 11661 11662 11663 11664 11665 11666 11667 11668 11669 11670 11671 11672 11673 11674 11675 11676 11677 11678 11679 11680 11681 11682 11683 11684 11685 11686 11687 11688 11689 11690 11691 11692 11693 11694 11695 11696 11697 11698 11699 11700 11701 11702 11703 11704 11705 11706 11707 11708 11709 11710 11711 11712 11713 11714 11715 11716 11717 11718 11719 11720 11721 11722 11723 11724 11725 11726 11727 11728 11729 11730 11731 11732 11733 11734 11735 11736 11737 11738 11739 11740 11741 11742 11743 11744 11745 11746 11747 11748 11749 11750 11751 11752 11753 11754 11755 11756 11757 11758 11759 11760 11761 11762 11763 11764 11765 11766 11767 11768 11769 11770 11771 11772 11773 11774 11775 11776 11777 11778 11779 11780 11781 11782 11783 11784 11785 11786 11787 11788 11789 11790 11791 11792 11793 11794 11795 11796 11797 11798 11799 11800 11801 11802 11803 11804 11805 11806 11807 11808 11809 11810 11811 11812 11813 11814 11815 11816 11817 11818 11819 11820 11821 11822 11823 11824 11825 11826 11827 11828 11829 11830 11831 11832 11833 11834 11835 11836 11837 11838 11839 11840 11841 11842 11843 11844 11845 11846 11847 11848 11849 11850 11851 11852 11853 11854 11855 11856 11857 11858 11859 11860 11861 11862 11863 11864 11865 11866 11867 11868 11869 11870 11871 11872 11873 11874 11875 11876 11877 11878 11879 11880 11881 11882 11883 11884 11885 11886 11887 11888 11889 11890 11891 11892 11893 11894 11895 11896 11897 11898 11899 11900 11901 11902 11903 11904 11905 11906 11907 11908 11909 11910 11911 11912 11913 11914 11915 11916 11917 11918 11919 11920 11921 11922 11923 11924 11925 11926 11927 11928 11929 11930 11931 11932 11933 11934 11935 11936 11937 11938 11939 11940 11941 11942 11943 11944 11945 11946 11947 11948 11949 11950 11951 11952 11953 11954 11955 11956 11957 11958 11959 11960 11961 11962 11963 11964 11965 11966 11967 11968 11969 11970 11971 11972 11973 11974 11975 11976 11977 11978 11979 11980 11981 11982 11983 11984 11985 11986 11987 11988 11989 11990 11991 11992 11993 11994 11995 11996 11997 11998 11999 12000 12001 12002 12003 12004 12005 12006 12007 12008 12009 12010 12011 12012 12013 12014 12015 12016 12017 12018 12019 12020 12021 12022 12023 12024 12025 12026 12027 12028 12029 12030 12031 12032 12033 12034 12035 12036 12037 12038 12039 12040 12041 12042 12043 12044 12045 12046 12047 12048 12049 12050 12051 12052 12053 12054 12055 12056 12057 12058 12059 12060 12061 12062 12063 12064 12065 12066 12067 12068 12069 12070 12071 12072 12073 12074 12075 12076 12077 12078 12079 12080 12081 12082 12083 12084 12085 12086 12087 12088 12089 12090 12091 12092 12093 12094 12095 12096 12097 12098 12099 12100 12101 12102 12103 12104 12105 12106 12107 12108 12109 12110 12111 12112 12113 12114 12115 12116 12117 12118 12119 12120 12121 12122 12123 12124 12125 12126 12127 12128 12129 12130 12131 12132 12133 12134 12135 12136 12137 12138 12139 12140 12141 12142 12143 12144 12145 12146 12147 12148 12149 12150 12151 12152 12153 12154 12155 12156 12157 12158 12159 12160 12161 12162 12163 12164 12165 12166 12167 12168 12169 12170 12171 12172 12173 12174 12175 12176 12177 12178 12179 12180 12181 12182 12183 12184 12185 12186 12187 12188 12189 12190 12191 12192 12193 12194 12195 12196 12197 12198 12199 12200 12201 12202 12203 12204 12205 12206 12207 12208 12209 12210 12211 12212 12213 12214 12215 12216 12217 12218 12219 12220 12221 12222 12223 12224 12225 12226 12227 12228 12229 12230 12231 12232 12233 12234 12235 12236 12237 12238 12239 12240 12241 12242 12243 12244 12245 12246 12247 12248 12249 12250 12251 12252 12253 12254 12255 12256 12257 12258 12259 12260 12261 12262 12263 12264 12265 12266 12267 12268 12269 12270 12271 12272 12273 12274 12275 12276 12277 12278 12279 12280 12281 12282 12283 12284 12285 12286 12287 12288 12289 12290 12291 12292 12293 12294 12295 12296 12297 12298 12299 12300 12301 12302 12303 12304 12305 12306 12307 12308 12309 12310 12311 12312 12313 12314 12315 12316 12317 12318 12319 12320 12321 12322 12323 12324 12325 12326 12327 12328 12329 12330 12331 12332 12333 12334 12335 12336 12337 12338 12339 12340 12341 12342 12343 12344 12345 12346 12347 12348 12349 12350 12351 12352 12353 12354 12355 12356 12357 12358 12359 12360 12361 12362 12363 12364 12365 12366 12367 12368 12369 12370 12371 12372 12373 12374 12375 12376 12377 12378 12379 12380 12381 12382 12383 12384 12385 12386 12387 12388 12389 12390 12391 12392 12393 12394 12395 12396 12397 12398 12399 12400 12401 12402 12403 12404 12405 12406 12407 12408 12409 12410 12411 12412 12413 12414 12415 12416 12417 12418 12419 12420 12421 12422 12423 12424 12425 12426 12427 12428 12429 12430 12431 12432 12433 12434 12435 12436 12437 12438 12439 12440 12441 12442 12443 12444 12445 12446 12447 12448 12449 12450 12451 12452 12453 12454 12455 12456 12457 12458 12459 12460 12461 12462 12463 12464 12465 12466 12467 12468 12469 12470 12471 12472 12473 12474 12475 12476 12477 12478 12479 12480 12481 12482 12483 12484 12485 12486 12487 12488 12489 12490 12491 12492 12493 12494 12495 12496 12497 12498 12499 12500 12501 12502 12503 12504 12505 12506 12507 12508 12509 12510 12511 12512 12513 12514 12515 12516 12517 12518 12519 12520 12521 12522 12523 12524 12525 12526 12527 12528 12529 12530 12531 12532 12533 12534 12535 12536 12537 12538 12539 12540 12541 12542 12543 12544 12545 12546 12547 12548 12549 12550 12551 12552 12553 12554 12555 12556 12557 12558 12559 12560 12561 12562 12563 12564 12565 12566 12567 12568 12569 12570 12571 12572 12573 12574 12575 12576 12577 12578 12579 12580 12581 12582 12583 12584 12585 12586 12587 12588 12589 12590 12591 12592 12593 12594 12595 12596 12597 12598 12599 12600 12601 12602 12603 12604 12605 12606 12607 12608 12609 12610 12611 12612 12613 12614 12615 12616 12617 12618 12619 12620 12621 12622 12623 12624 12625 12626 12627 12628 12629 12630 12631 12632 12633 12634 12635 12636 12637 12638 12639 12640 12641 12642 12643 12644 12645 12646 12647 12648 12649 12650 12651 12652 12653 12654 12655 12656 12657 12658 12659 12660 12661 12662 12663 12664 12665 12666 12667 12668 12669 12670 12671 12672 12673 12674 12675 12676 12677 12678 12679 12680 12681 12682 12683 12684 12685 12686 12687 12688 12689 12690 12691 12692 12693 12694 12695 12696 12697 12698 12699 12700 12701 12702 12703 12704 12705 12706 12707 12708 12709 12710 12711 12712 12713 12714 12715 12716 12717 12718 12719 12720 12721 12722 12723 12724 12725 12726 12727 12728 12729 12730 12731 12732 12733 12734 12735 12736 12737 12738 12739 12740 12741 12742 12743 12744 12745 12746 12747 12748 12749 12750 12751 12752 12753 12754 12755 12756 12757 12758 12759 12760 12761 12762 12763 12764 12765 12766 12767 12768 12769 12770 12771 12772 12773 12774 12775 12776 12777 12778 12779 12780 12781 12782 12783 12784 12785 12786 12787 12788 12789 12790 12791 12792 12793 12794 12795 12796 12797 12798 12799 12800 12801 12802 12803 12804 12805 12806 12807 12808 12809 12810 12811 12812 12813 12814 12815 12816 12817 12818 12819 12820 12821 12822 12823 12824 12825 12826 12827 12828 12829 12830 12831 12832 12833 12834 12835 12836 12837 12838 12839 12840 12841 12842 12843 12844 12845 12846 12847 12848 12849 12850 12851 12852 12853 12854 12855 12856 12857 12858 12859 12860 12861 12862 12863 12864 12865 12866 12867 12868 12869 12870 12871 12872 12873 12874 12875 12876 12877 12878 12879 12880 12881 12882 12883 12884 12885 12886 12887 12888 12889 12890 12891 12892 12893 12894 12895 12896 12897 12898 12899 12900 12901 12902 12903 12904 12905 12906 12907 12908 12909 12910 12911 12912 12913 12914 12915 12916 12917 12918 12919 12920 12921 12922 12923 12924 12925 12926 12927 12928 12929 12930 12931 12932 12933 12934 12935 12936 12937 12938 12939 12940 12941 12942 12943 12944 12945 12946 12947 12948 12949 12950 12951 12952 12953 12954 12955 12956 12957 12958 12959 12960 12961 12962 12963 12964 12965 12966 12967 12968 12969 12970 12971 12972 12973 12974 12975 12976 12977 12978 12979 12980 12981 12982 12983 12984 12985 12986 12987 12988 12989 12990 12991 12992 12993 12994 12995 12996 12997 12998 12999 13000 13001 13002 13003 13004 13005 13006 13007 13008 13009 13010 13011 13012 13013 13014 13015 13016 13017 13018 13019 13020 13021 13022 13023 13024 13025 13026 13027 13028 13029 13030 13031 13032 13033 13034 13035 13036 13037 13038 13039 13040 13041 13042 13043 13044 13045 13046 13047 13048 13049 13050 13051 13052 13053 13054 13055 13056 13057 13058 13059 13060 13061 13062 13063 13064 13065 13066 13067 13068 13069 13070 13071 13072 13073 13074 13075 13076 13077 13078 13079 13080 13081 13082 13083 13084 13085 13086 13087 13088 13089 13090 13091 13092 13093 13094 13095 13096 13097 13098 13099 13100 13101 13102 13103 13104 13105 13106 13107 13108 13109 13110 13111 13112 13113 13114 13115 13116 13117 13118 13119 13120 13121 13122 13123 13124 13125 13126 13127 13128 13129 13130 13131 13132 13133 13134 13135 13136 13137 13138 13139 13140 13141 13142 13143 13144 13145 13146 13147 13148 13149 13150 13151 13152 13153 13154 13155 13156 13157 13158 13159 13160 13161 13162 13163 13164 13165 13166 13167 13168 13169 13170 13171 13172 13173 13174 13175 13176 13177 13178 13179 13180 13181 13182 13183 13184 13185 13186 13187 13188 13189 13190 13191 13192 13193 13194 13195 13196 13197 13198 13199 13200 13201 13202 13203 13204 13205 13206 13207 13208 13209 13210 13211 13212 13213 13214 13215 13216 13217 13218 13219 13220 13221 13222 13223 13224 13225 13226 13227 13228 13229 13230 13231 13232 13233 13234 13235 13236 13237 13238 13239 13240 13241 13242 13243 13244 13245 13246 13247 13248 13249 13250 13251 13252 13253 13254 13255 13256 13257 13258 13259 13260 13261 13262 13263 13264 13265 13266 13267 13268 13269 13270 13271 13272 13273 13274 13275 13276 13277 13278 13279 13280 13281 13282 13283 13284 13285 13286 13287 13288 13289 13290 13291 13292 13293 13294 13295 13296 13297 13298 13299 13300 13301 13302 13303 13304 13305 13306 13307 13308 13309 13310 13311 13312 13313 13314 13315 13316 13317 13318 13319 13320 13321 13322 13323 13324 13325 13326 13327 13328 13329 13330 13331 13332 13333 13334 13335 13336 13337 13338 13339 13340 13341 13342 13343 13344 13345 13346 13347 13348 13349 13350 13351 13352 13353 13354 13355 13356 13357 13358 13359 13360 13361 13362 13363 13364 13365 13366 13367 13368 13369 13370 13371 13372 13373 13374 13375 13376 13377 13378 13379 13380 13381 13382 13383 13384 13385 13386 13387 13388 13389 13390 13391 13392 13393 13394 13395 13396 13397 13398 13399 13400 13401 13402 13403 13404 13405 13406 13407 13408 13409 13410 13411 13412 13413 13414 13415 13416 13417 13418 13419 13420 13421 13422 13423 13424 13425 13426 13427 13428 13429 13430 13431 13432 13433 13434 13435 13436 13437 13438 13439 13440 13441 13442 13443 13444 13445 13446 13447 13448 13449 13450 13451 13452 13453 13454 13455 13456 13457 13458 13459 13460 13461 13462 13463 13464 13465 13466 13467 13468 13469 13470 13471 13472 13473 13474 13475 13476 13477 13478 13479 13480 13481 13482 13483 13484 13485 13486 13487 13488 13489 13490 13491 13492 13493 13494 13495 13496 13497 13498 13499 13500 13501 13502 13503 13504 13505 13506 13507 13508 13509 13510 13511 13512 13513 13514 13515 13516 13517 13518 13519 13520 13521 13522 13523 13524 13525 13526 13527 13528 13529 13530 13531 13532 13533 13534 13535 13536 13537 13538 13539 13540 13541 13542 13543 13544 13545 13546 13547 13548 13549 13550 13551 13552 13553 13554 13555 13556 13557 13558 13559 13560 13561 13562 13563 13564 13565 13566 13567 13568 13569 13570 13571 13572 13573 13574 13575 13576 13577 13578 13579 13580 13581 13582 13583 13584 13585 13586 13587 13588 13589 13590 13591 13592 13593 13594 13595 13596 13597 13598 13599 13600 13601 13602 13603 13604 13605 13606 13607 13608 13609 13610 13611 13612 13613 13614 13615 13616 13617 13618 13619 13620 13621 13622 13623 13624 13625 13626 13627 13628 13629 13630 13631 13632 13633 13634 13635 13636 13637 13638 13639 13640 13641 13642 13643 13644 13645 13646 13647 13648 13649 13650 13651 13652 13653 13654 13655 13656 13657 13658 13659 13660 13661 13662 13663 13664 13665 13666 13667 13668 13669 13670 13671 13672 13673 13674 13675 13676 13677 13678 13679 13680 13681 13682 13683 13684 13685 13686 13687 13688 13689 13690 13691 13692 13693 13694 13695 13696 13697 13698 13699 13700 13701 13702 13703 13704 13705 13706 13707 13708 13709 13710 13711 13712 13713 13714 13715 13716 13717 13718 13719 13720 13721 13722 13723 13724 13725 13726 13727 13728 13729 13730 13731 13732 13733 13734 13735 13736 13737 13738 13739 13740 13741 13742 13743 13744 13745 13746 13747 13748 13749 13750 13751 13752 13753 13754 13755 13756 13757 13758 13759 13760 13761 13762 13763 13764 13765 13766 13767 13768 13769 13770 13771 13772 13773 13774 13775 13776 13777 13778 13779 13780 13781 13782 13783 13784 13785 13786 13787 13788 13789 13790 13791 13792 13793 13794 13795 13796 13797 13798 13799 13800 13801 13802 13803 13804 13805 13806 13807 13808 13809 13810 13811 13812 13813 13814 13815 13816 13817 13818 13819 13820 13821 13822 13823 13824 13825 13826 13827 13828 13829 13830 13831 13832 13833 13834 13835 13836 13837 13838 13839 13840 13841 13842 13843 13844 13845 13846 13847 13848 13849 13850 13851 13852 13853 13854 13855 13856 13857 13858 13859 13860 13861 13862 13863 13864 13865 13866 13867 13868 13869 13870 13871 13872 13873 13874 13875 13876 13877 13878 13879 13880 13881 13882 13883 13884 13885 13886 13887 13888 13889 13890 13891 13892 13893 13894 13895 13896 13897 13898 13899 13900 13901 13902 13903 13904 13905 13906 13907 13908 13909 13910 13911 13912 13913 13914 13915 13916 13917 13918 13919 13920 13921 13922 13923 13924 13925 13926 13927 13928 13929 13930 13931 13932 13933 13934 13935 13936 13937 13938 13939 13940 13941 13942 13943 13944 13945 13946 13947 13948 13949 13950 13951 13952 13953 13954 13955 13956 13957 13958 13959 13960 13961 13962 13963 13964 13965 13966 13967 13968 13969 13970 13971 13972 13973 13974 13975 13976 13977 13978 13979 13980 13981 13982 13983 13984 13985 13986 13987 13988 13989 13990 13991 13992 13993 13994 13995 13996 13997 13998 13999 14000 14001 14002 14003 14004 14005 14006 14007 14008 14009 14010 14011 14012 14013 14014 14015 14016 14017 14018 14019 14020 14021 14022 14023 14024 14025 14026 14027 14028 14029 14030 14031 14032 14033 14034 14035 14036 14037 14038 14039 14040 14041 14042 14043 14044 14045 14046 14047 14048 14049 14050 14051 14052 14053 14054 14055 14056 14057 14058 14059 14060 14061 14062 14063 14064 14065 14066 14067 14068 14069 14070 14071 14072 14073 14074 14075 14076 14077 14078 14079 14080 14081 14082 14083 14084 14085 14086 14087 14088 14089 14090 14091 14092 14093 14094 14095 14096 14097 14098 14099 14100 14101 14102 14103 14104 14105 14106 14107 14108 14109 14110 14111 14112 14113 14114 14115 14116 14117 14118 14119 14120 14121 14122 14123 14124 14125 14126 14127 14128 14129 14130 14131 14132 14133 14134 14135 14136 14137 14138 14139 14140 14141 14142 14143 14144 14145 14146 14147 14148 14149 14150 14151 14152 14153 14154 14155 14156 14157 14158 14159 14160 14161 14162 14163 14164 14165 14166 14167 14168 14169 14170 14171 14172 14173 14174 14175 14176 14177 14178 14179 14180 14181 14182 14183 14184 14185 14186 14187 14188 14189 14190 14191 14192 14193 14194 14195 14196 14197 14198 14199 14200 14201 14202 14203 14204 14205 14206 14207 14208 14209 14210 14211 14212 14213 14214 14215 14216 14217 14218 14219 14220 14221 14222 14223 14224 14225 14226 14227 14228 14229 14230 14231 14232 14233 14234 14235 14236 14237 14238 14239 14240 14241 14242 14243 14244 14245 14246 14247 14248 14249 14250 14251 14252 14253 14254 14255 14256 14257 14258 14259 14260 14261 14262 14263 14264 14265 14266 14267 14268 14269 14270 14271 14272 14273 14274 14275 14276 14277 14278 14279 14280 14281 14282 14283 14284 14285 14286 14287 14288 14289 14290 14291 14292 14293 14294 14295 14296 14297 14298 14299 14300 14301 14302 14303 14304 14305 14306 14307 14308 14309 14310 14311 14312 14313 14314 14315 14316 14317 14318 14319 14320 14321 14322 14323 14324 14325 14326 14327 14328 14329 14330 14331 14332 14333 14334 14335 14336 14337 14338 14339 14340 14341 14342 14343 14344 14345 14346 14347 14348 14349 14350 14351 14352 14353 14354 14355 14356 14357 14358 14359 14360 14361 14362 14363 14364 14365 14366 14367 14368 14369 14370 14371 14372 14373 14374 14375 14376 14377 14378 14379 14380 14381 14382 14383 14384 14385 14386 14387 14388 14389 14390 14391 14392 14393 14394 14395 14396 14397 14398 14399 14400 14401 14402 14403 14404 14405 14406 14407 14408 14409 14410 14411 14412 14413 14414 14415 14416 14417 14418 14419 14420 14421 14422 14423 14424 14425 14426 14427 14428 14429 14430 14431 14432 14433 14434 14435 14436 14437 14438 14439 14440 14441 14442 14443 14444 14445 14446 14447 14448 14449 14450 14451 14452 14453 14454 14455 14456 14457 14458 14459 14460 14461 14462 14463 14464 14465 14466 14467 14468 14469 14470 14471 14472 14473 14474 14475 14476 14477 14478 14479 14480 14481 14482 14483 14484 14485 14486 14487 14488 14489 14490 14491 14492 14493 14494 14495 14496 14497 14498 14499 14500 14501 14502 14503 14504 14505 14506 14507 14508 14509 14510 14511 14512 14513 14514 14515 14516 14517 14518 14519 14520 14521 14522 14523 14524 14525 14526 14527 14528 14529 14530 14531 14532 14533 14534 14535 14536 14537 14538 14539 14540 14541 14542 14543 14544 14545 14546 14547 14548 14549 14550 14551 14552 14553 14554 14555 14556 14557 14558 14559 14560 14561 14562 14563 14564 14565 14566 14567 14568 14569 14570 14571 14572 14573 14574 14575 14576 14577 14578 14579 14580 14581 14582 14583 14584 14585 14586 14587 14588 14589 14590 14591 14592 14593 14594 14595 14596 14597 14598 14599 14600 14601 14602 14603 14604 14605 14606 14607 14608 14609 14610 14611 14612 14613 14614 14615 14616 14617 14618 14619 14620 14621 14622 14623 14624 14625 14626 14627 14628 14629 14630 14631 14632 14633 14634 14635 14636 14637 14638 14639 14640 14641 14642 14643 14644 14645 14646 14647 14648 14649 14650 14651 14652 14653 14654 14655 14656 14657 14658 14659 14660 14661 14662 14663 14664 14665 14666 14667 14668 14669 14670 14671 14672 14673 14674 14675 14676 14677 14678 14679 14680 14681 14682 14683 14684 14685 14686 14687 14688 14689 14690 14691 14692 14693 14694 14695 14696 14697 14698 14699 14700 14701 14702 14703 14704 14705 14706 14707 14708 14709 14710 14711 14712 14713 14714 14715 14716 14717 14718 14719 14720 14721 14722 14723 14724 14725 14726 14727 14728 14729 14730 14731 14732 14733 14734 14735 14736 14737 14738 14739 14740 14741 14742 14743 14744 14745 14746 14747 14748 14749 14750 14751 14752 14753 14754 14755 14756 14757 14758 14759 14760 14761 14762 14763 14764 14765 14766 14767 14768 14769 14770 14771 14772 14773 14774 14775 14776 14777 14778 14779 14780 14781 14782 14783 14784 14785 14786 14787 14788 14789 14790 14791 14792 14793 14794 14795 14796 14797 14798 14799 14800 14801 14802 14803 14804 14805 14806 14807 14808 14809 14810 14811 14812 14813 14814 14815 14816 14817 14818 14819 14820 14821 14822 14823 14824 14825 14826 14827 14828 14829 14830 14831 14832 14833 14834 14835 14836 14837 14838 14839 14840 14841 14842 14843 14844 14845 14846 14847 14848 14849 14850 14851 14852 14853 14854 14855 14856 14857 14858 14859 14860 14861 14862 14863 14864 14865 14866 14867 14868 14869 14870 14871 14872 14873 14874 14875 14876 14877 14878 14879 14880 14881 14882 14883 14884 14885 14886 14887 14888 14889 14890 14891 14892 14893 14894 14895 14896 14897 14898 14899 14900 14901 14902 14903 14904 14905 14906 14907 14908 14909 14910 14911 14912 14913 14914 14915 14916 14917 14918 14919 14920 14921 14922 14923 14924 14925 14926 14927 14928 14929 14930 14931 14932 14933 14934 14935 14936 14937 14938 14939 14940 14941 14942 14943 14944 14945 14946 14947 14948 14949 14950 14951 14952 14953 14954 14955 14956 14957 14958 14959 14960 14961 14962 14963 14964 14965 14966 14967 14968 14969 14970 14971 14972 14973 14974 14975 14976 14977 14978 14979 14980 14981 14982 14983 14984 14985 14986 14987 14988 14989 14990 14991 14992 14993 14994 14995 14996 14997 14998 14999 15000 15001 15002 15003 15004 15005 15006 15007 15008 15009 15010 15011 15012 15013 15014 15015 15016 15017 15018 15019 15020 15021 15022 15023 15024 15025 15026 15027 15028 15029 15030 15031 15032 15033 15034 15035 15036 15037 15038 15039 15040 15041 15042 15043 15044 15045 15046 15047 15048 15049 15050 15051 15052 15053 15054 15055 15056 15057 15058 15059 15060 15061 15062 15063 15064 15065 15066 15067 15068 15069 15070 15071 15072 15073 15074 15075 15076 15077 15078 15079 15080 15081 15082 15083 15084 15085 15086 15087 15088 15089 15090 15091 15092 15093 15094 15095 15096 15097 15098 15099 15100 15101 15102 15103 15104 15105 15106 15107 15108 15109 15110 15111 15112 15113 15114 15115 15116 15117 15118 15119 15120 15121 15122 15123 15124 15125 15126 15127 15128 15129 15130 15131 15132 15133 15134 15135 15136 15137 15138 15139 15140 15141 15142 15143 15144 15145 15146 15147 15148 15149 15150 15151 15152 15153 15154 15155 15156 15157 15158 15159 15160 15161 15162 15163 15164 15165 15166 15167 15168 15169 15170 15171 15172 15173 15174 15175 15176 15177 15178 15179 15180 15181 15182 15183 15184 15185 15186 15187 15188 15189 15190 15191 15192 15193 15194 15195 15196 15197 15198 15199 15200 15201 15202 15203 15204 15205 15206 15207 15208 15209 15210 15211 15212 15213 15214 15215 15216 15217 15218 15219 15220 15221 15222 15223 15224 15225 15226 15227 15228 15229 15230 15231 15232 15233 15234 15235 15236 15237 15238 15239 15240 15241 15242 15243 15244 15245 15246 15247 15248 15249 15250 15251 15252 15253 15254 15255 15256 15257 15258 15259 15260 15261 15262 15263 15264 15265 15266 15267 15268 15269 15270 15271 15272 15273 15274 15275 15276 15277 15278 15279 15280 15281 15282 15283 15284 15285 15286 15287 15288 15289 15290 15291 15292 15293 15294 15295 15296 15297 15298 15299 15300 15301 15302 15303 15304 15305 15306 15307 15308 15309 15310 15311 15312 15313 15314 15315 15316 15317 15318 15319 15320 15321 15322 15323 15324 15325 15326 15327 15328 15329 15330 15331 15332 15333 15334 15335 15336 15337 15338 15339 15340 15341 15342 15343 15344 15345 15346 15347 15348 15349 15350 15351 15352 15353 15354 15355 15356 15357 15358 15359 15360 15361 15362 15363 15364 15365 15366 15367 15368 15369 15370 15371 15372 15373 15374 15375 15376 15377 15378 15379 15380 15381 15382 15383 15384 15385 15386 15387 15388 15389 15390 15391 15392 15393 15394 15395 15396 15397 15398 15399 15400 15401 15402 15403 15404 15405 15406 15407 15408 15409 15410 15411 15412 15413 15414 15415 15416 15417 15418 15419 15420 15421 15422 15423 15424 15425 15426 15427 15428 15429 15430 15431 15432 15433 15434 15435 15436 15437 15438 15439 15440 15441 15442 15443 15444 15445 15446 15447 15448 15449 15450 15451 15452 15453 15454 15455 15456 15457 15458 15459 15460 15461 15462 15463 15464 15465 15466 15467 15468 15469 15470 15471 15472 15473 15474 15475 15476 15477 15478 15479 15480 15481 15482 15483 15484 15485 15486 15487 15488 15489 15490 15491 15492 15493 15494 15495 15496 15497 15498 15499 15500 15501 15502 15503 15504 15505 15506 15507 15508 15509 15510 15511 15512 15513 15514 15515 15516 15517 15518 15519 15520 15521 15522 15523 15524 15525 15526 15527 15528 15529 15530 15531 15532 15533 15534 15535 15536 15537 15538 15539 15540 15541 15542 15543 15544 15545 15546 15547 15548 15549 15550 15551 15552 15553 15554 15555 15556 15557 15558 15559 15560 15561 15562 15563 15564 15565 15566 15567 15568 15569 15570 15571 15572 15573 15574 15575 15576 15577 15578 15579 15580 15581 15582 15583 15584 15585 15586 15587 15588 15589 15590 15591 15592 15593 15594 15595 15596 15597 15598 15599 15600 15601 15602 15603 15604 15605 15606 15607 15608 15609 15610 15611 15612 15613 15614 15615 15616 15617 15618 15619 15620 15621 15622 15623 15624 15625 15626 15627 15628 15629 15630 15631 15632 15633 15634 15635 15636 15637 15638 15639 15640 15641 15642 15643 15644 15645 15646 15647 15648 15649 15650 15651 15652 15653 15654 15655 15656 15657 15658 15659 15660 15661 15662 15663 15664 15665 15666 15667 15668 15669 15670 15671 15672 15673 15674 15675 15676 15677 15678 15679 15680 15681 15682 15683 15684 15685 15686 15687 15688 15689 15690 15691 15692 15693 15694 15695 15696 15697 15698 15699 15700 15701 15702 15703 15704 15705 15706 15707 15708 15709 15710 15711 15712 15713 15714 15715 15716 15717 15718 15719 15720 15721 15722 15723 15724 15725 15726 15727 15728 15729 15730 15731 15732 15733 15734 15735 15736 15737 15738 15739 15740 15741 15742 15743 15744 15745 15746 15747 15748 15749 15750 15751 15752 15753 15754 15755 15756 15757 15758 15759 15760 15761 15762 15763 15764 15765 15766 15767 15768 15769 15770 15771 15772 15773 15774 15775 15776 15777 15778 15779 15780 15781 15782 15783 15784 15785 15786 15787 15788 15789 15790 15791 15792 15793 15794 15795 15796 15797 15798 15799 15800 15801 15802 15803 15804 15805 15806 15807 15808 15809 15810 15811 15812 15813 15814 15815 15816 15817 15818 15819 15820 15821 15822 15823 15824 15825 15826 15827 15828 15829 15830 15831 15832 15833 15834 15835 15836 15837 15838 15839 15840 15841 15842 15843 15844 15845 15846 15847 15848 15849 15850 15851 15852 15853 15854 15855 15856 15857 15858 15859 15860 15861 15862 15863 15864 15865 15866 15867 15868 15869 15870 15871 15872 15873 15874 15875 15876 15877 15878 15879 15880 15881 15882 15883 15884 15885 15886 15887 15888 15889 15890 15891 15892 15893 15894 15895 15896 15897 15898 15899 15900 15901 15902 15903 15904 15905 15906 15907 15908 15909 15910 15911 15912 15913 15914 15915 15916 15917 15918 15919 15920 15921 15922 15923 15924 15925 15926 15927 15928 15929 15930 15931 15932 15933 15934 15935 15936 15937 15938 15939 15940 15941 15942 15943 15944 15945 15946 15947 15948 15949 15950 15951 15952 15953 15954 15955 15956 15957 15958 15959 15960 15961 15962 15963 15964 15965 15966 15967 15968 15969 15970 15971 15972 15973 15974 15975 15976 15977 15978 15979 15980 15981 15982 15983 15984 15985 15986 15987 15988 15989 15990 15991 15992 15993 15994 15995 15996 15997 15998 15999 16000 16001 16002 16003 16004 16005 16006 16007 16008 16009 16010 16011 16012 16013 16014 16015 16016 16017 16018 16019 16020 16021 16022 16023 16024 16025 16026 16027 16028 16029 16030 16031 16032 16033 16034 16035 16036 16037 16038 16039 16040 16041 16042 16043 16044 16045 16046 16047 16048 16049 16050 16051 16052 16053 16054 16055 16056 16057 16058 16059 16060 16061 16062 16063 16064 16065 16066 16067 16068 16069 16070 16071 16072 16073 16074 16075 16076 16077 16078 16079 16080 16081 16082 16083 16084 16085 16086 16087 16088 16089 16090 16091 16092 16093 16094 16095 16096 16097 16098 16099 16100 16101 16102 16103 16104 16105 16106 16107 16108 16109 16110 16111 16112 16113 16114 16115 16116 16117 16118 16119 16120 16121 16122 16123 16124 16125 16126 16127 16128 16129 16130 16131 16132 16133 16134 16135 16136 16137 16138 16139 16140 16141 16142 16143 16144 16145 16146 16147 16148 16149 16150 16151 16152 16153 16154 16155 16156 16157 16158 16159 16160 16161 16162 16163 16164 16165 16166 16167 16168 16169 16170 16171 16172 16173 16174 16175 16176 16177 16178 16179 16180 16181 16182 16183 16184 16185 16186 16187 16188 16189 16190 16191 16192 16193 16194 16195 16196 16197 16198 16199 16200 16201 16202 16203 16204 16205 16206 16207 16208 16209 16210 16211 16212 16213 16214 16215 16216 16217 16218 16219 16220 16221 16222 16223 16224 16225 16226 16227 16228 16229 16230 16231 16232 16233 16234 16235 16236 16237 16238 16239 16240 16241 16242 16243 16244 16245 16246 16247 16248 16249 16250 16251 16252 16253 16254 16255 16256 16257 16258 16259 16260 16261 16262 16263 16264 16265 16266 16267 16268 16269 16270 16271 16272 16273 16274 16275 16276 16277 16278 16279 16280 16281 16282 16283 16284 16285 16286 16287 16288 16289 16290 16291 16292 16293 16294 16295 16296 16297 16298 16299 16300 16301 16302 16303 16304 16305 16306 16307 16308 16309 16310 16311 16312 16313 16314 16315 16316 16317 16318 16319 16320 16321 16322 16323 16324 16325 16326 16327 16328 16329 16330 16331 16332 16333 16334 16335 16336 16337 16338 16339 16340 16341 16342 16343 16344 16345 16346 16347 16348 16349 16350 16351 16352 16353 16354 16355 16356 16357 16358 16359 16360 16361 16362 16363 16364 16365 16366 16367 16368 16369 16370 16371 16372 16373 16374 16375 16376 16377 16378 16379 16380 16381 16382 16383 16384 16385 16386 16387 16388 16389 16390 16391 16392 16393 16394 16395 16396 16397 16398 16399 16400 16401 16402 16403 16404 16405 16406 16407 16408 16409 16410 16411 16412 16413 16414 16415 16416 16417 16418 16419 16420 16421 16422 16423 16424 16425 16426 16427 16428 16429 16430 16431 16432 16433 16434 16435 16436 16437 16438 16439 16440 16441 16442 16443 16444 16445 16446 16447 16448 16449 16450 16451 16452 16453 16454 16455 16456 16457 16458 16459 16460 16461 16462 16463 16464 16465 16466 16467 16468 16469 16470 16471 16472 16473 16474 16475 16476 16477 16478 16479 16480 16481 16482 16483 16484 16485 16486 16487 16488 16489 16490 16491 16492 16493 16494 16495 16496 16497 16498 16499 16500 16501 16502 16503 16504 16505 16506 16507 16508 16509 16510 16511 16512 16513 16514 16515 16516 16517 16518 16519 16520 16521 16522 16523 16524 16525 16526 16527 16528 16529 16530 16531 16532 16533 16534 16535 16536 16537 16538 16539 16540 16541 16542 16543 16544 16545 16546 16547 16548 16549 16550 16551 16552 16553 16554 16555 16556 16557 16558 16559 16560 16561 16562 16563 16564 16565 16566 16567 16568 16569 16570 16571 16572 16573 16574 16575 16576 16577 16578 16579 16580 16581 16582 16583 16584 16585 16586 16587 16588 16589 16590 16591 16592 16593 16594 16595 16596 16597 16598 16599 16600 16601 16602 16603 16604 16605 16606 16607 16608 16609 16610 16611 16612 16613 16614 16615 16616 16617 16618 16619 16620 16621 16622 16623 16624 16625 16626 16627 16628 16629 16630 16631 16632 16633 16634 16635 16636 16637 16638 16639 16640 16641 16642 16643 16644 16645 16646 16647 16648 16649 16650 16651 16652 16653 16654 16655 16656 16657 16658 16659 16660 16661 16662 16663 16664 16665 16666 16667 16668 16669 16670 16671 16672 16673 16674 16675 16676 16677 16678 16679 16680 16681 16682 16683 16684 16685 16686 16687 16688 16689 16690 16691 16692 16693 16694 16695 16696 16697 16698 16699 16700 16701 16702 16703 16704 16705 16706 16707 16708 16709 16710 16711 16712 16713 16714 16715 16716 16717 16718 16719 16720 16721 16722 16723 16724 16725 16726 16727 16728 16729 16730 16731 16732 16733 16734 16735 16736 16737 16738 16739 16740 16741 16742 16743 16744 16745 16746 16747 16748 16749 16750 16751 16752 16753 16754 16755 16756 16757 16758 16759 16760 16761 16762 16763 16764 16765 16766 16767 16768 16769 16770 16771 16772 16773 16774 16775 16776 16777 16778 16779 16780 16781 16782 16783 16784 16785 16786 16787 16788 16789 16790 16791 16792 16793 16794 16795 16796 16797 16798 16799 16800 16801 16802 16803 16804 16805 16806 16807 16808 16809 16810 16811 16812 16813 16814 16815 16816 16817 16818 16819 16820 16821 16822 16823 16824 16825 16826 16827 16828 16829 16830 16831 16832 16833 16834 16835 16836 16837 16838 16839 16840 16841 16842 16843 16844 16845 16846 16847 16848 16849 16850 16851 16852 16853 16854 16855 16856 16857 16858 16859 16860 16861 16862 16863 16864 16865 16866 16867 16868 16869 16870 16871 16872 16873 16874 16875 16876 16877 16878 16879 16880 16881 16882 16883 16884 16885 16886 16887 16888 16889 16890 16891 16892 16893 16894 16895 16896 16897 16898 16899 16900 16901 16902 16903 16904 16905 16906 16907 16908 16909 16910 16911 16912 16913 16914 16915 16916 16917 16918 16919 16920 16921 16922 16923 16924 16925 16926 16927 16928 16929 16930 16931 16932 16933 16934 16935 16936 16937 16938 16939 16940 16941 16942 16943 16944 16945 16946 16947 16948 16949 16950 16951 16952 16953 16954 16955 16956 16957 16958 16959 16960 16961 16962 16963 16964 16965 16966 16967 16968 16969 16970 16971 16972 16973 16974 16975 16976 16977 16978 16979 16980 16981 16982 16983 16984 16985 16986 16987 16988 16989 16990 16991 16992 16993 16994 16995 16996 16997 16998 16999 17000 17001 17002 17003 17004 17005 17006 17007 17008 17009 17010 17011 17012 17013 17014 17015 17016 17017 17018 17019 17020 17021 17022 17023 17024 17025 17026 17027 17028 17029 17030 17031 17032 17033 17034 17035 17036 17037 17038 17039 17040 17041 17042 17043 17044 17045 17046 17047 17048 17049 17050 17051 17052 17053 17054 17055 17056 17057 17058 17059 17060 17061 17062 17063 17064 17065 17066 17067 17068 17069 17070 17071 17072 17073 17074 17075 17076 17077 17078 17079 17080 17081 17082 17083 17084 17085 17086 17087 17088 17089 17090 17091 17092 17093 17094 17095 17096 17097 17098 17099 17100 17101 17102 17103 17104 17105 17106 17107 17108 17109 17110 17111 17112 17113 17114 17115 17116 17117 17118 17119 17120 17121 17122 17123 17124 17125 17126 17127 17128 17129 17130 17131 17132 17133 17134 17135 17136 17137 17138 17139 17140 17141 17142 17143 17144 17145 17146 17147 17148 17149 17150 17151 17152 17153 17154 17155 17156 17157 17158 17159 17160 17161 17162 17163 17164 17165 17166 17167 17168 17169 17170 17171 17172 17173 17174 17175 17176 17177 17178 17179 17180 17181 17182 17183 17184 17185 17186 17187 17188 17189 17190 17191 17192 17193 17194 17195 17196 17197 17198 17199 17200 17201 17202 17203 17204 17205 17206 17207 17208 17209 17210 17211 17212 17213 17214 17215 17216 17217 17218 17219 17220 17221 17222 17223 17224 17225 17226 17227 17228 17229 17230 17231 17232 17233 17234 17235 17236 17237 17238 17239 17240 17241 17242 17243 17244 17245 17246 17247 17248 17249 17250 17251 17252 17253 17254 17255 17256 17257 17258 17259 17260 17261 17262 17263 17264 17265 17266 17267 17268 17269 17270 17271 17272 17273 17274 17275 17276 17277 17278 17279 17280 17281 17282 17283 17284 17285 17286 17287 17288 17289 17290 17291 17292 17293 17294 17295 17296 17297 17298 17299 17300 17301 17302 17303 17304 17305 17306 17307 17308 17309 17310 17311 17312 17313 17314 17315 17316 17317 17318 17319 17320 17321 17322 17323 17324 17325 17326 17327 17328 17329 17330 17331 17332 17333 17334 17335 17336 17337 17338 17339 17340 17341 17342 17343 17344 17345 17346 17347 17348 17349 17350 17351 17352 17353 17354 17355 17356 17357 17358 17359 17360 17361 17362 17363 17364 17365 17366 17367 17368 17369 17370 17371 17372 17373 17374 17375 17376 17377 17378 17379 17380 17381 17382 17383 17384 17385 17386 17387 17388 17389 17390 17391 17392 17393 17394 17395 17396 17397 17398 17399 17400 17401 17402 17403 17404 17405 17406 17407 17408 17409 17410 17411 17412 17413 17414 17415 17416 17417 17418 17419 17420 17421 17422 17423 17424 17425 17426 17427 17428 17429 17430 17431 17432 17433 17434 17435 17436 17437 17438 17439 17440 17441 17442 17443 17444 17445 17446 17447 17448 17449 17450 17451 17452 17453 17454 17455 17456 17457 17458 17459 17460 17461 17462 17463 17464 17465 17466 17467 17468 17469 17470 17471 17472 17473 17474 17475 17476 17477 17478 17479 17480 17481 17482 17483 17484 17485 17486 17487 17488 17489 17490 17491 17492 17493 17494 17495 17496 17497 17498 17499 17500 17501 17502 17503 17504 17505 17506 17507 17508 17509 17510 17511 17512 17513 17514 17515 17516 17517 17518 17519 17520 17521 17522 17523 17524 17525 17526 17527 17528 17529 17530 17531 17532 17533 17534 17535 17536 17537 17538 17539 17540 17541 17542 17543 17544 17545 17546 17547 17548 17549 17550 17551 17552 17553 17554 17555 17556 17557 17558 17559 17560 17561 17562 17563 17564 17565 17566 17567 17568 17569 17570 17571 17572 17573 17574 17575 17576 17577 17578 17579 17580 17581 17582 17583 17584 17585 17586 17587 17588 17589 17590 17591 17592 17593 17594 17595 17596 17597 17598 17599 17600 17601 17602 17603 17604 17605 17606 17607 17608 17609 17610 17611 17612 17613 17614 17615 17616 17617 17618 17619 17620 17621 17622 17623 17624 17625 17626 17627 17628 17629 17630 17631 17632 17633 17634 17635 17636 17637 17638 17639 17640 17641 17642 17643 17644 17645 17646 17647 17648 17649 17650 17651 17652 17653 17654 17655 17656 17657 17658 17659 17660 17661 17662 17663 17664 17665 17666 17667 17668 17669 17670 17671 17672 17673 17674 17675 17676 17677 17678 17679 17680 17681 17682 17683 17684 17685 17686 17687 17688 17689 17690 17691 17692 17693 17694 17695 17696 17697 17698 17699 17700 17701 17702 17703 17704 17705 17706 17707 17708 17709 17710 17711 17712 17713 17714 17715 17716 17717 17718 17719 17720 17721 17722 17723 17724 17725 17726 17727 17728 17729 17730 17731 17732 17733 17734 17735 17736 17737 17738 17739 17740 17741 17742 17743 17744 17745 17746 17747 17748 17749 17750 17751 17752 17753 17754 17755 17756 17757 17758 17759 17760 17761 17762 17763 17764 17765 17766 17767 17768 17769 17770 17771 17772 17773 17774 17775 17776 17777 17778 17779 17780 17781 17782 17783 17784 17785 17786 17787 17788 17789 17790 17791 17792 17793 17794 17795 17796 17797 17798 17799 17800 17801 17802 17803 17804 17805 17806 17807 17808 17809 17810 17811 17812 17813 17814 17815 17816 17817 17818 17819 17820 17821 17822 17823 17824 17825 17826 17827 17828 17829 17830 17831 17832 17833 17834 17835 17836 17837 17838 17839 17840 17841 17842 17843 17844 17845 17846 17847 17848 17849 17850 17851 17852 17853 17854 17855 17856 17857 17858 17859 17860 17861 17862 17863 17864 17865 17866 17867 17868 17869 17870 17871 17872 17873 17874 17875 17876 17877 17878 17879 17880 17881 17882 17883 17884 17885 17886 17887 17888 17889 17890 17891 17892 17893 17894 17895 17896 17897 17898 17899 17900 17901 17902 17903 17904 17905 17906 17907 17908 17909 17910 17911 17912 17913 17914 17915 17916 17917 17918 17919 17920 17921 17922 17923 17924 17925 17926 17927 17928 17929 17930 17931 17932 17933 17934 17935 17936 17937 17938 17939 17940 17941 17942 17943 17944 17945 17946 17947 17948 17949 17950 17951 17952 17953 17954 17955 17956 17957 17958 17959 17960 17961 17962 17963 17964 17965 17966 17967 17968 17969 17970 17971 17972 17973 17974 17975 17976 17977 17978 17979 17980 17981 17982 17983 17984 17985 17986 17987 17988 17989 17990 17991 17992 17993 17994 17995 17996 17997 17998 17999 18000 18001 18002 18003 18004 18005 18006 18007 18008 18009 18010 18011 18012 18013 18014 18015 18016 18017 18018 18019 18020 18021 18022 18023 18024 18025 18026 18027 18028 18029 18030 18031 18032 18033 18034 18035 18036 18037 18038 18039 18040 18041 18042 18043 18044 18045 18046 18047 18048 18049 18050 18051 18052 18053 18054 18055 18056 18057 18058 18059 18060 18061 18062 18063 18064 18065 18066 18067 18068 18069 18070 18071 18072 18073 18074 18075 18076 18077 18078 18079 18080 18081 18082 18083 18084 18085 18086 18087 18088 18089 18090 18091 18092 18093 18094 18095 18096 18097 18098 18099 18100 18101 18102 18103 18104 18105 18106 18107 18108 18109 18110 18111 18112 18113 18114 18115 18116 18117 18118 18119 18120 18121 18122 18123 18124 18125 18126 18127 18128 18129 18130 18131 18132 18133 18134 18135 18136 18137 18138 18139 18140 18141 18142 18143 18144 18145 18146 18147 18148 18149 18150 18151 18152 18153 18154 18155 18156 18157 18158 18159 18160 18161 18162 18163 18164 18165 18166 18167 18168 18169 18170 18171 18172 18173 18174 18175 18176 18177 18178 18179 18180 18181 18182 18183 18184 18185 18186 18187 18188 18189 18190 18191 18192 18193 18194 18195 18196 18197 18198 18199 18200 18201 18202 18203 18204 18205 18206 18207 18208 18209 18210 18211 18212 18213 18214 18215 18216 18217 18218 18219 18220 18221 18222 18223 18224 18225 18226 18227 18228 18229 18230 18231 18232 18233 18234 18235 18236 18237 18238 18239 18240 18241 18242 18243 18244 18245 18246 18247 18248 18249 18250 18251 18252 18253 18254 18255 18256 18257 18258 18259 18260 18261 18262 18263 18264 18265 18266 18267 18268 18269 18270 18271 18272 18273 18274 18275 18276 18277 18278 18279 18280 18281 18282 18283 18284 18285 18286 18287 18288 18289 18290 18291 18292 18293 18294 18295 18296 18297 18298 18299 18300 18301 18302 18303 18304 18305 18306 18307 18308 18309 18310 18311 18312 18313 18314 18315 18316 18317 18318 18319 18320 18321 18322 18323 18324 18325 18326 18327 18328 18329 18330 18331 18332 18333 18334 18335 18336 18337 18338 18339 18340 18341 18342 18343 18344 18345 18346 18347 18348 18349 18350 18351 18352 18353 18354 18355 18356 18357 18358 18359 18360 18361 18362 18363 18364 18365 18366 18367 18368 18369 18370 18371 18372 18373 18374 18375 18376 18377 18378 18379 18380 18381 18382 18383 18384 18385 18386 18387 18388 18389 18390 18391 18392 18393 18394 18395 18396 18397 18398 18399 18400 18401 18402 18403 18404 18405 18406 18407 18408 18409 18410 18411 18412 18413 18414 18415 18416 18417 18418 18419 18420 18421 18422 18423 18424 18425 18426 18427 18428 18429 18430 18431 18432 18433 18434 18435 18436 18437 18438 18439 18440 18441 18442 18443 18444 18445 18446 18447 18448 18449 18450 18451 18452 18453 18454 18455 18456 18457 18458 18459 18460 18461 18462 18463 18464 18465 18466 18467 18468 18469 18470 18471 18472 18473 18474 18475 18476 18477 18478 18479 18480 18481 18482 18483 18484 18485 18486 18487 18488 18489 18490 18491 18492 18493 18494 18495 18496 18497 18498 18499 18500 18501 18502 18503 18504 18505 18506 18507 18508 18509 18510 18511 18512 18513 18514 18515 18516 18517 18518 18519 18520 18521 18522 18523 18524 18525 18526 18527 18528 18529 18530 18531 18532 18533 18534 18535 18536 18537 18538 18539 18540 18541 18542 18543 18544 18545 18546 18547 18548 18549 18550 18551 18552 18553 18554 18555 18556 18557 18558 18559 18560 18561 18562 18563 18564 18565 18566 18567 18568 18569 18570 18571 18572 18573 18574 18575 18576 18577 18578 18579 18580 18581 18582 18583 18584 18585 18586 18587 18588 18589 18590 18591 18592 18593 18594 18595 18596 18597 18598 18599 18600 18601 18602 18603 18604 18605 18606 18607 18608 18609 18610 18611 18612 18613 18614 18615 18616 18617 18618 18619 18620 18621 18622 18623 18624 18625 18626 18627 18628 18629 18630 18631 18632 18633 18634 18635 18636 18637 18638 18639 18640 18641 18642 18643 18644 18645 18646 18647 18648 18649 18650 18651 18652 18653 18654 18655 18656 18657 18658 18659 18660 18661 18662 18663 18664 18665 18666 18667 18668 18669 18670 18671 18672 18673 18674 18675 18676 18677 18678 18679 18680 18681 18682 18683 18684 18685 18686 18687 18688 18689 18690 18691 18692 18693 18694 18695 18696 18697 18698 18699 18700 18701 18702 18703 18704 18705 18706 18707 18708 18709 18710 18711 18712 18713 18714 18715 18716 18717 18718 18719 18720 18721 18722 18723 18724 18725 18726 18727 18728 18729 18730 18731 18732 18733 18734 18735 18736 18737 18738 18739 18740 18741 18742 18743 18744 18745 18746 18747 18748 18749 18750 18751 18752 18753 18754 18755 18756 18757 18758 18759 18760 18761 18762 18763 18764 18765 18766 18767 18768 18769 18770 18771 18772 18773 18774 18775 18776 18777 18778 18779 18780 18781 18782 18783 18784 18785 18786 18787 18788 18789 18790 18791 18792 18793 18794 18795 18796 18797 18798 18799 18800 18801 18802 18803 18804 18805 18806 18807 18808 18809 18810 18811 18812 18813 18814 18815 18816 18817 18818 18819 18820 18821 18822 18823 18824 18825 18826 18827 18828 18829 18830 18831 18832 18833 18834 18835 18836 18837 18838 18839 18840 18841 18842 18843 18844 18845 18846 18847 18848 18849 18850 18851 18852 18853 18854 18855 18856 18857 18858 18859 18860 18861 18862 18863 18864 18865 18866 18867 18868 18869 18870 18871 18872 18873 18874 18875 18876 18877 18878 18879 18880 18881 18882 18883 18884 18885 18886 18887 18888 18889 18890 18891 18892 18893 18894 18895 18896 18897 18898 18899 18900 18901 18902 18903 18904 18905 18906 18907 18908 18909 18910 18911 18912 18913 18914 18915 18916 18917 18918 18919 18920 18921 18922 18923 18924 18925 18926 18927 18928 18929 18930 18931 18932 18933 18934 18935 18936 18937 18938 18939 18940 18941 18942 18943 18944 18945 18946 18947 18948 18949 18950 18951 18952 18953 18954 18955 18956 18957 18958 18959 18960 18961 18962 18963 18964 18965 18966 18967 18968 18969 18970 18971 18972 18973 18974 18975 18976 18977 18978 18979 18980 18981 18982 18983 18984 18985 18986 18987 18988 18989 18990 18991 18992 18993 18994 18995 18996 18997 18998 18999 19000 19001 19002 19003 19004 19005 19006 19007 19008 19009 19010 19011 19012 19013 19014 19015 19016 19017 19018 19019 19020 19021 19022 19023 19024 19025 19026 19027 19028 19029 19030 19031 19032 19033 19034 19035 19036 19037 19038 19039 19040 19041 19042 19043 19044 19045 19046 19047 19048 19049 19050 19051 19052 19053 19054 19055 19056 19057 19058 19059 19060 19061 19062 19063 19064 19065 19066 19067 19068 19069 19070 19071 19072 19073 19074 19075 19076 19077 19078 19079 19080 19081 19082 19083 19084 19085 19086 19087 19088 19089 19090 19091 19092 19093 19094 19095 19096 19097 19098 19099 19100 19101 19102 19103 19104 19105 19106 19107 19108 19109 19110 19111 19112 19113 19114 19115 19116 19117 19118 19119 19120 19121 19122 19123 19124 19125 19126 19127 19128 19129 19130 19131 19132 19133 19134 19135 19136 19137 19138 19139 19140 19141 19142 19143 19144 19145 19146 19147 19148 19149 19150 19151 19152 19153 19154 19155 19156 19157 19158 19159 19160 19161 19162 19163 19164 19165 19166 19167 19168 19169 19170 19171 19172 19173 19174 19175 19176 19177 19178 19179 19180 19181 19182 19183 19184 19185 19186 19187 19188 19189 19190 19191 19192 19193 19194 19195 19196 19197 19198 19199 19200 19201 19202 19203 19204 19205 19206 19207 19208 19209 19210 19211 19212 19213 19214 19215 19216 19217 19218 19219 19220 19221 19222 19223 19224 19225 19226 19227 19228 19229 19230 19231 19232 19233 19234 19235 19236 19237 19238 19239 19240 19241 19242 19243 19244 19245 19246 19247 19248 19249 19250 19251 19252 19253 19254 19255 19256 19257 19258 19259 19260 19261 19262 19263 19264 19265 19266 19267 19268 19269 19270 19271 19272 19273 19274 19275 19276 19277 19278 19279 19280 19281 19282 19283 19284 19285 19286 19287 19288 19289 19290 19291 19292 19293 19294 19295 19296 19297 19298 19299 19300 19301 19302 19303 19304 19305 19306 19307 19308 19309 19310 19311 19312 19313 19314 19315 19316 19317 19318 19319 19320 19321 19322 19323 19324 19325 19326 19327 19328 19329 19330 19331 19332 19333 19334 19335 19336 19337 19338 19339 19340 19341 19342 19343 19344 19345 19346 19347 19348 19349 19350 19351 19352 19353 19354 19355 19356 19357 19358 19359 19360 19361 19362 19363 19364 19365 19366 19367 19368 19369 19370 19371 19372 19373 19374 19375 19376 19377 19378 19379 19380 19381 19382 19383 19384 19385 19386 19387 19388 19389 19390 19391 19392 19393 19394 19395 19396 19397 19398 19399 19400 19401 19402 19403 19404 19405 19406 19407 19408 19409 19410 19411 19412 19413 19414 19415 19416 19417 19418 19419 19420 19421 19422 19423 19424 19425 19426 19427 19428 19429 19430 19431 19432 19433 19434 19435 19436 19437 19438 19439 19440 19441 19442 19443 19444 19445 19446 19447 19448 19449 19450 19451 19452 19453 19454 19455 19456 19457 19458 19459 19460 19461 19462 19463 19464 19465 19466 19467 19468 19469 19470 19471 19472 19473 19474 19475 19476 19477 19478 19479 19480 19481 19482 19483 19484 19485 19486 19487 19488 19489 19490 19491 19492 19493 19494 19495 19496 19497 19498 19499 19500 19501 19502 19503 19504 19505 19506 19507 19508 19509 19510 19511 19512 19513 19514 19515 19516 19517 19518 19519 19520 19521 19522 19523 19524 19525 19526 19527 19528 19529 19530 19531 19532 19533 19534 19535 19536 19537 19538 19539 19540 19541 19542 19543 19544 19545 19546 19547 19548 19549 19550 19551 19552 19553 19554 19555 19556 19557 19558 19559 19560 19561 19562 19563 19564 19565 19566 19567 19568 19569 19570 19571 19572 19573 19574 19575 19576 19577 19578 19579 19580 19581 19582 19583 19584 19585 19586 19587 19588 19589 19590 19591 19592 19593 19594 19595 19596 19597 19598 19599 19600 19601 19602 19603 19604 19605 19606 19607 19608 19609 19610 19611 19612 19613 19614 19615 19616 19617 19618 19619 19620 19621 19622 19623 19624 19625 19626 19627 19628 19629 19630 19631 19632 19633 19634 19635 19636 19637 19638 19639 19640 19641 19642 19643 19644 19645 19646 19647 19648 19649 19650 19651 19652 19653 19654 19655 19656 19657 19658 19659 19660 19661 19662 19663 19664 19665 19666 19667 19668 19669 19670 19671 19672 19673 19674 19675 19676 19677 19678 19679 19680 19681 19682 19683 19684 19685 19686 19687 19688 19689 19690 19691 19692 19693 19694 19695 19696 19697 19698 19699 19700 19701 19702 19703 19704 19705 19706 19707 19708 19709 19710 19711 19712 19713 19714 19715 19716 19717 19718 19719 19720 19721 19722 19723 19724 19725 19726 19727 19728 19729 19730 19731 19732 19733 19734 19735 19736 19737 19738 19739 19740 19741 19742 19743 19744 19745 19746 19747 19748 19749 19750 19751 19752 19753 19754 19755 19756 19757 19758 19759 19760 19761 19762 19763 19764 19765 19766 19767 19768 19769 19770 19771 19772 19773 19774 19775 19776 19777 19778 19779 19780 19781 19782 19783 19784 19785 19786 19787 19788 19789 19790 19791 19792 19793 19794 19795 19796 19797 19798 19799 19800 19801 19802 19803 19804 19805 19806 19807 19808 19809 19810 19811 19812 19813 19814 19815 19816 19817 19818 19819 19820 19821 19822 19823 19824 19825 19826 19827 19828 19829 19830 19831 19832 19833 19834 19835 19836 19837 19838 19839 19840 19841 19842 19843 19844 19845 19846 19847 19848 19849 19850 19851 19852 19853 19854 19855 19856 19857 19858 19859 19860 19861 19862 19863 19864 19865 19866 19867 19868 19869 19870 19871 19872 19873 19874 19875 19876 19877 19878 19879 19880 19881 19882 19883 19884 19885 19886 19887 19888 19889 19890 19891 19892 19893 19894 19895 19896 19897 19898 19899 19900 19901 19902 19903 19904 19905 19906 19907 19908 19909 19910 19911 19912 19913 19914 19915 19916 19917 19918 19919 19920 19921 19922 19923 19924 19925 19926 19927 19928 19929 19930 19931 19932 19933 19934 19935 19936 19937 19938 19939 19940 19941 19942 19943 19944 19945 19946 19947 19948 19949 19950 19951 19952 19953 19954 19955 19956 19957 19958 19959 19960 19961 19962 19963 19964 19965 19966 19967 19968 19969 19970 19971 19972 19973 19974 19975 19976 19977 19978 19979 19980 19981 19982 19983 19984 19985 19986 19987 19988 19989 19990 19991 19992 19993 19994 19995 19996 19997 19998 19999 20000 20001 20002 20003 20004 20005 20006 20007 20008 20009 20010 20011 20012 20013 20014 20015 20016 20017 20018 20019 20020 20021 20022 20023 20024 20025 20026 20027 20028 20029 20030 20031 20032 20033 20034 20035 20036 20037 20038 20039 20040 20041 20042 20043 20044 20045 20046 20047 20048 20049 20050 20051 20052 20053 20054 20055 20056 20057 20058 20059 20060 20061 20062 20063 20064 20065 20066 20067 20068 20069 20070 20071 20072 20073 20074 20075 20076 20077 20078 20079 20080 20081 20082 20083 20084 20085 20086 20087 20088 20089 20090 20091 20092 20093 20094 20095 20096 20097 20098 20099 20100 20101 20102 20103 20104 20105 20106 20107 20108 20109 20110 20111 20112 20113 20114 20115 20116 20117 20118 20119 20120 20121 20122 20123 20124 20125 20126 20127 20128 20129 20130 20131 20132 20133 20134 20135 20136 20137 20138 20139 20140 20141 20142 20143 20144 20145 20146 20147 20148 20149 20150 20151 20152 20153 20154 20155 20156 20157 20158 20159 20160 20161 20162 20163 20164 20165 20166 20167 20168 20169 20170 20171 20172 20173 20174 20175 20176 20177 20178 20179 20180 20181 20182 20183 20184 20185 20186 20187 20188 20189 20190 20191 20192 20193 20194 20195 20196 20197 20198 20199 20200 20201 20202 20203 20204 20205 20206 20207 20208 20209 20210 20211 20212 20213 20214 20215 20216 20217 20218 20219 20220 20221 20222 20223 20224 20225 20226 20227 20228 20229 20230 20231 20232 20233 20234 20235 20236 20237 20238 20239 20240 20241 20242 20243 20244 20245 20246 20247 20248 20249 20250 20251 20252 20253 20254 20255 20256 20257 20258 20259 20260 20261 20262 20263 20264 20265 20266 20267 20268 20269 20270 20271 20272 20273 20274 20275 20276 20277 20278 20279 20280 20281 20282 20283 20284 20285 20286 20287 20288 20289 20290 20291 20292 20293 20294 20295 20296 20297 20298 20299 20300 20301 20302 20303 20304 20305 20306 20307 20308 20309 20310 20311 20312 20313 20314 20315 20316 20317 20318 20319 20320 20321 20322 20323 20324 20325 20326 20327 20328 20329 20330 20331 20332 20333 20334 20335 20336 20337 20338 20339 20340 20341 20342 20343 20344 20345 20346 20347 20348 20349 20350 20351 20352 20353 20354 20355 20356 20357 20358 20359 20360 20361 20362 20363 20364 20365 20366 20367 20368 20369 20370 20371 20372 20373 20374 20375 20376 20377 20378 20379 20380 20381 20382 20383 20384 20385 20386 20387 20388 20389 20390 20391 20392 20393 20394 20395 20396 20397 20398 20399 20400 20401 20402 20403 20404 20405 20406 20407 20408 20409 20410 20411 20412 20413 20414 20415 20416 20417 20418 20419 20420 20421 20422 20423 20424 20425 20426 20427 20428 20429 20430 20431 20432 20433 20434 20435 20436 20437 20438 20439 20440 20441 20442 20443 20444 20445 20446 20447 20448 20449 20450 20451 20452 20453 20454 20455 20456 20457 20458 20459 20460 20461 20462 20463 20464 20465 20466 20467 20468 20469 20470 20471 20472 20473 20474 20475 20476 20477 20478 20479 20480 20481 20482 20483 20484 20485 20486 20487 20488 20489 20490 20491 20492 20493 20494 20495 20496 20497 20498 20499 20500 20501 20502 20503 20504 20505 20506 20507 20508 20509 20510 20511 20512 20513 20514 20515 20516 20517 20518 20519 20520 20521 20522 20523 20524 20525 20526 20527 20528 20529 20530 20531 20532 20533 20534 20535 20536 20537 20538 20539 20540 20541 20542 20543 20544 20545 20546 20547 20548 20549 20550 20551 20552 20553 20554 20555 20556 20557 20558 20559 20560 20561 20562 20563 20564 20565 20566 20567 20568 20569 20570 20571 20572 20573 20574 20575 20576 20577 20578 20579 20580 20581 20582 20583 20584 20585 20586 20587 20588 20589 20590 20591 20592 20593 20594 20595 20596 20597 20598 20599 20600 20601 20602 20603 20604 20605 20606 20607 20608 20609 20610 20611 20612 20613 20614 20615 20616 20617 20618 20619 20620 20621 20622 20623 20624 20625 20626 20627 20628 20629 20630 20631 20632 20633 20634 20635 20636 20637 20638 20639 20640 20641 20642 20643 20644 20645 20646 20647 20648 20649 20650 20651 20652 20653 20654 20655 20656 20657 20658 20659 20660 20661 20662 20663 20664 20665 20666 20667 20668 20669 20670 20671 20672 20673 20674 20675 20676 20677 20678 20679 20680 20681 20682 20683 20684 20685 20686 20687 20688 20689 20690 20691 20692 20693 20694 20695 20696 20697 20698 20699 20700 20701 20702 20703 20704 20705 20706 20707 20708 20709 20710 20711 20712 20713 20714 20715 20716 20717 20718 20719 20720 20721 20722 20723 20724 20725 20726 20727 20728 20729 20730 20731 20732 20733 20734 20735 20736 20737 20738 20739 20740 20741 20742 20743 20744 20745 20746 20747 20748 20749 20750 20751 20752 20753 20754 20755 20756 20757 20758 20759 20760 20761 20762 20763 20764 20765 20766 20767 20768 20769 20770 20771 20772 20773 20774 20775 20776 20777 20778 20779 20780 20781 20782 20783 20784 20785 20786 20787 20788 20789 20790 20791 20792 20793 20794 20795 20796 20797 20798 20799 20800 20801 20802 20803 20804 20805 20806 20807 20808 20809 20810 20811 20812 20813 20814 20815 20816 20817 20818 20819 20820 20821 20822 20823 20824 20825 20826 20827 20828 20829 20830 20831 20832 20833 20834 20835 20836 20837 20838 20839 20840 20841 20842 20843 20844 20845 20846 20847 20848 20849 20850 20851 20852 20853 20854 20855 20856 20857 20858 20859 20860 20861 20862 20863 20864 20865 20866 20867 20868 20869 20870 20871 20872 20873 20874 20875 20876 20877 20878 20879 20880 20881 20882 20883 20884 20885 20886 20887 20888 20889 20890 20891 20892 20893 20894 20895 20896 20897 20898 20899 20900 20901 20902 20903 20904 20905 20906 20907 20908 20909 20910 20911 20912 20913 20914 20915 20916 20917 20918 20919 20920 20921 20922 20923 20924 20925 20926 20927 20928 20929 20930 20931 20932 20933 20934 20935 20936 20937 20938 20939 20940 20941 20942 20943 20944 20945 20946 20947 20948 20949 20950 20951 20952 20953 20954 20955 20956 20957 20958 20959 20960 20961 20962 20963 20964 20965 20966 20967 20968 20969 20970 20971 20972 20973 20974 20975 20976 20977 20978 20979 20980 20981 20982 20983 20984 20985 20986 20987 20988 20989 20990 20991 20992 20993 20994 20995 20996 20997 20998 20999 21000 21001 21002 21003 21004 21005 21006 21007 21008 21009 21010 21011 21012 21013 21014 21015 21016 21017 21018 21019 21020 21021 21022 21023 21024 21025 21026 21027 21028 21029 21030 21031 21032 21033 21034 21035 21036 21037 21038 21039 21040 21041 21042 21043 21044 21045 21046 21047 21048 21049 21050 21051 21052 21053 21054 21055 21056 21057 21058 21059 21060 21061 21062 21063 21064 21065 21066 21067 21068 21069 21070 21071 21072 21073 21074 21075 21076 21077 21078 21079 21080 21081 21082 21083 21084 21085 21086 21087 21088 21089 21090 21091 21092 21093 21094 21095 21096 21097 21098 21099 21100 21101 21102 21103 21104 21105 21106 21107 21108 21109 21110 21111 21112 21113 21114 21115 21116 21117 21118 21119 21120 21121 21122 21123 21124 21125 21126 21127 21128 21129 21130 21131 21132 21133 21134 21135 21136 21137 21138 21139 21140 21141 21142 21143 21144 21145 21146 21147 21148 21149 21150 21151 21152 21153 21154 21155 21156 21157 21158 21159 21160 21161 21162 21163 21164 21165 21166 21167 21168 21169 21170 21171 21172 21173 21174 21175 21176 21177 21178 21179 21180 21181 21182 21183 21184 21185 21186 21187 21188 21189 21190 21191 21192 21193 21194 21195 21196 21197 21198 21199 21200 21201 21202 21203 21204 21205 21206 21207 21208 21209 21210 21211 21212 21213 21214 21215 21216 21217 21218 21219 21220 21221 21222 21223 21224 21225 21226 21227 21228 21229 21230 21231 21232 21233 21234 21235 21236 21237 21238 21239 21240 21241 21242 21243 21244 21245 21246 21247 21248 21249 21250 21251 21252 21253 21254 21255 21256 21257 21258 21259 21260 21261 21262 21263 21264 21265 21266 21267 21268 21269 21270 21271 21272 21273 21274 21275 21276 21277 21278 21279 21280 21281 21282 21283 21284 21285 21286 21287 21288 21289 21290 21291 21292 21293 21294 21295 21296 21297 21298 21299 21300 21301 21302 21303 21304 21305 21306 21307 21308 21309 21310 21311 21312 21313 21314 21315 21316 21317 21318 21319 21320 21321 21322 21323 21324 21325 21326 21327 21328 21329 21330 21331 21332 21333 21334 21335 21336 21337 21338 21339 21340 21341 21342 21343 21344 21345 21346 21347 21348 21349 21350 21351 21352 21353 21354 21355 21356 21357 21358 21359 21360 21361 21362 21363 21364 21365 21366 21367 21368 21369 21370 21371 21372 21373 21374 21375 21376 21377 21378 21379 21380 21381 21382 21383 21384 21385 21386 21387 21388 21389 21390 21391 21392 21393 21394 21395 21396 21397 21398 21399 21400 21401 21402 21403 21404 21405 21406 21407 21408 21409 21410 21411 21412 21413 21414 21415 21416 21417 21418 21419 21420 21421 21422 21423 21424 21425 21426 21427 21428 21429 21430 21431 21432 21433 21434 21435 21436 21437 21438 21439 21440 21441 21442 21443 21444 21445 21446 21447 21448 21449 21450 21451 21452 21453 21454 21455 21456 21457 21458 21459 21460 21461 21462 21463 21464 21465 21466 21467 21468 21469 21470 21471 21472 21473 21474 21475 21476 21477 21478 21479 21480 21481 21482 21483 21484 21485 21486 21487 21488 21489 21490 21491 21492 21493 21494 21495 21496 21497 21498 21499 21500 21501 21502 21503 21504 21505 21506 21507 21508 21509 21510 21511 21512 21513 21514 21515 21516 21517 21518 21519 21520 21521 21522 21523 21524 21525 21526 21527 21528 21529 21530 21531 21532 21533 21534 21535 21536 21537 21538 21539 21540 21541 21542 21543 21544 21545 21546 21547 21548 21549 21550 21551 21552 21553 21554 21555 21556 21557 21558 21559 21560 21561 21562 21563 21564 21565 21566 21567 21568 21569 21570 21571 21572 21573 21574 21575 21576 21577 21578 21579 21580 21581 21582 21583 21584 21585 21586 21587 21588 21589 21590 21591 21592 21593 21594 21595 21596 21597 21598 21599 21600 21601 21602 21603 21604 21605 21606 21607 21608 21609 21610 21611 21612 21613 21614 21615 21616 21617 21618 21619 21620 21621 21622 21623 21624 21625 21626 21627 21628 21629 21630 21631 21632 21633 21634 21635 21636 21637 21638 21639 21640 21641 21642 21643 21644 21645 21646 21647 21648 21649 21650 21651 21652 21653 21654 21655 21656 21657 21658 21659 21660 21661 21662 21663 21664 21665 21666 21667 21668 21669 21670 21671 21672 21673 21674 21675 21676 21677 21678 21679 21680 21681 21682 21683 21684 21685 21686 21687 21688 21689 21690 21691 21692 21693 21694 21695 21696 21697 21698 21699 21700 21701 21702 21703 21704 21705 21706 21707 21708 21709 21710 21711 21712 21713 21714 21715 21716 21717 21718 21719 21720 21721 21722 21723 21724 21725 21726 21727 21728 21729 21730 21731 21732 21733 21734 21735 21736 21737 21738 21739 21740 21741 21742 21743 21744 21745 21746 21747 21748 21749 21750 21751 21752 21753 21754 21755 21756 21757 21758 21759 21760 21761 21762 21763 21764 21765 21766 21767 21768 21769 21770 21771 21772 21773 21774 21775 21776 21777 21778 21779 21780 21781 21782 21783 21784 21785 21786 21787 21788 21789 21790 21791 21792 21793 21794 21795 21796 21797 21798 21799 21800 21801 21802 21803 21804 21805 21806 21807 21808 21809 21810 21811 21812 21813 21814 21815 21816 21817 21818 21819 21820 21821 21822 21823 21824 21825 21826 21827 21828 21829 21830 21831 21832 21833 21834 21835 21836 21837 21838 21839 21840 21841 21842 21843 21844 21845 21846 21847 21848 21849 21850 21851 21852 21853 21854 21855 21856 21857 21858 21859 21860 21861 21862 21863 21864 21865 21866 21867 21868 21869 21870 21871 21872 21873 21874 21875 21876 21877 21878 21879 21880 21881 21882 21883 21884 21885 21886 21887 21888 21889 21890 21891 21892 21893 21894 21895 21896 21897 21898 21899 21900 21901 21902 21903 21904 21905 21906 21907 21908 21909 21910 21911 21912 21913 21914 21915 21916 21917 21918 21919 21920 21921 21922 21923 21924 21925 21926 21927 21928 21929 21930 21931 21932 21933 21934 21935 21936 21937 21938 21939 21940 21941 21942 21943 21944 21945 21946 21947 21948 21949 21950 21951 21952 21953 21954 21955 21956 21957 21958 21959 21960 21961 21962 21963 21964 21965 21966 21967 21968 21969 21970 21971 21972 21973 21974 21975 21976 21977 21978 21979 21980 21981 21982 21983 21984 21985 21986 21987 21988 21989 21990 21991 21992 21993 21994 21995 21996 21997 21998 21999 22000 22001 22002 22003 22004 22005 22006 22007 22008 22009 22010 22011 22012 22013 22014 22015 22016 22017 22018 22019 22020 22021 22022 22023 22024 22025 22026 22027 22028 22029 22030 22031 22032 22033 22034 22035 22036 22037 22038 22039 22040 22041 22042 22043 22044 22045 22046 22047 22048 22049 22050 22051 22052 22053 22054 22055 22056 22057 22058 22059 22060 22061 22062 22063 22064 22065 22066 22067 22068 22069 22070 22071 22072 22073 22074 22075 22076 22077 22078 22079 22080 22081 22082 22083 22084 22085 22086 22087 22088 22089 22090 22091 22092 22093 22094 22095 22096 22097 22098 22099 22100 22101 22102 22103 22104 22105 22106 22107 22108 22109 22110 22111 22112 22113 22114 22115 22116 22117 22118 22119 22120 22121 22122 22123 22124 22125 22126 22127 22128 22129 22130 22131 22132 22133 22134 22135 22136 22137 22138 22139 22140 22141 22142 22143 22144 22145 22146 22147 22148 22149 22150 22151 22152 22153 22154 22155 22156 22157 22158 22159 22160 22161 22162 22163 22164 22165 22166 22167 22168 22169 22170 22171 22172 22173 22174 22175 22176 22177 22178 22179 22180 22181 22182 22183 22184 22185 22186 22187 22188 22189 22190 22191 22192 22193 22194 22195 22196 22197 22198 22199 22200 22201 22202 22203 22204 22205 22206 22207 22208 22209 22210 22211 22212 22213 22214 22215 22216 22217 22218 22219 22220 22221 22222 22223 22224 22225 22226 22227 22228 22229 22230 22231 22232 22233 22234 22235 22236 22237 22238 22239 22240 22241 22242 22243 22244 22245 22246 22247 22248 22249 22250 22251 22252 22253 22254 22255 22256 22257 22258 22259 22260 22261 22262 22263 22264 22265 22266 22267 22268 22269 22270 22271 22272 22273 22274 22275 22276 22277 22278 22279 22280 22281 22282 22283 22284 22285 22286 22287 22288 22289 22290 22291 22292 22293 22294 22295 22296 22297 22298 22299 22300 22301 22302 22303 22304 22305 22306 22307 22308 22309 22310 22311 22312 22313 22314 22315 22316 22317 22318 22319 22320 22321 22322 22323 22324 22325 22326 22327 22328 22329 22330 22331 22332 22333 22334 22335 22336 22337 22338 22339 22340 22341 22342 22343 22344 22345 22346 22347 22348 22349 22350 22351 22352 22353 22354 22355 22356 22357 22358 22359 22360 22361 22362 22363 22364 22365 22366 22367 22368 22369 22370 22371 22372 22373 22374 22375 22376 22377 22378 22379 22380 22381 22382 22383 22384 22385 22386 22387 22388 22389 22390 22391 22392 22393 22394 22395 22396 22397 22398 22399 22400 22401 22402 22403 22404 22405 22406 22407 22408 22409 22410 22411 22412 22413 22414 22415 22416 22417 22418 22419 22420 22421 22422 22423 22424 22425 22426 22427 22428 22429 22430 22431 22432 22433 22434 22435 22436 22437 22438 22439 22440 22441 22442 22443 22444 22445 22446 22447 22448 22449 22450 22451 22452 22453 22454 22455 22456 22457 22458 22459 22460 22461 22462 22463 22464 22465 22466 22467 22468 22469 22470 22471 22472 22473 22474 22475 22476 22477 22478 22479 22480 22481 22482 22483 22484 22485 22486 22487 22488 22489 22490 22491 22492 22493 22494 22495 22496 22497 22498 22499 22500 22501 22502 22503 22504 22505 22506 22507 22508 22509 22510 22511 22512 22513 22514 22515 22516 22517 22518 22519 22520 22521 22522 22523 22524 22525 22526 22527 22528 22529 22530 22531 22532 22533 22534 22535 22536 22537 22538 22539 22540 22541 22542 22543 22544 22545 22546 22547 22548 22549 22550 22551 22552 22553 22554 22555 22556 22557 22558 22559 22560 22561 22562 22563 22564 22565 22566 22567 22568 22569 22570 22571 22572 22573 22574 22575 22576 22577 22578 22579 22580 22581 22582 22583 22584 22585 22586 22587 22588 22589 22590 22591 22592 22593 22594 22595 22596 22597 22598 22599 22600 22601 22602 22603 22604 22605 22606 22607 22608 22609 22610 22611 22612 22613 22614 22615 22616 22617 22618 22619 22620 22621 22622 22623 22624 22625 22626 22627 22628 22629 22630 22631 22632 22633 22634 22635 22636 22637 22638 22639 22640 22641 22642 22643 22644 22645 22646 22647 22648 22649 22650 22651 22652 22653 22654 22655 22656 22657 22658 22659 22660 22661 22662 22663 22664 22665 22666 22667 22668 22669 22670 22671 22672 22673 22674 22675 22676 22677 22678 22679 22680 22681 22682 22683 22684 22685 22686 22687 22688 22689 22690 22691 22692 22693 22694 22695 22696 22697 22698 22699 22700 22701 22702 22703 22704 22705 22706 22707 22708 22709 22710 22711 22712 22713 22714 22715 22716 22717 22718 22719 22720 22721 22722 22723 22724 22725 22726 22727 22728 22729 22730 22731 22732 22733 22734 22735 22736 22737 22738 22739 22740 22741 22742 22743 22744 22745 22746 22747 22748 22749 22750 22751 22752 22753 22754 22755 22756 22757 22758 22759 22760 22761 22762 22763 22764 22765 22766 22767 22768 22769 22770 22771 22772 22773 22774 22775 22776 22777 22778 22779 22780 22781 22782 22783 22784 22785 22786 22787 22788 22789 22790 22791 22792 22793 22794 22795 22796 22797 22798 22799 22800 22801 22802 22803 22804 22805 22806 22807 22808 22809 22810 22811 22812 22813 22814 22815 22816 22817 22818 22819 22820 22821 22822 22823 22824 22825 22826 22827 22828 22829 22830 22831 22832 22833 22834 22835 22836 22837 22838 22839 22840 22841 22842 22843 22844 22845 22846 22847 22848 22849 22850 22851 22852 22853 22854 22855 22856 22857 22858 22859 22860 22861 22862 22863 22864 22865 22866 22867 22868 22869 22870 22871 22872 22873 22874 22875 22876 22877 22878 22879 22880 22881 22882 22883 22884 22885 22886 22887 22888 22889 22890 22891 22892 22893 22894 22895 22896 22897 22898 22899 22900 22901 22902 22903 22904 22905 22906 22907 22908 22909 22910 22911 22912 22913 22914 22915 22916 22917 22918 22919 22920 22921 22922 22923 22924 22925 22926 22927 22928 22929 22930 22931 22932 22933 22934 22935 22936 22937 22938 22939 22940 22941 22942 22943 22944 22945 22946 22947 22948 22949 22950 22951 22952 22953 22954 22955 22956 22957 22958 22959 22960 22961 22962 22963 22964 22965 22966 22967 22968 22969 22970 22971 22972 22973 22974 22975 22976 22977 22978 22979 22980 22981 22982 22983 22984 22985 22986 22987 22988 22989 22990 22991 22992 22993 22994 22995 22996 22997 22998 22999 23000 23001 23002 23003 23004 23005 23006 23007 23008 23009 23010 23011 23012 23013 23014 23015 23016 23017 23018 23019 23020 23021 23022 23023 23024 23025 23026 23027 23028 23029 23030 23031 23032 23033 23034 23035 23036 23037 23038 23039 23040 23041 23042 23043 23044 23045 23046 23047 23048 23049 23050 23051 23052 23053 23054 23055 23056 23057 23058 23059 23060 23061 23062 23063 23064 23065 23066 23067 23068 23069 23070 23071 23072 23073 23074 23075 23076 23077 23078 23079 23080 23081 23082 23083 23084 23085 23086 23087 23088 23089 23090 23091 23092 23093 23094 23095 23096 23097 23098 23099 23100 23101 23102 23103 23104 23105 23106 23107 23108 23109 23110 23111 23112 23113 23114 23115 23116 23117 23118 23119 23120 23121 23122 23123 23124 23125 23126 23127 23128 23129 23130 23131 23132 23133 23134 23135 23136 23137 23138 23139 23140 23141 23142 23143 23144 23145 23146 23147 23148 23149 23150 23151 23152 23153 23154 23155 23156 23157 23158 23159 23160 23161 23162 23163 23164 23165 23166 23167 23168 23169 23170 23171 23172 23173 23174 23175 23176 23177 23178 23179 23180 23181 23182 23183 23184 23185 23186 23187 23188 23189 23190 23191 23192 23193 23194 23195 23196 23197 23198 23199 23200 23201 23202 23203 23204 23205 23206 23207 23208 23209 23210 23211 23212 23213 23214 23215 23216 23217 23218 23219 23220 23221 23222 23223 23224 23225 23226 23227 23228 23229 23230 23231 23232 23233 23234 23235 23236 23237 23238 23239 23240 23241 23242 23243 23244 23245 23246 23247 23248 23249 23250 23251 23252 23253 23254 23255 23256 23257 23258 23259 23260 23261 23262 23263 23264 23265 23266 23267 23268 23269 23270 23271 23272 23273 23274 23275 23276 23277 23278 23279 23280 23281 23282 23283 23284 23285 23286 23287 23288 23289 23290 23291 23292 23293 23294 23295 23296 23297 23298 23299 23300 23301 23302 23303 23304 23305 23306 23307 23308 23309 23310 23311 23312 23313 23314 23315 23316 23317 23318 23319 23320 23321 23322 23323 23324 23325 23326 23327 23328 23329 23330 23331 23332 23333 23334 23335 23336 23337 23338 23339 23340 23341 23342 23343 23344 23345 23346 23347 23348 23349 23350 23351 23352 23353 23354 23355 23356 23357 23358 23359 23360 23361 23362 23363 23364 23365 23366 23367 23368 23369 23370 23371 23372 23373 23374 23375 23376 23377 23378 23379 23380 23381 23382 23383 23384 23385 23386 23387 23388 23389 23390 23391 23392 23393 23394 23395 23396 23397 23398 23399 23400 23401 23402 23403 23404 23405 23406 23407 23408 23409 23410 23411 23412 23413 23414 23415 23416 23417 23418 23419 23420 23421 23422 23423 23424 23425 23426 23427 23428 23429 23430 23431 23432 23433 23434 23435 23436 23437 23438 23439 23440 23441 23442 23443 23444 23445 23446 23447 23448 23449 23450 23451 23452 23453 23454 23455 23456 23457 23458 23459 23460 23461 23462 23463 23464 23465 23466 23467 23468 23469 23470 23471 23472 23473 23474 23475 23476 23477 23478 23479 23480 23481 23482 23483 23484 23485 23486 23487 23488 23489 23490 23491 23492 23493 23494 23495 23496 23497 23498 23499 23500 23501 23502 23503 23504 23505 23506 23507 23508 23509 23510 23511 23512 23513 23514 23515 23516 23517 23518 23519 23520 23521 23522 23523 23524 23525 23526 23527 23528 23529 23530 23531 23532 23533 23534 23535 23536 23537 23538 23539 23540 23541 23542 23543 23544 23545 23546 23547 23548 23549 23550 23551 23552 23553 23554 23555 23556 23557 23558 23559 23560 23561 23562 23563 23564 23565 23566 23567 23568 23569 23570 23571 23572 23573 23574 23575 23576 23577 23578 23579 23580 23581 23582 23583 23584 23585 23586 23587 23588 23589 23590 23591 23592 23593 23594 23595 23596 23597 23598 23599 23600 23601 23602 23603 23604 23605 23606 23607 23608 23609 23610 23611 23612 23613 23614 23615 23616 23617 23618 23619 23620 23621 23622 23623 23624 23625 23626 23627 23628 23629 23630 23631 23632 23633 23634 23635 23636 23637 23638 23639 23640 23641 23642 23643 23644 23645 23646 23647 23648 23649 23650 23651 23652 23653 23654 23655 23656 23657 23658 23659 23660 23661 23662 23663 23664 23665 23666 23667 23668 23669 23670 23671 23672 23673 23674 23675 23676 23677 23678 23679 23680 23681 23682 23683 23684 23685 23686 23687 23688 23689 23690 23691 23692 23693 23694 23695 23696 23697 23698 23699 23700 23701 23702 23703 23704 23705 23706 23707 23708 23709 23710 23711 23712 23713 23714 23715 23716 23717 23718 23719 23720 23721 23722 23723 23724 23725 23726 23727 23728 23729 23730 23731 23732 23733 23734 23735 23736 23737 23738 23739 23740 23741 23742 23743 23744 23745 23746 23747 23748 23749 23750 23751 23752 23753 23754 23755 23756 23757 23758 23759 23760 23761 23762 23763 23764 23765 23766 23767 23768 23769 23770 23771 23772 23773 23774 23775 23776 23777 23778 23779 23780 23781 23782 23783 23784 23785 23786 23787 23788 23789 23790 23791 23792 23793 23794 23795 23796 23797 23798 23799 23800 23801 23802 23803 23804 23805 23806 23807 23808 23809 23810 23811 23812 23813 23814 23815 23816 23817 23818 23819 23820 23821 23822 23823 23824 23825 23826 23827 23828 23829 23830 23831 23832 23833 23834 23835 23836 23837 23838 23839 23840 23841 23842 23843 23844 23845 23846 23847 23848 23849 23850 23851 23852 23853 23854 23855 23856 23857 23858 23859 23860 23861 23862 23863 23864 23865 23866 23867 23868 23869 23870 23871 23872 23873 23874 23875 23876 23877 23878 23879 23880 23881 23882 23883 23884 23885 23886 23887 23888 23889 23890 23891 23892 23893 23894 23895 23896 23897 23898 23899 23900 23901 23902 23903 23904 23905 23906 23907 23908 23909 23910 23911 23912 23913 23914 23915 23916 23917 23918 23919 23920 23921 23922 23923 23924 23925 23926 23927 23928 23929 23930 23931 23932 23933 23934 23935 23936 23937 23938 23939 23940 23941 23942 23943 23944 23945 23946 23947 23948 23949 23950 23951 23952 23953 23954 23955 23956 23957 23958 23959 23960 23961 23962 23963 23964 23965 23966 23967 23968 23969 23970 23971 23972 23973 23974 23975 23976 23977 23978 23979 23980 23981 23982 23983 23984 23985 23986 23987 23988 23989 23990 23991 23992 23993 23994 23995 23996 23997 23998 23999 24000 24001 24002 24003 24004 24005 24006 24007 24008 24009 24010 24011 24012 24013 24014 24015 24016 24017 24018 24019 24020 24021 24022 24023 24024 24025 24026 24027 24028 24029 24030 24031 24032 24033 24034 24035 24036 24037 24038 24039 24040 24041 24042 24043 24044 24045 24046 24047 24048 24049 24050 24051 24052 24053 24054 24055 24056 24057 24058 24059 24060 24061 24062 24063 24064 24065 24066 24067 24068 24069 24070 24071 24072 24073 24074 24075 24076 24077 24078 24079 24080 24081 24082 24083 24084 24085 24086 24087 24088 24089 24090 24091 24092 24093 24094 24095 24096 24097 24098 24099 24100 24101 24102 24103 24104 24105 24106 24107 24108 24109 24110 24111 24112 24113 24114 24115 24116 24117 24118 24119 24120 24121 24122 24123 24124 24125 24126 24127 24128 24129 24130 24131 24132 24133 24134 24135 24136 24137 24138 24139 24140 24141 24142 24143 24144 24145 24146 24147 24148 24149 24150 24151 24152 24153 24154 24155 24156 24157 24158 24159 24160 24161 24162 24163 24164 24165 24166 24167 24168 24169 24170 24171 24172 24173 24174 24175 24176 24177 24178 24179 24180 24181 24182 24183 24184 24185 24186 24187 24188 24189 24190 24191 24192 24193 24194 24195 24196 24197 24198 24199 24200 24201 24202 24203 24204 24205 24206 24207 24208 24209 24210 24211 24212 24213 24214 24215 24216 24217 24218 24219 24220 24221 24222 24223 24224 24225 24226 24227 24228 24229 24230 24231 24232 24233 24234 24235 24236 24237 24238 24239 24240 24241 24242 24243 24244 24245 24246 24247 24248 24249 24250 24251 24252 24253 24254 24255 24256 24257 24258 24259 24260 24261 24262 24263 24264 24265 24266 24267 24268 24269 24270 24271 24272 24273 24274 24275 24276 24277 24278 24279 24280 24281 24282 24283 24284 24285 24286 24287 24288 24289 24290 24291 24292 24293 24294 24295 24296 24297 24298 24299 24300 24301 24302 24303 24304 24305 24306 24307 24308 24309 24310 24311 24312 24313 24314 24315 24316 24317 24318 24319 24320 24321 24322 24323 24324 24325 24326 24327 24328 24329 24330 24331 24332 24333 24334 24335 24336 24337 24338 24339 24340 24341 24342 24343 24344 24345 24346 24347 24348 24349 24350 24351 24352 24353 24354 24355 24356 24357 24358 24359 24360 24361 24362 24363 24364 24365 24366 24367 24368 24369 24370 24371 24372 24373 24374 24375 24376 24377 24378 24379 24380 24381 24382 24383 24384 24385 24386 24387 24388 24389 24390 24391 24392 24393 24394 24395 24396 24397 24398 24399 24400 24401 24402 24403 24404 24405 24406 24407 24408 24409 24410 24411 24412 24413 24414 24415 24416 24417 24418 24419 24420 24421 24422 24423 24424 24425 24426 24427 24428 24429 24430 24431 24432 24433 24434 24435 24436 24437 24438 24439 24440 24441 24442 24443 24444 24445 24446 24447 24448 24449 24450 24451 24452 24453 24454 24455 24456 24457 24458 24459 24460 24461 24462 24463 24464 24465 24466 24467 24468 24469 24470 24471 24472 24473 24474 24475 24476 24477 24478 24479 24480 24481 24482 24483 24484 24485 24486 24487 24488 24489 24490 24491 24492 24493 24494 24495 24496 24497 24498 24499 24500 24501 24502 24503 24504 24505 24506 24507 24508 24509 24510 24511 24512 24513 24514 24515 24516 24517 24518 24519 24520 24521 24522 24523 24524 24525 24526 24527 24528 24529 24530 24531 24532 24533 24534 24535 24536 24537 24538 24539 24540 24541 24542 24543 24544 24545 24546 24547 24548 24549 24550 24551 24552 24553 24554 24555 24556 24557 24558 24559 24560 24561 24562 24563 24564 24565 24566 24567 24568 24569 24570 24571 24572 24573 24574 24575 24576 24577 24578 24579 24580 24581 24582 24583 24584 24585 24586 24587 24588 24589 24590 24591 24592 24593 24594 24595 24596 24597 24598 24599 24600 24601 24602 24603 24604 24605 24606 24607 24608 24609 24610 24611 24612 24613 24614 24615 24616 24617 24618 24619 24620 24621 24622 24623 24624 24625 24626 24627 24628 24629 24630 24631 24632 24633 24634 24635 24636 24637 24638 24639 24640 24641 24642 24643 24644 24645 24646 24647 24648 24649 24650 24651 24652 24653 24654 24655 24656 24657 24658 24659 24660 24661 24662 24663 24664 24665 24666 24667 24668 24669 24670 24671 24672 24673 24674 24675 24676 24677 24678 24679 24680 24681 24682 24683 24684 24685 24686 24687 24688 24689 24690 24691 24692 24693 24694 24695 24696 24697 24698 24699 24700 24701 24702 24703 24704 24705 24706 24707 24708 24709 24710 24711 24712 24713 24714 24715 24716 24717 24718 24719 24720 24721 24722 24723 24724 24725 24726 24727 24728 24729 24730 24731 24732 24733 24734 24735 24736 24737 24738 24739 24740 24741 24742 24743 24744 24745 24746 24747 24748 24749 24750 24751 24752 24753 24754 24755 24756 24757 24758 24759 24760 24761 24762 24763 24764 24765 24766 24767 24768 24769 24770 24771 24772 24773 24774 24775 24776 24777 24778 24779 24780 24781 24782 24783 24784 24785 24786 24787 24788 24789 24790 24791 24792 24793 24794 24795 24796 24797 24798 24799 24800 24801 24802 24803 24804 24805 24806 24807 24808 24809 24810 24811 24812 24813 24814 24815 24816 24817 24818 24819 24820 24821 24822 24823 24824 24825 24826 24827 24828 24829 24830 24831 24832 24833 24834 24835 24836 24837 24838 24839 24840 24841 24842 24843 24844 24845 24846 24847 24848 24849 24850 24851 24852 24853 24854 24855 24856 24857 24858 24859 24860 24861 24862 24863 24864 24865 24866 24867 24868 24869 24870 24871 24872 24873 24874 24875 24876 24877 24878 24879 24880 24881 24882 24883 24884 24885 24886 24887 24888 24889 24890 24891 24892 24893 24894 24895 24896 24897 24898 24899 24900 24901 24902 24903 24904 24905 24906 24907 24908 24909 24910 24911 24912 24913 24914 24915 24916 24917 24918 24919 24920 24921 24922 24923 24924 24925 24926 24927 24928 24929 24930 24931 24932 24933 24934 24935 24936 24937 24938 24939 24940 24941 24942 24943 24944 24945 24946 24947 24948 24949 24950 24951 24952 24953 24954 24955 24956 24957 24958 24959 24960 24961 24962 24963 24964 24965 24966 24967 24968 24969 24970 24971 24972 24973 24974 24975 24976 24977 24978 24979 24980 24981 24982 24983 24984 24985 24986 24987 24988 24989 24990 24991 24992 24993 24994 24995 24996 24997 24998 24999 25000 25001 25002 25003 25004 25005 25006 25007 25008 25009 25010 25011 25012 25013 25014 25015 25016 25017 25018 25019 25020 25021 25022 25023 25024 25025 25026 25027 25028 25029 25030 25031 25032 25033 25034 25035 25036 25037 25038 25039 25040 25041 25042 25043 25044 25045 25046 25047 25048 25049 25050 25051 25052 25053 25054 25055 25056 25057 25058 25059 25060 25061 25062 25063 25064 25065 25066 25067 25068 25069 25070 25071 25072 25073 25074 25075 25076 25077 25078 25079 25080 25081 25082 25083 25084 25085 25086 25087 25088 25089 25090 25091 25092 25093 25094 25095 25096 25097 25098 25099 25100 25101 25102 25103 25104 25105 25106 25107 25108 25109 25110 25111 25112 25113 25114 25115 25116 25117 25118 25119 25120 25121 25122 25123 25124 25125 25126 25127 25128 25129 25130 25131 25132 25133 25134 25135 25136 25137 25138 25139 25140 25141 25142 25143 25144 25145 25146 25147 25148 25149 25150 25151 25152 25153 25154 25155 25156 25157 25158 25159 25160 25161 25162 25163 25164 25165 25166 25167 25168 25169 25170 25171 25172 25173 25174 25175 25176 25177 25178 25179 25180 25181 25182 25183 25184 25185 25186 25187 25188 25189 25190 25191 25192 25193 25194 25195 25196 25197 25198 25199 25200 25201 25202 25203 25204 25205 25206 25207 25208 25209 25210 25211 25212 25213 25214 25215 25216 25217 25218 25219 25220 25221 25222 25223 25224 25225 25226 25227 25228 25229 25230 25231 25232 25233 25234 25235 25236 25237 25238 25239 25240 25241 25242 25243 25244 25245 25246 25247 25248 25249 25250 25251 25252 25253 25254 25255 25256 25257 25258 25259 25260 25261 25262 25263 25264 25265 25266 25267 25268 25269 25270 25271 25272 25273 25274 25275 25276 25277 25278 25279 25280 25281 25282 25283 25284 25285 25286 25287 25288 25289 25290 25291 25292 25293 25294 25295 25296 25297 25298 25299 25300 25301 25302 25303 25304 25305 25306 25307 25308 25309 25310 25311 25312 25313 25314 25315 25316 25317 25318 25319 25320 25321 25322 25323 25324 25325 25326 25327 25328 25329 25330 25331 25332 25333 25334 25335 25336 25337 25338 25339 25340 25341 25342 25343 25344 25345 25346 25347 25348 25349 25350 25351 25352 25353 25354 25355 25356 25357 25358 25359 25360 25361 25362 25363 25364 25365 25366 25367 25368 25369 25370 25371 25372 25373 25374 25375 25376 25377 25378 25379 25380 25381 25382 25383 25384 25385 25386 25387 25388 25389 25390 25391 25392 25393 25394 25395 25396 25397 25398 25399 25400 25401 25402 25403 25404 25405 25406 25407 25408 25409 25410 25411 25412 25413 25414 25415 25416 25417 25418 25419 25420 25421 25422 25423 25424 25425 25426 25427 25428 25429 25430 25431 25432 25433 25434 25435 25436 25437 25438 25439 25440 25441 25442 25443 25444 25445 25446 25447 25448 25449 25450 25451 25452 25453 25454 25455 25456 25457 25458 25459 25460 25461 25462 25463 25464 25465 25466 25467 25468 25469 25470 25471 25472 25473 25474 25475 25476 25477 25478 25479 25480 25481 25482 25483 25484 25485 25486 25487 25488 25489 25490 25491 25492 25493 25494 25495 25496 25497 25498 25499 25500 25501 25502 25503 25504 25505 25506 25507 25508 25509 25510 25511 25512 25513 25514 25515 25516 25517 25518 25519 25520 25521 25522 25523 25524 25525 25526 25527 25528 25529 25530 25531 25532 25533 25534 25535 25536 25537 25538 25539 25540 25541 25542 25543 25544 25545 25546 25547 25548 25549 25550 25551 25552 25553 25554 25555 25556 25557 25558 25559 25560 25561 25562 25563 25564 25565 25566 25567 25568 25569 25570 25571 25572 25573 25574 25575 25576 25577 25578 25579 25580 25581 25582 25583 25584 25585 25586 25587 25588 25589 25590 25591 25592 25593 25594 25595 25596 25597 25598 25599 25600 25601 25602 25603 25604 25605 25606 25607 25608 25609 25610 25611 25612 25613 25614 25615 25616 25617 25618 25619 25620 25621 25622 25623 25624 25625 25626 25627 25628 25629 25630 25631 25632 25633 25634 25635 25636 25637 25638 25639 25640 25641 25642 25643 25644 25645 25646 25647 25648 25649 25650 25651 25652 25653 25654 25655 25656 25657 25658 25659 25660 25661 25662 25663 25664 25665 25666 25667 25668 25669 25670 25671 25672 25673 25674 25675 25676 25677 25678 25679 25680 25681 25682 25683 25684 25685 25686 25687 25688 25689 25690 25691 25692 25693 25694 25695 25696 25697 25698 25699 25700 25701 25702 25703 25704 25705 25706 25707 25708 25709 25710 25711 25712 25713 25714 25715 25716 25717 25718 25719 25720 25721 25722 25723 25724 25725 25726 25727 25728 25729 25730 25731 25732 25733 25734 25735 25736 25737 25738 25739 25740 25741 25742 25743 25744 25745 25746 25747 25748 25749 25750 25751 25752 25753 25754 25755 25756 25757 25758 25759 25760 25761 25762 25763 25764 25765 25766 25767 25768 25769 25770 25771 25772 25773 25774 25775 25776 25777 25778 25779 25780 25781 25782 25783 25784 25785 25786 25787 25788 25789 25790 25791 25792 25793 25794 25795 25796 25797 25798 25799 25800 25801 25802 25803 25804 25805 25806 25807 25808 25809 25810 25811 25812 25813 25814 25815 25816 25817 25818 25819 25820 25821 25822 25823 25824 25825 25826 25827 25828 25829 25830 25831 25832 25833 25834 25835 25836 25837 25838 25839 25840 25841 25842 25843 25844 25845 25846 25847 25848 25849 25850 25851 25852 25853 25854 25855 25856 25857 25858 25859 25860 25861 25862 25863 25864 25865 25866 25867 25868 25869 25870 25871 25872 25873 25874 25875 25876 25877 25878 25879 25880 25881 25882 25883 25884 25885 25886 25887 25888 25889 25890 25891 25892 25893 25894 25895 25896 25897 25898 25899 25900 25901 25902 25903 25904 25905 25906 25907 25908 25909 25910 25911 25912 25913 25914 25915 25916 25917 25918 25919 25920 25921 25922 25923 25924 25925 25926 25927 25928 25929 25930 25931 25932 25933 25934 25935 25936 25937 25938 25939 25940 25941 25942 25943 25944 25945 25946 25947 25948 25949 25950 25951 25952 25953 25954 25955 25956 25957 25958 25959 25960 25961 25962 25963 25964 25965 25966 25967 25968 25969 25970 25971 25972 25973 25974 25975 25976 25977 25978 25979 25980 25981 25982 25983 25984 25985 25986 25987 25988 25989 25990 25991 25992 25993 25994 25995 25996 25997 25998 25999 26000 26001 26002 26003 26004 26005 26006 26007 26008 26009 26010 26011 26012 26013 26014 26015 26016 26017 26018 26019 26020 26021 26022 26023 26024 26025 26026 26027 26028 26029 26030 26031 26032 26033 26034 26035 26036 26037 26038 26039 26040 26041 26042 26043 26044 26045 26046 26047 26048 26049 26050 26051 26052 26053 26054 26055 26056 26057 26058 26059 26060 26061 26062 26063 26064 26065 26066 26067 26068 26069 26070 26071 26072 26073 26074 26075 26076 26077 26078 26079 26080 26081 26082 26083 26084 26085 26086 26087 26088 26089 26090 26091 26092 26093 26094 26095 26096 26097 26098 26099 26100 26101 26102 26103 26104 26105 26106 26107 26108 26109 26110 26111 26112 26113 26114 26115 26116 26117 26118 26119 26120 26121 26122 26123 26124 26125 26126 26127 26128 26129 26130 26131 26132 26133 26134 26135 26136 26137 26138 26139 26140 26141 26142 26143 26144 26145 26146 26147 26148 26149 26150 26151 26152 26153 26154 26155 26156 26157 26158 26159 26160 26161 26162 26163 26164 26165 26166 26167 26168 26169 26170 26171 26172 26173 26174 26175 26176 26177 26178 26179 26180 26181 26182 26183 26184 26185 26186 26187 26188 26189 26190 26191 26192 26193 26194 26195 26196 26197 26198 26199 26200 26201 26202 26203 26204 26205 26206 26207 26208 26209 26210 26211 26212 26213 26214 26215 26216 26217 26218 26219 26220 26221 26222 26223 26224 26225 26226 26227 26228 26229 26230 26231 26232 26233 26234 26235 26236 26237 26238 26239 26240 26241 26242 26243 26244 26245 26246 26247 26248 26249 26250 26251 26252 26253 26254 26255 26256 26257 26258 26259 26260 26261 26262 26263 26264 26265 26266 26267 26268 26269 26270 26271 26272 26273 26274 26275 26276 26277 26278 26279 26280 26281 26282 26283 26284 26285 26286 26287 26288 26289 26290 26291 26292 26293 26294 26295 26296 26297 26298 26299 26300 26301 26302 26303 26304 26305 26306 26307 26308 26309 26310 26311 26312 26313 26314 26315 26316 26317 26318 26319 26320 26321 26322 26323 26324 26325 26326 26327 26328 26329 26330 26331 26332 26333 26334 26335 26336 26337 26338 26339 26340 26341 26342 26343 26344 26345 26346 26347 26348 26349 26350 26351 26352 26353 26354 26355 26356 26357 26358 26359 26360 26361 26362 26363 26364 26365 26366 26367 26368 26369 26370 26371 26372 26373 26374 26375 26376 26377 26378 26379 26380 26381 26382 26383 26384 26385 26386 26387 26388 26389 26390 26391 26392 26393 26394 26395 26396 26397 26398 26399 26400 26401 26402 26403 26404 26405 26406 26407 26408 26409 26410 26411 26412 26413 26414 26415 26416 26417 26418 26419 26420 26421 26422 26423 26424 26425 26426 26427 26428 26429 26430 26431 26432 26433 26434 26435 26436 26437 26438 26439 26440 26441 26442 26443 26444 26445 26446 26447 26448 26449 26450 26451 26452 26453 26454 26455 26456 26457 26458 26459 26460 26461 26462 26463 26464 26465 26466 26467 26468 26469 26470 26471 26472 26473 26474 26475 26476 26477 26478 26479 26480 26481 26482 26483 26484 26485 26486 26487 26488 26489 26490 26491 26492 26493 26494 26495 26496 26497 26498 26499 26500 26501 26502 26503 26504 26505 26506 26507 26508 26509 26510 26511 26512 26513 26514 26515 26516 26517 26518 26519 26520 26521 26522 26523 26524 26525 26526 26527 26528 26529 26530 26531 26532 26533 26534 26535 26536 26537 26538 26539 26540 26541 26542 26543 26544 26545 26546 26547 26548 26549 26550 26551 26552 26553 26554 26555 26556 26557 26558 26559 26560 26561 26562 26563 26564 26565 26566 26567 26568 26569 26570 26571 26572 26573 26574 26575 26576 26577 26578 26579 26580 26581 26582 26583 26584 26585 26586 26587 26588 26589 26590 26591 26592 26593 26594 26595 26596 26597 26598 26599 26600 26601 26602 26603 26604 26605 26606 26607 26608 26609 26610 26611 26612 26613 26614 26615 26616 26617 26618 26619 26620 26621 26622 26623 26624 26625 26626 26627 26628 26629 26630 26631 26632 26633 26634 26635 26636 26637 26638 26639 26640 26641 26642 26643 26644 26645 26646 26647 26648 26649 26650 26651 26652 26653 26654 26655 26656 26657 26658 26659 26660 26661 26662 26663 26664 26665 26666 26667 26668 26669 26670 26671 26672 26673 26674 26675 26676 26677 26678 26679 26680 26681 26682 26683 26684 26685 26686 26687 26688 26689 26690 26691 26692 26693 26694 26695 26696 26697 26698 26699 26700 26701 26702 26703 26704 26705 26706 26707 26708 26709 26710 26711 26712 26713 26714 26715 26716 26717 26718 26719 26720 26721 26722 26723 26724 26725 26726 26727 26728 26729 26730 26731 26732 26733 26734 26735 26736 26737 26738 26739 26740 26741 26742 26743 26744 26745 26746 26747 26748 26749 26750 26751 26752 26753 26754 26755 26756 26757 26758 26759 26760 26761 26762 26763 26764 26765 26766 26767 26768 26769 26770 26771 26772 26773 26774 26775 26776 26777 26778 26779 26780 26781 26782 26783 26784 26785 26786 26787 26788 26789 26790 26791 26792 26793 26794 26795 26796 26797 26798 26799 26800 26801 26802 26803 26804 26805 26806 26807 26808 26809 26810 26811 26812 26813 26814 26815 26816 26817 26818 26819 26820 26821 26822 26823 26824 26825 26826 26827 26828 26829 26830 26831 26832 26833 26834 26835 26836 26837 26838 26839 26840 26841 26842 26843 26844 26845 26846 26847 26848 26849 26850 26851 26852 26853 26854 26855 26856 26857 26858 26859 26860 26861 26862 26863 26864 26865 26866 26867 26868 26869 26870 26871 26872 26873 26874 26875 26876 26877 26878 26879 26880 26881 26882 26883 26884 26885 26886 26887 26888 26889 26890 26891 26892 26893 26894 26895 26896 26897 26898 26899 26900 26901 26902 26903 26904 26905 26906 26907 26908 26909 26910 26911 26912 26913 26914 26915 26916 26917 26918 26919 26920 26921 26922 26923 26924 26925 26926 26927 26928 26929 26930 26931 26932 26933 26934 26935 26936 26937 26938 26939 26940 26941 26942 26943 26944 26945 26946 26947 26948 26949 26950 26951 26952 26953 26954 26955 26956 26957 26958 26959 26960 26961 26962 26963 26964 26965 26966 26967 26968 26969 26970 26971 26972 26973 26974 26975 26976 26977 26978 26979 26980 26981 26982 26983 26984 26985 26986 26987 26988 26989 26990 26991 26992 26993 26994 26995 26996 26997 26998 26999 27000 27001 27002 27003 27004 27005 27006 27007 27008 27009 27010 27011 27012 27013 27014 27015 27016 27017 27018 27019 27020 27021 27022 27023 27024 27025 27026 27027 27028 27029 27030 27031 27032 27033 27034 27035 27036 27037 27038 27039 27040 27041 27042 27043 27044 27045 27046 27047 27048 27049 27050 27051 27052 27053 27054 27055 27056 27057 27058 27059 27060 27061 27062 27063 27064 27065 27066 27067 27068 27069 27070 27071 27072 27073 27074 27075 27076 27077 27078 27079 27080 27081 27082 27083 27084 27085 27086 27087 27088 27089 27090 27091 27092 27093 27094 27095 27096 27097 27098 27099 27100 27101 27102 27103 27104 27105 27106 27107 27108 27109 27110 27111 27112 27113 27114 27115 27116 27117 27118 27119 27120 27121 27122 27123 27124 27125 27126 27127 27128 27129 27130 27131 27132 27133 27134 27135 27136 27137 27138 27139 27140 27141 27142 27143 27144 27145 27146 27147 27148 27149 27150 27151 27152 27153 27154 27155 27156 27157 27158 27159 27160 27161 27162 27163 27164 27165 27166 27167 27168 27169 27170 27171 27172 27173 27174 27175 27176 27177 27178 27179 27180 27181 27182 27183 27184 27185 27186 27187 27188 27189 27190 27191 27192 27193 27194 27195 27196 27197 27198 27199 27200 27201 27202 27203 27204 27205 27206 27207 27208 27209 27210 27211 27212 27213 27214 27215 27216 27217 27218 27219 27220 27221 27222 27223 27224 27225 27226 27227 27228 27229 27230 27231 27232 27233 27234 27235 27236 27237 27238 27239 27240 27241 27242 27243 27244 27245 27246 27247 27248 27249 27250 27251 27252 27253 27254 27255 27256 27257 27258 27259 27260 27261 27262 27263 27264 27265 27266 27267 27268 27269 27270 27271 27272 27273 27274 27275 27276 27277 27278 27279 27280 27281 27282 27283 27284 27285 27286 27287 27288 27289 27290 27291 27292 27293 27294 27295 27296 27297 27298 27299 27300 27301 27302 27303 27304 27305 27306 27307 27308 27309 27310 27311 27312 27313 27314 27315 27316 27317 27318 27319 27320 27321 27322 27323 27324 27325 27326 27327 27328 27329 27330 27331 27332 27333 27334 27335 27336 27337 27338 27339 27340 27341 27342 27343 27344 27345 27346 27347 27348 27349 27350 27351 27352 27353 27354 27355 27356 27357 27358 27359 27360 27361 27362 27363 27364 27365 27366 27367 27368 27369 27370 27371 27372 27373 27374 27375 27376 27377 27378 27379 27380 27381 27382 27383 27384 27385 27386 27387 27388 27389 27390 27391 27392 27393 27394 27395 27396 27397 27398 27399 27400 27401 27402 27403 27404 27405 27406 27407 27408 27409 27410 27411 27412 27413 27414 27415 27416 27417 27418 27419 27420 27421 27422 27423 27424 27425 27426 27427 27428 27429 27430 27431 27432 27433 27434 27435 27436 27437 27438 27439 27440 27441 27442 27443 27444 27445 27446 27447 27448 27449 27450 27451 27452 27453 27454 27455 27456 27457 27458 27459 27460 27461 27462 27463 27464 27465 27466 27467 27468 27469 27470 27471 27472 27473 27474 27475 27476 27477 27478 27479 27480 27481 27482 27483 27484 27485 27486 27487 27488 27489 27490 27491 27492 27493 27494 27495 27496 27497 27498 27499 27500 27501 27502 27503 27504 27505 27506 27507 27508 27509 27510 27511 27512 27513 27514 27515 27516 27517 27518 27519 27520 27521 27522 27523 27524 27525 27526 27527 27528 27529 27530 27531 27532 27533 27534 27535 27536 27537 27538 27539 27540 27541 27542 27543 27544 27545 27546 27547 27548 27549 27550 27551 27552 27553 27554 27555 27556 27557 27558 27559 27560 27561 27562 27563 27564 27565 27566 27567 27568 27569 27570 27571 27572 27573 27574 27575 27576 27577 27578 27579 27580 27581 27582 27583 27584 27585 27586 27587 27588 27589 27590 27591 27592 27593 27594 27595 27596 27597 27598 27599 27600 27601 27602 27603 27604 27605 27606 27607 27608 27609 27610 27611 27612 27613 27614 27615 27616 27617 27618 27619 27620 27621 27622 27623 27624 27625 27626 27627 27628 27629 27630 27631 27632 27633 27634 27635 27636 27637 27638 27639 27640 27641 27642 27643 27644 27645 27646 27647 27648 27649 27650 27651 27652 27653 27654 27655 27656 27657 27658 27659 27660 27661 27662 27663 27664 27665 27666 27667 27668 27669 27670 27671 27672 27673 27674 27675 27676 27677 27678 27679 27680 27681 27682 27683 27684 27685 27686 27687 27688 27689 27690 27691 27692 27693 27694 27695 27696 27697 27698 27699 27700 27701 27702 27703 27704 27705 27706 27707 27708 27709 27710 27711 27712 27713 27714 27715 27716 27717 27718 27719 27720 27721 27722 27723 27724 27725 27726 27727 27728 27729 27730 27731 27732 27733 27734 27735 27736 27737 27738 27739 27740 27741 27742 27743 27744 27745 27746 27747 27748 27749 27750 27751 27752 27753 27754 27755 27756 27757 27758 27759 27760 27761 27762 27763 27764 27765 27766 27767 27768 27769 27770 27771 27772 27773 27774 27775 27776 27777 27778 27779 27780 27781 27782 27783 27784 27785 27786 27787 27788 27789 27790 27791 27792 27793 27794 27795 27796 27797 27798 27799 27800 27801 27802 27803 27804 27805 27806 27807 27808 27809 27810 27811 27812 27813 27814 27815 27816 27817 27818 27819 27820 27821 27822 27823 27824 27825 27826 27827 27828 27829 27830 27831 27832 27833 27834 27835 27836 27837 27838 27839 27840 27841 27842 27843 27844 27845 27846 27847 27848 27849 27850 27851 27852 27853 27854 27855 27856 27857 27858 27859 27860 27861 27862 27863 27864 27865 27866 27867 27868 27869 27870 27871 27872 27873 27874 27875 27876 27877 27878 27879 27880 27881 27882 27883 27884 27885 27886 27887 27888 27889 27890 27891 27892 27893 27894 27895 27896 27897 27898 27899 27900 27901 27902 27903 27904 27905 27906 27907 27908 27909 27910 27911 27912 27913 27914 27915 27916 27917 27918 27919 27920 27921 27922 27923 27924 27925 27926 27927 27928 27929 27930 27931 27932 27933 27934 27935 27936 27937 27938 27939 27940 27941 27942 27943 27944 27945 27946 27947 27948 27949 27950 27951 27952 27953 27954 27955 27956 27957 27958 27959 27960 27961 27962 27963 27964 27965 27966 27967 27968 27969 27970 27971 27972 27973 27974 27975 27976 27977 27978 27979 27980 27981 27982 27983 27984 27985 27986 27987 27988 27989 27990 27991 27992 27993 27994 27995 27996 27997 27998 27999 28000 28001 28002 28003 28004 28005 28006 28007 28008 28009 28010 28011 28012 28013 28014 28015 28016 28017 28018 28019 28020 28021 28022 28023 28024 28025 28026 28027 28028 28029 28030 28031 28032 28033 28034 28035 28036 28037 28038 28039 28040 28041 28042 28043 28044 28045 28046 28047 28048 28049 28050 28051 28052 28053 28054 28055 28056 28057 28058 28059 28060 28061 28062 28063 28064 28065 28066 28067 28068 28069 28070 28071 28072 28073 28074 28075 28076 28077 28078 28079 28080 28081 28082 28083 28084 28085 28086 28087 28088 28089 28090 28091 28092 28093 28094 28095 28096 28097 28098 28099 28100 28101 28102 28103 28104 28105 28106 28107 28108 28109 28110 28111 28112 28113 28114 28115 28116 28117 28118 28119 28120 28121 28122 28123 28124 28125 28126 28127 28128 28129 28130 28131 28132 28133 28134 28135 28136 28137 28138 28139 28140 28141 28142 28143 28144 28145 28146 28147 28148 28149 28150 28151 28152 28153 28154 28155 28156 28157 28158 28159 28160 28161 28162 28163 28164 28165 28166 28167 28168 28169 28170 28171 28172 28173 28174 28175 28176 28177 28178 28179 28180 28181 28182 28183 28184 28185 28186 28187 28188 28189 28190 28191 28192 28193 28194 28195 28196 28197 28198 28199 28200 28201 28202 28203 28204 28205 28206 28207 28208 28209 28210 28211 28212 28213 28214 28215 28216 28217 28218 28219 28220 28221 28222 28223 28224 28225 28226 28227 28228 28229 28230 28231 28232 28233 28234 28235 28236 28237 28238 28239 28240 28241 28242 28243 28244 28245 28246 28247 28248 28249 28250 28251 28252 28253 28254 28255 28256 28257 28258 28259 28260 28261 28262 28263 28264 28265 28266 28267 28268 28269 28270 28271 28272 28273 28274 28275 28276 28277 28278 28279 28280 28281 28282 28283 28284 28285 28286 28287 28288 28289 28290 28291 28292 28293 28294 28295 28296 28297 28298 28299 28300 28301 28302 28303 28304 28305 28306 28307 28308 28309 28310 28311 28312 28313 28314 28315 28316 28317 28318 28319 28320 28321 28322 28323 28324 28325 28326 28327 28328 28329 28330 28331 28332 28333 28334 28335 28336 28337 28338 28339 28340 28341 28342 28343 28344 28345 28346 28347 28348 28349 28350 28351 28352 28353 28354 28355 28356 28357 28358 28359 28360 28361 28362 28363 28364 28365 28366 28367 28368 28369 28370 28371 28372 28373 28374 28375 28376 28377 28378 28379 28380 28381 28382 28383 28384 28385 28386 28387 28388 28389 28390 28391 28392 28393 28394 28395 28396 28397 28398 28399 28400 28401 28402 28403 28404 28405 28406 28407 28408 28409 28410 28411 28412 28413 28414 28415 28416 28417 28418 28419 28420 28421 28422 28423 28424 28425 28426 28427 28428 28429 28430 28431 28432 28433 28434 28435 28436 28437 28438 28439 28440 28441 28442 28443 28444 28445 28446 28447 28448 28449 28450 28451 28452 28453 28454 28455 28456 28457 28458 28459 28460 28461 28462 28463 28464 28465 28466 28467 28468 28469 28470 28471 28472 28473 28474 28475 28476 28477 28478 28479 28480 28481 28482 28483 28484 28485 28486 28487 28488 28489 28490 28491 28492 28493 28494 28495 28496 28497 28498 28499 28500 28501 28502 28503 28504 28505 28506 28507 28508 28509 28510 28511 28512 28513 28514 28515 28516 28517 28518 28519 28520 28521 28522 28523 28524 28525 28526 28527 28528 28529 28530 28531 28532 28533 28534 28535 28536 28537 28538 28539 28540 28541 28542 28543 28544 28545 28546 28547 28548 28549 28550 28551 28552 28553 28554 28555 28556 28557 28558 28559 28560 28561 28562 28563 28564 28565 28566 28567 28568 28569 28570 28571 28572 28573 28574 28575 28576 28577 28578 28579 28580 28581 28582 28583 28584 28585 28586 28587 28588 28589 28590 28591 28592 28593 28594 28595 28596 28597 28598 28599 28600 28601 28602 28603 28604 28605 28606 28607 28608 28609 28610 28611 28612 28613 28614 28615 28616 28617 28618 28619 28620 28621 28622 28623 28624 28625 28626 28627 28628 28629 28630 28631 28632 28633 28634 28635 28636 28637 28638 28639 28640 28641 28642 28643 28644 28645 28646 28647 28648 28649 28650 28651 28652 28653 28654 28655 28656 28657 28658 28659 28660 28661 28662 28663 28664 28665 28666 28667 28668 28669 28670 28671 28672 28673 28674 28675 28676 28677 28678 28679 28680 28681 28682 28683 28684 28685 28686 28687 28688 28689 28690 28691 28692 28693 28694 28695 28696 28697 28698 28699 28700 28701 28702 28703 28704 28705 28706 28707 28708 28709 28710 28711 28712 28713 28714 28715 28716 28717 28718 28719 28720 28721 28722 28723 28724 28725 28726 28727 28728 28729 28730 28731 28732 28733 28734 28735 28736 28737 28738 28739 28740 28741 28742 28743 28744 28745 28746 28747 28748 28749 28750 28751 28752 28753 28754 28755 28756 28757 28758 28759 28760 28761 28762 28763 28764 28765 28766 28767 28768 28769 28770 28771 28772 28773 28774 28775 28776 28777 28778 28779 28780 28781 28782 28783 28784 28785 28786 28787 28788 28789 28790 28791 28792 28793 28794 28795 28796 28797 28798 28799 28800 28801 28802 28803 28804 28805 28806 28807 28808 28809 28810 28811 28812 28813 28814 28815 28816 28817 28818 28819 28820 28821 28822 28823 28824 28825 28826 28827 28828 28829 28830 28831 28832 28833 28834 28835 28836 28837 28838 28839 28840 28841 28842 28843 28844 28845 28846 28847 28848 28849 28850 28851 28852 28853 28854 28855 28856 28857 28858 28859 28860 28861 28862 28863 28864 28865 28866 28867 28868 28869 28870 28871 28872 28873 28874 28875 28876 28877 28878 28879 28880 28881 28882 28883 28884 28885 28886 28887 28888 28889 28890 28891 28892 28893 28894 28895 28896 28897 28898 28899 28900 28901 28902 28903 28904 28905 28906 28907 28908 28909 28910 28911 28912 28913 28914 28915 28916 28917 28918 28919 28920 28921 28922 28923 28924 28925 28926 28927 28928 28929 28930 28931 28932 28933 28934 28935 28936 28937 28938 28939 28940 28941 28942 28943 28944 28945 28946 28947 28948 28949 28950 28951 28952 28953 28954 28955 28956 28957 28958 28959 28960 28961 28962 28963 28964 28965 28966 28967 28968 28969 28970 28971 28972 28973 28974 28975 28976 28977 28978 28979 28980 28981 28982 28983 28984 28985 28986 28987 28988 28989 28990 28991 28992 28993 28994 28995 28996 28997 28998 28999 29000 29001 29002 29003 29004 29005 29006 29007 29008 29009 29010 29011 29012 29013 29014 29015 29016 29017 29018 29019 29020 29021 29022 29023 29024 29025 29026 29027 29028 29029 29030 29031 29032 29033 29034 29035 29036 29037 29038 29039 29040 29041 29042 29043 29044 29045 29046 29047 29048 29049 29050 29051 29052 29053 29054 29055 29056 29057 29058 29059 29060 29061 29062 29063 29064 29065 29066 29067 29068 29069 29070 29071 29072 29073 29074 29075 29076 29077 29078 29079 29080 29081 29082 29083 29084 29085 29086 29087 29088 29089 29090 29091 29092 29093 29094 29095 29096 29097 29098 29099 29100 29101 29102 29103 29104 29105 29106 29107 29108 29109 29110 29111 29112 29113 29114 29115 29116 29117 29118 29119 29120 29121 29122 29123 29124 29125 29126 29127 29128 29129 29130 29131 29132 29133 29134 29135 29136 29137 29138 29139 29140 29141 29142 29143 29144 29145 29146 29147 29148 29149 29150 29151 29152 29153 29154 29155 29156 29157 29158 29159 29160 29161 29162 29163 29164 29165 29166 29167 29168 29169 29170 29171 29172 29173 29174 29175 29176 29177 29178 29179 29180 29181 29182 29183 29184 29185 29186 29187 29188 29189 29190 29191 29192 29193 29194 29195 29196 29197 29198 29199 29200 29201 29202 29203 29204 29205 29206 29207 29208 29209 29210 29211 29212 29213 29214 29215 29216 29217 29218 29219 29220 29221 29222 29223 29224 29225 29226 29227 29228 29229 29230 29231 29232 29233 29234 29235 29236 29237 29238 29239 29240 29241 29242 29243 29244 29245 29246 29247 29248 29249 29250 29251 29252 29253 29254 29255 29256 29257 29258 29259 29260 29261 29262 29263 29264 29265 29266 29267 29268 29269 29270 29271 29272 29273 29274 29275 29276 29277 29278 29279 29280 29281 29282 29283 29284 29285 29286 29287 29288 29289 29290 29291 29292 29293 29294 29295 29296 29297 29298 29299 29300 29301 29302 29303 29304 29305 29306 29307 29308 29309 29310 29311 29312 29313 29314 29315 29316 29317 29318 29319 29320 29321 29322 29323 29324 29325 29326 29327 29328 29329 29330 29331 29332 29333 29334 29335 29336 29337 29338 29339 29340 29341 29342 29343 29344 29345 29346 29347 29348 29349 29350 29351 29352 29353 29354 29355 29356 29357 29358 29359 29360 29361 29362 29363 29364 29365 29366 29367 29368 29369 29370 29371 29372 29373 29374 29375 29376 29377 29378 29379 29380 29381 29382 29383 29384 29385 29386 29387 29388 29389 29390 29391 29392 29393 29394 29395 29396 29397 29398 29399 29400 29401 29402 29403 29404 29405 29406 29407 29408 29409 29410 29411 29412 29413 29414 29415 29416 29417 29418 29419 29420 29421 29422 29423 29424 29425 29426 29427 29428 29429 29430 29431 29432 29433 29434 29435 29436 29437 29438 29439 29440 29441 29442 29443 29444 29445 29446 29447 29448 29449 29450 29451 29452 29453 29454 29455 29456 29457 29458 29459 29460 29461 29462 29463 29464 29465 29466 29467 29468 29469 29470 29471 29472 29473 29474 29475 29476 29477 29478 29479 29480 29481 29482 29483 29484 29485 29486 29487 29488 29489 29490 29491 29492 29493 29494 29495 29496 29497 29498 29499 29500 29501 29502 29503 29504 29505 29506 29507 29508 29509 29510 29511 29512 29513 29514 29515 29516 29517 29518 29519 29520 29521 29522 29523 29524 29525 29526 29527 29528 29529 29530 29531 29532 29533 29534 29535 29536 29537 29538 29539 29540 29541 29542 29543 29544 29545 29546 29547 29548 29549 29550 29551 29552 29553 29554 29555 29556 29557 29558 29559 29560 29561 29562 29563 29564 29565 29566 29567 29568 29569 29570 29571 29572 29573 29574 29575 29576 29577 29578 29579 29580 29581 29582 29583 29584 29585 29586 29587 29588 29589 29590 29591 29592 29593 29594 29595 29596 29597 29598 29599 29600 29601 29602 29603 29604 29605 29606 29607 29608 29609 29610 29611 29612 29613 29614 29615 29616 29617 29618 29619 29620 29621 29622 29623 29624 29625 29626 29627 29628 29629 29630 29631 29632 29633 29634 29635 29636 29637 29638 29639 29640 29641 29642 29643 29644 29645 29646 29647 29648 29649 29650 29651 29652 29653 29654 29655 29656 29657 29658 29659 29660 29661 29662 29663 29664 29665 29666 29667 29668 29669 29670 29671 29672 29673 29674 29675 29676 29677 29678 29679 29680 29681 29682 29683 29684 29685 29686 29687 29688 29689 29690 29691 29692 29693 29694 29695 29696 29697 29698 29699 29700 29701 29702 29703 29704 29705 29706 29707 29708 29709 29710 29711 29712 29713 29714 29715 29716 29717 29718 29719 29720 29721 29722 29723 29724 29725 29726 29727 29728 29729 29730 29731 29732 29733 29734 29735 29736 29737 29738 29739 29740 29741 29742 29743 29744 29745 29746 29747 29748 29749 29750 29751 29752 29753 29754 29755 29756 29757 29758 29759 29760 29761 29762 29763 29764 29765 29766 29767 29768 29769 29770 29771 29772 29773 29774 29775 29776 29777 29778 29779 29780 29781 29782 29783 29784 29785 29786 29787 29788 29789 29790 29791 29792 29793 29794 29795 29796 29797 29798 29799 29800 29801 29802 29803 29804 29805 29806 29807 29808 29809 29810 29811 29812 29813 29814 29815 29816 29817 29818 29819 29820 29821 29822 29823 29824 29825 29826 29827 29828 29829 29830 29831 29832 29833 29834 29835 29836 29837 29838 29839 29840 29841 29842 29843 29844 29845 29846 29847 29848 29849 29850 29851 29852 29853 29854 29855 29856 29857 29858 29859 29860 29861 29862 29863 29864 29865 29866 29867 29868 29869 29870 29871 29872 29873 29874 29875 29876 29877 29878 29879 29880 29881 29882 29883 29884 29885 29886 29887 29888 29889 29890 29891 29892 29893 29894 29895 29896 29897 29898 29899 29900 29901 29902 29903 29904 29905 29906 29907 29908 29909 29910 29911 29912 29913 29914 29915 29916 29917 29918 29919 29920 29921 29922 29923 29924 29925 29926 29927 29928 29929 29930 29931 29932 29933 29934 29935 29936 29937 29938 29939 29940 29941 29942 29943 29944 29945 29946 29947 29948 29949 29950 29951 29952 29953 29954 29955 29956 29957 29958 29959 29960 29961 29962 29963 29964 29965 29966 29967 29968 29969 29970 29971 29972 29973 29974 29975 29976 29977 29978 29979 29980 29981 29982 29983 29984 29985 29986 29987 29988 29989 29990 29991 29992 29993 29994 29995 29996 29997 29998 29999 30000 30001 30002 30003 30004 30005 30006 30007 30008 30009 30010 30011 30012 30013 30014 30015 30016 30017 30018 30019 30020 30021 30022 30023 30024 30025 30026 30027 30028 30029 30030 30031 30032 30033 30034 30035 30036 30037 30038 30039 30040 30041 30042 30043 30044 30045 30046 30047 30048 30049 30050 30051 30052 30053 30054 30055 30056 30057 30058 30059 30060 30061 30062 30063 30064 30065 30066 30067 30068 30069 30070 30071 30072 30073 30074 30075 30076 30077 30078 30079 30080 30081 30082 30083 30084 30085 30086 30087 30088 30089 30090 30091 30092 30093 30094 30095 30096 30097 30098 30099 30100 30101 30102 30103 30104 30105 30106 30107 30108 30109 30110 30111 30112 30113 30114 30115 30116 30117 30118 30119 30120 30121 30122 30123 30124 30125 30126 30127 30128 30129 30130 30131 30132 30133 30134 30135 30136 30137 30138 30139 30140 30141 30142 30143 30144 30145 30146 30147 30148 30149 30150 30151 30152 30153 30154 30155 30156 30157 30158 30159 30160 30161 30162 30163 30164 30165 30166 30167 30168 30169 30170 30171 30172 30173 30174 30175 30176 30177 30178 30179 30180 30181 30182 30183 30184 30185 30186 30187 30188 30189 30190 30191 30192 30193 30194 30195 30196 30197 30198 30199 30200 30201 30202 30203 30204 30205 30206 30207 30208 30209 30210 30211 30212 30213 30214 30215 30216 30217 30218 30219 30220 30221 30222 30223 30224 30225 30226 30227 30228 30229 30230 30231 30232 30233 30234 30235 30236 30237 30238 30239 30240 30241 30242 30243 30244 30245 30246 30247 30248 30249 30250 30251 30252 30253 30254 30255 30256 30257 30258 30259 30260 30261 30262 30263 30264 30265 30266 30267 30268 30269 30270 30271 30272 30273 30274 30275 30276 30277 30278 30279 30280 30281 30282 30283 30284 30285 30286 30287 30288 30289 30290 30291 30292 30293 30294 30295 30296 30297 30298 30299 30300 30301 30302 30303 30304 30305 30306 30307 30308 30309 30310 30311 30312 30313 30314 30315 30316 30317 30318 30319 30320 30321 30322 30323 30324 30325 30326 30327 30328 30329 30330 30331 30332 30333 30334 30335 30336 30337 30338 30339 30340 30341 30342 30343 30344 30345 30346 30347 30348 30349 30350 30351 30352 30353 30354 30355 30356 30357 30358 30359 30360 30361 30362 30363 30364 30365 30366 30367 30368 30369 30370 30371 30372 30373 30374 30375 30376 30377 30378 30379 30380 30381 30382 30383 30384 30385 30386 30387 30388 30389 30390 30391 30392 30393 30394 30395 30396 30397 30398 30399 30400 30401 30402 30403 30404 30405 30406 30407 30408 30409 30410 30411 30412 30413 30414 30415 30416 30417 30418 30419 30420 30421 30422 30423 30424 30425 30426 30427 30428 30429 30430 30431 30432 30433 30434 30435 30436 30437 30438 30439 30440 30441 30442 30443 30444 30445 30446 30447 30448 30449 30450 30451 30452 30453 30454 30455 30456 30457 30458 30459 30460 30461 30462 30463 30464 30465 30466 30467 30468 30469 30470 30471 30472 30473 30474 30475 30476 30477 30478 30479 30480 30481 30482 30483 30484 30485 30486 30487 30488 30489 30490 30491 30492 30493 30494 30495 30496 30497 30498 30499 30500 30501 30502 30503 30504 30505 30506 30507 30508 30509 30510 30511 30512 30513 30514 30515 30516 30517 30518 30519 30520 30521 30522 30523 30524 30525 30526 30527 30528 30529 30530 30531 30532 30533 30534 30535 30536 30537 30538 30539 30540 30541 30542 30543 30544 30545 30546 30547 30548 30549 30550 30551 30552 30553 30554 30555 30556 30557 30558 30559 30560 30561 30562 30563 30564 30565 30566 30567 30568 30569 30570 30571 30572 30573 30574 30575 30576 30577 30578 30579 30580 30581 30582 30583 30584 30585 30586 30587 30588 30589 30590 30591 30592 30593 30594 30595 30596 30597 30598 30599 30600 30601 30602 30603 30604 30605 30606 30607 30608 30609 30610 30611 30612 30613 30614 30615 30616 30617 30618 30619 30620 30621 30622 30623 30624 30625 30626 30627 30628 30629 30630 30631 30632 30633 30634 30635 30636 30637 30638 30639 30640 30641 30642 30643 30644 30645 30646 30647 30648 30649 30650 30651 30652 30653 30654 30655 30656 30657 30658 30659 30660 30661 30662 30663 30664 30665 30666 30667 30668 30669 30670 30671 30672 30673 30674 30675 30676 30677 30678 30679 30680 30681 30682 30683 30684 30685 30686 30687 30688 30689 30690 30691 30692 30693 30694 30695 30696 30697 30698 30699 30700 30701 30702 30703 30704 30705 30706 30707 30708 30709 30710 30711 30712 30713 30714 30715 30716 30717 30718 30719 30720 30721 30722 30723 30724 30725 30726 30727 30728 30729 30730 30731 30732 30733 30734 30735 30736 30737 30738 30739 30740 30741 30742 30743 30744 30745 30746 30747 30748 30749 30750 30751 30752 30753 30754 30755 30756 30757 30758 30759 30760 30761 30762 30763 30764 30765 30766 30767 30768 30769 30770 30771 30772 30773 30774 30775 30776 30777 30778 30779 30780 30781 30782 30783 30784 30785 30786 30787 30788 30789 30790 30791 30792 30793 30794 30795 30796 30797 30798 30799 30800 30801 30802 30803 30804 30805 30806 30807 30808 30809 30810 30811 30812 30813 30814 30815 30816 30817 30818 30819 30820 30821 30822 30823 30824 30825 30826 30827 30828 30829 30830 30831 30832 30833 30834 30835 30836 30837 30838 30839 30840 30841 30842 30843 30844 30845 30846 30847 30848 30849 30850 30851 30852 30853 30854 30855 30856 30857 30858 30859 30860 30861 30862 30863 30864 30865 30866 30867 30868 30869 30870 30871 30872 30873 30874 30875 30876 30877 30878 30879 30880 30881 30882 30883 30884 30885 30886 30887 30888 30889 30890 30891 30892 30893 30894 30895 30896 30897 30898 30899 30900 30901 30902 30903 30904 30905 30906 30907 30908 30909 30910 30911 30912 30913 30914 30915 30916 30917 30918 30919 30920 30921 30922 30923 30924 30925 30926 30927 30928 30929 30930 30931 30932 30933 30934 30935 30936 30937 30938 30939 30940 30941 30942 30943 30944 30945 30946 30947 30948 30949 30950 30951 30952 30953 30954 30955 30956 30957 30958 30959 30960 30961 30962 30963 30964 30965 30966 30967 30968 30969 30970 30971 30972 30973 30974 30975 30976 30977 30978 30979 30980 30981 30982 30983 30984 30985 30986 30987 30988 30989 30990 30991 30992 30993 30994 30995 30996 30997 30998 30999 31000 31001 31002 31003 31004 31005 31006 31007 31008 31009 31010 31011 31012 31013 31014 31015 31016 31017 31018 31019 31020 31021 31022 31023 31024 31025 31026 31027 31028 31029 31030 31031 31032 31033 31034 31035 31036 31037 31038 31039 31040 31041 31042 31043 31044 31045 31046 31047 
</DataArray>
<DataArray type="UInt32" Name="offsets" format="ascii">
3 6 9 12 14 17 19 22 24 26 29 32 34 37 39 42 45 48 51 54 57 60 63 66 69 72 75 78 81 84 87 89 92 95 97 100 103 106 109 112 115 118 121 124 127 130 133 136 139 142 145 148 151 154 157 160 163 165 167 170 173 176 179 182 185 188 191 194 197 200 203 206 209 212 214 217 220 223 225 228 231 233 236 238 241 243 246 249 252 255 258 261 264 267 270 273 276 279 282 285 288 291 294 297 300 303 306 309 312 315 318 321 324 327 330 333 336 339 342 345 348 351 354 357 360 363 366 369 372 375 378 381 384 387 390 393 396 399 402 405 408 411 414 417 420 423 425 428 431 434 437 440 443 446 449 452 455 458 461 464 467 469 472 475 478 481 484 486 489 492 495 498 501 504 507 510 513 516 519 522 525 528 531 534 537 540 543 546 549 552 555 558 561 564 566 569 572 575 578 581 583 586 589 591 594 597 600 603 606 609 612 615 618 621 624 627 630 633 636 639 642 645 648 651 654 657 659 661 664 666 669 671 674 677 680 683 686 688 691 694 697 700 703 706 709 712 715 718 721 724 727 730 733 736 739 742 745 748 751 754 757 760 763 766 769 772 775 778 781 784 787 789 792 795 798 801 804 807 809 812 815 818 821 824 827 830 833 836 839 842 845 848 851 854 857 860 863 866 868 871 874 877 880 882 885 888 891 894 897 899 902 905 907 909 912 915 918 921 924 927 930 933 936 939 941 944 947 950 953 956 959 962 965 968 971 974 977 980 983 986 989 992 995 998 1001 1004 1007 1010 1013 1016 1019 1022 1025 1028 1031 1034 1037 1040 1043 1046 1049 1052 1055 1058 1061 1063 1066 1069 1072 1075 1077 1080 1083 1086 1089 1092 1095 1097 1099 1102 1105 1108 1111 1114 1117 1120 1123 1126 1129 1131 1134 1137 1140 1143 1146 1148 1151 1154 1157 1160 1163 1166 1169 1172 1175 1178 1181 1184 1187 1190 1193 1196 1199 1202 1205 1207 1210 1213 1216 1219 1222 1225 1227 1230 1233 1236 1239 1242 1245 1248 1251 1254 1257 1260 1263 1266 1269 1271 1274 1276 1279 1282 1285 1288 1291 1294 1297 1300 1303 1305 1308 1311 1314 1317 1320 1323 1326 1329 1332 1335 1337 1340 1343 1346 1349 1352 1355 1358 1361 1363 1366 1369 1372 1374 1377 1380 1382 1385 1388 1391 1394 1397 1400 1403 1406 1409 1412 1415 1418 1421 1424 1427 1430 1433 1436 1439 1442 1445 1447 1450 1452 1455 1458 1461 1464 1467 1470 1473 1476 1479 1482 1484 1487 1490 1493 1496 1499 1502 1505 1508 1511 1514 1517 1520 1523 1526 1529 1532 1535 1538 1541 1543 1546 1549 1552 1555 1558 1561 1564 1567 1570 1573 1576 1578 1581 1583 1586 1589 1592 1594 1596 1598 1601 1604 1607 1610 1613 1615 1617 1620 1623 1626 1629 1631 1634 1637 1639 1642 1645 1648 1651 1654 1656 1659 1662 1664 1666 1669 1671 1674 1677 1680 1683 1686 1689 1692 1694 1697 1700 1703 1705 1708 1711 1714 1716 1719 1722 1725 1727 1730 1733 1735 1738 1741 1744 1747 1750 1753 1756 1759 1762 1765 1768 1771 1774 1777 1779 1782 1785 1788 1791 1794 1797 1800 1803 1806 1809 1812 1815 1818 1820 1823 1826 1829 1831 1834 1837 1840 1843 1846 1849 1852 1855 1858 1861 1864 1867 1869 1872 1875 1878 1881 1884 1887 1890 1892 1895 1898 1900 1903 1906 1909 1912 1914 1917 1920 1923 1926 1929 1931 1934 1936 1939 1942 1945 1948 1951 1954 1957 1960 1963 1966 1969 1972 1975 1978 1981 1984 1987 1990 1992 1995 1998 2001 2004 2007 2009 2012 2015 2017 2020 2023 2026 2029 2032 2035 2038 2040 2043 2045 2048 2050 2053 2055 2058 2061 2064 2067 2070 2073 2076 2079 2082 2084 2087 2090 2093 2095 2098 2101 2104 2106 2109 2112 2114 2117 2120 2122 2125 2127 2130 2133 2135 2138 2141 2144 2147 2149 2152 2154 2157 2159 2162 2165 2167 2169 2172 2175 2178 2181 2183 2186 2189 2192 2195 2197 2200 2203 2206 2209 2212 2215 2218 2221 2224 2227 2229 2232 2235 2238 2241 2244 2247 2250 2253 2256 2259 2262 2265 2268 2271 2273 2275 2278 2281 2284 2287 2290 2293 2296 2299 2302 2305 2308 2311 2314 2316 2319 2321 2323 2326 2329 2332 2335 2337 2340 2343 2346 2349 2351 2354 2357 2360 2363 2365 2368 2371 2373 2376 2379 2382 2385 2388 2391 2394 2397 2400 2403 2406 2409 2412 2415 2418 2421 2423 2426 2428 2431 2434 2437 2440 2443 2446 2449 2452 2455 2458 2461 2463 2466 2469 2472 2474 2477 2480 2483 2486 2489 2491 2494 2497 2500 2503 2506 2508 2511 2513 2515 2518 2521 2523 2526 2529 2532 2535 2538 2541 2544 2547 2550 2553 2556 2559 2562 2565 2567 2570 2572 2575 2577 2580 2583 2586 2589 2592 2595 2597 2600 2603 2606 2609 2612 2614 2617 2620 2623 2626 2629 2632 2635 2637 2640 2643 2646 2649 2652 2655 2658 2661 2664 2667 2670 2672 2674 2677 2680 2682 2684 2687 2690 2693 2696 2699 2702 2705 2708 2711 2714 2717 2720 2723 2726 2729 2732 2735 2738 2741 2744 2747 2750 2753 2756 2759 2762 2765 2768 2771 2774 2777 2780 2783 2785 2787 2790 2793 2796 2799 2802 2805 2808 2811 2814 2817 2819 2822 2825 2828 2831 2834 2837 2840 2843 2846 2849 2852 2855 2858 2861 2864 2867 2870 2873 2876 2879 2882 2885 2888 2891 2894 2897 2900 2903 2906 2909 2912 2915 2918 2921 2924 2927 2930 2933 2936 2939 2942 2945 2948 2951 2954 2957 2960 2963 2966 2969 2972 2975 2978 2981 2984 2987 2990 2993 2996 2999 3002 3005 3008 3011 3014 3017 3020 3023 3026 3029 3032 3035 3038 3041 3044 3047 3050 3052 3055 3058 3061 3064 3067 3070 3073 3076 3079 3082 3085 3088 3091 3094 3097 3100 3103 3106 3109 3112 3115 3118 3121 3124 3127 3129 3131 3134 3137 3140 3143 3146 3149 3152 3155 3158 3160 3163 3166 3168 3171 3174 3177 3180 3183 3186 3189 3192 3195 3198 3200 3203 3206 3209 3212 3214 3217 3220 3223 3226 3229 3232 3235 3237 3240 3243 3246 3249 3252 3255 3258 3261 3264 3266 3269 3272 3275 3278 3281 3284 3287 3290 3293 3296 3299 3302 3305 3308 3310 3313 3316 3319 3322 3325 3328 3331 3334 3337 3340 3343 3346 3349 3352 3355 3358 3361 3364 3367 3370 3373 3376 3379 3382 3385 3388 3391 3394 3397 3400 3403 3406 3409 3412 3414 3417 3420 3423 3426 3429 3432 3434 3437 3440 3443 3446 3449 3452 3455 3458 3461 3464 3467 3470 3473 3476 3479 3482 3484 3487 3490 3493 3496 3499 3502 3505 3508 3511 3514 3517 3520 3523 3526 3529 3532 3535 3538 3541 3544 3547 3549 3552 3555 3558 3561 3564 3567 3570 3573 3576 3579 3582 3585 3587 3590 3593 3596 3598 3601 3604 3607 3610 3613 3616 3619 3622 3625 3628 3631 3634 3637 3639 3642 3645 3648 3651 3654 3657 3660 3663 3665 3668 3671 3674 3677 3680 3683 3686 3689 3692 3695 3698 3701 3704 3707 3710 3713 3716 3719 3722 3725 3728 3731 3734 3737 3740 3743 3746 3749 3752 3755 3758 3761 3764 3767 3770 3773 3776 3779 3782 3785 3788 3791 3794 3797 3800 3803 3805 3808 3811 3814 3817 3820 3823 3826 3829 3832 3835 3838 3841 3844 3846 3849 3852 3855 3857 3860 3863 3866 3869 3872 3875 3877 3880 3883 3886 3888 3891 3894 3897 3900 3903 3906 3909 3912 3915 3917 3920 3923 3926 3928 3931 3934 3937 3940 3942 3945 3948 3951 3953 3956 3959 3962 3964 3967 3970 3973 3976 3979 3982 3985 3988 3991 3993 3996 3999 4002 4004 4007 4009 4012 4015 4018 4021 4024 4026 4029 4032 4034 4037 4040 4043 4046 4049 4052 4055 4058 4061 4064 4067 4070 4073 4076 4079 4082 4085 4088 4091 4094 4097 4100 4103 4106 4109 4112 4115 4118 4121 4124 4127 4130 4133 4135 4138 4141 4144 4146 4149 4151 4154 4157 4159 4162 4165 4168 4170 4172 4175 4178 4180 4182 4185 4188 4190 4193 4196 4199 4202 4205 4208 4211 4214 4216 4218 4221 4224 4227 4230 4233 4236 4239 4242 4245 4247 4250 4253 4256 4258 4261 4264 4266 4269 4271 4274 4276 4279 4282 4285 4287 4289 4292 4295 4298 4301 4304 4307 4309 4312 4315 4318 4320 4323 4325 4328 4331 4334 4337 4339 4342 4345 4347 4350 4352 4355 4357 4360 4363 4366 4368 4370 4373 4376 4378 4381 4384 4386 4389 4392 4394 4397 4400 4403 4405 4408 4410 4413 4415 4418 4421 4424 4427 4429 4432 4435 4437 4440 4443 4446 4449 4452 4455 4457 4460 4463 4466 4469 4472 4475 4478 4480 4483 4486 4489 4492 4495 4498 4501 4504 4506 4509 4512 4515 4518 4521 4524 4526 4529 4532 4535 4538 4540 4542 4545 4547 4550 4552 4555 4557 4560 4563 4566 4568 4570 4573 4575 4578 4581 4583 4586 4589 4592 4595 4597 4600 4603 4606 4609 4612 4615 4618 4621 4624 4626 4629 4632 4635 4637 4640 4643 4645 4648 4651 4654 4657 4660 4663 4666 4669 4671 4674 4677 4679 4682 4685 4688 4691 4693 4695 4697 4700 4702 4705 4707 4710 4713 4716 4719 4722 4724 4727 4730 4732 4735 4738 4741 4744 4747 4749 4752 4754 4757 4759 4762 4764 4766 4769 4771 4774 4776 4779 4782 4785 4787 4790 4792 4795 4797 4799 4802 4804 4807 4809 4812 4815 4817 4820 4822 4824 4826 4829 4832 4834 4837 4840 4842 4845 4848 4851 4853 4856 4859 4861 4864 4866 4869 4872 4875 4877 4880 4882 4885 4888 4891 4894 4896 4898 4901 4904 4907 4910 4913 4915 4917 4920 4923 4926 4928 4931 4934 4936 4939 4942 4944 4947 4950 4953 4955 4957 4959 4962 4965 4968 4971 4974 4977 4980 4983 4986 4989 4991 4993 4996 4999 5002 5004 5007 5010 5013 5016 5019 5022 5024 5027 5030 5033 5036 5039 5042 5045 5048 5050 5053 5056 5059 5062 5064 5067 5070 5073 5075 5078 5081 5084 5087 5089 5091 5094 5097 5100 5103 5105 5108 5111 5114 5117 5120 5122 5125 5128 5131 5134 5137 5140 5143 5146 5148 5151 5154 5157 5159 5162 5165 5167 5170 5173 5176 5179 5182 5185 5188 5191 5194 5197 5200 5203 5206 5209 5212 5215 5218 5221 5224 5227 5230 5232 5235 5238 5241 5244 5247 5250 5253 5256 5259 5262 5265 5268 5271 5273 5276 5279 5282 5285 5288 5291 5294 5297 5300 5303 5306 5309 5312 5315 5318 5321 5324 5327 5330 5332 5335 5338 5341 5344 5347 5350 5353 5356 5359 5362 5365 5368 5371 5373 5376 5379 5382 5385 5387 5390 5393 5396 5399 5401 5404 5407 5410 5413 5416 5419 5422 5425 5428 5431 5434 5437 5440 5443 5446 5449 5452 5455 5458 5460 5463 5466 5469 5472 5475 5478 5481 5483 5485 5488 5491 5493 5496 5499 5502 5505 5508 5511 5513 5516 5519 5522 5525 5528 5531 5534 5537 5540 5543 5546 5549 5552 5555 5558 5561 5564 5567 5570 5573 5576 5579 5582 5585 5588 5591 5594 5597 5600 5603 5606 5609 5612 5615 5618 5621 5624 5627 5630 5633 5636 5639 5642 5645 5648 5651 5654 5657 5660 5663 5666 5669 5672 5675 5678 5681 5684 5687 5690 5693 5696 5699 5702 5705 5708 5711 5714 5716 5719 5722 5725 5728 5730 5733 5736 5739 5741 5744 5747 5749 5752 5755 5758 5761 5764 5767 5770 5773 5776 5779 5781 5784 5787 5790 5793 5796 5799 5802 5805 5808 5811 5814 5817 5820 5823 5826 5829 5832 5835 5838 5841 5844 5847 5850 5853 5856 5858 5861 5864 5866 5869 5872 5875 5878 5881 5884 5887 5890 5893 5896 5899 5902 5905 5908 5911 5914 5917 5920 5923 5926 5928 5931 5934 5937 5940 5943 5946 5949 5952 5955 5958 5961 5964 5966 5969 5972 5975 5978 5981 5984 5987 5990 5993 5996 5999 6002 6005 6008 6011 6014 6017 6020 6023 6026 6029 6032 6035 6038 6041 6044 6047 6050 6053 6055 6058 6061 6064 6066 6069 6072 6075 6078 6080 6083 6086 6089 6092 6094 6097 6100 6103 6106 6109 6112 6115 6118 6121 6124 6127 6130 6133 6136 6139 6142 6145 6148 6151 6154 6157 6160 6163 6166 6169 6172 6175 6178 6181 6184 6187 6190 6193 6196 6199 6202 6205 6207 6210 6213 6215 6218 6221 6224 6227 6230 6232 6234 6237 6240 6243 6245 6248 6251 6253 6255 6258 6260 6263 6266 6268 6271 6274 6277 6279 6282 6284 6287 6290 6293 6296 6299 6302 6304 6306 6309 6312 6315 6317 6319 6322 6324 6327 6329 6332 6334 6337 6340 6343 6345 6348 6351 6354 6357 6360 6363 6366 6369 6372 6374 6377 6380 6383 6386 6389 6391 6394 6397 6400 6403 6406 6409 6411 6414 6417 6420 6423 6426 6429 6432 6435 6438 6441 6444 6447 6449 6452 6455 6458 6461 6464 6466 6469 6472 6475 6478 6481 6484 6486 6489 6492 6495 6498 6501 6504 6506 6509 6512 6515 6518 6521 6523 6526 6528 6531 6534 6537 6540 6542 6545 6548 6551 6554 6557 6560 6563 6566 6569 6571 6573 6575 6578 6581 6584 6587 6589 6592 6594 6597 6600 6603 6606 6608 6611 6613 6616 6619 6622 6624 6626 6629 6632 6635 6638 6640 6643 6645 6647 6649 6652 6655 6658 6661 6663 6665 6668 6670 6673 6676 6679 6682 6684 6687 6689 6692 6695 6698 6701 6704 6707 6710 6713 6716 6719 6721 6723 6726 6729 6732 6735 6738 6741 6744 6746 6749 6752 6755 6758 6761 6764 6767 6770 6773 6776 6779 6782 6784 6787 6790 6793 6796 6799 6802 6805 6808 6811 6814 6817 6820 6823 6826 6828 6831 6833 6836 6839 6842 6845 6848 6851 6854 6857 6860 6862 6865 6868 6871 6874 6877 6880 6883 6886 6888 6891 6894 6897 6900 6902 6905 6908 6911 6914 6916 6919 6922 6925 6928 6931 6934 6936 6939 6942 6945 6948 6951 6954 6957 6960 6962 6965 6968 6971 6974 6976 6979 6982 6985 6987 6990 6993 6996 6999 7002 7005 7008 7011 7014 7017 7020 7023 7026 7029 7032 7035 7038 7041 7044 7047 7050 7053 7055 7058 7061 7063 7066 7069 7072 7075 7077 7080 7083 7086 7089 7092 7095 7098 7101 7104 7107 7110 7113 7116 7119 7121 7124 7127 7130 7133 7136 7138 7141 7144 7147 7150 7153 7156 7158 7161 7164 7167 7170 7173 7176 7179 7182 7185 7188 7190 7193 7196 7199 7202 7205 7208 7211 7214 7217 7220 7223 7226 7229 7232 7235 7238 7241 7244 7247 7250 7253 7256 7259 7262 7265 7268 7271 7274 7277 7280 7283 7286 7289 7292 7294 7297 7300 7303 7306 7309 7312 7315 7318 7321 7324 7326 7329 7332 7335 7338 7341 7344 7347 7350 7353 7356 7358 7361 7364 7367 7370 7373 7376 7379 7381 7384 7386 7389 7392 7395 7398 7401 7403 7406 7409 7412 7415 7417 7420 7423 7426 7429 7432 7435 7438 7441 7444 7446 7449 7452 7454 7457 7460 7463 7466 7468 7470 7472 7475 7477 7480 7482 7485 7488 7491 7494 7497 7500 7503 7506 7509 7511 7514 7517 7520 7523 7525 7528 7531 7534 7537 7540 7543 7546 7549 7552 7555 7558 7560 7562 7565 7568 7571 7574 7577 7579 7582 7584 7586 7589 7591 7594 7597 7600 7603 7606 7609 7612 7614 7617 7620 7623 7626 7629 7631 7633 7636 7638 7641 7644 7647 7650 7653 7656 7658 7661 7664 7666 7669 7672 7674 7677 7680 7683 7686 7689 7692 7695 7698 7701 7703 7706 7708 7711 7714 7717 7720 7723 7725 7728 7731 7733 7736 7739 7742 7745 7747 7750 7753 7755 7758 7761 7764 7767 7770 7772 7775 7778 7781 7784 7787 7790 7793 7795 7798 7800 7803 7806 7809 7812 7814 7816 7819 7822 7824 7826 7829 7832 7835 7837 7839 7842 7845 7848 7850 7853 7856 7858 7860 7863 7866 7869 7872 7875 7878 7881 7884 7887 7890 7893 7896 7899 7901 7904 7907 7909 7912 7915 7917 7920 7922 7925 7928 7931 7934 7936 7939 7941 7944 7946 7949 7952 7955 7957 7960 7963 7966 7969 7972 7975 7978 7981 7984 7987 7990 7993 7996 7999 8002 8004 8007 8010 8013 8016 8019 8022 8025 8028 8030 8033 8036 8039 8042 8045 8047 8049 8052 8055 8058 8061 8063 8066 8068 8070 8073 8076 8079 8082 8085 8088 8090 8093 8096 8099 8101 8104 8107 8110 8113 8116 8119 8121 8124 8127 8130 8133 8136 8139 8142 8145 8148 8151 8154 8157 8159 8162 8165 8168 8171 8174 8177 8180 8183 8186 8189 8191 8194 8197 8200 8203 8206 8209 8212 8215 8218 8221 8223 8226 8229 8232 8235 8238 8241 8244 8247 8249 8252 8255 8258 8261 8264 8267 8270 8273 8276 8279 8282 8285 8288 8291 8294 8297 8299 8302 8304 8307 8310 8312 8315 8318 8321 8324 8327 8330 8333 8336 8339 8342 8345 8348 8351 8354 8357 8360 8362 8365 8368 8371 8374 8377 8379 8382 8385 8387 8390 8393 8396 8398 8400 8403 8406 8408 8411 8414 8417 8420 8423 8426 8428 8431 8434 8437 8440 8443 8446 8449 8452 8454 8457 8460 8463 8466 8469 8472 8474 8477 8480 8482 8485 8488 8491 8494 8496 8498 8501 8504 8506 8509 8511 8514 8517 8520 8523 8526 8528 8531 8534 8537 8540 8543 8546 8548 8551 8554 8557 8560 8563 8566 8569 8571 8574 8577 8580 8582 8585 8588 8591 8593 8596 8599 8602 8604 8607 8609 8612 8615 8618 8621 8624 8627 8630 8633 8636 8639 8642 8645 8648 8650 8653 8656 8658 8661 8663 8666 8668 8671 8674 8677 8680 8682 8685 8688 8690 8693 8696 8699 8701 8704 8707 8710 8713 8716 8719 8722 8725 8728 8731 8734 8737 8740 8743 8746 8749 8752 8755 8758 8761 8764 8767 8770 8773 8775 8778 8781 8784 8787 8790 8793 8795 8798 8801 8803 8806 8809 8812 8815 8817 8820 8822 8825 8828 8831 8834 8837 8840 8843 8846 8849 8851 8854 8856 8859 8861 8864 8867 8870 8873 8876 8879 8881 8884 8887 8889 8892 8895 8898 8900 8903 8906 8909 8912 8915 8918 8921 8924 8926 8929 8932 8934 8937 8940 8942 8945 8947 8950 8953 8956 8959 8961 8964 8966 8968 8971 8974 8976 8979 8982 8985 8988 8991 8993 8996 8999 9002 9004 9007 9010 9013 9016 9019 9022 9024 9027 9030 9033 9036 9038 9041 9044 9047 9049 9052 9055 9058 9061 9064 9066 9069 9072 9075 9078 9081 9083 9086 9089 9091 9094 9097 9100 9103 9106 9109 9112 9115 9118 9121 9124 9127 9130 9132 9135 9138 9141 9144 9147 9150 9153 9155 9158 9161 9164 9167 9169 9172 9175 9178 9181 9184 9187 9190 9193 9196 9199 9201 9204 9207 9210 9213 9215 9218 9221 9223 9226 9228 9231 9234 9236 9239 9242 9245 9248 9251 9254 9257 9260 9263 9266 9269 9272 9275 9278 9281 9284 9287 9290 9293 9295 9298 9301 9304 9307 9310 9313 9316 9319 9322 9325 9328 9331 9334 9337 9340 9343 9346 9349 9352 9355 9357 9360 9363 9366 9369 9372 9375 9378 9381 9383 9386 9389 9392 9395 9398 9400 9403 9406 9409 9412 9415 9417 9420 9423 9426 9428 9431 9434 9436 9439 9442 9445 9447 9450 9452 9455 9458 9461 9463 9465 9468 9470 9473 9476 9478 9481 9483 9486 9488 9490 9493 9496 9498 9501 9504 9507 9510 9512 9515 9518 9520 9523 9526 9528 9530 9533 9536 9539 9542 9544 9547 9549 9552 9555 9558 9560 9562 9565 9568 9571 9573 9575 9578 9580 9583 9586 9589 9592 9595 9598 9600 9602 9605 9608 9611 9613 9616 9619 9622 9625 9627 9630 9633 9636 9639 9641 9643 9646 9648 9650 9653 9655 9658 9661 9663 9665 9668 9670 9673 9676 9678 9681 9684 9686 9689 9691 9694 9697 9700 9702 9705 9708 9710 9713 9716 9719 9722 9725 9728 9731 9734 9737 9740 9743 9745 9748 9751 9754 9756 9759 9761 9764 9767 9770 9772 9774 9777 9780 9782 9784 9787 9790 9792 9795 9798 9801 9804 9806 9809 9812 9814 9817 9819 9822 9825 9828 9831 9834 9837 9839 9842 9845 9848 9851 9854 9857 9860 9863 9866 9869 9872 9874 9877 9880 9883 9886 9889 9891 9894 9897 9899 9902 9904 9907 9909 9912 9914 9917 9920 9922 9925 9928 9930 9933 9936 9939 9941 9944 9946 9949 9951 9954 9956 9959 9962 9965 9967 9970 9973 9976 9978 9981 9984 9987 9990 9993 9995 9997 9999 10002 10005 10008 10011 10014 10017 10020 10023 10026 10029 10032 10035 10038 10041 10044 10047 10050 10053 10056 10059 10062 10065 10068 10071 10074 10077 10080 10083 10086 10089 10092 10095 10098 10101 10104 10106 10109 10111 10114 10117 10120 10123 10125 10128 10131 10134 10137 10140 10143 10146 10149 10152 10154 10157 10159 10162 10165 10168 10171 10174 10177 10180 10182 10185 10187 10190 10193 10196 10199 10202 10205 10208 10211 10214 10217 10220 10223 10226 10229 10231 10234 10237 10240 10243 10246 10249 10252 10254 10257 10260 10263 10266 10268 10271 10274 10277 10280 10282 10285 10288 10291 10294 10297 10300 10302 10305 10308 10311 10314 10317 10320 10323 10326 10328 10331 10334 10337 10340 10343 10346 10349 10352 10355 10358 10361 10364 10367 10370 10373 10375 10378 10381 10384 10387 10390 10392 10395 10398 10401 10404 10406 10409 10412 10415 10418 10421 10424 10427 10430 10433 10436 10439 10442 10444 10447 10450 10453 10456 10459 10462 10465 10468 10471 10474 10477 10480 10483 10486 10489 10492 10495 10498 10501 10504 10507 10510 10513 10516 10519 10522 10525 10528 10531 10534 10537 10540 10543 10546 10549 10552 10555 10558 10561 10564 10567 10570 10573 10575 10578 10581 10584 10587 10590 10593 10596 10599 10602 10605 10608 10611 10613 10616 10618 10621 10624 10627 10629 10632 10635 10638 10641 10644 10647 10649 10652 10655 10658 10661 10664 10667 10669 10672 10675 10677 10679 10682 10685 10687 10690 10693 10695 10697 10699 10702 10705 10708 10711 10714 10717 10720 10723 10726 10729 10731 10734 10737 10740 10743 10745 10748 10751 10754 10757 10759 10762 10764 10767 10770 10773 10776 10778 10781 10784 10787 10790 10792 10795 10798 10801 10804 10806 10809 10812 10815 10817 10820 10823 10826 10829 10832 10835 10838 10841 10844 10847 10850 10853 10856 10859 10862 10865 10868 10871 10874 10877 10880 10883 10886 10889 10892 10895 10898 10901 10904 10907 10910 10913 10916 10919 10922 10925 10928 10931 10934 10937 10939 10942 10945 10948 10951 10954 10957 10960 10963 10965 10968 10971 10974 10977 10979 10982 10985 10988 10991 10994 10997 10999 11002 11005 11008 11010 11013 11016 11019 11022 11025 11028 11031 11034 11037 11040 11042 11045 11048 11051 11054 11057 11060 11063 11066 11069 11072 11074 11077 11080 11083 11085 11087 11090 11092 11094 11097 11100 11103 11106 11109 11111 11114 11117 11120 11123 11126 11129 11132 11135 11137 11140 11143 11146 11149 11152 11155 11158 11161 11164 11166 11169 11172 11175 11177 11180 11182 11185 11187 11190 11193 11196 11199 11202 11205 11208 11211 11214 11217 11220 11223 11226 11229 11231 11233 11236 11239 11242 11245 11248 11250 11253 11256 11259 11262 11265 11268 11271 11274 11277 11280 11283 11286 11289 11292 11295 11298 11301 11304 11306 11309 11312 11315 11317 11320 11323 11326 11329 11332 11335 11338 11340 11343 11346 11349 11352 11354 11357 11360 11363 11366 11368 11371 11374 11377 11379 11382 11384 11387 11390 11393 11395 11398 11401 11404 11407 11410 11413 11416 11419 11422 11425 11428 11431 11434 11437 11440 11443 11446 11449 11452 11455 11458 11461 11464 11467 11470 11472 11475 11478 11481 11484 11487 11490 11493 11495 11498 11501 11504 11507 11510 11512 11515 11518 11521 11523 11526 11528 11531 11534 11537 11540 11543 11546 11548 11551 11554 11557 11560 11563 11566 11568 11571 11574 11577 11580 11583 11586 11589 11591 11594 11597 11599 11602 11605 11608 11610 11613 11616 11619 11622 11625 11628 11631 11634 11637 11640 11643 11646 11649 11652 11655 11658 11660 11663 11666 11669 11672 11675 11678 11681 11684 11687 11689 11692 11695 11698 11700 11703 11706 11709 11712 11715 11718 11721 11724 11727 11730 11732 11735 11738 11741 11744 11747 11750 11752 11755 11758 11760 11763 11765 11768 11771 11774 11777 11780 11783 11786 11789 11791 11794 11797 11800 11802 11805 11808 11811 11813 11816 11819 11822 11825 11827 11830 11833 11835 11838 11840 11842 11844 11847 11850 11852 11854 11857 11860 11863 11865 11868 11871 11874 11876 11879 11882 11885 11888 11891 11894 11897 11900 11903 11905 11908 11911 11913 11915 11917 11919 11921 11924 11927 11929 11932 11935 11938 11941 11944 11947 11950 11953 11956 11959 11962 11965 11968 11971 11974 11977 11980 11983 11985 11988 11991 11994 11997 12000 12003 12006 12009 12011 12014 12017 12020 12023 12026 12028 12031 12033 12035 12038 12041 12044 12047 12049 12052 12055 12058 12060 12063 12066 12069 12071 12074 12076 12079 12082 12085 12087 12089 12091 12094 12097 12099 12102 12104 12106 12109 12111 12114 12117 12120 12122 12125 12127 12130 12133 12136 12139 12142 12145 12148 12151 12154 12157 12160 12163 12166 12169 12172 12175 12178 12181 12184 12187 12190 12193 12196 12199 12202 12204 12207 12210 12213 12216 12219 12222 12224 12227 12230 12233 12236 12239 12242 12244 12246 12249 12252 12255 12258 12260 12263 12266 12269 12271 12274 12277 12280 12283 12285 12288 12290 12293 12295 12298 12301 12303 12305 12308 12311 12313 12316 12319 12321 12323 12325 12328 12331 12333 12336 12339 12342 12345 12348 12351 12354 12357 12360 12363 12366 12369 12372 12375 12378 12381 12384 12387 12390 12393 12396 12399 12402 12405 12408 12411 12414 12417 12420 12423 12426 12429 12431 12433 12436 12439 12442 12445 12448 12450 12453 12456 12458 12461 12464 12466 12469 12472 12475 12478 12481 12484 12487 12490 12493 12496 12499 12502 12505 12508 12511 12513 12516 12519 12521 12523 12526 12529 12532 12535 12537 12539 12542 12544 12546 12549 12551 12554 12557 12560 12563 12565 12568 12570 12573 12576 12578 12580 12583 12585 12587 12590 12593 12595 12597 12599 12602 12604 12607 12610 12613 12616 12619 12622 12624 12627 12630 12633 12636 12639 12642 12645 12647 12649 12652 12655 12658 12660 12663 12666 12669 12672 12674 12676 12679 12682 12685 12687 12690 12693 12696 12699 12702 12705 12708 12711 12714 12717 12720 12723 12726 12729 12732 12735 12738 12741 12744 12747 12750 12753 12756 12759 12762 12765 12768 12771 12774 12777 12780 12783 12786 12789 12791 12794 12797 12800 12803 12806 12809 12812 12815 12818 12820 12823 12826 12829 12832 12835 12838 12841 12844 12846 12849 12852 12855 12858 12861 12864 12867 12870 12873 12876 12878 12880 12883 12885 12888 12891 12893 12896 12899 12902 12905 12908 12911 12914 12917 12919 12922 12925 12928 12931 12934 12937 12939 12942 12945 12948 12951 12954 12957 12960 12963 12966 12969 12972 12975 12978 12981 12984 12987 12990 12992 12995 12998 13000 13003 13006 13008 13011 13013 13016 13019 13022 13025 13027 13030 13033 13036 13039 13041 13044 13047 13050 13053 13056 13058 13061 13064 13067 13070 13073 13076 13079 13082 13085 13087 13090 13093 13096 13099 13102 13105 13108 13110 13113 13116 13119 13121 13124 13127 13130 13133 13136 13139 13142 13144 13147 13150 13153 13155 13158 13161 13164 13167 13170 13173 13176 13179 13182 13185 13187 13190 13193 13196 13198 13201 13204 13206 13209 13212 13215 13217 13220 13223 13226 13229 13232 13234 13237 13240 13243 13246 13248 13251 13254 13257 13260 13263 13266 13269 13272 13275 13278 13281 13284 13287 13290 13293 13296 13299 13301 13304 13307 13310 13313 13315 13318 13321 13324 13327 13330 13332 13335 13338 13341 13344 13347 13350 13352 13355 13358 13361 13364 13367 13370 13373 13376 13379 13382 13385 13388 13391 13393 13396 13399 13402 13404 13407 13409 13412 13414 13417 13420 13422 13425 13428 13431 13433 13436 13439 13442 13445 13448 13451 13454 13457 13459 13462 13465 13468 13471 13474 13476 13479 13482 13485 13488 13491 13494 13497 13500 13503 13505 13508 13511 13514 13516 13519 13522 13525 13528 13531 13534 13537 13540 13543 13546 13549 13552 13555 13558 13561 13563 13566 13569 13572 13575 13578 13581 13584 13587 13590 13593 13595 13598 13601 13604 13606 13609 13612 13615 13618 13621 13624 13627 13630 13633 13636 13639 13642 13645 13648 13651 13654 13657 13660 13663 13666 13669 13671 13674 13676 13679 13682 13685 13688 13691 13694 13697 13700 13703 13706 13709 13712 13715 13717 13720 13723 13726 13729 13732 13735 13738 13741 13744 13747 13750 13753 13755 13758 13760 13763 13766 13769 13772 13775 13778 13781 13783 13786 13789 13792 13795 13798 13800 13802 13804 13807 13810 13813 13815 13818 13821 13824 13827 13830 13833 13836 13839 13842 13845 13848 13851 13854 13857 13860 13863 13866 13869 13872 13875 13878 13881 13884 13887 13890 13893 13896 13899 13902 13905 13908 13911 13914 13916 13919 13921 13924 13927 13930 13933 13936 13939 13942 13945 13948 13951 13954 13957 13960 13963 13966 13969 13972 13975 13978 13981 13984 13986 13989 13992 13995 13998 14001 14004 14006 14009 14012 14015 14018 14021 14024 14027 14029 14031 14034 14037 14040 14043 14046 14049 14052 14055 14058 14061 14063 14066 14069 14072 14075 14078 14081 14084 14087 14090 14093 14095 14098 14101 14104 14107 14110 14113 14116 14119 14122 14125 14128 14131 14134 14137 14140 14143 14146 14149 14152 14155 14158 14161 14164 14167 14170 14173 14176 14179 14182 14185 14188 14190 14193 14196 14199 14201 14204 14207 14210 14213 14216 14218 14221 14224 14226 14229 14231 14233 14236 14239 14242 14245 14248 14250 14253 14256 14259 14261 14264 14267 14270 14273 14276 14279 14282 14285 14288 14291 14294 14297 14300 14303 14306 14308 14311 14314 14317 14320 14322 14325 14328 14331 14334 14337 14340 14342 14345 14348 14351 14354 14357 14360 14363 14366 14369 14372 14375 14378 14381 14384 14387 14390 14393 14396 14399 14402 14405 14408 14410 14413 14416 14419 14422 14425 14428 14431 14434 14437 14440 14443 14446 14449 14452 14455 14458 14461 14464 14467 14470 14473 14476 14479 14482 14485 14488 14491 14494 14497 14500 14503 14506 14509 14512 14515 14518 14521 14524 14527 14529 14532 14535 14538 14541 14544 14547 14550 14553 14556 14559 14562 14565 14568 14571 14574 14577 14579 14582 14585 14588 14591 14594 14597 14599 14601 14604 14607 14610 14613 14615 14618 14620 14623 14626 14628 14631 14634 14637 14640 14643 14646 14648 14651 14654 14657 14659 14662 14665 14668 14671 14674 14676 14679 14682 14685 14688 14690 14692 14695 14697 14700 14703 14706 14709 14712 14715 14718 14721 14724 14727 14730 14732 14735 14738 14741 14743 14746 14749 14752 14755 14758 14760 14763 14766 14768 14771 14774 14777 14780 14783 14786 14788 14791 14793 14796 14799 14802 14805 14808 14811 14814 14817 14820 14823 14826 14829 14832 14834 14837 14840 14843 14846 14849 14852 14855 14858 14861 14864 14867 14870 14873 14876 14879 14882 14885 14888 14891 14894 14896 14898 14901 14904 14907 14910 14913 14916 14919 14922 14925 14928 14931 14934 14936 14939 14942 14944 14947 14949 14952 14955 14958 14961 14964 14967 14970 14973 14976 14979 14981 14984 14986 14989 14991 14993 14996 14999 15002 15005 15007 15010 15013 15015 15018 15021 15024 15027 15030 15032 15035 15038 15041 15044 15047 15050 15053 15056 15059 15062 15064 15067 15070 15073 15076 15079 15082 15085 15088 15091 15094 15097 15100 15103 15106 15109 15112 15114 15117 15120 15123 15126 15128 15131 15134 15136 15139 15142 15145 15148 15151 15153 15156 15158 15161 15163 15166 15169 15172 15175 15178 15181 15184 15186 15189 15191 15193 15196 15199 15201 15204 15207 15210 15213 15215 15218 15221 15223 15226 15229 15232 15235 15238 15241 15243 15246 15249 15252 15255 15258 15260 15263 15266 15269 15272 15275 15277 15280 15283 15286 15289 15291 15293 15296 15298 15301 15304 15307 15310 15312 15315 15317 15320 15323 15326 15329 15332 15335 15337 15340 15343 15346 15349 15352 15355 15358 15361 15364 15366 15369 15371 15374 15377 15380 15383 15386 15389 15392 15395 15397 15400 15402 15405 15408 15411 15413 15416 15418 15421 15424 15427 15430 15433 15436 15439 15442 15445 15447 15450 15453 15455 15458 15461 15464 15467 15470 15473 15476 15479 15481 15483 15485 15488 15491 15494 15497 15500 15503 15506 15509 15512 15515 15518 15521 15524 15527 15530 15533 15536 15539 15542 15544 15547 15550 15553 15555 15557 15560 15563 15566 15569 15572 15575 15578 15580 15583 15586 15589 15592 15595 15598 15601 15604 15607 15610 15613 15615 15618 15621 15624 15627 15630 15633 15636 15639 15642 15645 15647 15650 15653 15656 15659 15662 15665 15667 15670 15673 15676 15679 15682 15685 15688 15691 15694 15697 15700 15703 15706 15709 15712 15714 15717 15720 15723 15726 15728 15731 15734 15737 15740 15743 15746 15749 15751 15754 15756 15759 15762 15764 15767 15770 15773 15775 15778 15780 15783 15785 15787 15790 15793 15796 15798 15800 15803 15806 15809 15812 15815 15818 15821 15824 15827 15830 15833 15836 15839 15842 15845 15848 15851 15854 15857 15860 15863 15866 15868 15871 15874 15877 15880 15883 15886 15889 15892 15895 15898 15900 15902 15905 15908 15911 15914 15917 15920 15923 15925 15928 15931 15934 15936 15939 15942 15945 15948 15951 15954 15956 15958 15961 15964 15967 15970 15972 15975 15978 15981 15984 15987 15989 15992 15995 15998 16001 16004 16006 16009 16012 16015 16018 16021 16024 16027 16030 16033 16036 16039 16041 16044 16047 16050 16052 16055 16058 16061 16064 16067 16070 16073 16076 16079 16082 16085 16088 16091 16094 16097 16100 16102 16105 16108 16110 16113 16116 16119 16121 16123 16126 16129 16132 16134 16136 16138 16141 16144 16147 16150 16152 16155 16158 16161 16164 16167 16169 16171 16174 16177 16179 16182 16184 16187 16189 16192 16195 16198 16200 16203 16206 16208 16211 16214 16217 16220 16223 16225 16228 16231 16234 16237 16240 16243 16246 16249 16252 16255 16258 16261 16264 16267 16270 16273 16276 16279 16282 16285 16288 16291 16294 16296 16299 16302 16305 16308 16311 16314 16317 16320 16323 16326 16329 16332 16335 16338 16341 16344 16347 16350 16353 16356 16359 16362 16365 16368 16371 16374 16377 16380 16383 16386 16389 16392 16395 16398 16401 16403 16406 16409 16412 16415 16418 16421 16424 16426 16429 16432 16435 16438 16440 16443 16446 16448 16451 16454 16457 16460 16463 16465 16468 16471 16474 16477 16480 16483 16486 16489 16492 16495 16497 16499 16502 16505 16508 16511 16514 16517 16520 16523 16526 16528 16531 16534 16537 16540 16543 16545 16548 16551 16554 16557 16560 16563 16566 16569 16572 16575 16578 16581 16584 16587 16590 16593 16596 16599 16602 16605 16607 16610 16612 16615 16617 16620 16623 16626 16629 16632 16635 16638 16641 16643 16646 16649 16652 16655 16658 16661 16664 16667 16670 16673 16676 16679 16682 16685 16688 16690 16693 16696 16699 16702 16705 16708 16711 16714 16717 16720 16723 16726 16729 16732 16735 16738 16741 16744 16747 16750 16753 16756 16758 16761 16764 16767 16770 16773 16775 16778 16780 16783 16785 16788 16791 16794 16796 16798 16801 16804 16807 16810 16813 16816 16818 16820 16822 16825 16827 16830 16832 16835 16838 16841 16844 16847 16850 16852 16855 16858 16861 16864 16867 16870 16873 16876 16878 16881 16884 16887 16889 16892 16894 16897 16900 16902 16905 16908 16911 16914 16917 16920 16923 16926 16929 16932 16935 16938 16941 16944 16947 16949 16952 16955 16958 16961 16964 16967 16970 16972 16975 16978 16981 16984 16987 16990 16993 16995 16998 17000 17003 17006 17008 17011 17014 17017 17020 17023 17026 17029 17032 17035 17037 17040 17043 17046 17049 17051 17054 17057 17059 17061 17064 17067 17070 17073 17076 17079 17082 17085 17087 17090 17093 17096 17099 17102 17105 17108 17111 17114 17117 17120 17123 17126 17129 17132 17135 17138 17141 17144 17147 17150 17153 17156 17159 17162 17165 17168 17171 17174 17177 17179 17182 17185 17188 17191 17194 17197 17200 17203 17206 17209 17212 17214 17217 17220 17222 17225 17228 17231 17234 17237 17240 17243 17246 17249 17252 17254 17256 17259 17262 17265 17268 17270 17272 17275 17278 17281 17284 17286 17289 17292 17295 17297 17300 17303 17306 17309 17312 17315 17318 17321 17324 17327 17330 17333 17336 17338 17341 17343 17346 17349 17352 17355 17358 17360 17363 17366 17368 17371 17374 17377 17380 17383 17386 17389 17392 17395 17397 17400 17403 17406 17409 17412 17415 17418 17421 17424 17427 17429 17432 17435 17438 17440 17443 17446 17449 17452 17455 17458 17461 17464 17467 17470 17473 17476 17479 17481 17483 17485 17488 17491 17493 17496 17499 17502 17505 17508 17511 17514 17517 17520 17523 17526 17529 17532 17535 17537 17540 17543 17546 17549 17552 17555 17558 17560 17563 17566 17569 17572 17575 17578 17581 17584 17587 17590 17593 17596 17599 17602 17605 17608 17610 17613 17616 17619 17622 17625 17628 17631 17633 17636 17639 17642 17644 17647 17650 17653 17656 17659 17662 17665 17668 17671 17674 17677 17680 17683 17686 17689 17692 17694 17697 17700 17703 17706 17708 17711 17713 17716 17719 17722 17725 17727 17730 17733 17736 17739 17742 17745 17748 17751 17754 17757 17760 17763 17766 17769 17772 17775 17778 17780 17782 17785 17788 17791 17794 17797 17800 17803 17806 17809 17812 17815 17818 17821 17824 17827 17830 17833 17836 17838 17841 17843 17846 17849 17852 17855 17858 17861 17864 17867 17869 17872 17875 17877 17880 17882 17885 17888 17891 17894 17897 17900 17903 17906 17909 17912 17915 17918 17921 17924 17927 17930 17933 17936 17939 17942 17945 17948 17951 17954 17957 17960 17963 17966 17969 17972 17975 17978 17981 17984 17987 17990 17993 17996 17999 18002 18005 18008 18011 18014 18017 18020 18023 18026 18029 18032 18034 18037 18040 18043 18046 18048 18050 18053 18056 18059 18062 18065 18068 18071 18074 18076 18079 18082 18085 18088 18091 18094 18097 18100 18102 18105 18108 18111 18114 18116 18119 18121 18123 18125 18128 18131 18134 18137 18140 18143 18146 18149 18152 18154 18157 18160 18163 18166 18169 18172 18175 18178 18181 18184 18187 18189 18192 18195 18198 18201 18204 18207 18210 18213 18216 18219 18222 18225 18227 18230 18233 18235 18238 18241 18244 18247 18250 18252 18255 18257 18260 18263 18266 18269 18272 18275 18278 18281 18284 18287 18290 18293 18296 18299 18302 18305 18308 18311 18314 18317 18320 18323 18326 18328 18331 18334 18337 18340 18343 18346 18349 18352 18355 18358 18361 18364 18367 18370 18373 18376 18379 18382 18385 18388 18390 18393 18396 18399 18402 18405 18408 18411 18414 18417 18420 18423 18426 18429 18432 18435 18438 18441 18443 18446 18449 18451 18454 18457 18460 18463 18466 18469 18472 18475 18478 18480 18482 18485 18488 18491 18494 18497 18500 18503 18506 18509 18511 18514 18516 18518 18521 18524 18526 18529 18531 18534 18537 18540 18543 18546 18549 18552 18555 18558 18561 18564 18567 18570 18573 18576 18579 18582 18585 18588 18591 18594 18597 18600 18603 18606 18609 18612 18615 18618 18621 18624 18627 18630 18633 18636 18639 18642 18645 18648 18651 18654 18657 18660 18663 18666 18669 18672 18675 18678 18681 18684 18687 18690 18693 18696 18699 18701 18704 18706 18709 18712 18715 18718 18721 18724 18727 18729 18732 18735 18737 18740 18743 18746 18749 18752 18755 18757 18760 18763 18766 18769 18772 18775 18778 18781 18784 18787 18790 18793 18796 18799 18801 18804 18807 18810 18812 18815 18818 18820 18823 18826 18829 18832 18834 18837 18840 18843 18846 18849 18852 18855 18858 18860 18862 18865 18868 18871 18874 18877 18879 18882 18885 18887 18890 18893 18895 18898 18901 18904 18907 18910 18912 18915 18917 18920 18922 18925 18928 18931 18933 18936 18939 18942 18945 18948 18950 18953 18956 18959 18961 18964 18967 18970 18973 18976 18979 18982 18985 18988 18991 18994 18997 18999 19001 19004 19007 19010 19012 19015 19018 19021 19024 19026 19029 19032 19035 19038 19041 19044 19046 19049 19052 19055 19058 19061 19064 19067 19070 19073 19076 19079 19082 19085 19087 19090 19093 19096 19098 19101 19104 19107 19110 19113 19116 19119 19122 19124 19126 19129 19132 19134 19137 19140 19142 19145 19148 19150 19153 19156 19158 19161 19163 19166 19169 19172 19175 19178 19181 19184 19187 19190 19192 19195 19198 19201 19204 19207 19210 19213 19216 19219 19221 19224 19227 19230 19233 19236 19239 19242 19245 19248 19251 19253 19256 19259 19262 19265 19268 19271 19274 19277 19279 19282 19285 19288 19291 19294 19297 19300 19302 19305 19307 19310 19312 19314 19316 19318 19321 19323 19326 19329 19332 19335 19337 19339 19342 19344 19347 19350 19352 19355 19358 19361 19364 19366 19369 19372 19375 19378 19381 19384 19387 19390 19393 19396 19399 19402 19405 19408 19411 19414 19417 19420 19422 19425 19428 19431 19434 19436 19438 19441 19444 19447 19449 19452 19454 19457 19460 19462 19465 19468 19470 19473 19476 19479 19482 19485 19488 19491 19493 19496 19499 19502 19505 19508 19511 19514 19516 19518 19520 19522 19525 19528 19531 19534 19537 19540 19543 19546 19549 19552 19555 19558 19561 19564 19567 19570 19573 19576 19579 19582 19585 19588 19591 19594 19597 19600 19603 19606 19609 19612 19615 19618 19621 19624 19627 19630 19633 19636 19639 19642 19645 19648 19651 19654 19657 19660 19663 19666 19669 19672 19675 19678 19681 19684 19687 19689 19692 19695 19698 19701 19704 19707 19710 19713 19716 19719 19722 19725 19727 19730 19733 19736 19739 19742 19745 19748 19751 19754 19757 19760 19763 19766 19769 19772 19775 19778 19781 19784 19787 19790 19793 19796 19799 19802 19805 19808 19811 19814 19817 19820 19823 19825 19828 19831 19834 19836 19839 19842 19845 19848 19851 19854 19857 19860 19863 19866 19868 19871 19874 19877 19880 19883 19886 19889 19892 19895 19898 19901 19904 19907 19910 19913 19916 19919 19921 19924 19927 19930 19933 19935 19938 19941 19944 19947 19950 19953 19956 19958 19961 19964 19967 19969 19972 19975 19978 19981 19984 19987 19990 19993 19996 19999 20002 20005 20008 20011 20014 20017 20020 20023 20026 20029 20032 20035 20038 20041 20044 20047 20050 20053 20056 20059 20062 20065 20068 20071 20074 20077 20080 20083 20086 20089 20092 20095 20098 20101 20104 20107 20110 20113 20115 20117 20119 20122 20125 20127 20129 20132 20135 20138 20141 20144 20147 20150 20153 20155 20158 20161 20163 20166 20168 20171 20174 20177 20179 20182 20184 20187 20190 20193 20196 20199 20201 20204 20207 20210 20213 20216 20219 20222 20225 20228 20231 20234 20237 20240 20243 20246 20249 20252 20255 20258 20261 20264 20267 20270 20273 20276 20279 20282 20285 20288 20291 20294 20297 20299 20302 20305 20307 20310 20312 20315 20318 20321 20324 20327 20330 20332 20335 20338 20340 20343 20346 20349 20352 20355 20358 20361 20363 20366 20368 20371 20373 20376 20379 20382 20385 20387 20390 20392 20395 20398 20401 20404 20407 20410 20413 20415 20417 20419 20422 20425 20428 20431 20434 20437 20440 20443 20446 20449 20452 20455 20458 20461 20464 20467 20470 20473 20476 20479 20482 20485 20488 20491 20494 20497 20500 20502 20505 20508 20510 20513 20516 20519 20522 20525 20528 20531 20534 20537 20540 20543 20546 20549 20552 20555 20558 20561 20564 20567 20570 20573 20576 20579 20582 20585 20588 20591 20594 20597 20600 20603 20606 20609 20612 20614 20617 20619 20622 20624 20627 20630 20633 20636 20638 20641 20644 20647 20650 20652 20654 20657 20660 20663 20666 20668 20671 20674 20676 20678 20681 20684 20686 20689 20692 20695 20698 20701 20704 20706 20709 20712 20715 20718 20721 20724 20727 20729 20731 20734 20737 20740 20742 20745 20748 20750 20753 20756 20759 20762 20765 20768 20771 20774 20777 20780 20783 20786 20788 20791 20794 20797 20799 20802 20805 20808 20811 20814 20817 20820 20822 20825 20827 20830 20833 20835 20837 20839 20842 20845 20848 20851 20854 20857 20860 20863 20866 20869 20872 20875 20878 20881 20883 20886 20889 20892 20895 20897 20900 20903 20906 20909 20912 20915 20918 20921 20923 20926 20929 20932 20934 20937 20940 20943 20946 20949 20952 20955 20958 20961 20964 20967 20970 20973 20976 20979 20982 20985 20988 20991 20994 20996 20999 21002 21005 21008 21010 21013 21015 21018 21021 21024 21027 21030 21033 21036 21039 21042 21045 21048 21051 21054 21057 21060 21063 21066 21069 21072 21075 21078 21081 21084 21087 21090 21093 21096 21099 21102 21105 21108 21111 21113 21116 21119 21122 21125 21128 21131 21133 21136 21139 21142 21145 21147 21150 21153 21156 21158 21161 21163 21166 21169 21172 21175 21178 21181 21184 21186 21189 21192 21195 21198 21201 21204 21207 21210 21212 21215 21218 21221 21223 21226 21229 21232 21234 21237 21240 21243 21246 21249 21252 21255 21258 21261 21264 21266 21269 21272 21274 21277 21280 21283 21286 21289 21292 21295 21298 21301 21304 21307 21310 21313 21316 21319 21322 21325 21328 21331 21334 21337 21340 21343 21346 21349 21351 21354 21357 21360 21363 21366 21368 21370 21373 21375 21377 21380 21382 21385 21387 21390 21393 21396 21399 21402 21404 21407 21409 21411 21413 21416 21419 21421 21424 21427 21430 21432 21435 21438 21441 21444 21447 21450 21452 21455 21458 21461 21464 21467 21470 21473 21476 21479 21482 21485 21488 21490 21493 21496 21499 21502 21505 21508 21511 21514 21517 21520 21523 21526 21529 21532 21535 21538 21541 21544 21547 21550 21552 21555 21557 21560 21563 21566 21568 21571 21574 21576 21579 21582 21585 21588 21591 21594 21597 21600 21603 21606 21609 21612 21615 21618 21621 21624 21627 21630 21633 21635 21637 21640 21643 21646 21649 21652 21655 21657 21660 21662 21665 21668 21670 21673 21676 21679 21681 21684 21686 21689 21692 21695 21698 21701 21704 21706 21709 21711 21714 21717 21720 21723 21726 21729 21732 21735 21738 21741 21744 21747 21750 21753 21756 21759 21762 21765 21768 21771 21774 21777 21780 21783 21786 21789 21792 21795 21798 21801 21804 21807 21810 21813 21816 21819 21822 21825 21828 21831 21834 21837 21840 21843 21846 21849 21852 21855 21858 21861 21864 21866 21869 21872 21875 21878 21881 21884 21887 21890 21893 21895 21898 21901 21903 21906 21909 21912 21915 21918 21920 21923 21926 21929 21932 21934 21937 21940 21943 21946 21949 21951 21954 21957 21960 21963 21966 21969 21971 21974 21976 21979 21982 21984 21987 21989 21992 21995 21998 22001 22004 22007 22009 22012 22015 22018 22021 22024 22027 22030 22033 22035 22038 22041 22044 22047 22050 22052 22055 22058 22061 22063 22066 22069 22071 22074 22077 22080 22083 22086 22089 22092 22095 22098 22101 22104 22106 22109 22112 22115 22118 22121 22124 22127 22130 22133 22136 22139 22142 22145 22148 22150 22153 22156 22159 22162 22165 22168 22171 22174 22177 22180 22183 22186 22188 22191 22194 22197 22200 22203 22206 22209 22212 22215 22217 22220 22223 22226 22229 22232 22234 22237 22240 22243 22245 22248 22251 22253 22256 22258 22261 22263 22266 22269 22272 22275 22278 22281 22284 22287 22290 22293 22296 22299 22302 22305 22308 22311 22314 22317 22320 22323 22326 22329 22332 22334 22337 22340 22343 22346 22349 22352 22355 22358 22361 22364 22367 22370 22373 22376 22378 22381 22384 22387 22390 22392 22395 22398 22400 22402 22405 22408 22411 22414 22416 22419 22421 22423 22426 22429 22431 22434 22436 22438 22440 22443 22445 22448 22451 22454 22457 22460 22462 22465 22468 22471 22474 22477 22479 22481 22484 22487 22490 22492 22495 22498 22500 22503 22506 22509 22512 22514 22517 22520 22523 22526 22529 22531 22534 22537 22540 22543 22546 22549 22552 22555 22558 22561 22564 22567 22570 22573 22576 22579 22582 22585 22588 22590 22593 22596 22599 22602 22605 22608 22611 22614 22617 22620 22623 22625 22628 22631 22634 22637 22640 22643 22646 22649 22652 22655 22657 22660 22663 22666 22669 22672 22675 22678 22680 22683 22686 22689 22692 22695 22698 22701 22704 22706 22709 22712 22715 22717 22719 22721 22724 22727 22729 22732 22734 22736 22739 22741 22743 22745 22748 22751 22754 22757 22760 22763 22766 22769 22772 22774 22777 22780 22783 22786 22789 22792 22794 22797 22800 22803 22805 22808 22811 22814 22816 22819 22822 22825 22828 22831 22834 22837 22840 22843 22846 22849 22852 22855 22858 22861 22864 22866 22869 22872 22875 22878 22881 22884 22887 22890 22893 22896 22899 22902 22905 22908 22911 22914 22917 22920 22923 22926 22929 22932 22935 22938 22941 22943 22946 22949 22951 22953 22956 22958 22960 22963 22966 22969 22972 22975 22978 22981 22984 22987 22990 22993 22996 22999 23002 23005 23008 23011 23014 23016 23019 23022 23025 23028 23031 23034 23037 23040 23043 23046 23049 23052 23055 23057 23060 23063 23066 23069 23072 23075 23078 23081 23084 23087 23090 23093 23096 23099 23102 23105 23108 23111 23114 23117 23120 23123 23126 23129 23131 23134 23137 23140 23143 23146 23149 23152 23155 23158 23161 23163 23166 23169 23172 23175 23178 23181 23184 23187 23190 23193 23196 23199 23202 23204 23207 23210 23213 23216 23219 23222 23225 23228 23231 23234 23237 23239 23242 23245 23248 23251 23254 23257 23260 23263 23266 23269 23272 23275 23278 23281 23284 23287 23290 23293 23296 23299 23302 23305 23308 23311 23313 23316 23318 23321 23324 23327 23330 23333 23336 23339 23342 23345 23348 23350 23352 23355 23358 23361 23364 23366 23369 23372 23375 23377 23380 23383 23386 23389 23392 23395 23398 23401 23404 23406 23409 23411 23413 23416 23419 23422 23425 23427 23430 23433 23436 23439 23442 23445 23448 23451 23454 23457 23460 23463 23465 23468 23471 23474 23477 23479 23482 23485 23487 23490 23493 23496 23499 23502 23505 23507 23510 23513 23516 23519 23522 23525 23528 23530 23533 23535 23538 23541 23544 23547 23550 23553 23556 23559 23562 23565 23568 23571 23574 23577 23580 23583 23586 23589 23592 23595 23598 23601 23604 23607 23610 23612 23615 23617 23620 23623 23626 23629 23632 23634 23637 23640 23642 23645 23648 23651 23653 23656 23658 23661 23663 23666 23669 23672 23675 23677 23680 23683 23685 23688 23691 23694 23696 23699 23702 23705 23708 23711 23714 23717 23720 23723 23726 23729 23732 23735 23738 23741 23744 23747 23750 23753 23756 23758 23761 23763 23766 23769 23771 23773 23776 23779 23781 23783 23785 23788 23790 23793 23796 23798 23800 23802 23805 23808 23811 23814 23816 23819 23821 23824 23827 23829 23831 23834 23837 23839 23842 23844 23847 23850 23853 23856 23859 23862 23864 23867 23870 23873 23876 23879 23881 23884 23887 23889 23891 23894 23897 23900 23903 23906 23909 23912 23914 23917 23919 23922 23925 23928 23930 23933 23936 23938 23941 23944 23946 23948 23950 23953 23956 23958 23961 23964 23967 23970 23973 23976 23979 23982 23985 23988 23991 23994 23997 24000 24003 24006 24009 24012 24015 24018 24021 24024 24027 24029 24032 24034 24037 24040 24043 24046 24049 24052 24055 24058 24061 24064 24067 24070 24073 24076 24078 24081 24084 24087 24089 24092 24094 24097 24100 24103 24106 24108 24111 24114 24117 24120 24122 24125 24127 24130 24133 24136 24138 24141 24144 24147 24149 24152 24155 24157 24160 24163 24166 24169 24171 24174 24177 24180 24183 24186 24189 24192 24195 24197 24200 24202 24205 24208 24211 24213 24216 24219 24221 24224 24227 24229 24232 24235 24237 24240 24242 24245 24248 24251 24254 24257 24260 24263 24266 24268 24270 24273 24275 24278 24281 24283 24286 24288 24291 24294 24297 24300 24302 24305 24308 24311 24314 24317 24320 24323 24326 24329 24332 24335 24338 24341 24344 24347 24350 24353 24356 24359 24362 24365 24368 24371 24374 24377 24380 24383 24386 24389 24392 24395 24398 24401 24404 24407 24410 24413 24416 24419 24422 24425 24428 24431 24434 24437 24440 24443 24446 24449 24452 24455 24458 24461 24464 24467 24470 24473 24475 24478 24480 24483 24486 24489 24492 24495 24498 24501 24504 24507 24510 24513 24516 24519 24522 24525 24528 24531 24534 24537 24540 24543 24546 24549 24552 24555 24558 24561 24563 24566 24569 24571 24574 24577 24580 24583 24586 24589 24592 24595 24598 24600 24603 24606 24609 24611 24614 24617 24619 24622 24625 24628 24631 24634 24637 24640 24642 24645 24648 24651 24654 24657 24660 24663 24666 24669 24672 24675 24678 24681 24684 24687 24690 24693 24695 24697 24700 24703 24705 24708 24711 24714 24717 24720 24723 24725 24728 24731 24734 24737 24740 24743 24746 24748 24751 24754 24757 24760 24763 24765 24768 24771 24773 24776 24779 24781 24784 24787 24789 24792 24795 24798 24801 24804 24807 24809 24812 24815 24818 24821 24823 24825 24828 24831 24834 24837 24839 24842 24845 24848 24851 24853 24856 24859 24862 24865 24868 24870 24873 24876 24878 24881 24884 24886 24889 24892 24895 24898 24901 24904 24907 24910 24913 24915 24918 24921 24924 24927 24930 24933 24936 24939 24942 24945 24947 24950 24953 24956 24959 24961 24964 24966 24969 24972 24975 24978 24981 24984 24987 24989 24992 24995 24998 25001 25004 25007 25010 25013 25016 25019 25022 25025 25028 25031 25034 25037 25040 25043 25046 25049 25052 25055 25058 25061 25064 25067 25070 25073 25076 25079 25082 25084 25087 25090 25093 25096 25099 25102 25105 25108 25110 25113 25116 25119 25122 25125 25128 25131 25134 25136 25139 25141 25144 25147 25150 25153 25156 25159 25162 25165 25168 25171 25174 25177 25180 25182 25185 25188 25191 25194 25197 25200 25203 25206 25209 25212 25215 25218 25221 25224 25227 25229 25232 25235 25238 25240 25243 25245 25248 25250 25253 25256 25259 25261 25264 25267 25270 25273 25276 25279 25282 25284 25287 25290 25293 25296 25299 25301 25303 25306 25308 25311 25314 25317 25320 25322 25324 25327 25330 25333 25336 25339 25341 25344 25347 25350 25353 25355 25357 25360 25363 25365 25368 25371 25374 25377 25380 25383 25386 25389 25392 25395 25398 25401 25404 25407 25410 25413 25416 25419 25422 25425 25428 25431 25434 25437 25440 25443 25446 25449 25452 25455 25458 25461 25464 25467 25470 25473 25476 25479 25482 25485 25488 25491 25494 25497 25500 25503 25506 25508 25511 25514 25517 25520 25523 25526 25529 25532 25534 25537 25540 25543 25546 25549 25552 25555 25558 25561 25564 25567 25570 25573 25576 25579 25582 25585 25588 25591 25594 25597 25600 25603 25606 25609 25612 25615 25618 25621 25624 25627 25630 25633 25635 25638 25641 25644 25647 25649 25652 25654 25657 25660 25663 25666 25669 25672 25674 25677 25680 25683 25686 25689 25692 25695 25698 25701 25704 25707 25709 25712 25715 25718 25721 25724 25727 25730 25733 25736 25739 25742 25744 25747 25750 25753 25755 25758 25761 25763 25766 25769 25772 25775 25778 25780 25782 25785 25788 25791 25794 25797 25800 25802 25805 25808 25811 25814 25817 25820 25823 25826 25829 25832 25834 25837 25840 25843 25846 25849 25851 25854 25857 25860 25863 25866 25868 25871 25873 25875 25878 25881 25883 25886 25889 25891 25893 25896 25898 25901 25903 25905 25908 25911 25913 25916 25919 25922 25925 25927 25930 25933 25935 25938 25940 25942 25945 25948 25951 25954 25957 25960 25962 25965 25967 25970 25973 25976 25978 25981 25984 25987 25990 25993 25996 25999 26002 26004 26006 26008 26011 26014 26017 26020 26023 26026 26029 26032 26035 26038 26041 26044 26047 26050 26053 26055 26057 26060 26063 26066 26069 26072 26075 26078 26080 26083 26086 26088 26091 26094 26097 26099 26101 26104 26106 26109 26112 26115 26118 26120 26123 26126 26129 26131 26133 26136 26139 26142 26144 26146 26149 26151 26154 26157 26160 26162 26164 26167 26170 26173 26176 26179 26182 26184 26187 26190 26193 26196 26199 26201 26203 26206 26209 26212 26215 26218 26220 26223 26225 26228 26231 26233 26236 26239 26241 26243 26245 26248 26251 26254 26257 26260 26263 26266 26269 26272 26275 26278 26281 26283 26286 26289 26292 26295 26298 26300 26303 26305 26308 26311 26314 26317 26320 26322 26325 26328 26331 26334 26337 26340 26343 26346 26349 26352 26355 26358 26361 26364 26367 26370 26373 26376 26379 26381 26384 26387 26390 26393 26396 26399 26402 26405 26408 26410 26413 26416 26419 26422 26424 26426 26429 26432 26435 26438 26441 26444 26446 26448 26451 26454 26456 26459 26462 26464 26467 26470 26472 26475 26477 26479 26482 26484 26486 26489 26492 26495 26497 26500 26503 26506 26509 26512 26515 26518 26520 26523 26526 26528 26531 26534 26537 26539 26542 26544 26547 26550 26553 26556 26558 26560 26563 26566 26568 26571 26574 26577 26580 26583 26586 26589 26592 26595 26598 26601 26603 26606 26608 26610 26612 26615 26618 26621 26624 26627 26630 26633 26636 26638 26641 26644 26646 26649 26652 26655 26658 26661 26664 26666 26669 26672 26675 26677 26680 26683 26686 26688 26691 26694 26697 26699 26702 26705 26707 26710 26713 26715 26718 26721 26724 26727 26730 26733 26735 26738 26740 26743 26746 26748 26751 26753 26755 26757 26760 26763 26766 26769 26771 26774 26777 26779 26781 26784 26787 26789 26792 26795 26798 26801 26804 26807 26810 26813 26816 26819 26822 26824 26827 26830 26833 26835 26837 26840 26842 26844 26847 26850 26853 26855 26858 26861 26864 26867 26870 26873 26876 26879 26881 26883 26886 26889 26892 26895 26898 26901 26904 26907 26909 26912 26915 26918 26920 26922 26925 26928 26931 26934 26936 26939 26942 26945 26948 26951 26954 26956 26959 26962 26965 26968 26971 26974 26977 26980 26983 26986 26989 26992 26994 26997 27000 27003 27006 27009 27012 27015 27018 27021 27024 27027 27030 27033 27036 27039 27042 27045 27048 27051 27054 27057 27060 27063 27065 27068 27071 27073 27076 27079 27082 27085 27088 27091 27094 27097 27100 27103 27106 27109 27112 27115 27118 27121 27124 27127 27130 27133 27136 27139 27142 27145 27148 27151 27154 27157 27160 27163 27166 27169 27172 27175 27178 27181 27184 27187 27190 27192 27195 27198 27201 27204 27207 27209 27212 27215 27218 27221 27224 27227 27230 27233 27235 27237 27240 27243 27246 27249 27252 27255 27258 27261 27264 27266 27269 27272 27275 27278 27280 27283 27286 27289 27292 27295 27297 27300 27303 27305 27308 27311 27313 27316 27319 27322 27325 27328 27331 27334 27336 27339 27342 27345 27348 27351 27354 27357 27360 27363 27366 27369 27372 27375 27377 27380 27383 27386 27388 27391 27393 27395 27398 27401 27404 27407 27410 27413 27416 27419 27422 27425 27428 27431 27434 27437 27440 27443 27446 27449 27452 27455 27458 27461 27464 27467 27470 27473 27476 27479 27482 27485 27488 27491 27494 27497 27500 27503 27506 27509 27512 27515 27518 27521 27524 27527 27530 27533 27536 27539 27542 27545 27548 27551 27553 27556 27559 27562 27565 27568 27571 27574 27577 27579 27582 27584 27587 27590 27593 27596 27599 27602 27605 27608 27611 27614 27617 27620 27623 27626 27629 27632 27635 27638 27641 27644 27647 27650 27653 27656 27659 27661 27664 27667 27670 27673 27676 27679 27681 27684 27687 27690 27693 27696 27699 27702 27705 27708 27711 27714 27717 27720 27723 27726 27729 27732 27734 27737 27740 27743 27746 27749 27752 27755 27758 27761 27764 27767 27770 27773 27776 27778 27781 27784 27786 27789 27792 27795 27797 27800 27803 27806 27809 27812 27815 27818 27821 27824 27827 27830 27833 27836 27839 27842 27845 27847 27850 27853 27856 27859 27862 27864 27867 27870 27873 27875 27878 27881 27884 27886 27889 27892 27895 27898 27901 27904 27907 27910 27913 27916 27919 27922 27925 27928 27931 27934 27937 27940 27943 27946 27949 27952 27955 27958 27960 27963 27966 27969 27972 27975 27978 27981 27984 27987 27990 27993 27996 27999 28002 28005 28008 28011 28014 28017 28019 28022 28025 28028 28031 28034 28037 28040 28043 28046 28049 28052 28055 28058 28061 28064 28067 28070 28072 28075 28078 28081 28084 28086 28088 28091 28093 28096 28098 28101 28103 28106 28109 28112 28115 28118 28121 28124 28126 28129 28131 28134 28136 28138 28140 28142 28145 28148 28151 28154 28156 28158 28160 28163 28166 28169 28172 28175 28178 28181 28183 28186 28189 28191 28194 28196 28199 28202 28204 28206 28209 28212 28215 28218 28221 28224 28226 28229 28232 28234 28237 28240 28243 28246 28248 28251 28253 28255 28258 28261 28264 28267 28269 28272 28274 28277 28280 28283 28285 28288 28291 28293 28296 28299 28302 28305 28307 28310 28313 28316 28319 28322 28325 28328 28331 28334 28337 28340 28343 28346 28349 28352 28354 28357 28360 28363 28366 28369 28371 28374 28377 28380 28383 28385 28388 28390 28393 28396 28399 28402 28404 28407 28410 28412 28415 28418 28421 28424 28427 28429 28432 28434 28437 28440 28442 28445 28448 28451 28454 28457 28460 28463 28466 28469 28472 28474 28477 28480 28483 28486 28489 28492 28495 28498 28500 28503 28506 28509 28512 28515 28518 28521 28524 28527 28530 28532 28535 28538 28541 28544 28547 28550 28553 28556 28559 28562 28565 28568 28571 28573 28576 28578 28581 28584 28587 28590 28593 28596 28599 28602 28605 28608 28610 28612 28615 28618 28621 28624 28626 28628 28631 28634 28637 28639 28642 28645 28648 28650 28653 28656 28659 28662 28665 28668 28671 28674 28677 28679 28682 28685 28688 28691 28693 28696 28698 28701 28704 28707 28710 28713 28716 28719 28722 28724 28727 28730 28733 28736 28739 28742 28745 28747 28750 28753 28756 28759 28762 28764 28767 28770 28772 28775 28777 28780 28783 28786 28789 28792 28795 28797 28800 28803 28806 28809 28812 28815 28818 28821 28824 28827 28829 28832 28835 28837 28839 28842 28845 28848 28851 28854 28857 28860 28863 28865 28868 28870 28873 28876 28879 28882 28885 28888 28891 28894 28897 28900 28903 28906 28909 28911 28914 28916 28919 28922 28925 28928 28931 28934 28937 28940 28943 28946 28949 28952 28955 28958 28961 28964 28967 28970 28973 28976 28978 28981 28983 28986 28989 28992 28995 28998 29001 29004 29007 29010 29013 29016 29018 29021 29024 29027 29029 29032 29034 29037 29040 29043 29045 29048 29051 29054 29056 29058 29061 29063 29066 29068 29071 29074 29077 29080 29082 29085 29088 29091 29093 29096 29099 29101 29104 29106 29109 29112 29115 29118 29121 29123 29126 29129 29132 29135 29138 29140 29143 29145 29148 29151 29153 29156 29159 29162 29164 29167 29170 29172 29175 29178 29181 29183 29186 29188 29191 29194 29197 29200 29203 29205 29208 29211 29214 29217 29219 29221 29224 29226 29228 29230 29233 29236 29239 29242 29245 29247 29250 29252 29255 29258 29261 29264 29266 29269 29272 29275 29278 29281 29284 29287 29290 29293 29296 29299 29302 29305 29308 29311 29314 29317 29320 29323 29326 29329 29332 29335 29338 29341 29344 29347 29350 29353 29355 29358 29361 29363 29366 29368 29371 29374 29377 29379 29382 29385 29388 29391 29394 29397 29400 29403 29406 29409 29412 29415 29418 29421 29424 29427 29430 29433 29435 29438 29441 29444 29447 29450 29453 29456 29459 29462 29465 29467 29470 29473 29476 29479 29482 29484 29487 29490 29493 29496 29499 29502 29505 29508 29511 29514 29517 29520 29523 29526 29529 29532 29535 29537 29540 29543 29545 29548 29551 29554 29557 29560 29563 29566 29569 29572 29575 29578 29581 29583 29586 29589 29592 29595 29598 29601 29604 29607 29610 29613 29615 29618 29621 29624 29627 29630 29633 29636 29639 29642 29645 29648 29651 29653 29656 29659 29662 29665 29668 29671 29674 29676 29679 29682 29685 29688 29691 29694 29697 29700 29703 29706 29709 29712 29715 29718 29721 29724 29727 29730 29733 29736 29738 29741 29744 29747 29750 29753 29755 29758 29761 29764 29767 29770 29773 29776 29779 29782 29785 29788 29791 29794 29797 29800 29803 29806 29809 29812 29814 29817 29820 29823 29826 29829 29832 29835 29838 29841 29843 29846 29849 29852 29854 29857 29860 29863 29866 29869 29871 29874 29876 29879 29882 29884 29886 29889 29892 29895 29898 29901 29904 29907 29910 29913 29916 29919 29922 29924 29927 29929 29932 29935 29938 29941 29944 29947 29950 29952 29954 29957 29960 29963 29965 29968 29970 29972 29975 29978 29981 29984 29987 29990 29993 29996 29998 30001 30004 30006 30009 30012 30015 30018 30021 30024 30027 30030 30033 30035 30038 30041 30044 30047 30049 30052 30055 30058 30061 30064 30067 30070 30073 30076 30079 30082 30084 30087 30090 30092 30095 30098 30101 30104 30106 30109 30112 30115 30118 30121 30124 30126 30128 30131 30134 30137 30140 30143 30146 30149 30152 30155 30158 30161 30164 30167 30170 30173 30176 30179 30182 30185 30188 30191 30194 30197 30200 30203 30206 30209 30212 30215 30218 30221 30224 30226 30229 30231 30234 30237 30240 30243 30246 30248 30251 30254 30256 30259 30261 30264 30267 30270 30273 30276 30279 30282 30285 30287 30290 30293 30296 30298 30301 30304 30307 30310 30312 30315 30317 30320 30323 30326 30329 30332 30334 30337 30340 30343 30345 30348 30351 30354 30357 30360 30363 30366 30368 30371 30374 30377 30380 30382 30385 30387 30390 30393 30396 30398 30401 30403 30405 30408 30411 30413 30416 30419 30422 30425 30428 30431 30434 30436 30439 30442 30445 30448 30450 30452 30454 30457 30460 30463 30466 30469 30472 30474 30477 30480 30483 30486 30489 30492 30495 30498 30501 30504 30506 30509 30512 30515 30518 30521 30524 30527 30530 30533 30535 30538 30541 30543 30546 30549 30551 30554 30556 30559 30562 30565 30567 30570 30573 30576 30578 30581 30584 30587 30590 30593 30595 30598 30601 30604 30607 30610 30613 30616 30619 30622 30625 30627 30629 30631 30634 30637 30640 30643 30646 30649 30651 30653 30656 30659 30661 30664 30667 30670 30672 30675 30678 30681 30684 30687 30690 30692 30695 30698 30701 30704 30707 30710 30713 30716 30719 30722 30725 30727 30730 30732 30735 30738 30740 30743 30745 30748 30751 30754 30757 30760 30763 30766 30769 30772 30775 30778 30780 30783 30786 30789 30791 30794 30796 30799 30802 30805 30808 30811 30814 30817 30820 30822 30825 30828 30831 30834 30837 30840 30843 30845 30848 30850 30853 30856 30859 30862 30865 30868 30871 30874 30877 30880 30883 30885 30888 30890 30893 30896 30899 30901 30904 30907 30910 30913 30915 30918 30921 30923 30925 30928 30931 30934 30937 30940 30943 30945 30948 30951 30954 30956 30959 30961 30964 30966 30969 30971 30974 30976 30979 30982 30985 30988 30991 30994 30996 30998 31001 31003 31006 31009 31012 31014 31017 31020 31023 31026 31028 31031 31034 31037 31039 31042 31045 31048 
</DataArray>
<DataArray type="UInt32" Name="types" format="ascii">
5 5 5 5 3 5 3 5 3 3 5 5 3 5 3 5 5 5 5 5 5 5 5 5 5 5 5 5 5 5 5 3 5 5 3 5 5 5 5 5 5 5 5 5 5 5 5 5 5 5 5 5 5 5 5 5 5 3 3 5 5 5 5 5 5 5 5 5 5 5 5 5 5 5 3 5 5 5 3 5 5 3 5 3 5 3 5 5 5 5 5 5 5 5 5 5 5 5 5 5 5 5 5 5 5 5 5 5 5 5 5 5 5 5 5 5 5 5 5 5 5 5 5 5 5 5 5 5 5 5 5 5 5 5 5 5 5 5 5 5 5 5 5 5 5 5 3 5 5 5 5 5 5 5 5 5 5 5 5 5 5 3 5 5 5 5 5 3 5 5 5 5 5 5 5 5 5 5 5 5 5 5 5 5 5 5 5 5 5 5 5 5 5 5 3 5 5 5 5 5 3 5 5 3 5 5 5 5 5 5 5 5 5 5 5 5 5 5 5 5 5 5 5 5 5 5 3 3 5 3 5 3 5 5 5 5 5 3 5 5 5 5 5 5 5 5 5 5 5 5 5 5 5 5 5 5 5 5 5 5 5 5 5 5 5 5 5 5 5 5 5 3 5 5 5 5 5 5 3 5 5 5 5 5 5 5 5 5 5 5 5 5 5 5 5 5 5 5 3 5 5 5 5 3 5 5 5 5 5 3 5 5 3 3 5 5 5 5 5 5 5 5 5 5 3 5 5 5 5 5 5 5 5 5 5 5 5 5 5 5 5 5 5 5 5 5 5 5 5 5 5 5 5 5 5 5 5 5 5 5 5 5 5 5 5 3 5 5 5 5 3 5 5 5 5 5 5 3 3 5 5 5 5 5 5 5 5 5 5 3 5 5 5 5 5 3 5 5 5 5 5 5 5 5 5 5 5 5 5 5 5 5 5 5 5 3 5 5 5 5 5 5 3 5 5 5 5 5 5 5 5 5 5 5 5 5 5 3 5 3 5 5 5 5 5 5 5 5 5 3 5 5 5 5 5 5 5 5 5 5 3 5 5 5 5 5 5 5 5 3 5 5 5 3 5 5 3 5 5 5 5 5 5 5 5 5 5 5 5 5 5 5 5 5 5 5 5 5 3 5 3 5 5 5 5 5 5 5 5 5 5 3 5 5 5 5 5 5 5 5 5 5 5 5 5 5 5 5 5 5 5 3 5 5 5 5 5 5 5 5 5 5 5 3 5 3 5 5 5 3 3 3 5 5 5 5 5 3 3 5 5 5 5 3 5 5 3 5 5 5 5 5 3 5 5 3 3 5 3 5 5 5 5 5 5 5 3 5 5 5 3 5 5 5 3 5 5 5 3 5 5 3 5 5 5 5 5 5 5 5 5 5 5 5 5 5 3 5 5 5 5 5 5 5 5 5 5 5 5 5 3 5 5 5 3 5 5 5 5 5 5 5 5 5 5 5 5 3 5 5 5 5 5 5 5 3 5 5 3 5 5 5 5 3 5 5 5 5 5 3 5 3 5 5 5 5 5 5 5 5 5 5 5 5 5 5 5 5 5 5 3 5 5 5 5 5 3 5 5 3 5 5 5 5 5 5 5 3 5 3 5 3 5 3 5 5 5 5 5 5 5 5 5 3 5 5 5 3 5 5 5 3 5 5 3 5 5 3 5 3 5 5 3 5 5 5 5 3 5 3 5 3 5 5 3 3 5 5 5 5 3 5 5 5 5 3 5 5 5 5 5 5 5 5 5 5 3 5 5 5 5 5 5 5 5 5 5 5 5 5 5 3 3 5 5 5 5 5 5 5 5 5 5 5 5 5 3 5 3 3 5 5 5 5 3 5 5 5 5 3 5 5 5 5 3 5 5 3 5 5 5 5 5 5 5 5 5 5 5 5 5 5 5 5 3 5 3 5 5 5 5 5 5 5 5 5 5 5 3 5 5 5 3 5 5 5 5 5 3 5 5 5 5 5 3 5 3 3 5 5 3 5 5 5 5 5 5 5 5 5 5 5 5 5 5 3 5 3 5 3 5 5 5 5 5 5 3 5 5 5 5 5 3 5 5 5 5 5 5 5 3 5 5 5 5 5 5 5 5 5 5 5 3 3 5 5 3 3 5 5 5 5 5 5 5 5 5 5 5 5 5 5 5 5 5 5 5 5 5 5 5 5 5 5 5 5 5 5 5 5 5 3 3 5 5 5 5 5 5 5 5 5 5 3 5 5 5 5 5 5 5 5 5 5 5 5 5 5 5 5 5 5 5 5 5 5 5 5 5 5 5 5 5 5 5 5 5 5 5 5 5 5 5 5 5 5 5 5 5 5 5 5 5 5 5 5 5 5 5 5 5 5 5 5 5 5 5 5 5 5 5 5 5 5 5 5 5 5 5 5 5 3 5 5 5 5 5 5 5 5 5 5 5 5 5 5 5 5 5 5 5 5 5 5 5 5 5 3 3 5 5 5 5 5 5 5 5 5 3 5 5 3 5 5 5 5 5 5 5 5 5 5 3 5 5 5 5 3 5 5 5 5 5 5 5 3 5 5 5 5 5 5 5 5 5 3 5 5 5 5 5 5 5 5 5 5 5 5 5 5 3 5 5 5 5 5 5 5 5 5 5 5 5 5 5 5 5 5 5 5 5 5 5 5 5 5 5 5 5 5 5 5 5 5 5 3 5 5 5 5 5 5 3 5 5 5 5 5 5 5 5 5 5 5 5 5 5 5 5 3 5 5 5 5 5 5 5 5 5 5 5 5 5 5 5 5 5 5 5 5 5 3 5 5 5 5 5 5 5 5 5 5 5 5 3 5 5 5 3 5 5 5 5 5 5 5 5 5 5 5 5 5 3 5 5 5 5 5 5 5 5 3 5 5 5 5 5 5 5 5 5 5 5 5 5 5 5 5 5 5 5 5 5 5 5 5 5 5 5 5 5 5 5 5 5 5 5 5 5 5 5 5 5 5 5 5 5 5 3 5 5 5 5 5 5 5 5 5 5 5 5 5 3 5 5 5 3 5 5 5 5 5 5 3 5 5 5 3 5 5 5 5 5 5 5 5 5 3 5 5 5 3 5 5 5 5 3 5 5 5 3 5 5 5 3 5 5 5 5 5 5 5 5 5 3 5 5 5 3 5 3 5 5 5 5 5 3 5 5 3 5 5 5 5 5 5 5 5 5 5 5 5 5 5 5 5 5 5 5 5 5 5 5 5 5 5 5 5 5 5 5 5 5 3 5 5 5 3 5 3 5 5 3 5 5 5 3 3 5 5 3 3 5 5 3 5 5 5 5 5 5 5 5 3 3 5 5 5 5 5 5 5 5 5 3 5 5 5 3 5 5 3 5 3 5 3 5 5 5 3 3 5 5 5 5 5 5 3 5 5 5 3 5 3 5 5 5 5 3 5 5 3 5 3 5 3 5 5 5 3 3 5 5 3 5 5 3 5 5 3 5 5 5 3 5 3 5 3 5 5 5 5 3 5 5 3 5 5 5 5 5 5 3 5 5 5 5 5 5 5 3 5 5 5 5 5 5 5 5 3 5 5 5 5 5 5 3 5 5 5 5 3 3 5 3 5 3 5 3 5 5 5 3 3 5 3 5 5 3 5 5 5 5 3 5 5 5 5 5 5 5 5 5 3 5 5 5 3 5 5 3 5 5 5 5 5 5 5 5 3 5 5 3 5 5 5 5 3 3 3 5 3 5 3 5 5 5 5 5 3 5 5 3 5 5 5 5 5 3 5 3 5 3 5 3 3 5 3 5 3 5 5 5 3 5 3 5 3 3 5 3 5 3 5 5 3 5 3 3 3 5 5 3 5 5 3 5 5 5 3 5 5 3 5 3 5 5 5 3 5 3 5 5 5 5 3 3 5 5 5 5 5 3 3 5 5 5 3 5 5 3 5 5 3 5 5 5 3 3 3 5 5 5 5 5 5 5 5 5 5 3 3 5 5 5 3 5 5 5 5 5 5 3 5 5 5 5 5 5 5 5 3 5 5 5 5 3 5 5 5 3 5 5 5 5 3 3 5 5 5 5 3 5 5 5 5 5 3 5 5 5 5 5 5 5 5 3 5 5 5 3 5 5 3 5 5 5 5 5 5 5 5 5 5 5 5 5 5 5 5 5 5 5 5 5 3 5 5 5 5 5 5 5 5 5 5 5 5 5 3 5 5 5 5 5 5 5 5 5 5 5 5 5 5 5 5 5 5 5 3 5 5 5 5 5 5 5 5 5 5 5 5 5 3 5 5 5 5 3 5 5 5 5 3 5 5 5 5 5 5 5 5 5 5 5 5 5 5 5 5 5 5 5 3 5 5 5 5 5 5 5 3 3 5 5 3 5 5 5 5 5 5 3 5 5 5 5 5 5 5 5 5 5 5 5 5 5 5 5 5 5 5 5 5 5 5 5 5 5 5 5 5 5 5 5 5 5 5 5 5 5 5 5 5 5 5 5 5 5 5 5 5 5 5 5 5 5 5 5 5 5 5 5 5 5 5 5 5 5 5 3 5 5 5 5 3 5 5 5 3 5 5 3 5 5 5 5 5 5 5 5 5 5 3 5 5 5 5 5 5 5 5 5 5 5 5 5 5 5 5 5 5 5 5 5 5 5 5 5 3 5 5 3 5 5 5 5 5 5 5 5 5 5 5 5 5 5 5 5 5 5 5 5 3 5 5 5 5 5 5 5 5 5 5 5 5 3 5 5 5 5 5 5 5 5 5 5 5 5 5 5 5 5 5 5 5 5 5 5 5 5 5 5 5 5 5 3 5 5 5 3 5 5 5 5 3 5 5 5 5 3 5 5 5 5 5 5 5 5 5 5 5 5 5 5 5 5 5 5 5 5 5 5 5 5 5 5 5 5 5 5 5 5 5 5 5 5 5 3 5 5 3 5 5 5 5 5 3 3 5 5 5 3 5 5 3 3 5 3 5 5 3 5 5 5 3 5 3 5 5 5 5 5 5 3 3 5 5 5 3 3 5 3 5 3 5 3 5 5 5 3 5 5 5 5 5 5 5 5 5 3 5 5 5 5 5 3 5 5 5 5 5 5 3 5 5 5 5 5 5 5 5 5 5 5 5 3 5 5 5 5 5 3 5 5 5 5 5 5 3 5 5 5 5 5 5 3 5 5 5 5 5 3 5 3 5 5 5 5 3 5 5 5 5 5 5 5 5 5 3 3 3 5 5 5 5 3 5 3 5 5 5 5 3 5 3 5 5 5 3 3 5 5 5 5 3 5 3 3 3 5 5 5 5 3 3 5 3 5 5 5 5 3 5 3 5 5 5 5 5 5 5 5 5 5 3 3 5 5 5 5 5 5 5 3 5 5 5 5 5 5 5 5 5 5 5 5 3 5 5 5 5 5 5 5 5 5 5 5 5 5 5 3 5 3 5 5 5 5 5 5 5 5 5 3 5 5 5 5 5 5 5 5 3 5 5 5 5 3 5 5 5 5 3 5 5 5 5 5 5 3 5 5 5 5 5 5 5 5 3 5 5 5 5 3 5 5 5 3 5 5 5 5 5 5 5 5 5 5 5 5 5 5 5 5 5 5 5 5 5 5 3 5 5 3 5 5 5 5 3 5 5 5 5 5 5 5 5 5 5 5 5 5 5 3 5 5 5 5 5 3 5 5 5 5 5 5 3 5 5 5 5 5 5 5 5 5 5 3 5 5 5 5 5 5 5 5 5 5 5 5 5 5 5 5 5 5 5 5 5 5 5 5 5 5 5 5 5 5 5 5 5 5 3 5 5 5 5 5 5 5 5 5 5 3 5 5 5 5 5 5 5 5 5 5 3 5 5 5 5 5 5 5 3 5 3 5 5 5 5 5 3 5 5 5 5 3 5 5 5 5 5 5 5 5 5 3 5 5 3 5 5 5 5 3 3 3 5 3 5 3 5 5 5 5 5 5 5 5 5 3 5 5 5 5 3 5 5 5 5 5 5 5 5 5 5 5 3 3 5 5 5 5 5 3 5 3 3 5 3 5 5 5 5 5 5 5 3 5 5 5 5 5 3 3 5 3 5 5 5 5 5 5 3 5 5 3 5 5 3 5 5 5 5 5 5 5 5 5 3 5 3 5 5 5 5 5 3 5 5 3 5 5 5 5 3 5 5 3 5 5 5 5 5 3 5 5 5 5 5 5 5 3 5 3 5 5 5 5 3 3 5 5 3 3 5 5 5 3 3 5 5 5 3 5 5 3 3 5 5 5 5 5 5 5 5 5 5 5 5 5 3 5 5 3 5 5 3 5 3 5 5 5 5 3 5 3 5 3 5 5 5 3 5 5 5 5 5 5 5 5 5 5 5 5 5 5 5 3 5 5 5 5 5 5 5 5 3 5 5 5 5 5 3 3 5 5 5 5 3 5 3 3 5 5 5 5 5 5 3 5 5 5 3 5 5 5 5 5 5 3 5 5 5 5 5 5 5 5 5 5 5 5 3 5 5 5 5 5 5 5 5 5 5 3 5 5 5 5 5 5 5 5 5 5 3 5 5 5 5 5 5 5 5 3 5 5 5 5 5 5 5 5 5 5 5 5 5 5 5 5 3 5 3 5 5 3 5 5 5 5 5 5 5 5 5 5 5 5 5 5 5 5 3 5 5 5 5 5 3 5 5 3 5 5 5 3 3 5 5 3 5 5 5 5 5 5 3 5 5 5 5 5 5 5 5 3 5 5 5 5 5 5 3 5 5 3 5 5 5 5 3 3 5 5 3 5 3 5 5 5 5 5 3 5 5 5 5 5 5 3 5 5 5 5 5 5 5 3 5 5 5 3 5 5 5 3 5 5 5 3 5 3 5 5 5 5 5 5 5 5 5 5 5 5 5 3 5 5 3 5 3 5 3 5 5 5 5 3 5 5 3 5 5 5 3 5 5 5 5 5 5 5 5 5 5 5 5 5 5 5 5 5 5 5 5 5 5 5 5 3 5 5 5 5 5 5 3 5 5 3 5 5 5 5 3 5 3 5 5 5 5 5 5 5 5 5 3 5 3 5 3 5 5 5 5 5 5 3 5 5 3 5 5 5 3 5 5 5 5 5 5 5 5 3 5 5 3 5 5 3 5 3 5 5 5 5 3 5 3 3 5 5 3 5 5 5 5 5 3 5 5 5 3 5 5 5 5 5 5 3 5 5 5 5 3 5 5 5 3 5 5 5 5 5 3 5 5 5 5 5 3 5 5 3 5 5 5 5 5 5 5 5 5 5 5 5 5 3 5 5 5 5 5 5 5 3 5 5 5 5 3 5 5 5 5 5 5 5 5 5 5 3 5 5 5 5 3 5 5 3 5 3 5 5 3 5 5 5 5 5 5 5 5 5 5 5 5 5 5 5 5 5 5 5 3 5 5 5 5 5 5 5 5 5 5 5 5 5 5 5 5 5 5 5 5 3 5 5 5 5 5 5 5 5 3 5 5 5 5 5 3 5 5 5 5 5 3 5 5 5 3 5 5 3 5 5 5 3 5 3 5 5 5 3 3 5 3 5 5 3 5 3 5 3 3 5 5 3 5 5 5 5 3 5 5 3 5 5 3 3 5 5 5 5 3 5 3 5 5 5 3 3 5 5 5 3 3 5 3 5 5 5 5 5 5 3 3 5 5 5 3 5 5 5 5 3 5 5 5 5 3 3 5 3 3 5 3 5 5 3 3 5 3 5 5 3 5 5 3 5 3 5 5 5 3 5 5 3 5 5 5 5 5 5 5 5 5 5 5 3 5 5 5 3 5 3 5 5 5 3 3 5 5 3 3 5 5 3 5 5 5 5 3 5 5 3 5 3 5 5 5 5 5 5 3 5 5 5 5 5 5 5 5 5 5 5 3 5 5 5 5 5 3 5 5 3 5 3 5 3 5 3 5 5 3 5 5 3 5 5 5 3 5 3 5 3 5 3 5 5 5 3 5 5 5 3 5 5 5 5 5 3 3 3 5 5 5 5 5 5 5 5 5 5 5 5 5 5 5 5 5 5 5 5 5 5 5 5 5 5 5 5 5 5 5 5 5 5 5 3 5 3 5 5 5 5 3 5 5 5 5 5 5 5 5 5 3 5 3 5 5 5 5 5 5 5 3 5 3 5 5 5 5 5 5 5 5 5 5 5 5 5 5 3 5 5 5 5 5 5 5 3 5 5 5 5 3 5 5 5 5 3 5 5 5 5 5 5 3 5 5 5 5 5 5 5 5 3 5 5 5 5 5 5 5 5 5 5 5 5 5 5 5 3 5 5 5 5 5 3 5 5 5 5 3 5 5 5 5 5 5 5 5 5 5 5 5 3 5 5 5 5 5 5 5 5 5 5 5 5 5 5 5 5 5 5 5 5 5 5 5 5 5 5 5 5 5 5 5 5 5 5 5 5 5 5 5 5 5 5 5 3 5 5 5 5 5 5 5 5 5 5 5 5 3 5 3 5 5 5 3 5 5 5 5 5 5 3 5 5 5 5 5 5 3 5 5 3 3 5 5 3 5 5 3 3 3 5 5 5 5 5 5 5 5 5 5 3 5 5 5 5 3 5 5 5 5 3 5 3 5 5 5 5 3 5 5 5 5 3 5 5 5 5 3 5 5 5 3 5 5 5 5 5 5 5 5 5 5 5 5 5 5 5 5 5 5 5 5 5 5 5 5 5 5 5 5 5 5 5 5 5 5 5 5 5 5 5 5 3 5 5 5 5 5 5 5 5 3 5 5 5 5 3 5 5 5 5 5 5 3 5 5 5 3 5 5 5 5 5 5 5 5 5 5 3 5 5 5 5 5 5 5 5 5 5 3 5 5 5 3 3 5 3 3 5 5 5 5 5 3 5 5 5 5 5 5 5 5 3 5 5 5 5 5 5 5 5 5 3 5 5 5 3 5 3 5 3 5 5 5 5 5 5 5 5 5 5 5 5 5 5 3 3 5 5 5 5 5 3 5 5 5 5 5 5 5 5 5 5 5 5 5 5 5 5 5 5 3 5 5 5 3 5 5 5 5 5 5 5 3 5 5 5 5 3 5 5 5 5 3 5 5 5 3 5 3 5 5 5 3 5 5 5 5 5 5 5 5 5 5 5 5 5 5 5 5 5 5 5 5 5 5 5 5 5 3 5 5 5 5 5 5 5 3 5 5 5 5 5 3 5 5 5 3 5 3 5 5 5 5 5 5 3 5 5 5 5 5 5 3 5 5 5 5 5 5 5 3 5 5 3 5 5 5 3 5 5 5 5 5 5 5 5 5 5 5 5 5 5 5 5 3 5 5 5 5 5 5 5 5 5 3 5 5 5 3 5 5 5 5 5 5 5 5 5 5 3 5 5 5 5 5 5 3 5 5 3 5 3 5 5 5 5 5 5 5 5 3 5 5 5 3 5 5 5 3 5 5 5 5 3 5 5 3 5 3 3 3 5 5 3 3 5 5 5 3 5 5 5 3 5 5 5 5 5 5 5 5 5 3 5 5 3 3 3 3 3 5 5 3 5 5 5 5 5 5 5 5 5 5 5 5 5 5 5 5 5 5 3 5 5 5 5 5 5 5 5 3 5 5 5 5 5 3 5 3 3 5 5 5 5 3 5 5 5 3 5 5 5 3 5 3 5 5 5 3 3 3 5 5 3 5 3 3 5 3 5 5 5 3 5 3 5 5 5 5 5 5 5 5 5 5 5 5 5 5 5 5 5 5 5 5 5 5 5 5 5 3 5 5 5 5 5 5 3 5 5 5 5 5 5 3 3 5 5 5 5 3 5 5 5 3 5 5 5 5 3 5 3 5 3 5 5 3 3 5 5 3 5 5 3 3 3 5 5 3 5 5 5 5 5 5 5 5 5 5 5 5 5 5 5 5 5 5 5 5 5 5 5 5 5 5 5 5 5 5 5 5 3 3 5 5 5 5 5 3 5 5 3 5 5 3 5 5 5 5 5 5 5 5 5 5 5 5 5 5 5 3 5 5 3 3 5 5 5 5 3 3 5 3 3 5 3 5 5 5 5 3 5 3 5 5 3 3 5 3 3 5 5 3 3 3 5 3 5 5 5 5 5 5 3 5 5 5 5 5 5 5 3 3 5 5 5 3 5 5 5 5 3 3 5 5 5 3 5 5 5 5 5 5 5 5 5 5 5 5 5 5 5 5 5 5 5 5 5 5 5 5 5 5 5 5 5 5 5 5 5 5 3 5 5 5 5 5 5 5 5 5 3 5 5 5 5 5 5 5 5 3 5 5 5 5 5 5 5 5 5 5 3 3 5 3 5 5 3 5 5 5 5 5 5 5 5 3 5 5 5 5 5 5 3 5 5 5 5 5 5 5 5 5 5 5 5 5 5 5 5 5 3 5 5 3 5 5 3 5 3 5 5 5 5 3 5 5 5 5 3 5 5 5 5 5 3 5 5 5 5 5 5 5 5 5 3 5 5 5 5 5 5 5 3 5 5 5 3 5 5 5 5 5 5 5 3 5 5 5 3 5 5 5 5 5 5 5 5 5 5 3 5 5 5 3 5 5 3 5 5 5 3 5 5 5 5 5 3 5 5 5 5 3 5 5 5 5 5 5 5 5 5 5 5 5 5 5 5 5 5 3 5 5 5 5 3 5 5 5 5 5 3 5 5 5 5 5 5 3 5 5 5 5 5 5 5 5 5 5 5 5 5 3 5 5 5 3 5 3 5 3 5 5 3 5 5 5 3 5 5 5 5 5 5 5 5 3 5 5 5 5 5 3 5 5 5 5 5 5 5 5 5 3 5 5 5 3 5 5 5 5 5 5 5 5 5 5 5 5 5 5 5 3 5 5 5 5 5 5 5 5 5 5 3 5 5 5 3 5 5 5 5 5 5 5 5 5 5 5 5 5 5 5 5 5 5 5 5 5 3 5 3 5 5 5 5 5 5 5 5 5 5 5 5 5 3 5 5 5 5 5 5 5 5 5 5 5 5 3 5 3 5 5 5 5 5 5 5 3 5 5 5 5 5 3 3 3 5 5 5 3 5 5 5 5 5 5 5 5 5 5 5 5 5 5 5 5 5 5 5 5 5 5 5 5 5 5 5 5 5 5 5 5 5 3 5 3 5 5 5 5 5 5 5 5 5 5 5 5 5 5 5 5 5 5 5 5 5 3 5 5 5 5 5 5 3 5 5 5 5 5 5 5 3 3 5 5 5 5 5 5 5 5 5 5 3 5 5 5 5 5 5 5 5 5 5 3 5 5 5 5 5 5 5 5 5 5 5 5 5 5 5 5 5 5 5 5 5 5 5 5 5 5 5 5 5 5 5 3 5 5 5 3 5 5 5 5 5 3 5 5 3 5 3 3 5 5 5 5 5 3 5 5 5 3 5 5 5 5 5 5 5 5 5 5 5 5 5 5 5 3 5 5 5 5 3 5 5 5 5 5 5 3 5 5 5 5 5 5 5 5 5 5 5 5 5 5 5 5 5 5 5 5 5 5 3 5 5 5 5 5 5 5 5 5 5 5 5 5 5 5 5 5 5 5 5 5 5 5 5 5 5 5 5 5 5 5 5 5 5 5 5 5 5 5 3 5 5 5 5 5 5 5 5 5 5 5 5 5 5 5 5 3 5 5 5 5 5 5 3 3 5 5 5 5 3 5 3 5 5 3 5 5 5 5 5 5 3 5 5 5 3 5 5 5 5 5 3 5 5 5 5 3 3 5 3 5 5 5 5 5 5 5 5 5 5 5 3 5 5 5 3 5 5 5 5 5 3 5 5 3 5 5 5 5 5 5 3 5 3 5 5 5 5 5 5 5 5 5 5 5 5 5 3 5 5 5 5 5 5 5 5 5 5 5 5 5 5 5 5 5 5 5 5 3 3 5 5 5 5 5 5 5 5 5 5 5 5 3 5 5 3 5 3 5 5 5 5 5 5 5 5 5 5 3 5 3 5 3 3 5 5 5 5 3 5 5 3 5 5 5 5 5 3 5 5 5 5 5 5 5 5 5 5 3 5 5 5 5 5 5 5 5 5 5 5 5 5 5 5 5 3 5 5 5 5 3 5 5 3 5 5 5 5 5 3 5 3 5 3 5 5 5 5 5 5 5 3 5 3 3 5 5 3 5 5 5 5 3 5 5 3 5 5 5 5 5 5 3 5 5 5 5 5 3 5 5 5 5 5 3 5 5 5 5 3 3 5 3 5 5 5 5 3 5 3 5 5 5 5 5 5 3 5 5 5 5 5 5 5 5 5 3 5 3 5 5 5 5 5 5 5 5 3 5 3 5 5 5 3 5 3 5 5 5 5 5 5 5 5 5 3 5 5 3 5 5 5 5 5 5 5 5 3 3 3 5 5 5 5 5 5 5 5 5 5 5 5 5 5 5 5 5 5 5 3 5 5 5 3 3 5 5 5 5 5 5 5 3 5 5 5 5 5 5 5 5 5 5 5 3 5 5 5 5 5 5 5 5 5 5 3 5 5 5 5 5 5 3 5 5 5 5 5 5 5 5 5 5 5 5 5 5 5 3 5 5 5 5 3 5 5 5 5 5 5 5 3 5 3 5 5 3 5 5 5 3 5 3 5 3 3 5 5 5 3 3 5 5 5 5 5 5 5 5 5 5 5 5 5 5 5 5 5 5 5 5 5 5 3 5 5 5 5 5 5 5 5 5 5 3 3 5 5 5 5 5 5 5 3 5 5 5 3 5 5 5 5 5 5 3 3 5 5 5 5 3 5 5 5 5 5 3 5 5 5 5 5 3 5 5 5 5 5 5 5 5 5 5 5 3 5 5 5 3 5 5 5 5 5 5 5 5 5 5 5 5 5 5 5 5 3 5 5 3 5 5 5 3 3 5 5 5 3 3 3 5 5 5 5 3 5 5 5 5 5 3 3 5 5 3 5 3 5 3 5 5 5 3 5 5 3 5 5 5 5 5 3 5 5 5 5 5 5 5 5 5 5 5 5 5 5 5 5 5 5 5 5 5 5 5 3 5 5 5 5 5 5 5 5 5 5 5 5 5 5 5 5 5 5 5 5 5 5 5 5 5 5 5 5 5 5 5 5 5 5 5 3 5 5 5 5 5 5 5 3 5 5 5 5 3 5 5 3 5 5 5 5 5 3 5 5 5 5 5 5 5 5 5 5 3 3 5 5 5 5 5 5 5 5 5 3 5 5 5 5 5 3 5 5 5 5 5 5 5 5 5 5 5 5 5 5 5 5 5 5 5 5 3 5 3 5 3 5 5 5 5 5 5 5 5 3 5 5 5 5 5 5 5 5 5 5 5 5 5 5 5 3 5 5 5 5 5 5 5 5 5 5 5 5 5 5 5 5 5 5 5 5 5 5 3 5 5 5 5 5 3 5 3 5 3 5 5 5 3 3 5 5 5 5 5 5 3 3 3 5 3 5 3 5 5 5 5 5 5 3 5 5 5 5 5 5 5 5 3 5 5 5 3 5 3 5 5 3 5 5 5 5 5 5 5 5 5 5 5 5 5 5 5 3 5 5 5 5 5 5 5 3 5 5 5 5 5 5 5 3 5 3 5 5 3 5 5 5 5 5 5 5 5 5 3 5 5 5 5 3 5 5 3 3 5 5 5 5 5 5 5 5 3 5 5 5 5 5 5 5 5 5 5 5 5 5 5 5 5 5 5 5 5 5 5 5 5 5 5 5 5 5 5 3 5 5 5 5 5 5 5 5 5 5 5 3 5 5 3 5 5 5 5 5 5 5 5 5 5 3 3 5 5 5 5 3 3 5 5 5 5 3 5 5 5 3 5 5 5 5 5 5 5 5 5 5 5 5 5 3 5 3 5 5 5 5 5 3 5 5 3 5 5 5 5 5 5 5 5 5 3 5 5 5 5 5 5 5 5 5 5 3 5 5 5 3 5 5 5 5 5 5 5 5 5 5 5 5 5 3 3 3 5 5 3 5 5 5 5 5 5 5 5 5 5 5 5 5 5 3 5 5 5 5 5 5 5 3 5 5 5 5 5 5 5 5 5 5 5 5 5 5 5 5 3 5 5 5 5 5 5 5 3 5 5 5 3 5 5 5 5 5 5 5 5 5 5 5 5 5 5 5 5 3 5 5 5 5 3 5 3 5 5 5 5 3 5 5 5 5 5 5 5 5 5 5 5 5 5 5 5 5 5 3 3 5 5 5 5 5 5 5 5 5 5 5 5 5 5 5 5 5 5 3 5 3 5 5 5 5 5 5 5 5 3 5 5 3 5 3 5 5 5 5 5 5 5 5 5 5 5 5 5 5 5 5 5 5 5 5 5 5 5 5 5 5 5 5 5 5 5 5 5 5 5 5 5 5 5 5 5 5 5 5 5 5 5 5 5 5 3 5 5 5 5 3 3 5 5 5 5 5 5 5 5 3 5 5 5 5 5 5 5 5 3 5 5 5 5 3 5 3 3 3 5 5 5 5 5 5 5 5 5 3 5 5 5 5 5 5 5 5 5 5 5 3 5 5 5 5 5 5 5 5 5 5 5 5 3 5 5 3 5 5 5 5 5 3 5 3 5 5 5 5 5 5 5 5 5 5 5 5 5 5 5 5 5 5 5 5 5 5 5 3 5 5 5 5 5 5 5 5 5 5 5 5 5 5 5 5 5 5 5 5 3 5 5 5 5 5 5 5 5 5 5 5 5 5 5 5 5 5 3 5 5 3 5 5 5 5 5 5 5 5 5 3 3 5 5 5 5 5 5 5 5 5 3 5 3 3 5 5 3 5 3 5 5 5 5 5 5 5 5 5 5 5 5 5 5 5 5 5 5 5 5 5 5 5 5 5 5 5 5 5 5 5 5 5 5 5 5 5 5 5 5 5 5 5 5 5 5 5 5 5 5 5 5 5 5 5 5 3 5 3 5 5 5 5 5 5 5 3 5 5 3 5 5 5 5 5 5 3 5 5 5 5 5 5 5 5 5 5 5 5 5 5 3 5 5 5 3 5 5 3 5 5 5 5 3 5 5 5 5 5 5 5 5 3 3 5 5 5 5 5 3 5 5 3 5 5 3 5 5 5 5 5 3 5 3 5 3 5 5 5 3 5 5 5 5 5 3 5 5 5 3 5 5 5 5 5 5 5 5 5 5 5 5 3 3 5 5 5 3 5 5 5 5 3 5 5 5 5 5 5 3 5 5 5 5 5 5 5 5 5 5 5 5 5 3 5 5 5 3 5 5 5 5 5 5 5 5 3 3 5 5 3 5 5 3 5 5 3 5 5 3 5 3 5 5 5 5 5 5 5 5 5 3 5 5 5 5 5 5 5 5 5 3 5 5 5 5 5 5 5 5 5 5 3 5 5 5 5 5 5 5 5 3 5 5 5 5 5 5 5 3 5 3 5 3 3 3 3 5 3 5 5 5 5 3 3 5 3 5 5 3 5 5 5 5 3 5 5 5 5 5 5 5 5 5 5 5 5 5 5 5 5 5 5 3 5 5 5 5 3 3 5 5 5 3 5 3 5 5 3 5 5 3 5 5 5 5 5 5 5 3 5 5 5 5 5 5 5 3 3 3 3 5 5 5 5 5 5 5 5 5 5 5 5 5 5 5 5 5 5 5 5 5 5 5 5 5 5 5 5 5 5 5 5 5 5 5 5 5 5 5 5 5 5 5 5 5 5 5 5 5 5 5 5 5 5 5 3 5 5 5 5 5 5 5 5 5 5 5 5 3 5 5 5 5 5 5 5 5 5 5 5 5 5 5 5 5 5 5 5 5 5 5 5 5 5 5 5 5 5 5 5 5 3 5 5 5 3 5 5 5 5 5 5 5 5 5 5 3 5 5 5 5 5 5 5 5 5 5 5 5 5 5 5 5 5 3 5 5 5 5 3 5 5 5 5 5 5 5 3 5 5 5 3 5 5 5 5 5 5 5 5 5 5 5 5 5 5 5 5 5 5 5 5 5 5 5 5 5 5 5 5 5 5 5 5 5 5 5 5 5 5 5 5 5 5 5 5 5 5 5 5 3 3 3 5 5 3 3 5 5 5 5 5 5 5 5 3 5 5 3 5 3 5 5 5 3 5 3 5 5 5 5 5 3 5 5 5 5 5 5 5 5 5 5 5 5 5 5 5 5 5 5 5 5 5 5 5 5 5 5 5 5 5 5 5 5 3 5 5 3 5 3 5 5 5 5 5 5 3 5 5 3 5 5 5 5 5 5 5 3 5 3 5 3 5 5 5 5 3 5 3 5 5 5 5 5 5 5 3 3 3 5 5 5 5 5 5 5 5 5 5 5 5 5 5 5 5 5 5 5 5 5 5 5 5 5 5 5 3 5 5 3 5 5 5 5 5 5 5 5 5 5 5 5 5 5 5 5 5 5 5 5 5 5 5 5 5 5 5 5 5 5 5 5 5 5 3 5 3 5 3 5 5 5 5 3 5 5 5 5 3 3 5 5 5 5 3 5 5 3 3 5 5 3 5 5 5 5 5 5 3 5 5 5 5 5 5 5 3 3 5 5 5 3 5 5 3 5 5 5 5 5 5 5 5 5 5 5 5 3 5 5 5 3 5 5 5 5 5 5 5 3 5 3 5 5 3 3 3 5 5 5 5 5 5 5 5 5 5 5 5 5 5 3 5 5 5 5 3 5 5 5 5 5 5 5 5 3 5 5 5 3 5 5 5 5 5 5 5 5 5 5 5 5 5 5 5 5 5 5 5 5 3 5 5 5 5 3 5 3 5 5 5 5 5 5 5 5 5 5 5 5 5 5 5 5 5 5 5 5 5 5 5 5 5 5 5 5 5 5 5 5 3 5 5 5 5 5 5 3 5 5 5 5 3 5 5 5 3 5 3 5 5 5 5 5 5 5 3 5 5 5 5 5 5 5 5 3 5 5 5 3 5 5 5 3 5 5 5 5 5 5 5 5 5 5 3 5 5 3 5 5 5 5 5 5 5 5 5 5 5 5 5 5 5 5 5 5 5 5 5 5 5 5 5 3 5 5 5 5 5 3 3 5 3 3 5 3 5 3 5 5 5 5 5 3 5 3 3 3 5 5 3 5 5 5 3 5 5 5 5 5 5 3 5 5 5 5 5 5 5 5 5 5 5 5 3 5 5 5 5 5 5 5 5 5 5 5 5 5 5 5 5 5 5 5 5 3 5 3 5 5 5 3 5 5 3 5 5 5 5 5 5 5 5 5 5 5 5 5 5 5 5 5 5 5 3 3 5 5 5 5 5 5 3 5 3 5 5 3 5 5 5 3 5 3 5 5 5 5 5 5 3 5 3 5 5 5 5 5 5 5 5 5 5 5 5 5 5 5 5 5 5 5 5 5 5 5 5 5 5 5 5 5 5 5 5 5 5 5 5 5 5 5 5 5 5 5 5 5 5 5 5 5 5 5 3 5 5 5 5 5 5 5 5 5 3 5 5 3 5 5 5 5 5 3 5 5 5 5 3 5 5 5 5 5 3 5 5 5 5 5 5 3 5 3 5 5 3 5 3 5 5 5 5 5 5 3 5 5 5 5 5 5 5 5 3 5 5 5 5 5 3 5 5 5 3 5 5 3 5 5 5 5 5 5 5 5 5 5 5 3 5 5 5 5 5 5 5 5 5 5 5 5 5 5 3 5 5 5 5 5 5 5 5 5 5 5 5 3 5 5 5 5 5 5 5 5 5 3 5 5 5 5 5 3 5 5 5 3 5 5 3 5 3 5 3 5 5 5 5 5 5 5 5 5 5 5 5 5 5 5 5 5 5 5 5 5 5 5 3 5 5 5 5 5 5 5 5 5 5 5 5 5 5 3 5 5 5 5 3 5 5 3 3 5 5 5 5 3 5 3 3 5 5 3 5 3 3 3 5 3 5 5 5 5 5 3 5 5 5 5 5 3 3 5 5 5 3 5 5 3 5 5 5 5 3 5 5 5 5 5 3 5 5 5 5 5 5 5 5 5 5 5 5 5 5 5 5 5 5 5 3 5 5 5 5 5 5 5 5 5 5 5 3 5 5 5 5 5 5 5 5 5 5 3 5 5 5 5 5 5 5 3 5 5 5 5 5 5 5 5 3 5 5 5 3 3 3 5 5 3 5 3 3 5 3 3 3 5 5 5 5 5 5 5 5 5 3 5 5 5 5 5 5 3 5 5 5 3 5 5 5 3 5 5 5 5 5 5 5 5 5 5 5 5 5 5 5 5 3 5 5 5 5 5 5 5 5 5 5 5 5 5 5 5 5 5 5 5 5 5 5 5 5 5 3 5 5 3 3 5 3 3 5 5 5 5 5 5 5 5 5 5 5 5 5 5 5 5 5 5 3 5 5 5 5 5 5 5 5 5 5 5 5 5 3 5 5 5 5 5 5 5 5 5 5 5 5 5 5 5 5 5 5 5 5 5 5 5 5 3 5 5 5 5 5 5 5 5 5 5 3 5 5 5 5 5 5 5 5 5 5 5 5 5 3 5 5 5 5 5 5 5 5 5 5 5 3 5 5 5 5 5 5 5 5 5 5 5 5 5 5 5 5 5 5 5 5 5 5 5 5 3 5 3 5 5 5 5 5 5 5 5 5 5 3 3 5 5 5 5 3 5 5 5 3 5 5 5 5 5 5 5 5 5 3 5 3 3 5 5 5 5 3 5 5 5 5 5 5 5 5 5 5 5 5 3 5 5 5 5 3 5 5 3 5 5 5 5 5 5 3 5 5 5 5 5 5 5 3 5 3 5 5 5 5 5 5 5 5 5 5 5 5 5 5 5 5 5 5 5 5 5 5 5 5 5 3 5 3 5 5 5 5 5 3 5 5 3 5 5 5 3 5 3 5 3 5 5 5 5 3 5 5 3 5 5 5 3 5 5 5 5 5 5 5 5 5 5 5 5 5 5 5 5 5 5 5 5 3 5 3 5 5 3 3 5 5 3 3 3 5 3 5 5 3 3 3 5 5 5 5 3 5 3 5 5 3 3 5 5 3 5 3 5 5 5 5 5 5 3 5 5 5 5 5 3 5 5 3 3 5 5 5 5 5 5 5 3 5 3 5 5 5 3 5 5 3 5 5 3 3 3 5 5 3 5 5 5 5 5 5 5 5 5 5 5 5 5 5 5 5 5 5 5 5 5 5 5 3 5 3 5 5 5 5 5 5 5 5 5 5 5 5 5 5 3 5 5 5 3 5 3 5 5 5 5 3 5 5 5 5 3 5 3 5 5 5 3 5 5 5 3 5 5 3 5 5 5 5 3 5 5 5 5 5 5 5 5 3 5 3 5 5 5 3 5 5 3 5 5 3 5 5 3 5 3 5 5 5 5 5 5 5 5 3 3 5 3 5 5 3 5 3 5 5 5 5 3 5 5 5 5 5 5 5 5 5 5 5 5 5 5 5 5 5 5 5 5 5 5 5 5 5 5 5 5 5 5 5 5 5 5 5 5 5 5 5 5 5 5 5 5 5 5 5 5 5 5 5 5 5 5 5 5 5 3 5 3 5 5 5 5 5 5 5 5 5 5 5 5 5 5 5 5 5 5 5 5 5 5 5 5 5 5 5 3 5 5 3 5 5 5 5 5 5 5 5 5 3 5 5 5 3 5 5 3 5 5 5 5 5 5 5 3 5 5 5 5 5 5 5 5 5 5 5 5 5 5 5 5 5 3 3 5 5 3 5 5 5 5 5 5 3 5 5 5 5 5 5 5 3 5 5 5 5 5 3 5 5 3 5 5 3 5 5 3 5 5 5 5 5 5 3 5 5 5 5 3 3 5 5 5 5 3 5 5 5 5 3 5 5 5 5 5 3 5 5 3 5 5 3 5 5 5 5 5 5 5 5 5 3 5 5 5 5 5 5 5 5 5 5 3 5 5 5 5 3 5 3 5 5 5 5 5 5 5 3 5 5 5 5 5 5 5 5 5 5 5 5 5 5 5 5 5 5 5 5 5 5 5 5 5 5 5 5 5 5 5 3 5 5 5 5 5 5 5 5 3 5 5 5 5 5 5 5 5 3 5 3 5 5 5 5 5 5 5 5 5 5 5 5 5 3 5 5 5 5 5 5 5 5 5 5 5 5 5 5 5 3 5 5 5 3 5 3 5 3 5 5 5 3 5 5 5 5 5 5 5 3 5 5 5 5 5 3 3 5 3 5 5 5 5 3 3 5 5 5 5 5 3 5 5 5 5 3 3 5 5 3 5 5 5 5 5 5 5 5 5 5 5 5 5 5 5 5 5 5 5 5 5 5 5 5 5 5 5 5 5 5 5 5 5 5 5 5 5 5 5 5 5 5 5 5 5 5 5 3 5 5 5 5 5 5 5 5 3 5 5 5 5 5 5 5 5 5 5 5 5 5 5 5 5 5 5 5 5 5 5 5 5 5 5 5 5 5 5 5 5 5 3 5 5 5 5 3 5 3 5 5 5 5 5 5 3 5 5 5 5 5 5 5 5 5 5 5 3 5 5 5 5 5 5 5 5 5 5 5 3 5 5 5 3 5 5 3 5 5 5 5 5 3 3 5 5 5 5 5 5 3 5 5 5 5 5 5 5 5 5 5 3 5 5 5 5 5 3 5 5 5 5 5 3 5 3 3 5 5 3 5 5 3 3 5 3 5 3 3 5 5 3 5 5 5 5 3 5 5 3 5 3 3 5 5 5 5 5 5 3 5 3 5 5 5 3 5 5 5 5 5 5 5 5 3 3 3 5 5 5 5 5 5 5 5 5 5 5 5 5 5 5 3 3 5 5 5 5 5 5 5 3 5 5 3 5 5 5 3 3 5 3 5 5 5 5 3 5 5 5 3 3 5 5 5 3 3 5 3 5 5 5 3 3 5 5 5 5 5 5 3 5 5 5 5 5 3 3 5 5 5 5 5 3 5 3 5 5 3 5 5 3 3 3 5 5 5 5 5 5 5 5 5 5 5 5 3 5 5 5 5 5 3 5 3 5 5 5 5 5 3 5 5 5 5 5 5 5 5 5 5 5 5 5 5 5 5 5 5 5 3 5 5 5 5 5 5 5 5 5 3 5 5 5 5 3 3 5 5 5 5 5 5 3 3 5 5 3 5 5 3 5 5 3 5 3 3 5 3 3 5 5 5 3 5 5 5 5 5 5 5 3 5 5 3 5 5 5 3 5 3 5 5 5 5 3 3 5 5 3 5 5 5 5 5 5 5 5 5 5 5 3 5 3 3 3 5 5 5 5 5 5 5 5 3 5 5 3 5 5 5 5 5 5 3 5 5 5 3 5 5 5 3 5 5 5 3 5 5 3 5 5 3 5 5 5 5 5 5 3 5 3 5 5 3 5 3 3 3 5 5 5 5 3 5 5 3 3 5 5 3 5 5 5 5 5 5 5 5 5 5 5 3 5 5 5 3 3 5 3 3 5 5 5 3 5 5 5 5 5 5 5 5 3 3 5 5 5 5 5 5 5 5 3 5 5 5 3 3 5 5 5 5 3 5 5 5 5 5 5 3 5 5 5 5 5 5 5 5 5 5 5 5 3 5 5 5 5 5 5 5 5 5 5 5 5 5 5 5 5 5 5 5 5 5 5 5 3 5 5 3 5 5 5 5 5 5 5 5 5 5 5 5 5 5 5 5 5 5 5 5 5 5 5 5 5 5 5 5 5 5 5 5 5 5 5 5 5 5 5 3 5 5 5 5 5 3 5 5 5 5 5 5 5 5 3 3 5 5 5 5 5 5 5 5 5 3 5 5 5 5 3 5 5 5 5 5 3 5 5 3 5 5 3 5 5 5 5 5 5 5 3 5 5 5 5 5 5 5 5 5 5 5 5 5 3 5 5 5 3 5 3 3 5 5 5 5 5 5 5 5 5 5 5 5 5 5 5 5 5 5 5 5 5 5 5 5 5 5 5 5 5 5 5 5 5 5 5 5 5 5 5 5 5 5 5 5 5 5 5 5 5 5 5 5 3 5 5 5 5 5 5 5 5 3 5 3 5 5 5 5 5 5 5 5 5 5 5 5 5 5 5 5 5 5 5 5 5 5 5 5 5 3 5 5 5 5 5 5 3 5 5 5 5 5 5 5 5 5 5 5 5 5 5 5 5 5 3 5 5 5 5 5 5 5 5 5 5 5 5 5 5 3 5 5 3 5 5 5 3 5 5 5 5 5 5 5 5 5 5 5 5 5 5 5 5 3 5 5 5 5 5 3 5 5 5 3 5 5 5 3 5 5 5 5 5 5 5 5 5 5 5 5 5 5 5 5 5 5 5 5 5 5 5 5 3 5 5 5 5 5 5 5 5 5 5 5 5 5 5 5 5 5 5 5 3 5 5 5 5 5 5 5 5 5 5 5 5 5 5 5 5 5 3 5 5 5 5 3 3 5 3 5 3 5 3 5 5 5 5 5 5 5 3 5 3 5 3 3 3 3 5 5 5 5 3 3 3 5 5 5 5 5 5 5 3 5 5 3 5 3 5 5 3 3 5 5 5 5 5 5 3 5 5 3 5 5 5 5 3 5 3 3 5 5 5 5 3 5 3 5 5 5 3 5 5 3 5 5 5 5 3 5 5 5 5 5 5 5 5 5 5 5 5 5 5 5 3 5 5 5 5 5 3 5 5 5 5 3 5 3 5 5 5 5 3 5 5 3 5 5 5 5 5 3 5 3 5 5 3 5 5 5 5 5 5 5 5 5 5 3 5 5 5 5 5 5 5 5 3 5 5 5 5 5 5 5 5 5 5 3 5 5 5 5 5 5 5 5 5 5 5 5 5 3 5 3 5 5 5 5 5 5 5 5 5 5 3 3 5 5 5 5 3 3 5 5 5 3 5 5 5 3 5 5 5 5 5 5 5 5 5 3 5 5 5 5 3 5 3 5 5 5 5 5 5 5 5 3 5 5 5 5 5 5 5 3 5 5 5 5 5 3 5 5 3 5 3 5 5 5 5 5 5 3 5 5 5 5 5 5 5 5 5 5 3 5 5 3 3 5 5 5 5 5 5 5 5 3 5 3 5 5 5 5 5 5 5 5 5 5 5 5 5 3 5 3 5 5 5 5 5 5 5 5 5 5 5 5 5 5 5 5 5 5 5 5 3 5 3 5 5 5 5 5 5 5 5 5 5 5 3 5 5 5 3 5 3 5 5 5 3 5 5 5 3 3 5 3 5 3 5 5 5 5 3 5 5 5 3 5 5 3 5 3 5 5 5 5 5 3 5 5 5 5 5 3 5 3 5 5 3 5 5 5 3 5 5 3 5 5 5 3 5 3 5 5 5 5 5 3 5 5 5 5 3 3 5 3 3 3 5 5 5 5 5 3 5 3 5 5 5 5 3 5 5 5 5 5 5 5 5 5 5 5 5 5 5 5 5 5 5 5 5 5 5 5 5 5 5 5 5 5 3 5 5 3 5 3 5 5 5 3 5 5 5 5 5 5 5 5 5 5 5 5 5 5 5 5 5 5 3 5 5 5 5 5 5 5 5 5 5 3 5 5 5 5 5 3 5 5 5 5 5 5 5 5 5 5 5 5 5 5 5 5 5 3 5 5 3 5 5 5 5 5 5 5 5 5 5 5 5 3 5 5 5 5 5 5 5 5 5 5 3 5 5 5 5 5 5 5 5 5 5 5 5 3 5 5 5 5 5 5 5 3 5 5 5 5 5 5 5 5 5 5 5 5 5 5 5 5 5 5 5 5 3 5 5 5 5 5 3 5 5 5 5 5 5 5 5 5 5 5 5 5 5 5 5 5 5 5 3 5 5 5 5 5 5 5 5 5 3 5 5 5 3 5 5 5 5 5 3 5 3 5 5 3 3 5 5 5 5 5 5 5 5 5 5 5 5 3 5 3 5 5 5 5 5 5 5 3 3 5 5 5 3 5 3 3 5 5 5 5 5 5 5 5 3 5 5 3 5 5 5 5 5 5 5 5 5 3 5 5 5 5 3 5 5 5 5 5 5 5 5 5 5 5 3 5 5 3 5 5 5 5 3 5 5 5 5 5 5 3 3 5 5 5 5 5 5 5 5 5 5 5 5 5 5 5 5 5 5 5 5 5 5 5 5 5 5 5 5 5 5 5 5 3 5 3 5 5 5 5 5 3 5 5 3 5 3 5 5 5 5 5 5 5 5 3 5 5 5 3 5 5 5 5 3 5 3 5 5 5 5 5 3 5 5 5 3 5 5 5 5 5 5 5 3 5 5 5 5 3 5 3 5 5 5 3 5 3 3 5 5 3 5 5 5 5 5 5 5 3 5 5 5 5 3 3 3 5 5 5 5 5 5 3 5 5 5 5 5 5 5 5 5 5 3 5 5 5 5 5 5 5 5 5 3 5 5 3 5 5 3 5 3 5 5 5 3 5 5 5 3 5 5 5 5 5 3 5 5 5 5 5 5 5 5 5 5 3 3 3 5 5 5 5 5 5 3 3 5 5 3 5 5 5 3 5 5 5 5 5 5 3 5 5 5 5 5 5 5 5 5 5 5 3 5 3 5 5 3 5 3 5 5 5 5 5 5 5 5 5 5 5 3 5 5 5 3 5 3 5 5 5 5 5 5 5 5 3 5 5 5 5 5 5 5 3 5 3 5 5 5 5 5 5 5 5 5 5 5 3 5 3 5 5 5 3 5 5 5 5 3 5 5 3 3 5 5 5 5 5 5 3 5 5 5 3 5 3 5 3 5 3 5 3 5 5 5 5 5 5 3 3 5 3 5 5 5 3 5 5 5 5 3 5 5 5 3 5 5 5 
</DataArray>
</Cells>
<PointData Scalars="" Vectors="displacement," Tensors="">
<DataArray type="Float64" Name="displacement" NumberOfComponents="3" format="ascii">
-0.034999272034422289 3.7784313365315199e-08 0 -0.032202745226984471 2.1480885445312683e-05 0 -0.028628159715941074 -2.3292285041234124e-07 0 -0.034999272034422289 3.7784313365315199e-08 0 -0.034998711965010317 -1.4015506751179753e-07 0 -0.033982336497257432 -0.00016230316273085731 0 -0.034999272034422289 3.7784313365315199e-08 0 -0.033982336497257432 -0.00016230316273085731 0 -0.032202745226984471 2.1480885445312683e-05 0 -0.035000076727309731 3.6545083341507191e-08 0 -0.035040121694663057 -4.8503323242134231e-05 0 -0.034957788059599537 -1.7561703280934675e-05 0 -0.034999734286642277 -3.6299843359294121e-07 0 -0.034787483453330825 -2.9780124555648184e-05 0 -0.033982336497257432 -0.00016230316273085731 0 -0.032202745226984471 2.1480885445312683e-05 0 -0.033305209008379501 0.00043241395712567292 0 -0.032793435792852953 0.00017293377555383622 0 -0.030532876881044071 -0.00085935352412618514 0 -0.035040121694663057 -4.8503323242134231e-05 0 -0.035112031190440575 -0.00027233655536601834 0 -0.034968560478829604 -0.0001552258222962752 0 -0.030532876881044071 -0.00085935352412618514 0 -0.029365095307279276 -0.0029805396703924689 0 -0.034787483453330825 -2.9780124555648184e-05 0 -0.030532876881044071 -0.00085935352412618514 0 -0.023073131970911976 -0.0052871811443859652 0 -0.023700059522499223 -0.0046755414114561028 0 -0.02445921456515204 -0.0050919329104959594 0 -0.023073131970911976 -0.0052871811443859652 0 -0.023700059522499223 -0.0046755414114561028 0 -0.022775848009684505 -0.0036770351000025995 0 -0.030532876881044071 -0.00085935352412618514 0 -0.026028705491738635 -0.0023017548828423505 0 -0.032202745226984471 2.1480885445312683e-05 0 -0.031267788771565018 0.00013741040651104431 0 -0.030122849642298794 -0.00010315242769938263 0 -0.029365095307279276 -0.0029805396703924689 0 -0.029410735592994439 -0.0031022477939248415 0 -0.025053973877065819 -0.0046909052418488278 0 -0.02445921456515204 -0.0050919329104959594 0 -0.025925004087219743 -0.0049421035185473828 0 -0.025053973877065819 -0.0046909052418488278 0 -0.025623202390465036 -0.0044707950046361531 0 -0.025925004087219743 -0.0049421035185473828 0 -0.025623202390465036 -0.0044707950046361531 0 -0.025090508200059935 -0.0042035074609387685 0 -0.02586340552335013 -0.0040422518865345664 0 -0.025053973877065819 -0.0046909052418488278 0 -0.025623202390465036 -0.0044707950046361531 0 -0.025090508200059935 -0.0042035074609387685 0 -0.025053973877065819 -0.0046909052418488278 0 -0.025090508200059935 -0.0042035074609387685 0 -0.024409394551378961 -0.0044029961260112441 0 -0.023700059522499223 -0.0046755414114561028 0 -0.024409394551378961 -0.0044029961260112441 0 -0.023802449615637523 -0.0039487264590859494 0 -0.023700059522499223 -0.0046755414114561028 0 -0.024409394551378961 -0.0044029961260112441 0 -0.02445921456515204 -0.0050919329104959594 0 -0.025053973877065819 -0.0046909052418488278 0 -0.024409394551378961 -0.0044029961260112441 0 -0.02445921456515204 -0.0050919329104959594 0 -0.035112031190440575 -0.00027233655536601834 0 -0.034846478830405272 -0.00048356141172197994 0 -0.034968560478829604 -0.0001552258222962752 0 -0.034846478830405272 -0.00048356141172197994 0 -0.034778854112006007 -0.00022582435054432909 0 -0.034871462698830423 -0.00012654546816290589 0 -0.034846478830405272 -0.00048356141172197994 0 -0.034968560478829604 -0.0001552258222962752 0 -0.034871462698830423 -0.00012654546816290589 0 -0.034968560478829604 -0.0001552258222962752 0 -0.034871462698830423 -0.00012654546816290589 0 -0.034916628334653206 -6.637938507917083e-05 0 -0.034778854112006007 -0.00022582435054432909 0 -0.034871462698830423 -0.00012654546816290589 0 -0.034829220498796012 -8.960743383377603e-05 0 -0.034778854112006007 -0.00022582435054432909 0 -0.033796764700904126 0.0001580984279478725 0 -0.033970160139870115 3.9124179439150218e-05 0 -0.03467203801404279 -0.00010404754176436175 0 -0.034829220498796012 -8.960743383377603e-05 0 -0.034577763954875336 -3.9455548542475827e-05 0 -0.034778854112006007 -0.00022582435054432909 0 -0.03467203801404279 -0.00010404754176436175 0 -0.034829220498796012 -8.960743383377603e-05 0 -0.034734540936569566 -0.00019353017767238884 0 -0.034221612491188075 2.1291785395590123e-05 0 -0.034846478830405272 -0.00048356141172197994 0 -0.033970160139870115 3.9124179439150218e-05 0 -0.033446005404346509 -0.00088479845617938345 0 -0.034846478830405272 -0.00048356141172197994 0 -0.034778854112006007 -0.00022582435054432909 0 -0.033970160139870115 3.9124179439150218e-05 0 -0.034897997463137723 -0.00011573884131549715 0 -0.034601368957348083 0.00012274934898358331 0 -0.034829220498796012 -8.960743383377603e-05 0 -0.034927964188056833 -3.2937094525550663e-05 0 -0.034984068154374 5.7964092443547359e-06 0 -0.034829220498796012 -8.960743383377603e-05 0 -0.034911780560855241 -4.1715754835485698e-05 0 -0.034927964188056833 -3.2937094525550663e-05 0 -0.034911780560855241 -4.1715754835485698e-05 0 -0.034927964188056833 -3.2937094525550663e-05 0 -0.034957419525024194 -2.0269203880008181e-05 0 -0.035040121694663057 -4.8503323242134231e-05 0 -0.034968560478829604 -0.0001552258222962752 0 -0.034916628334653206 -6.637938507917083e-05 0 -0.035040121694663057 -4.8503323242134231e-05 0 -0.034916628334653206 -6.637938507917083e-05 0 -0.034957788059599537 -1.7561703280934675e-05 0 -0.034829220498796012 -8.960743383377603e-05 0 -0.034911780560855241 -4.1715754835485698e-05 0 -0.034916628334653206 -6.637938507917083e-05 0 -0.034871462698830423 -0.00012654546816290589 0 -0.034829220498796012 -8.960743383377603e-05 0 -0.034916628334653206 -6.637938507917083e-05 0 -0.034911780560855241 -4.1715754835485698e-05 0 -0.034916628334653206 -6.637938507917083e-05 0 -0.034957788059599537 -1.7561703280934675e-05 0 -0.035000076727309731 3.6545083341507191e-08 0 -0.034957788059599537 -1.7561703280934675e-05 0 -0.034999858281379422 -3.0851032985902973e-08 0 -0.034999858281379422 -3.0851032985902973e-08 0 -0.034957419525024194 -2.0269203880008181e-05 0 -0.034999969230317229 -2.2470415880259378e-08 0 -0.034911780560855241 -4.1715754835485698e-05 0 -0.034957788059599537 -1.7561703280934675e-05 0 -0.034957419525024194 -2.0269203880008181e-05 0 -0.034957788059599537 -1.7561703280934675e-05 0 -0.034999858281379422 -3.0851032985902973e-08 0 -0.034957419525024194 -2.0269203880008181e-05 0 -0.034957419525024194 -2.0269203880008181e-05 0 -0.034974023188276235 -1.4152884532595316e-05 0 -0.034999969230317229 -2.2470415880259378e-08 0 -0.034927964188056833 -3.2937094525550663e-05 0 -0.034957419525024194 -2.0269203880008181e-05 0 -0.034974023188276235 -1.4152884532595316e-05 0 -0.034974023188276235 -1.4152884532595316e-05 0 -0.034987190928021945 -4.816384274418511e-06 0 -0.034992545946337626 -5.6005516370823816e-06 0 -0.034974023188276235 -1.4152884532595316e-05 0 -0.034999969230317229 -2.2470415880259378e-08 0 -0.034992545946337626 -5.6005516370823816e-06 0 -0.034999969230317229 -2.2470415880259378e-08 0 -0.034996789469874293 -2.6742255096841128e-06 0 -0.035000002248214403 1.9513159845795032e-09 0 -0.034999969230317229 -2.2470415880259378e-08 0 -0.034996789469874293 -2.6742255096841128e-06 0 -0.034992545946337626 -5.6005516370823816e-06 0 -0.034996789469874293 -2.6742255096841128e-06 0 -0.034994170124747058 -4.4723681327862885e-07 0 -0.034999955948307272 -5.5898285106198133e-07 0 -0.034996789469874293 -2.6742255096841128e-06 0 -0.034994170124747058 -4.4723681327862885e-07 0 -0.034992867464494676 -2.5754417609121111e-06 0 -0.034996789469874293 -2.6742255096841128e-06 0 -0.034992545946337626 -5.6005516370823816e-06 0 -0.034992867464494676 -2.5754417609121111e-06 0 -0.034987190928021945 -4.816384274418511e-06 0 -0.034992545946337626 -5.6005516370823816e-06 0 -0.034992867464494676 -2.5754417609121111e-06 0 -0.034601368957348083 0.00012274934898358331 0 -0.034848298920676257 3.7461147405744667e-05 0 -0.033854878051738473 0.00040119258093059755 0 -0.034022246604798828 0.00016263418222281116 0 -0.034994170124747058 -4.4723681327862885e-07 0 -0.03498614560530508 7.1768131476385332e-06 0 -0.034999955948307272 -5.5898285106198133e-07 0 -0.034987190928021945 -4.816384274418511e-06 0 -0.034992867464494676 -2.5754417609121111e-06 0 -0.03498614560530508 7.1768131476385332e-06 0 -0.033233488635610063 0.00033642904903367335 0 -0.033030101207598125 0.00040303876425570574 0 -0.033375741860176875 0.00022639167545594922 0 -0.034395480056495127 0.00024560034351797416 0 -0.034665964541788941 8.5127204514314636e-05 0 -0.034710105376248843 0.00012080442100752835 0 -0.034395480056495127 0.00024560034351797416 0 -0.034367829546855015 0.00018338203654767336 0 -0.034665964541788941 8.5127204514314636e-05 0 -0.034994170124747058 -4.4723681327862885e-07 0 -0.034992867464494676 -2.5754417609121111e-06 0 -0.03498614560530508 7.1768131476385332e-06 0 -0.033233488635610063 0.00033642904903367335 0 -0.03319838770379907 0.00040466637080091973 0 -0.033141291521253495 0.00040128281146491624 0 -0.033162656795369817 0.00044087764618238505 0 -0.03319838770379907 0.00040466637080091973 0 -0.033141291521253495 0.00040128281146491624 0 -0.033162656795369817 0.00044087764618238505 0 -0.03319838770379907 0.00040466637080091973 0 -0.033212348755334097 0.00044915835493269251 0 -0.033233488635610063 0.00033642904903367335 0 -0.03319838770379907 0.00040466637080091973 0 -0.033251228277647052 0.00041298011342289404 0 -0.03319838770379907 0.00040466637080091973 0 -0.033251228277647052 0.00041298011342289404 0 -0.033212348755334097 0.00044915835493269251 0 -0.033251228277647052 0.00041298011342289404 0 -0.033263237191391168 0.0004662295905573666 0 -0.033212348755334097 0.00044915835493269251 0 -0.033233488635610063 0.00033642904903367335 0 -0.033141291521253495 0.00040128281146491624 0 -0.033030101207598125 0.00040303876425570574 0 -0.033162656795369817 0.00044087764618238505 0 -0.033141291521253495 0.00040128281146491624 0 -0.033100145819564497 0.00045194154548249113 0 -0.033141291521253495 0.00040128281146491624 0 -0.033030101207598125 0.00040303876425570574 0 -0.033100145819564497 0.00045194154548249113 0 -0.034221612491188075 2.1291785395590123e-05 0 -0.033854878051738473 0.00040119258093059755 0 -0.034829220498796012 -8.960743383377603e-05 0 -0.034577763954875336 -3.9455548542475827e-05 0 -0.034493697146849828 3.7736816718415471e-05 0 -0.034464986168743911 -2.1431243397660576e-05 0 -0.034577763954875336 -3.9455548542475827e-05 0 -0.034493697146849828 3.7736816718415471e-05 0 -0.03467203801404279 -0.00010404754176436175 0 -0.034464986168743911 -2.1431243397660576e-05 0 -0.034577763954875336 -3.9455548542475827e-05 0 -0.033854878051738473 0.00040119258093059755 0 -0.034601368957348083 0.00012274934898358331 0 -0.034927964188056833 -3.2937094525550663e-05 0 -0.034974023188276235 -1.4152884532595316e-05 0 -0.034984068154374 5.7964092443547359e-06 0 -0.034974023188276235 -1.4152884532595316e-05 0 -0.034987190928021945 -4.816384274418511e-06 0 -0.03498614560530508 7.1768131476385332e-06 0 -0.034903461678354529 3.5089233316277101e-05 0 -0.034601368957348083 0.00012274934898358331 0 -0.034999734622496191 -9.3470210049236222e-08 0 -0.034999851222683058 -2.8390916125685912e-07 0 -0.034999998097984812 -8.7024763511108548e-10 0 -0.034022246604798828 0.00016263418222281116 0 -0.034458264695430847 7.914176091792629e-06 0 -0.034999851222683058 -2.8390916125685912e-07 0 -0.035000002248214403 1.9513159845795032e-09 0 -0.034999998097984812 -8.7024763511108548e-10 0 -0.034944756032038657 9.7967372049358965e-06 0 -0.034848298920676257 3.7461147405744667e-05 0 -0.034900522315784513 1.4696070814804774e-05 0 -0.034710105376248843 0.00012080442100752835 0 -0.0349389817309489 2.4714266848438817e-05 0 -0.034999734622496191 -9.3470210049236222e-08 0 -0.034999851222683058 -2.8390916125685912e-07 0 -0.034999955948307272 -5.5898285106198133e-07 0 -0.034900522315784513 1.4696070814804774e-05 0 -0.034665964541788941 8.5127204514314636e-05 0 -0.034710105376248843 0.00012080442100752835 0 -0.034999851222683058 -2.8390916125685912e-07 0 -0.034999585184992257 -9.0542301783279115e-07 0 -0.034999955948307272 -5.5898285106198133e-07 0 -0.034999851222683058 -2.8390916125685912e-07 0 -0.034999585184992257 -9.0542301783279115e-07 0 -0.035000002248214403 1.9513159845795032e-09 0 -0.034996789469874293 -2.6742255096841128e-06 0 -0.034999585184992257 -9.0542301783279115e-07 0 -0.035000002248214403 1.9513159845795032e-09 0 -0.034996789469874293 -2.6742255096841128e-06 0 -0.034999585184992257 -9.0542301783279115e-07 0 -0.034999955948307272 -5.5898285106198133e-07 0 -0.033233488635610063 0.00033642904903367335 0 -0.033332927474982246 0.0003308423824901978 0 -0.033375741860176875 0.00022639167545594922 0 -0.033233488635610063 0.00033642904903367335 0 -0.033295545749315814 0.00038011798758261992 0 -0.033332927474982246 0.0003308423824901978 0 -0.033233488635610063 0.00033642904903367335 0 -0.033251228277647052 0.00041298011342289404 0 -0.033295545749315814 0.00038011798758261992 0 -0.033251228277647052 0.00041298011342289404 0 -0.033295545749315814 0.00038011798758261992 0 -0.033306398300251734 0.00043963131688205988 0 -0.033251228277647052 0.00041298011342289404 0 -0.033306398300251734 0.00043963131688205988 0 -0.033263237191391168 0.0004662295905573666 0 -0.033306398300251734 0.00043963131688205988 0 -0.033366469642029946 0.0004023357080134689 0 -0.033366122478757781 0.0005057678478866274 0 -0.033295545749315814 0.00038011798758261992 0 -0.033306398300251734 0.00043963131688205988 0 -0.033366469642029946 0.0004023357080134689 0 -0.033295545749315814 0.00038011798758261992 0 -0.033366469642029946 0.0004023357080134689 0 -0.033332927474982246 0.0003308423824901978 0 -0.033366469642029946 0.0004023357080134689 0 -0.033332927474982246 0.0003308423824901978 0 -0.033415846453259353 0.0003237286193402365 0 -0.033366469642029946 0.0004023357080134689 0 -0.033415846453259353 0.0003237286193402365 0 -0.033456704221957664 0.00039629146269655507 0 -0.033366469642029946 0.0004023357080134689 0 -0.033456704221957664 0.00039629146269655507 0 -0.033433175253954589 0.00046697506117527107 0 -0.033456704221957664 0.00039629146269655507 0 -0.033545708945462736 0.00046940674495361828 0 -0.033433175253954589 0.00046697506117527107 0 -0.033456704221957664 0.00039629146269655507 0 -0.033525765274563107 0.00033321224407158726 0 -0.033545708945462736 0.00046940674495361828 0 -0.033415846453259353 0.0003237286193402365 0 -0.033456704221957664 0.00039629146269655507 0 -0.033525765274563107 0.00033321224407158726 0 -0.033475154435028291 0.00028194152195674721 0 -0.033375741860176875 0.00022639167545594922 0 -0.033626876257148414 0.00023270486885006451 0 -0.033415846453259353 0.0003237286193402365 0 -0.033475154435028291 0.00028194152195674721 0 -0.033525765274563107 0.00033321224407158726 0 -0.033332927474982246 0.0003308423824901978 0 -0.033415846453259353 0.0003237286193402365 0 -0.033375741860176875 0.00022639167545594922 0 -0.033415846453259353 0.0003237286193402365 0 -0.033475154435028291 0.00028194152195674721 0 -0.033375741860176875 0.00022639167545594922 0 -0.033375741860176875 0.00022639167545594922 0 -0.033626876257148414 0.00023270486885006451 0 -0.033976178193858279 -5.8030475491984259e-05 0 -0.033626876257148414 0.00023270486885006451 0 -0.033647234975445292 0.00034813042625479453 0 -0.033782862828528902 0.00023899801448150411 0 -0.033475154435028291 0.00028194152195674721 0 -0.033626876257148414 0.00023270486885006451 0 -0.033525765274563107 0.00033321224407158726 0 -0.033626876257148414 0.00023270486885006451 0 -0.033525765274563107 0.00033321224407158726 0 -0.033647234975445292 0.00034813042625479453 0 -0.033525765274563107 0.00033321224407158726 0 -0.033647234975445292 0.00034813042625479453 0 -0.033545708945462736 0.00046940674495361828 0 -0.033647234975445292 0.00034813042625479453 0 -0.033767578971518435 0.0004410308119835142 0 -0.033545708945462736 0.00046940674495361828 0 -0.033647234975445292 0.00034813042625479453 0 -0.033767578971518435 0.0004410308119835142 0 -0.033782862828528902 0.00023899801448150411 0 -0.033626876257148414 0.00023270486885006451 0 -0.033782862828528902 0.00023899801448150411 0 -0.033976178193858279 -5.8030475491984259e-05 0 -0.033767578971518435 0.0004410308119835142 0 -0.033782862828528902 0.00023899801448150411 0 -0.033973570396101736 0.00023422484765048791 0 -0.033552047345064409 0.00063392460953208411 0 -0.033572085856708428 0.00077760989936049782 0 -0.033748288467816273 0.0006876783840880224 0 -0.033767578971518435 0.0004410308119835142 0 -0.033552047345064409 0.00063392460953208411 0 -0.033748288467816273 0.0006876783840880224 0 -0.033545708945462736 0.00046940674495361828 0 -0.033552047345064409 0.00063392460953208411 0 -0.033435859480802473 0.00055672883775037378 0 -0.033767578971518435 0.0004410308119835142 0 -0.033545708945462736 0.00046940674495361828 0 -0.033552047345064409 0.00063392460953208411 0 -0.033552047345064409 0.00063392460953208411 0 -0.033420378335156098 0.00065604311420556605 0 -0.033435859480802473 0.00055672883775037378 0 -0.033552047345064409 0.00063392460953208411 0 -0.033420378335156098 0.00065604311420556605 0 -0.03347761645662363 0.00073379968516977762 0 -0.033420378335156098 0.00065604311420556605 0 -0.033435859480802473 0.00055672883775037378 0 -0.033345129167571624 0.00058840533160059417 0 -0.033545708945462736 0.00046940674495361828 0 -0.033433175253954589 0.00046697506117527107 0 -0.033435859480802473 0.00055672883775037378 0 -0.033366469642029946 0.0004023357080134689 0 -0.033433175253954589 0.00046697506117527107 0 -0.033366122478757781 0.0005057678478866274 0 -0.033433175253954589 0.00046697506117527107 0 -0.033435859480802473 0.00055672883775037378 0 -0.033366122478757781 0.0005057678478866274 0 -0.033435859480802473 0.00055672883775037378 0 -0.033366122478757781 0.0005057678478866274 0 -0.033345129167571624 0.00058840533160059417 0 -0.033366122478757781 0.0005057678478866274 0 -0.033319999140311286 0.00053560254691215785 0 -0.033345129167571624 0.00058840533160059417 0 -0.033366122478757781 0.0005057678478866274 0 -0.033308876641737872 0.00049340120081832494 0 -0.033319999140311286 0.00053560254691215785 0 -0.033306398300251734 0.00043963131688205988 0 -0.033366122478757781 0.0005057678478866274 0 -0.033308876641737872 0.00049340120081832494 0 -0.033306398300251734 0.00043963131688205988 0 -0.033263237191391168 0.0004662295905573666 0 -0.033308876641737872 0.00049340120081832494 0 -0.033263237191391168 0.0004662295905573666 0 -0.033308876641737872 0.00049340120081832494 0 -0.033282830355223898 0.00052267493309287607 0 -0.033308876641737872 0.00049340120081832494 0 -0.033282830355223898 0.00052267493309287607 0 -0.033319999140311286 0.00053560254691215785 0 -0.033282830355223898 0.00052267493309287607 0 -0.033319999140311286 0.00053560254691215785 0 -0.033297500603701562 0.00056630086509411673 0 -0.033319999140311286 0.00053560254691215785 0 -0.033297500603701562 0.00056630086509411673 0 -0.033345129167571624 0.00058840533160059417 0 -0.033282830355223898 0.00052267493309287607 0 -0.033297500603701562 0.00056630086509411673 0 -0.033257674546487821 0.00056844250118320448 0 -0.033297500603701562 0.00056630086509411673 0 -0.033275380267961681 0.00061790298476858312 0 -0.033345129167571624 0.00058840533160059417 0 -0.033297500603701562 0.00056630086509411673 0 -0.033275380267961681 0.00061790298476858312 0 -0.033257674546487821 0.00056844250118320448 0 -0.033420378335156098 0.00065604311420556605 0 -0.033345129167571624 0.00058840533160059417 0 -0.033318519170465619 0.0006771316201797541 0 -0.033275380267961681 0.00061790298476858312 0 -0.033345129167571624 0.00058840533160059417 0 -0.033318519170465619 0.0006771316201797541 0 -0.033275380267961681 0.00061790298476858312 0 -0.033318519170465619 0.0006771316201797541 0 -0.033268569781681558 0.00066856983193531332 0 -0.033318574562024202 0.0007454598418130461 0 -0.033438334739084002 0.00080362800125329166 0 -0.033226042009915684 0.00077333931707073073 0 -0.031443149124098853 -0.00093984076395412343 0 -0.033595624367971852 0.0010660300769089579 0 -0.033438334739084002 0.00080362800125329166 0 -0.033226042009915684 0.00077333931707073073 0 -0.033508129005616699 0.00089516093781246016 0 -0.033318519170465619 0.0006771316201797541 0 -0.033277820429220201 0.00070493499121102943 0 -0.033318574562024202 0.0007454598418130461 0 -0.033318519170465619 0.0006771316201797541 0 -0.033277820429220201 0.00070493499121102943 0 -0.033268569781681558 0.00066856983193531332 0 -0.033318519170465619 0.0006771316201797541 0 -0.033318574562024202 0.0007454598418130461 0 -0.033393570009977683 0.0007288778755705868 0 -0.033277820429220201 0.00070493499121102943 0 -0.033318574562024202 0.0007454598418130461 0 -0.033264834510466489 0.00072980464299627083 0 -0.033318574562024202 0.0007454598418130461 0 -0.033438334739084002 0.00080362800125329166 0 -0.033393570009977683 0.0007288778755705868 0 -0.033438334739084002 0.00080362800125329166 0 -0.033393570009977683 0.0007288778755705868 0 -0.03347761645662363 0.00073379968516977762 0 -0.033420378335156098 0.00065604311420556605 0 -0.033318519170465619 0.0006771316201797541 0 -0.033393570009977683 0.0007288778755705868 0 -0.033420378335156098 0.00065604311420556605 0 -0.033393570009977683 0.0007288778755705868 0 -0.03347761645662363 0.00073379968516977762 0 -0.033572085856708428 0.00077760989936049782 0 -0.033508129005616699 0.00089516093781246016 0 -0.033617330052998357 0.00080557957190778736 0 -0.033438334739084002 0.00080362800125329166 0 -0.03347761645662363 0.00073379968516977762 0 -0.033572085856708428 0.00077760989936049782 0 -0.033552047345064409 0.00063392460953208411 0 -0.03347761645662363 0.00073379968516977762 0 -0.033572085856708428 0.00077760989936049782 0 -0.033438334739084002 0.00080362800125329166 0 -0.033572085856708428 0.00077760989936049782 0 -0.033508129005616699 0.00089516093781246016 0 -0.033796764700904126 0.0001580984279478725 0 -0.032859740404721366 0.00050856545640909042 0 -0.033070762444984178 -0.00046946692153022174 0 -0.03383518626430123 -2.4813325842131069e-05 0 -0.033072607350276798 -0.00045096539467585553 0 -0.033796764700904126 0.0001580984279478725 0 -0.033970160139870115 3.9124179439150218e-05 0 -0.033070762444984178 -0.00046946692153022174 0 -0.033970160139870115 3.9124179439150218e-05 0 -0.03289915648891252 -0.00050053670703040188 0 -0.033446005404346509 -0.00088479845617938345 0 -0.032859740404721366 0.00050856545640909042 0 -0.033070762444984178 -0.00046946692153022174 0 -0.032172901914603175 -0.00098310218659160677 0 -0.033030101207598125 0.00040303876425570574 0 -0.033100145819564497 0.00045194154548249113 0 -0.033162202370533057 0.0005609023815127043 0 -0.033030101207598125 0.00040303876425570574 0 -0.033179191190621016 0.00062733947978304444 0 -0.033226042009915684 0.00077333931707073073 0 -0.033854878051738473 0.00040119258093059755 0 -0.031443149124098853 -0.00093984076395412343 0 -0.033030101207598125 0.00040303876425570574 0 -0.033162202370533057 0.0005609023815127043 0 -0.033179191190621016 0.00062733947978304444 0 -0.033100145819564497 0.00045194154548249113 0 -0.033148410964985789 0.00047957720352448797 0 -0.033160444490478676 0.00051551550810114777 0 -0.033162656795369817 0.00044087764618238505 0 -0.033100145819564497 0.00045194154548249113 0 -0.033148410964985789 0.00047957720352448797 0 -0.033100145819564497 0.00045194154548249113 0 -0.033160444490478676 0.00051551550810114777 0 -0.033162202370533057 0.0005609023815127043 0 -0.033263237191391168 0.0004662295905573666 0 -0.033282830355223898 0.00052267493309287607 0 -0.033227438923488367 0.00050194469648176272 0 -0.033263237191391168 0.0004662295905573666 0 -0.033212348755334097 0.00044915835493269251 0 -0.033227438923488367 0.00050194469648176272 0 -0.033212348755334097 0.00044915835493269251 0 -0.033227438923488367 0.00050194469648176272 0 -0.033186496439192366 0.00048916791446060337 0 -0.033162656795369817 0.00044087764618238505 0 -0.033212348755334097 0.00044915835493269251 0 -0.033186496439192366 0.00048916791446060337 0 -0.033162656795369817 0.00044087764618238505 0 -0.033186496439192366 0.00048916791446060337 0 -0.033148410964985789 0.00047957720352448797 0 -0.033186496439192366 0.00048916791446060337 0 -0.033148410964985789 0.00047957720352448797 0 -0.033160444490478676 0.00051551550810114777 0 -0.033160444490478676 0.00051551550810114777 0 -0.033162202370533057 0.0005609023815127043 0 -0.033208874135333112 0.00054617232862798489 0 -0.033186496439192366 0.00048916791446060337 0 -0.033160444490478676 0.00051551550810114777 0 -0.033208874135333112 0.00054617232862798489 0 -0.033227438923488367 0.00050194469648176272 0 -0.033208874135333112 0.00054617232862798489 0 -0.033244163809616485 0.00053486831449012359 0 -0.033227438923488367 0.00050194469648176272 0 -0.033186496439192366 0.00048916791446060337 0 -0.033208874135333112 0.00054617232862798489 0 -0.033208874135333112 0.00054617232862798489 0 -0.033244163809616485 0.00053486831449012359 0 -0.033257674546487821 0.00056844250118320448 0 -0.033282830355223898 0.00052267493309287607 0 -0.033244163809616485 0.00053486831449012359 0 -0.033257674546487821 0.00056844250118320448 0 -0.033282830355223898 0.00052267493309287607 0 -0.033227438923488367 0.00050194469648176272 0 -0.033244163809616485 0.00053486831449012359 0 -0.033275380267961681 0.00061790298476858312 0 -0.033257674546487821 0.00056844250118320448 0 -0.033219169020360623 0.0005982815496400817 0 -0.033275380267961681 0.00061790298476858312 0 -0.033219169020360623 0.0005982815496400817 0 -0.033236021211004836 0.00064131584820616757 0 -0.033208874135333112 0.00054617232862798489 0 -0.033257674546487821 0.00056844250118320448 0 -0.033219169020360623 0.0005982815496400817 0 -0.033162202370533057 0.0005609023815127043 0 -0.033219169020360623 0.0005982815496400817 0 -0.033179191190621016 0.00062733947978304444 0 -0.033162202370533057 0.0005609023815127043 0 -0.033208874135333112 0.00054617232862798489 0 -0.033219169020360623 0.0005982815496400817 0 -0.033219169020360623 0.0005982815496400817 0 -0.033179191190621016 0.00062733947978304444 0 -0.033236021211004836 0.00064131584820616757 0 -0.033179191190621016 0.00062733947978304444 0 -0.033236021211004836 0.00064131584820616757 0 -0.033235200654159358 0.00069426769535431063 0 -0.033236021211004836 0.00064131584820616757 0 -0.033268569781681558 0.00066856983193531332 0 -0.033235200654159358 0.00069426769535431063 0 -0.033275380267961681 0.00061790298476858312 0 -0.033236021211004836 0.00064131584820616757 0 -0.033268569781681558 0.00066856983193531332 0 -0.033072607350276798 -0.00045096539467585553 0 -0.031443149124098853 -0.00093984076395412343 0 -0.033179191190621016 0.00062733947978304444 0 -0.033235200654159358 0.00069426769535431063 0 -0.033226042009915684 0.00077333931707073073 0 -0.033277820429220201 0.00070493499121102943 0 -0.033235200654159358 0.00069426769535431063 0 -0.033264834510466489 0.00072980464299627083 0 -0.033277820429220201 0.00070493499121102943 0 -0.033268569781681558 0.00066856983193531332 0 -0.033235200654159358 0.00069426769535431063 0 -0.033318574562024202 0.0007454598418130461 0 -0.033226042009915684 0.00077333931707073073 0 -0.033264834510466489 0.00072980464299627083 0 -0.033235200654159358 0.00069426769535431063 0 -0.033226042009915684 0.00077333931707073073 0 -0.033264834510466489 0.00072980464299627083 0 -0.026927159356998621 -0.0045096925427383951 0 -0.027522612922904595 -0.0038289729600043138 0 -0.027913690629234659 -0.0046423247798242934 0 -0.026783561114088639 -0.0046885642550531523 0 -0.027886403652733066 -0.0034022289405397652 0 -0.03289915648891252 -0.00050053670703040188 0 -0.031793082727953934 -0.0011491927007120956 0 -0.033446005404346509 -0.00088479845617938345 0 -0.031443149124098853 -0.00093984076395412343 0 -0.029410735592994439 -0.0031022477939248415 0 -0.027913690629234659 -0.0046423247798242934 0 -0.026783561114088639 -0.0046885642550531523 0 -0.025925004087219743 -0.0049421035185473828 0 -0.026783561114088639 -0.0046885642550531523 0 -0.026214944671447016 -0.0044426694945115999 0 -0.026655831704157661 -0.0039521930309725853 0 -0.026783561114088639 -0.0046885642550531523 0 -0.025925004087219743 -0.0049421035185473828 0 -0.026214944671447016 -0.0044426694945115999 0 -0.025623202390465036 -0.0044707950046361531 0 -0.025925004087219743 -0.0049421035185473828 0 -0.026214944671447016 -0.0044426694945115999 0 -0.025623202390465036 -0.0044707950046361531 0 -0.026214944671447016 -0.0044426694945115999 0 -0.02586340552335013 -0.0040422518865345664 0 -0.026214944671447016 -0.0044426694945115999 0 -0.02586340552335013 -0.0040422518865345664 0 -0.026655831704157661 -0.0039521930309725853 0 -0.02586340552335013 -0.0040422518865345664 0 -0.026192581726122335 -0.0034940864489872445 0 -0.026655831704157661 -0.0039521930309725853 0 -0.02586340552335013 -0.0040422518865345664 0 -0.026192581726122335 -0.0034940864489872445 0 -0.025396178437901599 -0.0035233528827184786 0 -0.026192581726122335 -0.0034940864489872445 0 -0.025732125767015984 -0.0027934272576304506 0 -0.025396178437901599 -0.0035233528827184786 0 -0.026192581726122335 -0.0034940864489872445 0 -0.026655831704157661 -0.0039521930309725853 0 -0.02691722833393323 -0.0031054103244208646 0 -0.027503616442191389 -0.0038587527690281784 0 -0.02691722833393323 -0.0031054103244208646 0 -0.028373670755952086 -0.0030107707910523931 0 -0.026783561114088639 -0.0046885642550531523 0 -0.026655831704157661 -0.0039521930309725853 0 -0.027503616442191389 -0.0038587527690281784 0 -0.026655831704157661 -0.0039521930309725853 0 -0.027503616442191389 -0.0038587527690281784 0 -0.02691722833393323 -0.0031054103244208646 0 -0.02691722833393323 -0.0031054103244208646 0 -0.027374684643242927 -0.0023300004108784194 0 -0.028373670755952086 -0.0030107707910523931 0 -0.02691722833393323 -0.0031054103244208646 0 -0.027374684643242927 -0.0023300004108784194 0 -0.02641459327033175 -0.0021666114359931484 0 -0.025732125767015984 -0.0027934272576304506 0 -0.02641459327033175 -0.0021666114359931484 0 -0.025310244276913647 -0.0020253817616500587 0 -0.026192581726122335 -0.0034940864489872445 0 -0.02691722833393323 -0.0031054103244208646 0 -0.025732125767015984 -0.0027934272576304506 0 -0.02691722833393323 -0.0031054103244208646 0 -0.025732125767015984 -0.0027934272576304506 0 -0.02641459327033175 -0.0021666114359931484 0 -0.033000883112313251 0.00062542195216692693 0 -0.032756177573319931 0.00092000098764122252 0 -0.033121986186864655 0.0009481225931237061 0 -0.033000883112313251 0.00062542195216692693 0 -0.033121986186864655 0.0009481225931237061 0 -0.033376763591083942 0.0010410377718846466 0 -0.032413252335509207 0.00026037837292682101 0 -0.033000883112313251 0.00062542195216692693 0 -0.032756177573319931 0.00092000098764122252 0 -0.027913690629234659 -0.0046423247798242934 0 -0.027886403652733066 -0.0034022289405397652 0 -0.029129178254733327 -0.0021187580852054591 0 -0.031443149124098853 -0.00093984076395412343 0 -0.029767110883474977 -0.0017633816851405949 0 -0.027522612922904595 -0.0038289729600043138 0 -0.029767110883474977 -0.0017633816851405949 0 -0.028373670755952086 -0.0030107707910523931 0 -0.028944968972421929 -0.0019513493071080577 0 -0.02814404703174252 -0.0021416924951614185 0 -0.029767110883474977 -0.0017633816851405949 0 -0.028951626723094551 -0.0022274724757727631 0 -0.027374684643242927 -0.0023300004108784194 0 -0.028373670755952086 -0.0030107707910523931 0 -0.02814404703174252 -0.0021416924951614185 0 -0.029767110883474977 -0.0017633816851405949 0 -0.031600509169722235 -0.0003274035584267832 0 -0.028762080492267215 -0.0029766358439834578 0 -0.02968719677172954 -0.0020633607058387457 0 -0.029202769563417334 -0.0020338679094602675 0 -0.032756177573319931 0.00092000098764122252 0 -0.033094887705556283 0.0010235646729089651 0 -0.033148416364185578 0.0010923125197247242 0 -0.032756177573319931 0.00092000098764122252 0 -0.033094887705556283 0.0010235646729089651 0 -0.033121986186864655 0.0009481225931237061 0 -0.033094887705556283 0.0010235646729089651 0 -0.033141986620843861 0.0010252956740365146 0 -0.033121986186864655 0.0009481225931237061 0 -0.033094887705556283 0.0010235646729089651 0 -0.033141986620843861 0.0010252956740365146 0 -0.03316798375939474 0.0010734363590837771 0 -0.028951626723094551 -0.0022274724757727631 0 -0.029626066866175693 -0.00085906111842308692 0 -0.02968719677172954 -0.0020633607058387457 0 -0.029202769563417334 -0.0020338679094602675 0 -0.029640374490523834 -0.00086184878336043676 0 -0.033094887705556283 0.0010235646729089651 0 -0.033148416364185578 0.0010923125197247242 0 -0.03316798375939474 0.0010734363590837771 0 -0.028944968972421929 -0.0019513493071080577 0 -0.028282006430658362 -0.001578797718563459 0 -0.028704776867798539 -0.0009524123159957243 0 -0.028944968972421929 -0.0019513493071080577 0 -0.02814404703174252 -0.0021416924951614185 0 -0.028282006430658362 -0.001578797718563459 0 -0.02814404703174252 -0.0021416924951614185 0 -0.028282006430658362 -0.001578797718563459 0 -0.027677459454469137 -0.0016874787296995738 0 -0.028282006430658362 -0.001578797718563459 0 -0.027677459454469137 -0.0016874787296995738 0 -0.027762097503762868 -0.001052243522682125 0 -0.028027668868433487 -0.00028658868159819222 0 -0.028704776867798539 -0.0009524123159957243 0 -0.029287973236613148 8.4481333890243341e-05 0 -0.028282006430658362 -0.001578797718563459 0 -0.028704776867798539 -0.0009524123159957243 0 -0.027762097503762868 -0.001052243522682125 0 -0.028027668868433487 -0.00028658868159819222 0 -0.028704776867798539 -0.0009524123159957243 0 -0.027762097503762868 -0.001052243522682125 0 -0.02968719677172954 -0.0020633607058387457 0 -0.029640374490523834 -0.00086184878336043676 0 -0.03089999531319252 -0.00096808341154356616 0 -0.028944968972421929 -0.0019513493071080577 0 -0.028704776867798539 -0.0009524123159957243 0 -0.029640374490523834 -0.00086184878336043676 0 -0.028704776867798539 -0.0009524123159957243 0 -0.029640374490523834 -0.00086184878336043676 0 -0.029287973236613148 8.4481333890243341e-05 0 -0.029640374490523834 -0.00086184878336043676 0 -0.030274512885838534 -0.0002543883783119353 0 -0.029287973236613148 8.4481333890243341e-05 0 -0.02641459327033175 -0.0021666114359931484 0 -0.026949768105798088 -0.001416072266456952 0 -0.025918464132744644 -0.00093888292808712542 0 -0.02641459327033175 -0.0021666114359931484 0 -0.025918464132744644 -0.00093888292808712542 0 -0.025310244276913647 -0.0020253817616500587 0 -0.027374684643242927 -0.0023300004108784194 0 -0.02641459327033175 -0.0021666114359931484 0 -0.026949768105798088 -0.001416072266456952 0 -0.027374684643242927 -0.0023300004108784194 0 -0.02814404703174252 -0.0021416924951614185 0 -0.027677459454469137 -0.0016874787296995738 0 -0.027374684643242927 -0.0023300004108784194 0 -0.027677459454469137 -0.0016874787296995738 0 -0.026949768105798088 -0.001416072266456952 0 -0.027677459454469137 -0.0016874787296995738 0 -0.026949768105798088 -0.001416072266456952 0 -0.027762097503762868 -0.001052243522682125 0 -0.026949768105798088 -0.001416072266456952 0 -0.027762097503762868 -0.001052243522682125 0 -0.026964116536336385 -0.0003743173578718637 0 -0.028027668868433487 -0.00028658868159819222 0 -0.027762097503762868 -0.001052243522682125 0 -0.026964116536336385 -0.0003743173578718637 0 -0.026964116536336385 -0.0003743173578718637 0 -0.025918464132744644 -0.00093888292808712542 0 -0.026168577195579339 0.00048543240378147581 0 -0.026949768105798088 -0.001416072266456952 0 -0.026964116536336385 -0.0003743173578718637 0 -0.025918464132744644 -0.00093888292808712542 0 -0.025918464132744644 -0.00093888292808712542 0 -0.024459503310171483 -0.00083931077513555742 0 -0.025112727977470814 0.0006905454973361809 0 -0.026481491179504626 4.336322415080297e-06 0 -0.028628159715941074 -2.3292285041234124e-07 0 -0.024035828518304998 6.6427957679111433e-07 0 -0.025310244276913647 -0.0020253817616500587 0 -0.024459503310171483 -0.00083931077513555742 0 -0.024527812115994311 -0.0022556863882649738 0 -0.025918464132744644 -0.00093888292808712542 0 -0.025310244276913647 -0.0020253817616500587 0 -0.024459503310171483 -0.00083931077513555742 0 -0.023784263158492042 -0.0019248171401301133 0 -0.024459503310171483 -0.00083931077513555742 0 -0.024527812115994311 -0.0022556863882649738 0 -0.023784263158492042 -0.0019248171401301133 0 -0.024459503310171483 -0.00083931077513555742 0 -0.023182600263412716 -0.0011619607378334502 0 -0.024459503310171483 -0.00083931077513555742 0 -0.023182600263412716 -0.0011619607378334502 0 -0.023351495421048033 3.5106089374948108e-05 0 -0.023182600263412716 -0.0011619607378334502 0 -0.022186078704859048 -0.00027573501157807952 0 -0.022456392630679691 -0.0019691749199471317 0 -0.026481491179504626 4.336322415080297e-06 0 -0.028389843728745701 3.0338723503448345e-07 0 -0.028628159715941074 -2.3292285041234124e-07 0 -0.023182600263412716 -0.0011619607378334502 0 -0.022186078704859048 -0.00027573501157807952 0 -0.023351495421048033 3.5106089374948108e-05 0 -0.024351580417233686 -0.00023631963291082732 0 -0.025474396637757447 -0.00099237791278755931 0 -0.023182600263412716 -0.0011619607378334502 0 -0.022456392630679691 -0.0019691749199471317 0 -0.023217386052199342 -0.0023471440094171834 0 -0.023784263158492042 -0.0019248171401301133 0 -0.023182600263412716 -0.0011619607378334502 0 -0.023217386052199342 -0.0023471440094171834 0 -0.022456392630679691 -0.0019691749199471317 0 -0.023217386052199342 -0.0023471440094171834 0 -0.022775848009684505 -0.0036770351000025995 0 -0.032202745226984471 2.1480885445312683e-05 0 -0.028628159715941074 -2.3292285041234124e-07 0 -0.030122849642298794 -0.00010315242769938263 0 -0.023217386052199342 -0.0023471440094171834 0 -0.022775848009684505 -0.0036770351000025995 0 -0.023892712536766583 -0.0029977365314974354 0 -0.028389843728745701 3.0338723503448345e-07 0 -0.028628159715941074 -2.3292285041234124e-07 0 -0.030122849642298794 -0.00010315242769938263 0 -0.025474396637757447 -0.00099237791278755931 0 -0.026028705491738635 -0.0023017548828423505 0 -0.023700059522499223 -0.0046755414114561028 0 -0.022775848009684505 -0.0036770351000025995 0 -0.023802449615637523 -0.0039487264590859494 0 -0.022775848009684505 -0.0036770351000025995 0 -0.023802449615637523 -0.0039487264590859494 0 -0.023892712536766583 -0.0029977365314974354 0 -0.023802449615637523 -0.0039487264590859494 0 -0.024493654043777562 -0.0036808896162223298 0 -0.023892712536766583 -0.0029977365314974354 0 -0.024493654043777562 -0.0036808896162223298 0 -0.024785990213178094 -0.0030341133436967847 0 -0.023892712536766583 -0.0029977365314974354 0 -0.025090508200059935 -0.0042035074609387685 0 -0.024409394551378961 -0.0044029961260112441 0 -0.024493654043777562 -0.0036808896162223298 0 -0.024409394551378961 -0.0044029961260112441 0 -0.023802449615637523 -0.0039487264590859494 0 -0.024493654043777562 -0.0036808896162223298 0 -0.025090508200059935 -0.0042035074609387685 0 -0.024493654043777562 -0.0036808896162223298 0 -0.025396178437901599 -0.0035233528827184786 0 -0.025090508200059935 -0.0042035074609387685 0 -0.02586340552335013 -0.0040422518865345664 0 -0.025396178437901599 -0.0035233528827184786 0 -0.024493654043777562 -0.0036808896162223298 0 -0.025396178437901599 -0.0035233528827184786 0 -0.024785990213178094 -0.0030341133436967847 0 -0.025732125767015984 -0.0027934272576304506 0 -0.025310244276913647 -0.0020253817616500587 0 -0.024785990213178094 -0.0030341133436967847 0 -0.025310244276913647 -0.0020253817616500587 0 -0.024785990213178094 -0.0030341133436967847 0 -0.024527812115994311 -0.0022556863882649738 0 -0.025732125767015984 -0.0027934272576304506 0 -0.025396178437901599 -0.0035233528827184786 0 -0.024785990213178094 -0.0030341133436967847 0 -0.023784263158492042 -0.0019248171401301133 0 -0.024527812115994311 -0.0022556863882649738 0 -0.023892712536766583 -0.0029977365314974354 0 -0.023784263158492042 -0.0019248171401301133 0 -0.023217386052199342 -0.0023471440094171834 0 -0.023892712536766583 -0.0029977365314974354 0 -0.024785990213178094 -0.0030341133436967847 0 -0.024527812115994311 -0.0022556863882649738 0 -0.023892712536766583 -0.0029977365314974354 0 -0.034948700242794006 0.00038922570785778323 0 -0.034783600480673339 0.00034011705902260811 0 -0.034921995579084791 0.0005184648805886344 0 -0.034948700242794006 0.00038922570785778323 0 -0.034783600480673339 0.00034011705902260811 0 -0.034859988841464511 0.00022835241186117475 0 -0.034948700242794006 0.00038922570785778323 0 -0.034859988841464511 0.00022835241186117475 0 -0.034947497391421369 0.00018280743221939 0 -0.035021066994680099 0.00063459911157419076 0 -0.035035039702463529 0.00039382786637905023 0 -0.035070372390842201 0.00035419305310868795 0 -0.034901193227877048 0.00048825220404571061 0 -0.034970064062859289 0.00020688476533672656 0 -0.034783600480673339 0.00034011705902260811 0 -0.034770724150442023 0.00014270545024475437 0 -0.034859988841464511 0.00022835241186117475 0 -0.035021066994680099 0.00063459911157419076 0 -0.035035039702463529 0.00039382786637905023 0 -0.034926355915068333 0.00054681700596952024 0 -0.034770724150442023 0.00014270545024475437 0 -0.034859988841464511 0.00022835241186117475 0 -0.034886501057343852 0.00012738627642728604 0 -0.035035039702463529 0.00039382786637905023 0 -0.035085182390891298 0.00033829766094156042 0 -0.035015333996742719 0.00029265313686214941 0 -0.034965553278358381 0.00026135693540420897 0 -0.034970064062859289 0.00020688476533672656 0 -0.034859988841464511 0.00022835241186117475 0 -0.034947497391421369 0.00018280743221939 0 -0.034886501057343852 0.00012738627642728604 0 -0.034882682131469743 5.1283495606000606e-05 0 -0.034886501057343852 0.00012738627642728604 0 -0.034982881799149088 6.0180499142323912e-05 0 -0.034947497391421369 0.00018280743221939 0 -0.034886501057343852 0.00012738627642728604 0 -0.034982881799149088 6.0180499142323912e-05 0 -0.035000986876872059 3.2370808062910307e-06 0 -0.035000001945378195 2.7505864871157005e-10 0 -0.035000001236283627 8.1540692440965891e-10 0 -0.034882682131469743 5.1283495606000606e-05 0 -0.034999783919088326 1.8441667734256702e-09 0 -0.034982881799149088 6.0180499142323912e-05 0 -0.034941386917981106 2.1005136619360135e-05 0 -0.034999966261318169 2.0498270953167346e-08 0 -0.035000986876872059 3.2370808062910307e-06 0 -0.035000001236283627 8.1540692440965891e-10 0 -0.034998012395384533 3.5112132237401227e-06 0 -0.035000001236283627 8.1540692440965891e-10 0 -0.034998012395384533 3.5112132237401227e-06 0 -0.034999994777419122 1.6856929903684702e-09 0 -0.034970064062859289 0.00020688476533672656 0 -0.034941386917981106 2.1005136619360135e-05 0 -0.034970064062859289 0.00020688476533672656 0 -0.035023407649568981 6.9466918575439537e-05 0 -0.034770724150442023 0.00014270545024475437 0 -0.034882682131469743 5.1283495606000606e-05 0 -0.034886501057343852 0.00012738627642728604 0 -0.035085182390891298 0.00033829766094156042 0 -0.0350602091447322 0.00013262538886527121 0 -0.035015333996742719 0.00029265313686214941 0 -0.034998403656631413 1.0228169246698492e-05 0 -0.035000986876872059 3.2370808062910307e-06 0 -0.034998012395384533 3.5112132237401227e-06 0 -0.035015333996742719 0.00029265313686214941 0 -0.034958448801071046 0.0002354666153254497 0 -0.034937282553782222 0.00037752684310865477 0 -0.034958448801071046 0.0002354666153254497 0 -0.034855372276776285 0.00029976763508017252 0 -0.034937282553782222 0.00037752684310865477 0 -0.034958448801071046 0.0002354666153254497 0 -0.034984765311519693 7.0108168004062255e-05 0 -0.034915235624676216 0.00012121273468854046 0 -0.034958448801071046 0.0002354666153254497 0 -0.034915235624676216 0.00012121273468854046 0 -0.034855372276776285 0.00029976763508017252 0 -0.0350602091447322 0.00013262538886527121 0 -0.035015333996742719 0.00029265313686214941 0 -0.034958448801071046 0.0002354666153254497 0 -0.0350602091447322 0.00013262538886527121 0 -0.034958448801071046 0.0002354666153254497 0 -0.034984765311519693 7.0108168004062255e-05 0 -0.035000052188845852 -5.4975288762561736e-11 0 -0.034984765311519693 7.0108168004062255e-05 0 -0.035000032350319961 1.0322089105429082e-07 0 -0.035023407649568981 6.9466918575439537e-05 0 -0.035000013680070392 2.6858328076991923e-08 0 -0.0350602091447322 0.00013262538886527121 0 -0.035000052188845852 -5.4975288762561736e-11 0 -0.034984765311519693 7.0108168004062255e-05 0 -0.035000032350319961 1.0322089105429082e-07 0 -0.034898941839166711 6.1663195311836212e-05 0 -0.034999220991280514 -2.3338595808066046e-07 0 -0.034984765311519693 7.0108168004062255e-05 0 -0.035000032350319961 1.0322089105429082e-07 0 -0.034915235624676216 0.00012121273468854046 0 -0.035000032350319961 1.0322089105429082e-07 0 -0.034915235624676216 0.00012121273468854046 0 -0.034898941839166711 6.1663195311836212e-05 0 -0.034915235624676216 0.00012121273468854046 0 -0.034898941839166711 6.1663195311836212e-05 0 -0.034806415964893221 0.00017619776900754984 0 -0.034915235624676216 0.00012121273468854046 0 -0.034806415964893221 0.00017619776900754984 0 -0.034855372276776285 0.00029976763508017252 0 -0.034806415964893221 0.00017619776900754984 0 -0.03474049730830394 0.00030395072888258053 0 -0.034661051872070012 0.00026460209430028119 0 -0.034806415964893221 0.00017619776900754984 0 -0.034855372276776285 0.00029976763508017252 0 -0.03474049730830394 0.00030395072888258053 0 -0.03474049730830394 0.00030395072888258053 0 -0.034752025825741953 0.00039803407250327429 0 -0.034608075556946942 0.00039827258979465395 0 -0.034855372276776285 0.00029976763508017252 0 -0.03474049730830394 0.00030395072888258053 0 -0.034752025825741953 0.00039803407250327429 0 -0.034752025825741953 0.00039803407250327429 0 -0.034665919716625637 0.00052090849602833477 0 -0.034608075556946942 0.00039827258979465395 0 -0.034752025825741953 0.00039803407250327429 0 -0.034665919716625637 0.00052090849602833477 0 -0.034834829613214734 0.00046450714444438838 0 -0.034855372276776285 0.00029976763508017252 0 -0.034752025825741953 0.00039803407250327429 0 -0.034834829613214734 0.00046450714444438838 0 -0.034855372276776285 0.00029976763508017252 0 -0.034834829613214734 0.00046450714444438838 0 -0.034937282553782222 0.00037752684310865477 0 -0.035035039702463529 0.00039382786637905023 0 -0.035015333996742719 0.00029265313686214941 0 -0.034937282553782222 0.00037752684310865477 0 -0.035035039702463529 0.00039382786637905023 0 -0.034937282553782222 0.00037752684310865477 0 -0.034926355915068333 0.00054681700596952024 0 -0.034834829613214734 0.00046450714444438838 0 -0.034937282553782222 0.00037752684310865477 0 -0.034926355915068333 0.00054681700596952024 0 -0.035021066994680099 0.00063459911157419076 0 -0.034926355915068333 0.00054681700596952024 0 -0.034895652819050861 0.00069184951189248231 0 -0.034834829613214734 0.00046450714444438838 0 -0.034926355915068333 0.00054681700596952024 0 -0.034789204950822418 0.00063803309277716083 0 -0.034926355915068333 0.00054681700596952024 0 -0.034895652819050861 0.00069184951189248231 0 -0.034789204950822418 0.00063803309277716083 0 -0.034895652819050861 0.00069184951189248231 0 -0.034789204950822418 0.00063803309277716083 0 -0.034775381975291161 0.00079996482548518597 0 -0.034665919716625637 0.00052090849602833477 0 -0.034789204950822418 0.00063803309277716083 0 -0.034547425288392941 0.00078479555692387195 0 -0.034665919716625637 0.00052090849602833477 0 -0.034834829613214734 0.00046450714444438838 0 -0.034789204950822418 0.00063803309277716083 0 -0.034665919716625637 0.00052090849602833477 0 -0.03441240437374609 0.00057151825453356352 0 -0.034547425288392941 0.00078479555692387195 0 -0.03441240437374609 0.00057151825453356352 0 -0.034135563367976796 0.00076460993264146793 0 -0.034547425288392941 0.00078479555692387195 0 -0.03441240437374609 0.00057151825453356352 0 -0.034135563367976796 0.00076460993264146793 0 -0.034100547286102408 0.00055337390475223246 0 -0.034135563367976796 0.00076460993264146793 0 -0.034100547286102408 0.00055337390475223246 0 -0.033839285900782674 0.00074284485652378223 0 -0.034100547286102408 0.00055337390475223246 0 -0.034408564093344238 0.0003379938567452028 0 -0.033890603584806105 0.0003486791831957393 0 -0.03441240437374609 0.00057151825453356352 0 -0.034100547286102408 0.00055337390475223246 0 -0.034408564093344238 0.0003379938567452028 0 -0.03441240437374609 0.00057151825453356352 0 -0.034608075556946942 0.00039827258979465395 0 -0.034408564093344238 0.0003379938567452028 0 -0.034665919716625637 0.00052090849602833477 0 -0.03441240437374609 0.00057151825453356352 0 -0.034608075556946942 0.00039827258979465395 0 -0.034701303482954603 0.00013034116052809143 0 -0.034344245999832809 5.7158418147873569e-05 0 -0.034408564093344238 0.0003379938567452028 0 -0.03474049730830394 0.00030395072888258053 0 -0.034608075556946942 0.00039827258979465395 0 -0.034661051872070012 0.00026460209430028119 0 -0.034608075556946942 0.00039827258979465395 0 -0.034661051872070012 0.00026460209430028119 0 -0.034408564093344238 0.0003379938567452028 0 -0.034661051872070012 0.00026460209430028119 0 -0.034701303482954603 0.00013034116052809143 0 -0.034408564093344238 0.0003379938567452028 0 -0.034806415964893221 0.00017619776900754984 0 -0.034661051872070012 0.00026460209430028119 0 -0.034701303482954603 0.00013034116052809143 0 -0.034701303482954603 0.00013034116052809143 0 -0.034999220991280514 -2.3338595808066046e-07 0 -0.034344245999832809 5.7158418147873569e-05 0 -0.03499995450792355 -1.1159358893206935e-07 0 -0.035000267978741277 1.9325014824924579e-07 0 -0.035022884909163263 0.00012738888794106259 0 -0.034898941839166711 6.1663195311836212e-05 0 -0.034806415964893221 0.00017619776900754984 0 -0.034701303482954603 0.00013034116052809143 0 -0.034898941839166711 6.1663195311836212e-05 0 -0.034701303482954603 0.00013034116052809143 0 -0.034999220991280514 -2.3338595808066046e-07 0 -0.034999849827375688 4.4959708305103246e-08 0 -0.03466709598111542 0.00012088704522654695 0 -0.035000267978741277 1.9325014824924579e-07 0 -0.034865290117457357 9.6253043712012364e-05 0 -0.034999033087157079 -4.7311512591978417e-07 0 -0.035000267978741277 1.9325014824924579e-07 0 -0.035022884909163263 0.00012738888794106259 0 -0.034865290117457357 9.6253043712012364e-05 0 -0.034344245999832809 5.7158418147873569e-05 0 -0.034408564093344238 0.0003379938567452028 0 -0.033890603584806105 0.0003486791831957393 0 -0.034581026104568972 0.00049266917381219711 0 -0.034865290117457357 9.6253043712012364e-05 0 -0.034537202932810721 0.00012034541661452172 0 -0.03466709598111542 0.00012088704522654695 0 -0.034236661912666375 0.00040588929500342608 0 -0.035022884909163263 0.00012738888794106259 0 -0.034581026104568972 0.00049266917381219711 0 -0.034865290117457357 9.6253043712012364e-05 0 -0.034581026104568972 0.00049266917381219711 0 -0.034537202932810721 0.00012034541661452172 0 -0.034121625900587413 0.00035848859524775551 0 -0.034999590339167497 7.2176081145283488e-08 0 -0.035000386407068096 -6.9233027143079827e-08 0 -0.0349389817309489 2.4714266848438817e-05 0 -0.034865290117457357 9.6253043712012364e-05 0 -0.034537202932810721 0.00012034541661452172 0 -0.034999033087157079 -4.7311512591978417e-07 0 -0.034999734622496191 -9.3470210049236222e-08 0 -0.035000000800494688 4.6332330045593087e-10 0 -0.034999998097984812 -8.7024763511108548e-10 0 -0.034900522315784513 1.4696070814804774e-05 0 -0.034999590339167497 7.2176081145283488e-08 0 -0.0349389817309489 2.4714266848438817e-05 0 -0.034944756032038657 9.7967372049358965e-06 0 -0.03499740375329552 -1.2396643787761449e-06 0 -0.034999793179604687 -1.8924411586691395e-08 0 -0.034458264695430847 7.914176091792629e-06 0 -0.034537202932810721 0.00012034541661452172 0 -0.034999033087157079 -4.7311512591978417e-07 0 -0.033976178193858279 -5.8030475491984259e-05 0 -0.034537202932810721 0.00012034541661452172 0 -0.033976178193858279 -5.8030475491984259e-05 0 -0.034168185090868032 0.00016147245769452913 0 -0.033976178193858279 -5.8030475491984259e-05 0 -0.033973570396101736 0.00023422484765048791 0 -0.034168185090868032 0.00016147245769452913 0 -0.033782862828528902 0.00023899801448150411 0 -0.033976178193858279 -5.8030475491984259e-05 0 -0.033973570396101736 0.00023422484765048791 0 -0.033973570396101736 0.00023422484765048791 0 -0.034168185090868032 0.00016147245769452913 0 -0.034121625900587413 0.00035848859524775551 0 -0.034537202932810721 0.00012034541661452172 0 -0.034168185090868032 0.00016147245769452913 0 -0.034121625900587413 0.00035848859524775551 0 -0.033767578971518435 0.0004410308119835142 0 -0.033973570396101736 0.00023422484765048791 0 -0.034121625900587413 0.00035848859524775551 0 -0.033890603584806105 0.0003486791831957393 0 -0.033748288467816273 0.0006876783840880224 0 -0.033815270512356138 0.00063259589732397089 0 -0.034581026104568972 0.00049266917381219711 0 -0.034121625900587413 0.00035848859524775551 0 -0.033748288467816273 0.0006876783840880224 0 -0.033767578971518435 0.0004410308119835142 0 -0.034121625900587413 0.00035848859524775551 0 -0.033748288467816273 0.0006876783840880224 0 -0.034236661912666375 0.00040588929500342608 0 -0.033819673812239902 0.00066005287323097326 0 -0.034100547286102408 0.00055337390475223246 0 -0.033890603584806105 0.0003486791831957393 0 -0.033815270512356138 0.00063259589732397089 0 -0.033815270512356138 0.00063259589732397089 0 -0.033839285900782674 0.00074284485652378223 0 -0.033617330052998357 0.00080557957190778736 0 -0.034100547286102408 0.00055337390475223246 0 -0.033815270512356138 0.00063259589732397089 0 -0.033839285900782674 0.00074284485652378223 0 -0.033572085856708428 0.00077760989936049782 0 -0.033748288467816273 0.0006876783840880224 0 -0.033617330052998357 0.00080557957190778736 0 -0.033748288467816273 0.0006876783840880224 0 -0.033815270512356138 0.00063259589732397089 0 -0.033617330052998357 0.00080557957190778736 0 -0.033595624367971852 0.0010660300769089579 0 -0.033228029655485922 0.00089308881804902685 0 -0.033508129005616699 0.00089516093781246016 0 -0.033617330052998357 0.00080557957190778736 0 -0.03349044664659015 0.00094532236470612084 0 -0.033508129005616699 0.00089516093781246016 0 -0.03349044664659015 0.00094532236470612084 0 -0.033376763591083942 0.0010410377718846466 0 -0.03349044664659015 0.00094532236470612084 0 -0.033450955122223798 0.0010286543989614413 0 -0.033376763591083942 0.0010410377718846466 0 -0.033617330052998357 0.00080557957190778736 0 -0.03349044664659015 0.00094532236470612084 0 -0.033671848491515902 0.00091607663621351811 0 -0.033839285900782674 0.00074284485652378223 0 -0.033617330052998357 0.00080557957190778736 0 -0.033671848491515902 0.00091607663621351811 0 -0.034135563367976796 0.00076460993264146793 0 -0.033839285900782674 0.00074284485652378223 0 -0.033671848491515902 0.00091607663621351811 0 -0.033671848491515902 0.00091607663621351811 0 -0.033450955122223798 0.0010286543989614413 0 -0.03331752421771661 0.0011985465056419992 0 -0.03349044664659015 0.00094532236470612084 0 -0.033671848491515902 0.00091607663621351811 0 -0.033450955122223798 0.0010286543989614413 0 -0.033671848491515902 0.00091607663621351811 0 -0.03331752421771661 0.0011985465056419992 0 -0.034219799689693763 0.0011818947592287829 0 -0.033450955122223798 0.0010286543989614413 0 -0.03331752421771661 0.0011985465056419992 0 -0.033376763591083942 0.0010410377718846466 0 -0.03331752421771661 0.0011985465056419992 0 -0.033247511053415391 0.0011101618953898232 0 -0.033376763591083942 0.0010410377718846466 0 -0.03331752421771661 0.0011985465056419992 0 -0.032997859702075291 0.0010245275527878545 0 -0.032688657899992049 0.0010489010863246702 0 -0.03331752421771661 0.0011985465056419992 0 -0.033247511053415391 0.0011101618953898232 0 -0.032997859702075291 0.0010245275527878545 0 -0.033247511053415391 0.0011101618953898232 0 -0.033242698113816228 0.001072881557474726 0 -0.033134305792790322 0.0010434277279991176 0 -0.033247511053415391 0.0011101618953898232 0 -0.033376763591083942 0.0010410377718846466 0 -0.033242698113816228 0.001072881557474726 0 -0.033121986186864655 0.0009481225931237061 0 -0.033376763591083942 0.0010410377718846466 0 -0.033242698113816228 0.001072881557474726 0 -0.033141986620843861 0.0010252956740365146 0 -0.033121986186864655 0.0009481225931237061 0 -0.033242698113816228 0.001072881557474726 0 -0.033141986620843861 0.0010252956740365146 0 -0.033242698113816228 0.001072881557474726 0 -0.03316798375939474 0.0010734363590837771 0 -0.033134305792790322 0.0010434277279991176 0 -0.033095991406881638 0.00081482473083330654 0 -0.03289531842521113 0.00092171421696276613 0 -0.031600509169722235 -0.0003274035584267832 0 -0.031947410496725157 -7.7974454412985426e-05 0 -0.033242698113816228 0.001072881557474726 0 -0.03316798375939474 0.0010734363590837771 0 -0.033134305792790322 0.0010434277279991176 0 -0.03316798375939474 0.0010734363590837771 0 -0.033134305792790322 0.0010434277279991176 0 -0.033095991406881638 0.00081482473083330654 0 -0.033148416364185578 0.0010923125197247242 0 -0.03316798375939474 0.0010734363590837771 0 -0.033095991406881638 0.00081482473083330654 0 -0.029640374490523834 -0.00086184878336043676 0 -0.03089999531319252 -0.00096808341154356616 0 -0.030274512885838534 -0.0002543883783119353 0 -0.03089999531319252 -0.00096808341154356616 0 -0.030274512885838534 -0.0002543883783119353 0 -0.03103789428903771 0.00021811892979898656 0 -0.032665414652385108 0.00075819841262084414 0 -0.032609593926163256 0.00088242317030953808 0 -0.032429471881685629 0.00067658992613145463 0 -0.031947410496725157 -7.7974454412985426e-05 0 -0.032369483870602907 0.00046512221314212764 0 -0.033095991406881638 0.00081482473083330654 0 -0.032665414652385108 0.00075819841262084414 0 -0.032342897845312295 0.00048911204268267477 0 -0.032665414652385108 0.00075819841262084414 0 -0.032429471881685629 0.00067658992613145463 0 -0.032342897845312295 0.00048911204268267477 0 -0.033095991406881638 0.00081482473083330654 0 -0.032665414652385108 0.00075819841262084414 0 -0.03289531842521113 0.00092171421696276613 0 -0.032665414652385108 0.00075819841262084414 0 -0.03289531842521113 0.00092171421696276613 0 -0.032609593926163256 0.00088242317030953808 0 -0.03289531842521113 0.00092171421696276613 0 -0.032997859702075291 0.0010245275527878545 0 -0.032609593926163256 0.00088242317030953808 0 -0.033247511053415391 0.0011101618953898232 0 -0.033134305792790322 0.0010434277279991176 0 -0.032997859702075291 0.0010245275527878545 0 -0.033134305792790322 0.0010434277279991176 0 -0.03289531842521113 0.00092171421696276613 0 -0.032997859702075291 0.0010245275527878545 0 -0.032997859702075291 0.0010245275527878545 0 -0.032688657899992049 0.0010489010863246702 0 -0.032609593926163256 0.00088242317030953808 0 -0.032609593926163256 0.00088242317030953808 0 -0.032377648629931727 0.00080838506817211195 0 -0.032270770512609473 0.00098721139460452396 0 -0.032688657899992049 0.0010489010863246702 0 -0.032609593926163256 0.00088242317030953808 0 -0.032270770512609473 0.00098721139460452396 0 -0.032609593926163256 0.00088242317030953808 0 -0.032377648629931727 0.00080838506817211195 0 -0.032429471881685629 0.00067658992613145463 0 -0.032377648629931727 0.00080838506817211195 0 -0.032429471881685629 0.00067658992613145463 0 -0.032334741203652644 0.00075337922403393147 0 -0.032377648629931727 0.00080838506817211195 0 -0.032149166634737478 0.00084225301195526756 0 -0.032334741203652644 0.00075337922403393147 0 -0.032377648629931727 0.00080838506817211195 0 -0.032270770512609473 0.00098721139460452396 0 -0.032149166634737478 0.00084225301195526756 0 -0.033321138695927781 0.0012189298163115209 0 -0.033365265797868665 0.0010766981770377647 0 -0.032270770512609473 0.00098721139460452396 0 -0.032416231328739595 0.0012957833689689398 0 -0.032055147450331882 0.0011532118510550473 0 -0.033314601649542988 0.001210576857031388 0 -0.033321138695927781 0.0012189298163115209 0 -0.03331752421771661 0.0011985465056419992 0 -0.032688657899992049 0.0010489010863246702 0 -0.032416231328739595 0.0012957833689689398 0 -0.032688657899992049 0.0010489010863246702 0 -0.032270770512609473 0.00098721139460452396 0 -0.032416231328739595 0.0012957833689689398 0 -0.034135563367976796 0.00076460993264146793 0 -0.033671848491515902 0.00091607663621351811 0 -0.034219799689693763 0.0011818947592287829 0 -0.034135563367976796 0.00076460993264146793 0 -0.034219799689693763 0.0011818947592287829 0 -0.034547425288392941 0.00078479555692387195 0 -0.034219799689693763 0.0011818947592287829 0 -0.034547425288392941 0.00078479555692387195 0 -0.034696792804631608 0.0010025685498394308 0 -0.034789204950822418 0.00063803309277716083 0 -0.034547425288392941 0.00078479555692387195 0 -0.034775381975291161 0.00079996482548518597 0 -0.034547425288392941 0.00078479555692387195 0 -0.034775381975291161 0.00079996482548518597 0 -0.034696792804631608 0.0010025685498394308 0 -0.034895652819050861 0.00069184951189248231 0 -0.034775381975291161 0.00079996482548518597 0 -0.034913863521511893 0.0007717677413438301 0 -0.034775381975291161 0.00079996482548518597 0 -0.034696792804631608 0.0010025685498394308 0 -0.034913863521511893 0.0007717677413438301 0 -0.033365265797868665 0.0010766981770377647 0 -0.033480292402448389 0.00086414521780377607 0 -0.032055147450331882 0.0011532118510550473 0 -0.031933695064977598 0.00099734602464111974 0 -0.031961100469698703 0.00096934199901959792 0 -0.032270770512609473 0.00098721139460452396 0 -0.032055147450331882 0.0011532118510550473 0 -0.031991322611030951 0.0009784375893728001 0 -0.032270770512609473 0.00098721139460452396 0 -0.032149166634737478 0.00084225301195526756 0 -0.031991322611030951 0.0009784375893728001 0 -0.032149166634737478 0.00084225301195526756 0 -0.031991322611030951 0.0009784375893728001 0 -0.031872717038981556 0.00087348740196287525 0 -0.031991322611030951 0.0009784375893728001 0 -0.031881535216141614 0.0010386600873620538 0 -0.031872717038981556 0.00087348740196287525 0 -0.031991322611030951 0.0009784375893728001 0 -0.031933695064977598 0.00099734602464111974 0 -0.031881535216141614 0.0010386600873620538 0 -0.032055147450331882 0.0011532118510550473 0 -0.031991322611030951 0.0009784375893728001 0 -0.031933695064977598 0.00099734602464111974 0 -0.031933695064977598 0.00099734602464111974 0 -0.032045347710944527 0.00095566941473111298 0 -0.032029680575818384 0.00092587884966411585 0 -0.031933695064977598 0.00099734602464111974 0 -0.031881535216141614 0.0010386600873620538 0 -0.032045347710944527 0.00095566941473111298 0 -0.031881535216141614 0.0010386600873620538 0 -0.03227444761328583 0.0010746555326362909 0 -0.032270584632411475 0.0012709291171982171 0 -0.03186845733286519 0.0010309122669226157 0 -0.031878326279964904 0.0010466487932923965 0 -0.03227444761328583 0.0010746555326362909 0 -0.032045347710944527 0.00095566941473111298 0 -0.032279077637693269 0.00093448309242258006 0 -0.031881535216141614 0.0010386600873620538 0 -0.03227444761328583 0.0010746555326362909 0 -0.032045347710944527 0.00095566941473111298 0 -0.032045347710944527 0.00095566941473111298 0 -0.032138188404595015 0.00088924199513732316 0 -0.032279077637693269 0.00093448309242258006 0 -0.032138188404595015 0.00088924199513732316 0 -0.032140827959106416 0.00079650256447714963 0 -0.032248620348898194 0.00083806670462290977 0 -0.032140827959106416 0.00079650256447714963 0 -0.03216454617104729 0.00075733855775598656 0 -0.031961100469698703 0.00096934199901959792 0 -0.034937204507844252 0.00059796157187447794 0 -0.034923057916399033 0.00067204894164782554 0 -0.034913863521511893 0.0007717677413438301 0 -0.032138188404595015 0.00088924199513732316 0 -0.032248620348898194 0.00083806670462290977 0 -0.032279077637693269 0.00093448309242258006 0 -0.032140827959106416 0.00079650256447714963 0 -0.032192691161804045 0.0007414165468767256 0 -0.032248620348898194 0.00083806670462290977 0 -0.033019453122319964 0.0009105519437751919 0 -0.033364675636307781 0.00074260376019474558 0 -0.032045347710944527 0.00095566941473111298 0 -0.032138188404595015 0.00088924199513732316 0 -0.032029680575818384 0.00092587884966411585 0 -0.032138188404595015 0.00088924199513732316 0 -0.032140827959106416 0.00079650256447714963 0 -0.032029680575818384 0.00092587884966411585 0 -0.032140827959106416 0.00079650256447714963 0 -0.032029680575818384 0.00092587884966411585 0 -0.031961100469698703 0.00096934199901959792 0 -0.033364675636307781 0.00074260376019474558 0 -0.033480292402448389 0.00086414521780377607 0 -0.031933695064977598 0.00099734602464111974 0 -0.032029680575818384 0.00092587884966411585 0 -0.031961100469698703 0.00096934199901959792 0 -0.035021066994680099 0.00063459911157419076 0 -0.034923057916399033 0.00067204894164782554 0 -0.034913863521511893 0.0007717677413438301 0 -0.034901193227877048 0.00048825220404571061 0 -0.034922690574424597 0.00064908356663221235 0 -0.035021066994680099 0.00063459911157419076 0 -0.034895652819050861 0.00069184951189248231 0 -0.034913863521511893 0.0007717677413438301 0 -0.034783600480673339 0.00034011705902260811 0 -0.034923057916399033 0.00067204894164782554 0 -0.034921995579084791 0.0005184648805886344 0 -0.034948700242794006 0.00038922570785778323 0 -0.034937204507844252 0.00059796157187447794 0 -0.034921995579084791 0.0005184648805886344 0 -0.034937204507844252 0.00059796157187447794 0 -0.034923057916399033 0.00067204894164782554 0 -0.034921995579084791 0.0005184648805886344 0 -0.031361245729463666 0.00078392637041106836 0 -0.031415199160091237 0.00071238836624389296 0 -0.031386140861295882 0.00075896054706383372 0 -0.031291362412823105 0.00077428679048366443 0 -0.031415199160091237 0.00071238836624389296 0 -0.031337799796943545 0.00070721111732282833 0 -0.031361245729463666 0.00078392637041106836 0 -0.031291362412823105 0.00077428679048366443 0 -0.031415199160091237 0.00071238836624389296 0 -0.031415199160091237 0.00071238836624389296 0 -0.031562457482977042 0.00064086772982372504 0 -0.031337799796943545 0.00070721111732282833 0 -0.031415199160091237 0.00071238836624389296 0 -0.031467938865410244 0.00072622278855688125 0 -0.031562457482977042 0.00064086772982372504 0 -0.031415199160091237 0.00071238836624389296 0 -0.031467938865410244 0.00072622278855688125 0 -0.031386140861295882 0.00075896054706383372 0 -0.031467938865410244 0.00072622278855688125 0 -0.031493636121058544 0.00085675496646554978 0 -0.031621618554514931 0.00078382883095480472 0 -0.031881535216141614 0.0010386600873620538 0 -0.031493636121058544 0.00085675496646554978 0 -0.031621618554514931 0.00078382883095480472 0 -0.031881535216141614 0.0010386600873620538 0 -0.031621618554514931 0.00078382883095480472 0 -0.031872717038981556 0.00087348740196287525 0 -0.031467938865410244 0.00072622278855688125 0 -0.031621618554514931 0.00078382883095480472 0 -0.031562457482977042 0.00064086772982372504 0 -0.031621618554514931 0.00078382883095480472 0 -0.031562457482977042 0.00064086772982372504 0 -0.031872717038981556 0.00087348740196287525 0 -0.031562457482977042 0.00064086772982372504 0 -0.031872717038981556 0.00087348740196287525 0 -0.032043477874103464 0.0007440487629788449 0 -0.031562457482977042 0.00064086772982372504 0 -0.032043477874103464 0.0007440487629788449 0 -0.031986844840793553 0.00054008792096009765 0 -0.032149166634737478 0.00084225301195526756 0 -0.032043477874103464 0.0007440487629788449 0 -0.032195127665866033 0.00076408685916708142 0 -0.032149166634737478 0.00084225301195526756 0 -0.031872717038981556 0.00087348740196287525 0 -0.032043477874103464 0.0007440487629788449 0 -0.032043477874103464 0.0007440487629788449 0 -0.031986844840793553 0.00054008792096009765 0 -0.032143675176932986 0.00064984426127811894 0 -0.031986844840793553 0.00054008792096009765 0 -0.032183270593642378 0.00058873997426583469 0 -0.032143675176932986 0.00064984426127811894 0 -0.031492621811294003 0.00063220051412838589 0 -0.031770888401109774 0.00051601531091753845 0 -0.031562457482977042 0.00064086772982372504 0 -0.031104177945567673 0.00063283829703582642 0 -0.031337799796943545 0.00070721111732282833 0 -0.031559715206050172 0.00062539096005235887 0 -0.031492621811294003 0.00063220051412838589 0 -0.031291362412823105 0.00077428679048366443 0 -0.031337799796943545 0.00070721111732282833 0 -0.031141662202481483 0.00075489761360560332 0 -0.031291362412823105 0.00077428679048366443 0 -0.031141662202481483 0.00075489761360560332 0 -0.031086276927997286 0.00079556064695479611 0 -0.031104177945567673 0.00063283829703582642 0 -0.031337799796943545 0.00070721111732282833 0 -0.031141662202481483 0.00075489761360560332 0 -0.031104177945567673 0.00063283829703582642 0 -0.031026772730087467 0.00074638679305162928 0 -0.030946214857501708 0.0007142855988024248 0 -0.031104177945567673 0.00063283829703582642 0 -0.031141662202481483 0.00075489761360560332 0 -0.031026772730087467 0.00074638679305162928 0 -0.031141662202481483 0.00075489761360560332 0 -0.031026772730087467 0.00074638679305162928 0 -0.031001605838296413 0.00078546258795646217 0 -0.031026772730087467 0.00074638679305162928 0 -0.030983679138195257 0.00077586396003602389 0 -0.031001605838296413 0.00078546258795646217 0 -0.030946214857501708 0.0007142855988024248 0 -0.030944698506626758 0.00079216688926239752 0 -0.030983679138195257 0.00077586396003602389 0 -0.031026772730087467 0.00074638679305162928 0 -0.030946214857501708 0.0007142855988024248 0 -0.030983679138195257 0.00077586396003602389 0 -0.032183270593642378 0.00058873997426583469 0 -0.03229988296282861 0.00056503428381122936 0 -0.032296852628791638 0.00063532961283246469 0 -0.031770888401109774 0.00051601531091753845 0 -0.030644131372829713 0.0014059632774054145 0 -0.030946214857501708 0.0007142855988024248 0 -0.030859626115995593 0.00076668264462786636 0 -0.030944698506626758 0.00079216688926239752 0 -0.03229988296282861 0.00056503428381122936 0 -0.032296852628791638 0.00063532961283246469 0 -0.032334885400080032 0.00057547817049297383 0 -0.032183270593642378 0.00058873997426583469 0 -0.032296852628791638 0.00063532961283246469 0 -0.032214841568036418 0.000683913312504057 0 -0.032296852628791638 0.00063532961283246469 0 -0.032282764351070595 0.00079459942824913418 0 -0.032362782453916467 0.00071911037753021219 0 -0.032296852628791638 0.00063532961283246469 0 -0.032214841568036418 0.000683913312504057 0 -0.032282764351070595 0.00079459942824913418 0 -0.032214841568036418 0.000683913312504057 0 -0.032143675176932986 0.00064984426127811894 0 -0.032238478520809362 0.00072982768957954619 0 -0.032183270593642378 0.00058873997426583469 0 -0.032214841568036418 0.000683913312504057 0 -0.032143675176932986 0.00064984426127811894 0 -0.032043477874103464 0.0007440487629788449 0 -0.032143675176932986 0.00064984426127811894 0 -0.032238478520809362 0.00072982768957954619 0 -0.032043477874103464 0.0007440487629788449 0 -0.032238478520809362 0.00072982768957954619 0 -0.032195127665866033 0.00076408685916708142 0 -0.032238478520809362 0.00072982768957954619 0 -0.032195127665866033 0.00076408685916708142 0 -0.032334741203652644 0.00075337922403393147 0 -0.032149166634737478 0.00084225301195526756 0 -0.032195127665866033 0.00076408685916708142 0 -0.032334741203652644 0.00075337922403393147 0 -0.032238478520809362 0.00072982768957954619 0 -0.032334741203652644 0.00075337922403393147 0 -0.032376435642518207 0.00075524818600625286 0 -0.032429471881685629 0.00067658992613145463 0 -0.032376435642518207 0.00075524818600625286 0 -0.032342897845312295 0.00048911204268267477 0 -0.032429471881685629 0.00067658992613145463 0 -0.032334741203652644 0.00075337922403393147 0 -0.032376435642518207 0.00075524818600625286 0 -0.032376435642518207 0.00075524818600625286 0 -0.032282764351070595 0.00079459942824913418 0 -0.032259927544869109 0.0010207801544730674 0 -0.032238478520809362 0.00072982768957954619 0 -0.032376435642518207 0.00075524818600625286 0 -0.032282764351070595 0.00079459942824913418 0 -0.032214841568036418 0.000683913312504057 0 -0.032238478520809362 0.00072982768957954619 0 -0.032282764351070595 0.00079459942824913418 0 -0.032282764351070595 0.00079459942824913418 0 -0.032259927544869109 0.0010207801544730674 0 -0.032362782453916467 0.00071911037753021219 0 -0.032259927544869109 0.0010207801544730674 0 -0.030901414480631138 0.0021785855039810962 0 -0.032356047871534774 0.002718039127432785 0 -0.03227530822514145 0.0010653522758820146 0 -0.032406661978934083 0.0017358398906679754 0 -0.032376435642518207 0.00075524818600625286 0 -0.032259927544869109 0.0010207801544730674 0 -0.032342897845312295 0.00048911204268267477 0 -0.032342897845312295 0.00048911204268267477 0 -0.03103789428903771 0.00021811892979898656 0 -0.031350576157236194 0.00093932884144754859 0 -0.032259927544869109 0.0010207801544730674 0 -0.032342897845312295 0.00048911204268267477 0 -0.031350576157236194 0.00093932884144754859 0 -0.03089999531319252 -0.00096808341154356616 0 -0.032342897845312295 0.00048911204268267477 0 -0.03103789428903771 0.00021811892979898656 0 -0.030274512885838534 -0.0002543883783119353 0 -0.03103789428903771 0.00021811892979898656 0 -0.03029606686866778 0.00082830455512915215 0 -0.03103789428903771 0.00021811892979898656 0 -0.03029606686866778 0.00082830455512915215 0 -0.031350576157236194 0.00093932884144754859 0 -0.03029606686866778 0.00082830455512915215 0 -0.031350576157236194 0.00093932884144754859 0 -0.030901414480631138 0.0021785855039810962 0 -0.032259927544869109 0.0010207801544730674 0 -0.031350576157236194 0.00093932884144754859 0 -0.030901414480631138 0.0021785855039810962 0 -0.030901414480631138 0.0021785855039810962 0 -0.030866556644867843 0.0036828099311599139 0 -0.029275857602549249 0.0030997826959807879 0 -0.030901414480631138 0.0021785855039810962 0 -0.031639597952812792 0.0032118713251500885 0 -0.030866556644867843 0.0036828099311599139 0 -0.030901414480631138 0.0021785855039810962 0 -0.032356047871534774 0.002718039127432785 0 -0.031639597952812792 0.0032118713251500885 0 -0.030572517052433027 0.0023410850802963339 0 -0.029583109221328948 0.0033710284708204216 0 -0.032356047871534774 0.002718039127432785 0 -0.031639597952812792 0.0032118713251500885 0 -0.032427523075912269 0.0042602469654029942 0 -0.032406661978934083 0.0017358398906679754 0 -0.030572517052433027 0.0023410850802963339 0 -0.032296852628791638 0.00063532961283246469 0 -0.032362782453916467 0.00071911037753021219 0 -0.032334885400080032 0.00057547817049297383 0 -0.031639597952812792 0.0032118713251500885 0 -0.032427523075912269 0.0042602469654029942 0 -0.030866556644867843 0.0036828099311599139 0 -0.028666385134650207 0.0030372863710540184 0 -0.028177501680792423 0.0028655960941299722 0 -0.028337077620964744 0.0031384642152351779 0 -0.030644131372829713 0.0014059632774054145 0 -0.029181160870231738 0.0025593480792023985 0 -0.030644131372829713 0.0014059632774054145 0 -0.030572517052433027 0.0023410850802963339 0 -0.030572517052433027 0.0023410850802963339 0 -0.029181160870231738 0.0025593480792023985 0 -0.030113735849285735 0.0017866033814214863 0 -0.030059021428366025 0.0017678616792417925 0 -0.030060589358599479 0.0018145168196400416 0 -0.028666385134650207 0.0030372863710540184 0 -0.028337077620964744 0.0031384642152351779 0 -0.028673725635190276 0.0031574253581446061 0 -0.028177501680792423 0.0028655960941299722 0 -0.028337077620964744 0.0031384642152351779 0 -0.027747732331039224 0.0031488835345381896 0 -0.028148323663490932 0.0034079748643483427 0 -0.028337077620964744 0.0031384642152351779 0 -0.027747732331039224 0.0031488835345381896 0 -0.027578391853368706 0.0035215885010724938 0 -0.027720033225368965 0.0035334615446549677 0 -0.027645014962331977 0.0035985185519550379 0 -0.029181160870231738 0.0025593480792023985 0 -0.027470667846473944 0.0028795624760814672 0 -0.027647490207140298 0.0035914811483365437 0 -0.029181160870231738 0.0025593480792023985 0 -0.027808987863162403 0.0033865461014815517 0 -0.027720033225368965 0.0035334615446549677 0 -0.027810127097267996 0.0036452910388815613 0 -0.028148323663490932 0.0034079748643483427 0 -0.028337077620964744 0.0031384642152351779 0 -0.028673725635190276 0.0031574253581446061 0 -0.027578391853368706 0.0035215885010724938 0 -0.027808987863162403 0.0033865461014815517 0 -0.027720033225368965 0.0035334615446549677 0 -0.026389884749771279 0.0039764396523682913 0 -0.026998416335107901 0.0038280276866206621 0 -0.026363187294593929 0.0036359020731200342 0 -0.027470667846473944 0.0028795624760814672 0 -0.027196831381930846 0.0038277707103588324 0 -0.027810127097267996 0.0036452910388815613 0 -0.027621420749456185 0.0036943789957096158 0 -0.027645014962331977 0.0035985185519550379 0 -0.027720033225368965 0.0035334615446549677 0 -0.027810127097267996 0.0036452910388815613 0 -0.027645014962331977 0.0035985185519550379 0 -0.027470667846473944 0.0028795624760814672 0 -0.021645878730126016 0.0017794839830609745 0 -0.027621420749456185 0.0036943789957096158 0 -0.027510221220574532 0.0036375312340391924 0 -0.027350654502088859 0.0037242251517941426 0 -0.027578391853368706 0.0035215885010724938 0 -0.027645014962331977 0.0035985185519550379 0 -0.027510221220574532 0.0036375312340391924 0 -0.027621420749456185 0.0036943789957096158 0 -0.027645014962331977 0.0035985185519550379 0 -0.027510221220574532 0.0036375312340391924 0 -0.026998416335107901 0.0038280276866206621 0 -0.027153660802720175 0.0036515311496736077 0 -0.027350654502088859 0.0037242251517941426 0 -0.026998416335107901 0.0038280276866206621 0 -0.027153660802720175 0.0036515311496736077 0 -0.026363187294593929 0.0036359020731200342 0 -0.027196831381930846 0.0038277707103588324 0 -0.027396762098842196 0.0037145287303477791 0 -0.017424397521503428 0.0019170459165502134 0 -0.016892369970017713 0.0012410461978783654 0 -0.017699034505701618 0.0010331714719315833 0 -0.016892369970017713 0.0012410461978783654 0 -0.016346819759068706 0.0020157889617804983 0 -0.016173654235454894 0.00074768241774820056 0 -0.021645878730126016 0.0017794839830609745 0 -0.017249321065300027 0.00054919636403078106 0 -0.023096490742905026 0.0028730166732710239 0 -0.021645878730126016 0.0017794839830609745 0 -0.017424397521503428 0.0019170459165502134 0 -0.016892369970017713 0.0012410461978783654 0 -0.016346819759068706 0.0020157889617804983 0 -0.021645878730126016 0.0017794839830609745 0 -0.024120240073649414 0.0010072099004480872 0 -0.018028172062731839 0.00036741936832283145 0 -0.018185234756904221 0.00052711645965023942 0 -0.018309953102677214 0.00029560977180800863 0 -0.018028172062731839 0.00036741936832283145 0 -0.018185234756904221 0.00052711645965023942 0 -0.018028221502575513 0.00070518188557825877 0 -0.018185234756904221 0.00052711645965023942 0 -0.018459134097096114 0.00045106764654039282 0 -0.018248265136328389 0.00070253127841824088 0 -0.018185234756904221 0.00052711645965023942 0 -0.018028221502575513 0.00070518188557825877 0 -0.018248265136328389 0.00070253127841824088 0 -0.018185234756904221 0.00052711645965023942 0 -0.018309953102677214 0.00029560977180800863 0 -0.018459134097096114 0.00045106764654039282 0 -0.029453494608944194 0.001889217394432129 0 -0.02905360820590832 0.00087456386002240352 0 -0.030133403176266664 0.0013308900714209995 0 -0.02905360820590832 0.00087456386002240352 0 -0.030455091693361632 0.00069729394692111051 0 -0.030133403176266664 0.0013308900714209995 0 -0.029551029927043067 0.0014612702634453742 0 -0.030615760064258341 0.0013286201223244951 0 -0.027416520364906733 0.0013076542794788141 0 -0.027463244365415269 0.0021340604221054111 0 -0.02905360820590832 0.00087456386002240352 0 -0.029004406356777989 0.0024393080876769172 0 -0.029777304324534449 0.0022111685421514066 0 -0.029347431456858471 0.0018794833575223786 0 -0.027463244365415269 0.0021340604221054111 0 -0.029453494608944194 0.001889217394432129 0 -0.02905360820590832 0.00087456386002240352 0 -0.027470667846473944 0.0028795624760814672 0 -0.029551029927043067 0.0014612702634453742 0 -0.029151117935576929 0.0014654136933293751 0 -0.029347431456858471 0.0018794833575223786 0 -0.029844906074427965 0.0017233031861049889 0 -0.028959834838140675 0.0015621267851200498 0 -0.029004406356777989 0.0024393080876769172 0 -0.029347431456858471 0.0018794833575223786 0 -0.029777304324534449 0.0022111685421514066 0 -0.029347431456858471 0.0018794833575223786 0 -0.029844906074427965 0.0017233031861049889 0 -0.030644131372829713 0.0014059632774054145 0 -0.030299832818520254 0.00121710859659666 0 -0.029151117935576929 0.0014654136933293751 0 -0.028959834838140675 0.0015621267851200498 0 -0.029347431456858471 0.0018794833575223786 0 -0.029777304324534449 0.0022111685421514066 0 -0.029844906074427965 0.0017233031861049889 0 -0.030544028759205838 0.0019814270161387934 0 -0.030944698506626758 0.00079216688926239752 0 -0.030986649384440176 0.00077705250820238726 0 -0.030983679138195257 0.00077586396003602389 0 -0.030299832818520254 0.00121710859659666 0 -0.030615760064258341 0.0013286201223244951 0 -0.030907922418627734 0.00076667650917375458 0 -0.030986649384440176 0.00077705250820238726 0 -0.031001605838296413 0.00078546258795646217 0 -0.030907922418627734 0.00076667650917375458 0 -0.030455091693361632 0.00069729394692111051 0 -0.030802541438046852 0.0010843794386087061 0 -0.030852674208209963 0.0010593235471585054 0 -0.030615760064258341 0.0013286201223244951 0 -0.030986649384440176 0.00077705250820238726 0 -0.030983679138195257 0.00077586396003602389 0 -0.031001605838296413 0.00078546258795646217 0 -0.031141662202481483 0.00075489761360560332 0 -0.031001605838296413 0.00078546258795646217 0 -0.031086276927997286 0.00079556064695479611 0 -0.030907922418627734 0.00076667650917375458 0 -0.031001605838296413 0.00078546258795646217 0 -0.031086276927997286 0.00079556064695479611 0 -0.031086276927997286 0.00079556064695479611 0 -0.031084228997637776 0.00099103939792239185 0 -0.031231408646003034 0.00087961809751589378 0 -0.030907922418627734 0.00076667650917375458 0 -0.031086276927997286 0.00079556064695479611 0 -0.031084228997637776 0.00099103939792239185 0 -0.030907922418627734 0.00076667650917375458 0 -0.031084228997637776 0.00099103939792239185 0 -0.030802541438046852 0.0010843794386087061 0 -0.031084228997637776 0.00099103939792239185 0 -0.03092706376803879 0.0014085541079019658 0 -0.031300631751485536 0.0010086973562692357 0 -0.031084228997637776 0.00099103939792239185 0 -0.03092706376803879 0.0014085541079019658 0 -0.030802541438046852 0.0010843794386087061 0 -0.029453494608944194 0.001889217394432129 0 -0.03092706376803879 0.0014085541079019658 0 -0.030133403176266664 0.0013308900714209995 0 -0.03092706376803879 0.0014085541079019658 0 -0.030802541438046852 0.0010843794386087061 0 -0.030133403176266664 0.0013308900714209995 0 -0.030472412760147661 0.00095589664130508415 0 -0.030802541438046852 0.0010843794386087061 0 -0.030133403176266664 0.0013308900714209995 0 -0.030455091693361632 0.00069729394692111051 0 -0.030472412760147661 0.00095589664130508415 0 -0.030802541438046852 0.0010843794386087061 0 -0.030455091693361632 0.00069729394692111051 0 -0.030472412760147661 0.00095589664130508415 0 -0.030133403176266664 0.0013308900714209995 0 -0.018309953102677214 0.00029560977180800863 0 -0.018670662095417807 0.00019004726495107683 0 -0.018459134097096114 0.00045106764654039282 0 -0.024120240073649414 0.0010072099004480872 0 -0.024703049549322779 0.00081527020495290869 0 -0.018459134097096114 0.00045106764654039282 0 -0.018618590760192698 0.00059191960164761963 0 -0.018248265136328389 0.00070253127841824088 0 -0.018459134097096114 0.00045106764654039282 0 -0.018618590760192698 0.00059191960164761963 0 -0.018803988557529398 0.00041660852432306029 0 -0.018618590760192698 0.00059191960164761963 0 -0.018873265934845986 0.00061957200083278543 0 -0.018681914762859245 0.00076212559544129978 0 -0.018618590760192698 0.00059191960164761963 0 -0.018803988557529398 0.00041660852432306029 0 -0.018873265934845986 0.00061957200083278543 0 -0.018670662095417807 0.00019004726495107683 0 -0.018459134097096114 0.00045106764654039282 0 -0.018803988557529398 0.00041660852432306029 0 -0.018670662095417807 0.00019004726495107683 0 -0.018803988557529398 0.00041660852432306029 0 -0.01912888689719058 0.0001263457489052291 0 -0.018803988557529398 0.00041660852432306029 0 -0.019129954990198705 0.00050703472781496288 0 -0.01912888689719058 0.0001263457489052291 0 -0.018873265934845986 0.00061957200083278543 0 -0.019129954990198705 0.00050703472781496288 0 -0.019076585425661281 0.00087001294772154651 0 -0.018803988557529398 0.00041660852432306029 0 -0.018873265934845986 0.00061957200083278543 0 -0.019129954990198705 0.00050703472781496288 0 -0.019129954990198705 0.00050703472781496288 0 -0.019454393231282688 0.00038049272564339809 0 -0.019596735076635213 0.00071661415337152725 0 -0.019129954990198705 0.00050703472781496288 0 -0.019076585425661281 0.00087001294772154651 0 -0.019596735076635213 0.00071661415337152725 0 -0.01912888689719058 0.0001263457489052291 0 -0.019593932777647805 0.00011317485211278659 0 -0.019454393231282688 0.00038049272564339809 0 -0.019129954990198705 0.00050703472781496288 0 -0.01912888689719058 0.0001263457489052291 0 -0.019454393231282688 0.00038049272564339809 0 -0.025267302734859238 0.00057498215359556425 0 -0.02514466718417651 0.00043341443922044156 0 -0.031311802779597692 0.00087253271075940139 0 -0.031300631751485536 0.0010086973562692357 0 -0.031252805016280222 0.00078409742250822219 0 -0.031311802779597692 0.00087253271075940139 0 -0.031300631751485536 0.0010086973562692357 0 -0.03132077849040691 0.00085273972933840687 0 -0.031300631751485536 0.0010086973562692357 0 -0.031231408646003034 0.00087961809751589378 0 -0.03132077849040691 0.00085273972933840687 0 -0.024703049549322779 0.00081527020495290869 0 -0.025267302734859238 0.00057498215359556425 0 -0.031084228997637776 0.00099103939792239185 0 -0.031300631751485536 0.0010086973562692357 0 -0.031231408646003034 0.00087961809751589378 0 -0.031291362412823105 0.00077428679048366443 0 -0.031086276927997286 0.00079556064695479611 0 -0.031231408646003034 0.00087961809751589378 0 -0.031291362412823105 0.00077428679048366443 0 -0.031231408646003034 0.00087961809751589378 0 -0.03132077849040691 0.00085273972933840687 0 -0.031361245729463666 0.00078392637041106836 0 -0.03132077849040691 0.00085273972933840687 0 -0.031325309747942717 0.00085464667300242216 0 -0.031361245729463666 0.00078392637041106836 0 -0.031291362412823105 0.00077428679048366443 0 -0.03132077849040691 0.00085273972933840687 0 -0.031311802779597692 0.00087253271075940139 0 -0.03132077849040691 0.00085273972933840687 0 -0.031325309747942717 0.00085464667300242216 0 -0.023459843544402829 0.0018344595714820202 0 -0.024641808093999303 0.0014404091395489001 0 -0.023735526849663974 0.00092971238396245826 0 -0.024641808093999303 0.0014404091395489001 0 -0.024266889098747638 0.0019919375332212029 0 -0.024593948323342836 0.0022066925696131966 0 -0.023459843544402829 0.0018344595714820202 0 -0.024641808093999303 0.0014404091395489001 0 -0.024266889098747638 0.0019919375332212029 0 -0.024593948323342836 0.0022066925696131966 0 -0.024416512320510574 0.0024234667940637518 0 -0.024186266241804397 0.0023991789270206786 0 -0.024266889098747638 0.0019919375332212029 0 -0.024593948323342836 0.0022066925696131966 0 -0.024186266241804397 0.0023991789270206786 0 -0.021231505474187468 0.00041764633889104915 0 -0.020841022645544261 -4.7497548046656216e-05 0 -0.021081433752187188 -0.00016560358435788937 0 -0.022374163303085597 0.0010983869504155737 0 -0.022381566967099167 0.0011364057377052583 0 -0.023459843544402829 0.0018344595714820202 0 -0.024266889098747638 0.0019919375332212029 0 -0.024186266241804397 0.0023991789270206786 0 -0.021231505474187468 0.00041764633889104915 0 -0.02156035146505381 0.00016405892780225941 0 -0.021081433752187188 -0.00016560358435788937 0 -0.02156035146505381 0.00016405892780225941 0 -0.022313315080514779 2.516310954597281e-05 0 -0.021081433752187188 -0.00016560358435788937 0 -0.022313315080514779 2.516310954597281e-05 0 -0.024035828518304998 6.6427957679111433e-07 0 -0.020726340821139215 -1.2083851351299295e-06 0 -0.02156035146505381 0.00016405892780225941 0 -0.022313315080514779 2.516310954597281e-05 0 -0.021876585138530798 0.00056598772072161856 0 -0.022313315080514779 2.516310954597281e-05 0 -0.021876585138530798 0.00056598772072161856 0 -0.022160885326542108 0.0009192858932186265 0 -0.022313315080514779 2.516310954597281e-05 0 -0.024035828518304998 6.6427957679111433e-07 0 -0.024568380604987419 8.8810743849981951e-06 0 -0.022516569601996734 -3.4141217956481108e-05 0 -0.023337374391745182 0.00033293552619029107 0 -0.021231505474187468 0.00041764633889104915 0 -0.02156035146505381 0.00016405892780225941 0 -0.021876585138530798 0.00056598772072161856 0 -0.021231505474187468 0.00041764633889104915 0 -0.021876585138530798 0.00056598772072161856 0 -0.022354216110364034 0.00083201848038768212 0 -0.022374163303085597 0.0010983869504155737 0 -0.022294067133965079 0.00082533063543435475 0 -0.023459843544402829 0.0018344595714820202 0 -0.022354216110364034 0.00083201848038768212 0 -0.023735526849663974 0.00092971238396245826 0 -0.022354216110364034 0.00083201848038768212 0 -0.023351495421048033 3.5106089374948108e-05 0 -0.023735526849663974 0.00092971238396245826 0 -0.026481491179504626 4.336322415080297e-06 0 -0.024035828518304998 6.6427957679111433e-07 0 -0.024568380604987419 8.8810743849981951e-06 0 -0.021876585138530798 0.00056598772072161856 0 -0.022354216110364034 0.00083201848038768212 0 -0.022160885326542108 0.0009192858932186265 0 -0.024351580417233686 -0.00023631963291082732 0 -0.023337374391745182 0.00033293552619029107 0 -0.022186078704859048 -0.00027573501157807952 0 -0.022354216110364034 0.00083201848038768212 0 -0.022160885326542108 0.0009192858932186265 0 -0.022186078704859048 -0.00027573501157807952 0 -0.022354216110364034 0.00083201848038768212 0 -0.023351495421048033 3.5106089374948108e-05 0 -0.023351495421048033 3.5106089374948108e-05 0 -0.023735526849663974 0.00092971238396245826 0 -0.024535594630998112 0.00037893342357765377 0 -0.024459503310171483 -0.00083931077513555742 0 -0.023351495421048033 3.5106089374948108e-05 0 -0.024535594630998112 0.00037893342357765377 0 -0.025764998887736749 0.0020829428031321918 0 -0.025112727977470814 0.0006905454973361809 0 -0.026168577195579339 0.00048543240378147581 0 -0.025194476086012753 0.0017427854561954887 0 -0.024816845452346747 0.0004855117067161751 0 -0.024641808093999303 0.0014404091395489001 0 -0.023735526849663974 0.00092971238396245826 0 -0.024535594630998112 0.00037893342357765377 0 -0.024463958055999782 -0.00075679278730369874 0 -0.024816845452346747 0.0004855117067161751 0 -0.025918464132744644 -0.00093888292808712542 0 -0.025112727977470814 0.0006905454973361809 0 -0.026168577195579339 0.00048543240378147581 0 -0.028027668868433487 -0.00028658868159819222 0 -0.026964116536336385 -0.0003743173578718637 0 -0.027043206987525908 0.0011118214651480004 0 -0.026964116536336385 -0.0003743173578718637 0 -0.026168577195579339 0.00048543240378147581 0 -0.027043206987525908 0.0011118214651480004 0 -0.027043206987525908 0.0011118214651480004 0 -0.028013421420326735 0.0014017991346349263 0 -0.027591522948673401 0.0024020020006114053 0 -0.027043206987525908 0.0011118214651480004 0 -0.027591522948673401 0.0024020020006114053 0 -0.026788372405591978 0.002384230293528372 0 -0.025764998887736749 0.0020829428031321918 0 -0.026168577195579339 0.00048543240378147581 0 -0.027043206987525908 0.0011118214651480004 0 -0.025764998887736749 0.0020829428031321918 0 -0.027043206987525908 0.0011118214651480004 0 -0.026788372405591978 0.002384230293528372 0 -0.03029606686866778 0.00082830455512915215 0 -0.029287973236613148 8.4481333890243341e-05 0 -0.02913524338308892 0.0014993827610877391 0 -0.030274512885838534 -0.0002543883783119353 0 -0.03029606686866778 0.00082830455512915215 0 -0.029287973236613148 8.4481333890243341e-05 0 -0.028027668868433487 -0.00028658868159819222 0 -0.027043206987525908 0.0011118214651480004 0 -0.028385571428215836 0.00062863150341263487 0 -0.029287973236613148 8.4481333890243341e-05 0 -0.028385571428215836 0.00062863150341263487 0 -0.02913524338308892 0.0014993827610877391 0 -0.028027668868433487 -0.00028658868159819222 0 -0.029287973236613148 8.4481333890243341e-05 0 -0.028385571428215836 0.00062863150341263487 0 -0.028013421420326735 0.0014017991346349263 0 -0.02913524338308892 0.0014993827610877391 0 -0.027591522948673401 0.0024020020006114053 0 -0.027043206987525908 0.0011118214651480004 0 -0.028385571428215836 0.00062863150341263487 0 -0.028013421420326735 0.0014017991346349263 0 -0.028385571428215836 0.00062863150341263487 0 -0.028013421420326735 0.0014017991346349263 0 -0.02913524338308892 0.0014993827610877391 0 -0.03029606686866778 0.00082830455512915215 0 -0.030901414480631138 0.0021785855039810962 0 -0.02913524338308892 0.0014993827610877391 0 -0.030901414480631138 0.0021785855039810962 0 -0.02913524338308892 0.0014993827610877391 0 -0.029275857602549249 0.0030997826959807879 0 -0.02913524338308892 0.0014993827610877391 0 -0.029275857602549249 0.0030997826959807879 0 -0.027591522948673401 0.0024020020006114053 0 -0.028490586034605123 0.0028665083491469325 0 -0.02765733110717233 0.002468602345174915 0 -0.02776345861803195 0.0027103485481987893 0 -0.027591522948673401 0.0024020020006114053 0 -0.027542808863640217 0.0028162028732626114 0 -0.027591522948673401 0.0024020020006114053 0 -0.027542808863640217 0.0028162028732626114 0 -0.027138121360493313 0.0028537109773113722 0 -0.027542808863640217 0.0028162028732626114 0 -0.027747732331039224 0.0031488835345381896 0 -0.027366491135547084 0.0031814308027674014 0 -0.027542808863640217 0.0028162028732626114 0 -0.027138121360493313 0.0028537109773113722 0 -0.027366491135547084 0.0031814308027674014 0 -0.028177501680792423 0.0028655960941299722 0 -0.02776345861803195 0.0027103485481987893 0 -0.027747732331039224 0.0031488835345381896 0 -0.029583109221328948 0.0033710284708204216 0 -0.028490586034605123 0.0028665083491469325 0 -0.02776345861803195 0.0027103485481987893 0 -0.027542808863640217 0.0028162028732626114 0 -0.027747732331039224 0.0031488835345381896 0 -0.025764998887736749 0.0020829428031321918 0 -0.026788372405591978 0.002384230293528372 0 -0.02641687350002174 0.0030399585027275013 0 -0.025194476086012753 0.0017427854561954887 0 -0.025546203970814477 0.0025022786590042996 0 -0.027591522948673401 0.0024020020006114053 0 -0.026788372405591978 0.002384230293528372 0 -0.027138121360493313 0.0028537109773113722 0 -0.027138121360493313 0.0028537109773113722 0 -0.02641687350002174 0.0030399585027275013 0 -0.027040167799994626 0.003250373334232174 0 -0.026788372405591978 0.002384230293528372 0 -0.027138121360493313 0.0028537109773113722 0 -0.02641687350002174 0.0030399585027275013 0 -0.027138121360493313 0.0028537109773113722 0 -0.027040167799994626 0.003250373334232174 0 -0.027366491135547084 0.0031814308027674014 0 -0.02641687350002174 0.0030399585027275013 0 -0.02680967662678296 0.0035383633037216178 0 -0.027040167799994626 0.003250373334232174 0 -0.024593948323342836 0.0022066925696131966 0 -0.024449739477660756 0.0025097310781540972 0 -0.024449874073948455 0.0025382964462518334 0 -0.024593948323342836 0.0022066925696131966 0 -0.024416512320510574 0.0024234667940637518 0 -0.024449739477660756 0.0025097310781540972 0 -0.025546203970814477 0.0025022786590042996 0 -0.024807426229895693 0.0035770272572271328 0 -0.024416512320510574 0.0024234667940637518 0 -0.024449739477660756 0.0025097310781540972 0 -0.024457914525017343 0.0024890018689743779 0 -0.024669572634064281 0.0033981757980182494 0 -0.024807426229895693 0.0035770272572271328 0 -0.02680967662678296 0.0035383633037216178 0 -0.027040167799994626 0.003250373334232174 0 -0.027320587487501026 0.0035114495159770352 0 -0.024807426229895693 0.0035770272572271328 0 -0.016816190239069023 0.0031027654299026594 0 -0.02680967662678296 0.0035383633037216178 0 -0.0271583609946064 0.0037290207695666183 0 -0.027320587487501026 0.0035114495159770352 0 -0.024807426229895693 0.0035770272572271328 0 -0.024572246277131095 0.0041887195942921663 0 -0.022317698485096439 0.0051295861408846575 0 -0.020909117073824146 0.0037868904913189137 0 -0.021297631587410062 0.0022652722884005786 0 -0.0244157785746985 0.0025214813897084525 0 -0.024457914525017343 0.0024890018689743779 0 -0.024149012128178278 0.0022644535871438557 0 -0.024449739477660756 0.0025097310781540972 0 -0.0244157785746985 0.0025214813897084525 0 -0.024457914525017343 0.0024890018689743779 0 -0.028148323663490932 0.0034079748643483427 0 -0.027747732331039224 0.0031488835345381896 0 -0.027511061417847177 0.0036322071261219177 0 -0.027747732331039224 0.0031488835345381896 0 -0.027320587487501026 0.0035114495159770352 0 -0.027511061417847177 0.0036322071261219177 0 -0.027747732331039224 0.0031488835345381896 0 -0.027366491135547084 0.0031814308027674014 0 -0.027320587487501026 0.0035114495159770352 0 -0.027040167799994626 0.003250373334232174 0 -0.027366491135547084 0.0031814308027674014 0 -0.027320587487501026 0.0035114495159770352 0 -0.0271583609946064 0.0037290207695666183 0 -0.027320587487501026 0.0035114495159770352 0 -0.027392970751970593 0.0037002884561268428 0 -0.027320587487501026 0.0035114495159770352 0 -0.027392970751970593 0.0037002884561268428 0 -0.027511061417847177 0.0036322071261219177 0 -0.027647490207140298 0.0035914811483365437 0 -0.027634002573555996 0.0035696624720767656 0 -0.027578391853368706 0.0035215885010724938 0 -0.027511061417847177 0.0036322071261219177 0 -0.027510221220574532 0.0036375312340391924 0 -0.027392970751970593 0.0037002884561268428 0 -0.027511061417847177 0.0036322071261219177 0 -0.027350654502088859 0.0037242251517941426 0 -0.027511061417847177 0.0036322071261219177 0 -0.027510221220574532 0.0036375312340391924 0 -0.027350654502088859 0.0037242251517941426 0 -0.023096490742905026 0.0028730166732710239 0 -0.018729271916987564 0.0027688309510584389 0 -0.017424397521503428 0.0019170459165502134 0 -0.018516762750135939 0.0018255539637300382 0 -0.017699034505701618 0.0010331714719315833 0 -0.027153660802720175 0.0036515311496736077 0 -0.027350654502088859 0.0037242251517941426 0 -0.027424280956559424 0.0037358420697349752 0 -0.0091567890376483101 0.004484161088275429 0 -0.01027692032412747 0.0041463909264404554 0 -0.0099156446084080301 0.0037445965321701042 0 -0.018729271916987564 0.0027688309510584389 0 -0.016816190239069023 0.0031027654299026594 0 -0.027392970751970593 0.0037002884561268428 0 -0.027350654502088859 0.0037242251517941426 0 -0.027424280956559424 0.0037358420697349752 0 -0.0271583609946064 0.0037290207695666183 0 -0.027392970751970593 0.0037002884561268428 0 -0.027424280956559424 0.0037358420697349752 0 -0.024572246277131095 0.0041887195942921663 0 -0.018729271916987564 0.0027688309510584389 0 -0.0091567890376483101 0.004484161088275429 0 -0.0089625899448228588 0.0032210474445157509 0 -0.0099156446084080301 0.0037445965321701042 0 -0.0089625899448228588 0.0032210474445157509 0 -0.0099156446084080301 0.0037445965321701042 0 -0.0095663424341353841 0.0025443487635545591 0 -0.018729271916987564 0.0027688309510584389 0 -0.011997271789435306 0.0019638625596743687 0 -0.0091567890376483101 0.004484161088275429 0 -0.0089625899448228588 0.0032210474445157509 0 -0.0078652394105943376 0.0032506013210735268 0 -0.023481871660567841 0.0012271675606235692 0 -0.017242124012602091 0.0026741083768542411 0 -0.010613510858401379 0.0032059856013026311 0 -0.011136097597625938 0.0025786813142423168 0 -0.012595531317513765 0.0029374022855577003 0 -0.021027246324796012 0.00014882304859501115 0 -0.020881523604310365 0.0001787743735508624 0 -0.020883317944278276 1.9592688715145354e-05 0 -0.017242124012602091 0.0026741083768542411 0 -0.016418545908019465 0.0014359992095583534 0 -0.02093984597309765 -3.0533008266291867e-05 0 -0.021027246324796012 0.00014882304859501115 0 -0.020883317944278276 1.9592688715145354e-05 0 -0.0244157785746985 0.0025214813897084525 0 -0.024149012128178278 0.0022644535871438557 0 -0.02412841461124899 0.0022669421984391983 0 -0.020909117073824146 0.0037868904913189137 0 -0.019509553959682995 0.0024381441550240584 0 -0.021297631587410062 0.0022652722884005786 0 -0.0091567890376483101 0.004484161088275429 0 -0.01027692032412747 0.0041463909264404554 0 -0.010366020951118264 0.0043757616975123263 0 -0.01396597952928489 0.0025631020499532545 0 -0.016816190239069023 0.0031027654299026594 0 -0.010448300720377626 0.0029843658246405413 0 -0.010613510858401379 0.0032059856013026311 0 -0.011136097597625938 0.0025786813142423168 0 -0.017242124012602091 0.0026741083768542411 0 -0.016816190239069023 0.0031027654299026594 0 -0.015555424429582014 0.0026470264871949326 0 -0.015850323333365703 0.0030056652471637064 0 -0.015685575798379554 0.0030213303283551009 0 -0.01396597952928489 0.0025631020499532545 0 -0.017242124012602091 0.0026741083768542411 0 -0.010448300720377626 0.0029843658246405413 0 -0.011136097597625938 0.0025786813142423168 0 -0.0098596269358044268 0.0015226221150004334 0 -0.010280917084078784 0.0041236533199798487 0 -0.0099156446084080301 0.0037445965321701042 0 -0.0095663424341353841 0.0025443487635545591 0 -0.01396597952928489 0.0025631020499532545 0 -0.0092947532184100325 0.0021369753421159022 0 -0.01396597952928489 0.0025631020499532545 0 -0.01188448052132461 0.0025485108460435459 0 -0.011136097597625938 0.0025786813142423168 0 -0.012595531317513765 0.0029374022855577003 0 -0.012606423972151223 0.0016443746743876565 0 -0.011136097597625938 0.0025786813142423168 0 -0.012606423972151223 0.0016443746743876565 0 -0.011244754667905683 0.001570182945093664 0 -0.012595531317513765 0.0029374022855577003 0 -0.014954580804459694 0.0021894141208049361 0 -0.012606423972151223 0.0016443746743876565 0 -0.020881523604310365 0.0001787743735508624 0 -0.020816663278335101 -0.00010359958866948906 0 -0.02051065058233504 0.00035888515454081903 0 -0.016418545908019465 0.0014359992095583534 0 -0.017724910071999583 0.0012139367099402751 0 -0.020881523604310365 0.0001787743735508624 0 -0.020883317944278276 1.9592688715145354e-05 0 -0.020816663278335101 -0.00010359958866948906 0 -0.02093984597309765 -3.0533008266291867e-05 0 -0.020883317944278276 1.9592688715145354e-05 0 -0.020866591196111561 -5.2697359674027968e-05 0 -0.020883317944278276 1.9592688715145354e-05 0 -0.020866591196111561 -5.2697359674027968e-05 0 -0.020816663278335101 -0.00010359958866948906 0 -0.020816663278335101 -0.00010359958866948906 0 -0.020841022645544261 -4.7497548046656216e-05 0 -0.021081433752187188 -0.00016560358435788937 0 -0.023481871660567841 0.0012271675606235692 0 -0.022381566967099167 0.0011364057377052583 0 -0.020866591196111561 -5.2697359674027968e-05 0 -0.020816663278335101 -0.00010359958866948906 0 -0.020841022645544261 -4.7497548046656216e-05 0 -0.024416512320510574 0.0024234667940637518 0 -0.024457914525017343 0.0024890018689743779 0 -0.024186266241804397 0.0023991789270206786 0 -0.02093984597309765 -3.0533008266291867e-05 0 -0.020866591196111561 -5.2697359674027968e-05 0 -0.020841022645544261 -4.7497548046656216e-05 0 -0.022313315080514779 2.516310954597281e-05 0 -0.021081433752187188 -0.00016560358435788937 0 -0.020726340821139215 -1.2083851351299295e-06 0 -0.020816663278335101 -0.00010359958866948906 0 -0.021081433752187188 -0.00016560358435788937 0 -0.020375344411588121 -0.00015188079510720741 0 -0.021081433752187188 -0.00016560358435788937 0 -0.020375344411588121 -0.00015188079510720741 0 -0.020726340821139215 -1.2083851351299295e-06 0 -0.020375344411588121 -0.00015188079510720741 0 -0.020726340821139215 -1.2083851351299295e-06 0 -0.018347340926868006 1.635252133716575e-06 0 -0.020816663278335101 -0.00010359958866948906 0 -0.020375344411588121 -0.00015188079510720741 0 -0.02051065058233504 0.00035888515454081903 0 -0.020375344411588121 -0.00015188079510720741 0 -0.02051065058233504 0.00035888515454081903 0 -0.018347340926868006 1.635252133716575e-06 0 -0.014954580804459694 0.0021894141208049361 0 -0.018340171098753365 4.2435028431753726e-06 0 -0.016158940811375845 0.00043302791885863106 0 -0.017724910071999583 0.0012139367099402751 0 -0.018342983645234984 5.0982376995744762e-07 0 -0.018340171098753365 4.2435028431753726e-06 0 -0.016158940811375845 0.00043302791885863106 0 -0.016679788552766306 -7.2379122965703658e-07 0 -0.016158940811375845 0.00043302791885863106 0 -0.016679788552766306 -7.2379122965703658e-07 0 -0.015469268239311015 -0.00011036987066402109 0 -0.014954580804459694 0.0021894141208049361 0 -0.016158940811375845 0.00043302791885863106 0 -0.014344145937557744 0.00037724576628098052 0 -0.016158940811375845 0.00043302791885863106 0 -0.015469268239311015 -0.00011036987066402109 0 -0.014344145937557744 0.00037724576628098052 0 -0.015469268239311015 -0.00011036987066402109 0 -0.014344145937557744 0.00037724576628098052 0 -0.014654172898221145 -0.0007946955457213057 0 -0.016679788552766306 -7.2379122965703658e-07 0 -0.015469268239311015 -0.00011036987066402109 0 -0.015019884354489938 -7.1317244386010287e-07 0 -0.012606423972151223 0.0016443746743876565 0 -0.014344145937557744 0.00037724576628098052 0 -0.012118239929160553 0.00072796875636563653 0 -0.014954580804459694 0.0021894141208049361 0 -0.012606423972151223 0.0016443746743876565 0 -0.014344145937557744 0.00037724576628098052 0 -0.014344145937557744 0.00037724576628098052 0 -0.012118239929160553 0.00072796875636563653 0 -0.013034567195929755 -0.00017277043829728642 0 -0.012118239929160553 0.00072796875636563653 0 -0.013034567195929755 -0.00017277043829728642 0 -0.010645432853209487 4.3408554554607999e-05 0 -0.013034567195929755 -0.00017277043829728642 0 -0.012363449515527801 -0.0011800839927631802 0 -0.010645432853209487 4.3408554554607999e-05 0 -0.013034567195929755 -0.00017277043829728642 0 -0.012363449515527801 -0.0011800839927631802 0 -0.014654172898221145 -0.0007946955457213057 0 -0.014344145937557744 0.00037724576628098052 0 -0.013034567195929755 -0.00017277043829728642 0 -0.014654172898221145 -0.0007946955457213057 0 -0.011057127939855537 6.5150758305704211e-05 0 -0.01233901973682467 0.0004156708652421552 0 -0.011903956867392724 -0.00030149858958769093 0 -0.01173927101073873 -0.00051164949986373155 0 -0.013436982801732418 -0.00022173329725062659 0 -0.015016752122478843 -9.2820018771668911e-08 0 -0.013436982801732418 -0.00022173329725062659 0 -0.015469268239311015 -0.00011036987066402109 0 -0.015019884354489938 -7.1317244386010287e-07 0 -0.014654172898221145 -0.0007946955457213057 0 -0.015013408526072655 2.1949854567512309e-06 0 -0.01233901973682467 0.0004156708652421552 0 -0.01354307347352521 -8.3056977497947775e-07 0 -0.01233901973682467 0.0004156708652421552 0 -0.012458044907134676 -0.00022479399162302424 0 -0.011903956867392724 -0.00030149858958769093 0 -0.01233901973682467 0.0004156708652421552 0 -0.01354307347352521 -8.3056977497947775e-07 0 -0.012458044907134676 -0.00022479399162302424 0 -0.01354307347352521 -8.3056977497947775e-07 0 -0.012065459290374126 -6.5826330156695703e-07 0 -0.012458044907134676 -0.00022479399162302424 0 -0.012065459290374126 -6.5826330156695703e-07 0 -0.012458044907134676 -0.00022479399162302424 0 -0.011882712079131027 -0.00043853949504986189 0 -0.012065459290374126 -6.5826330156695703e-07 0 -0.011882712079131027 -0.00043853949504986189 0 -0.010594647646636059 -8.3387167099237428e-08 0 -0.011882712079131027 -0.00043853949504986189 0 -0.011903956867392724 -0.00030149858958769093 0 -0.011471573254756916 -0.00071253273561110143 0 -0.011882712079131027 -0.00043853949504986189 0 -0.011471573254756916 -0.00071253273561110143 0 -0.011722348920823761 -0.00044562064643685617 0 -0.012458044907134676 -0.00022479399162302424 0 -0.011882712079131027 -0.00043853949504986189 0 -0.011903956867392724 -0.00030149858958769093 0 -0.011057127939855537 6.5150758305704211e-05 0 -0.010634721175815785 -0.00083566799848314556 0 -0.011471573254756916 -0.00071253273561110143 0 -0.011057127939855537 6.5150758305704211e-05 0 -0.011903956867392724 -0.00030149858958769093 0 -0.011471573254756916 -0.00071253273561110143 0 -0.010634721175815785 -0.00083566799848314556 0 -0.011471573254756916 -0.00071253273561110143 0 -0.011373908645943412 -0.00094703202737491255 0 -0.011553016213761362 -0.0012878034192077904 0 -0.0086641138996393918 -0.00087953615839720767 0 -0.011471573254756916 -0.00071253273561110143 0 -0.011373908645943412 -0.00094703202737491255 0 -0.011722348920823761 -0.00044562064643685617 0 -0.0086641138996393918 -0.00087953615839720767 0 -0.0099306100417275618 8.9018656132188749e-05 0 -0.0086641138996393918 -0.00087953615839720767 0 -0.0074608900561765291 -0.0020439337378271769 0 -0.010634721175815785 -0.00083566799848314556 0 -0.011227421230558428 -0.0023213448029667152 0 -0.010065012013972339 -0.0025237174320868329 0 -0.0050000946042368819 -0.0012543475611566058 0 -0.0050280204187146873 -0.0011374006155458545 0 -0.0050732945154949409 -0.0014254444449506157 0 -0.0071422803839601675 0.00046602921195796428 0 -0.0080101228894060763 0.00057536092340674551 0 -0.0073761091425234224 -0.00025681787612960816 0 -0.0050000946042368819 -0.0012543475611566058 0 -0.0050280204187146873 -0.0011374006155458545 0 -0.0051437033252245412 -0.00079224838537890073 0 -0.0086641138996393918 -0.00087953615839720767 0 -0.0058610255927880944 -0.0003613213857651548 0 -0.0081405760464638242 -7.3493095891828016e-05 0 -0.0080101228894060763 0.00057536092340674551 0 -0.0073761091425234224 -0.00025681787612960816 0 -0.0081405760464638242 -7.3493095891828016e-05 0 -0.010587759753057596 2.2473026105352672e-06 0 -0.0086711177302799865 -8.6792271288406978e-07 0 -0.011882712079131027 -0.00043853949504986189 0 -0.010594647646636059 -8.3387167099237428e-08 0 -0.011722348920823761 -0.00044562064643685617 0 -0.0081405760464638242 -7.3493095891828016e-05 0 -0.010587759753057596 2.2473026105352672e-06 0 -0.0080101228894060763 0.00057536092340674551 0 -0.010590598808814586 -3.7153546574205062e-08 0 -0.0099306100417275618 8.9018656132188749e-05 0 -0.007287641563280811 -0.0017267267359472301 0 -0.0085564558481889541 -0.0025893438099546897 0 -0.0085282529468764055 -0.0013060204081223887 0 -0.007287641563280811 -0.0017267267359472301 0 -0.0064439676533530931 -0.0018927620141088535 0 -0.0068443996196630667 -0.0014200130535618565 0 -0.007287641563280811 -0.0017267267359472301 0 -0.0064439676533530931 -0.0018927620141088535 0 -0.0064644026761094212 -0.0022153700537635474 0 -0.0064439676533530931 -0.0018927620141088535 0 -0.0064644026761094212 -0.0022153700537635474 0 -0.0060254495776576903 -0.0019200288523861444 0 -0.0065775547960078597 -0.0022207904937347764 0 -0.0070155433942078521 -0.0021703877826889212 0 -0.007287641563280811 -0.0017267267359472301 0 -0.0064644026761094212 -0.0022153700537635474 0 -0.0085564558481889541 -0.0025893438099546897 0 -0.0064644026761094212 -0.0022153700537635474 0 -0.0053067463035871695 -0.0018445284545912117 0 -0.0055455887089103737 -0.0015758419794089662 0 -0.0070155433942078521 -0.0021703877826889212 0 -0.0074608900561765291 -0.0020439337378271769 0 -0.0050280204187146873 -0.0011374006155458545 0 -0.0050732945154949409 -0.0014254444449506157 0 -0.0050198529100607394 -0.001329652890302798 0 -0.0053067463035871695 -0.0018445284545912117 0 -0.0050732945154949409 -0.0014254444449506157 0 -0.0050198529100607394 -0.001329652890302798 0 -0.0085564558481889541 -0.0025893438099546897 0 -0.010065012013972339 -0.0025237174320868329 0 -0.0095934399596275324 -0.001508228818671448 0 -0.010634721175815785 -0.00083566799848314556 0 -0.010065012013972339 -0.0025237174320868329 0 -0.0095934399596275324 -0.001508228818671448 0 -0.0085564558481889541 -0.0025893438099546897 0 -0.0095934399596275324 -0.001508228818671448 0 -0.0085282529468764055 -0.0013060204081223887 0 -0.0095934399596275324 -0.001508228818671448 0 -0.0099295325042130667 -0.00064856264645675368 0 -0.0085282529468764055 -0.0013060204081223887 0 -0.010634721175815785 -0.00083566799848314556 0 -0.0095934399596275324 -0.001508228818671448 0 -0.0099295325042130667 -0.00064856264645675368 0 -0.011057127939855537 6.5150758305704211e-05 0 -0.010634721175815785 -0.00083566799848314556 0 -0.0099295325042130667 -0.00064856264645675368 0 -0.0099295325042130667 -0.00064856264645675368 0 -0.0080030386644426507 -0.00090810709054818051 0 -0.0085282529468764055 -0.0013060204081223887 0 -0.0099295325042130667 -0.00064856264645675368 0 -0.0080030386644426507 -0.00090810709054818051 0 -0.0092654442871210139 -0.00020869521545198956 0 -0.007287641563280811 -0.0017267267359472301 0 -0.0080030386644426507 -0.00090810709054818051 0 -0.0085282529468764055 -0.0013060204081223887 0 -0.007287641563280811 -0.0017267267359472301 0 -0.0080030386644426507 -0.00090810709054818051 0 -0.0068443996196630667 -0.0014200130535618565 0 -0.0080030386644426507 -0.00090810709054818051 0 -0.0068443996196630667 -0.0014200130535618565 0 -0.0066551511121152509 -0.00088111273197143776 0 -0.0080030386644426507 -0.00090810709054818051 0 -0.0081944311948622534 -0.00023105559156227757 0 -0.0066551511121152509 -0.00088111273197143776 0 -0.0080030386644426507 -0.00090810709054818051 0 -0.0081944311948622534 -0.00023105559156227757 0 -0.0092654442871210139 -0.00020869521545198956 0 -0.0081944311948622534 -0.00023105559156227757 0 -0.0092654442871210139 -0.00020869521545198956 0 -0.0091607943630686514 0.0004948389294819911 0 -0.0082813047013667162 -0.00021697702241681749 0 -0.009028104999281578 0.0007718546238087477 0 -0.0081944311948622534 -0.00023105559156227757 0 -0.0088640572389379318 0.0010967380469917884 0 -0.0075776057549144541 0.0011803838393729463 0 -0.01173927101073873 -0.00051164949986373155 0 -0.010110121980069045 -0.00067910940471883831 0 -0.012363449515527801 -0.0011800839927631802 0 -0.0099295325042130667 -0.00064856264645675368 0 -0.010645432853209487 4.3408554554607999e-05 0 -0.0099295325042130667 -0.00064856264645675368 0 -0.0092654442871210139 -0.00020869521545198956 0 -0.010645432853209487 4.3408554554607999e-05 0 -0.0092654442871210139 -0.00020869521545198956 0 -0.0091607943630686514 0.0004948389294819911 0 -0.010645432853209487 4.3408554554607999e-05 0 -0.012118239929160553 0.00072796875636563653 0 -0.010645432853209487 4.3408554554607999e-05 0 -0.010678988583409979 0.00090292735325743295 0 -0.0091607943630686514 0.0004948389294819911 0 -0.010645432853209487 4.3408554554607999e-05 0 -0.010678988583409979 0.00090292735325743295 0 -0.0091607943630686514 0.0004948389294819911 0 -0.010678988583409979 0.00090292735325743295 0 -0.0098596269358044268 0.0015226221150004334 0 -0.011136097597625938 0.0025786813142423168 0 -0.011244754667905683 0.001570182945093664 0 -0.0098596269358044268 0.0015226221150004334 0 -0.010678988583409979 0.00090292735325743295 0 -0.011244754667905683 0.001570182945093664 0 -0.0098596269358044268 0.0015226221150004334 0 -0.012118239929160553 0.00072796875636563653 0 -0.010678988583409979 0.00090292735325743295 0 -0.011244754667905683 0.001570182945093664 0 -0.012606423972151223 0.0016443746743876565 0 -0.012118239929160553 0.00072796875636563653 0 -0.011244754667905683 0.001570182945093664 0 -0.0088640572389379318 0.0010967380469917884 0 -0.0075776057549144541 0.0011803838393729463 0 -0.0083389125328256451 0.0021509213009348509 0 -0.009028104999281578 0.0007718546238087477 0 -0.0092947532184100325 0.0021369753421159022 0 -0.0088640572389379318 0.0010967380469917884 0 -0.0095663424341353841 0.0025443487635545591 0 -0.0083389125328256451 0.0021509213009348509 0 -0.0089625899448228588 0.0032210474445157509 0 -0.0095663424341353841 0.0025443487635545591 0 -0.0083389125328256451 0.0021509213009348509 0 -0.0089625899448228588 0.0032210474445157509 0 -0.0078652394105943376 0.0032506013210735268 0 -0.0083389125328256451 0.0021509213009348509 0 -0.011997271789435306 0.0019638625596743687 0 -0.0118078702556244 0.0011971032830095122 0 -0.0078652394105943376 0.0032506013210735268 0 -0.0083389125328256451 0.0021509213009348509 0 -0.006712457714385266 0.0020901719872484185 0 -0.016892369970017713 0.0012410461978783654 0 -0.017699034505701618 0.0010331714719315833 0 -0.016868515199051966 0.00023997527545501963 0 -0.0075776057549144541 0.0011803838393729463 0 -0.0083389125328256451 0.0021509213009348509 0 -0.006712457714385266 0.0020901719872484185 0 -0.0075776057549144541 0.0011803838393729463 0 -0.006712457714385266 0.0020901719872484185 0 -0.0066107097530432408 0.001120330364213348 0 -0.016868515199051966 0.00023997527545501963 0 -0.016173654235454894 0.00074768241774820056 0 -0.015998738604923655 -0.00055859024104492868 0 -0.0118078702556244 0.0011971032830095122 0 -0.011644747794064237 0.00024279624440408498 0 -0.006712457714385266 0.0020901719872484185 0 -0.0057504100803650307 0.0010246954593803018 0 -0.0066107097530432408 0.001120330364213348 0 -0.016892369970017713 0.0012410461978783654 0 -0.016868515199051966 0.00023997527545501963 0 -0.016173654235454894 0.00074768241774820056 0 -0.018028221502575513 0.00070518188557825877 0 -0.018248265136328389 0.00070253127841824088 0 -0.018078167695884877 0.0007690480673475887 0 -0.018248265136328389 0.00070253127841824088 0 -0.018078167695884877 0.0007690480673475887 0 -0.017910509547602944 0.00079935515556356883 0 -0.018078167695884877 0.0007690480673475887 0 -0.018235978754176277 0.00069552179355600611 0 -0.017910509547602944 0.00079935515556356883 0 -0.017249321065300027 0.00054919636403078106 0 -0.011644747794064237 0.00024279624440408498 0 -0.018028221502575513 0.00070518188557825877 0 -0.018078167695884877 0.0007690480673475887 0 -0.018235978754176277 0.00069552179355600611 0 -0.011644747794064237 0.00024279624440408498 0 -0.005121652547453814 -0.00071823826024635892 0 -0.011644747794064237 0.00024279624440408498 0 -0.011919091473093517 -0.00044171741405021929 0 -0.018235978754176277 0.00069552179355600611 0 -0.017910509547602944 0.00079935515556356883 0 -0.017990322720583183 -4.8201743230716603e-05 0 -0.017910509547602944 0.00079935515556356883 0 -0.017990322720583183 -4.8201743230716603e-05 0 -0.01646541399668762 0.00020278426858774622 0 -0.011919091473093517 -0.00044171741405021929 0 -0.011246737786171695 -0.0011374141203639473 0 -0.0057697129583058598 -0.00084993403823624587 0 -0.0055391594648822508 -0.0011257301914409422 0 -0.0057251486002680386 -0.0012268075283120086 0 -0.0061345898452605076 -0.00052062555341526949 0 -0.0057697129583058598 -0.00084993403823624587 0 -0.0059752110536231201 -0.001057026406005466 0 -0.0057697129583058598 -0.00084993403823624587 0 -0.0059752110536231201 -0.001057026406005466 0 -0.0057251486002680386 -0.0012268075283120086 0 -0.0057099380010633763 -0.00032461905207802516 0 -0.0066747748375260473 0.00030487356192925768 0 -0.0066551511121152509 -0.00088111273197143776 0 -0.0081944311948622534 -0.00023105559156227757 0 -0.0066747748375260473 0.00030487356192925768 0 -0.0066551511121152509 -0.00088111273197143776 0 -0.0075776057549144541 0.0011803838393729463 0 -0.0066747748375260473 0.00030487356192925768 0 -0.0066107097530432408 0.001120330364213348 0 -0.0081944311948622534 -0.00023105559156227757 0 -0.0075776057549144541 0.0011803838393729463 0 -0.0066747748375260473 0.00030487356192925768 0 -0.0057504100803650307 0.0010246954593803018 0 -0.0066747748375260473 0.00030487356192925768 0 -0.0066107097530432408 0.001120330364213348 0 -0.0057504100803650307 0.0010246954593803018 0 -0.0057099380010633763 -0.00032461905207802516 0 -0.0066747748375260473 0.00030487356192925768 0 -0.014211497340702284 0.0014541886462632371 0 -0.014306034843317514 0.0009888435506220242 0 -0.013830229470609261 0.0012074930802942812 0 -0.014211497340702284 0.0014541886462632371 0 -0.014789046234024411 0.0014134562673825456 0 -0.014306034843317514 0.0009888435506220242 0 -0.014211497340702284 0.0014541886462632371 0 -0.013851488060564854 0.0016750909473652294 0 -0.013830229470609261 0.0012074930802942812 0 -0.014450482239364652 0.0019185704328982653 0 -0.013851488060564854 0.0016750909473652294 0 -0.013504855142617249 0.0021312993695325531 0 -0.014211497340702284 0.0014541886462632371 0 -0.014450482239364652 0.0019185704328982653 0 -0.013851488060564854 0.0016750909473652294 0 -0.016762891934116925 0.0013914655905969821 0 -0.016631183322774287 0.0014241296173312548 0 -0.018873265934845986 0.00061957200083278543 0 -0.019076585425661281 0.00087001294772154651 0 -0.018681914762859245 0.00076212559544129978 0 -0.016762891934116925 0.0013914655905969821 0 -0.017308304038240491 0.0011957415027942996 0 -0.014789046234024411 0.0014134562673825456 0 -0.015615726856336554 0.00086257909175257411 0 -0.015204867863768368 0.00028751945433140645 0 -0.014811017258596329 0.0013187312947083192 0 -0.015018957267044735 0.00058592703814363439 0 -0.014450482239364652 0.0019185704328982653 0 -0.014789046234024411 0.0014134562673825456 0 -0.016043175969880658 0.0015187655402145238 0 -0.014211497340702284 0.0014541886462632371 0 -0.014450482239364652 0.0019185704328982653 0 -0.014789046234024411 0.0014134562673825456 0 -0.014789046234024411 0.0014134562673825456 0 -0.016043175969880658 0.0015187655402145238 0 -0.015615726856336554 0.00086257909175257411 0 -0.019076585425661281 0.00087001294772154651 0 -0.018531380973766016 0.00092888903510585422 0 -0.018681914762859245 0.00076212559544129978 0 -0.018248265136328389 0.00070253127841824088 0 -0.018531380973766016 0.00092888903510585422 0 -0.018681914762859245 0.00076212559544129978 0 -0.018618590760192698 0.00059191960164761963 0 -0.018248265136328389 0.00070253127841824088 0 -0.018681914762859245 0.00076212559544129978 0 -0.017900922024691426 0.00083546535705584038 0 -0.017308304038240491 0.0011957415027942996 0 -0.018248265136328389 0.00070253127841824088 0 -0.017910509547602944 0.00079935515556356883 0 -0.018531380973766016 0.00092888903510585422 0 -0.017910509547602944 0.00079935515556356883 0 -0.016043175969880658 0.0015187655402145238 0 -0.01646541399668762 0.00020278426858774622 0 -0.017990322720583183 -4.8201743230716603e-05 0 -0.01646541399668762 0.00020278426858774622 0 -0.016973521226353091 -0.0011053905856727617 0 -0.01646541399668762 0.00020278426858774622 0 -0.015614408759694035 -0.00088794337234329333 0 -0.016973521226353091 -0.0011053905856727617 0 -0.01646541399668762 0.00020278426858774622 0 -0.015614408759694035 -0.00088794337234329333 0 -0.015204867863768368 0.00028751945433140645 0 -0.015731141778339699 -0.00070402608985546471 0 -0.015018957267044735 0.00058592703814363439 0 -0.015615726856336554 0.00086257909175257411 0 -0.01646541399668762 0.00020278426858774622 0 -0.015204867863768368 0.00028751945433140645 0 -0.016043175969880658 0.0015187655402145238 0 -0.015615726856336554 0.00086257909175257411 0 -0.01646541399668762 0.00020278426858774622 0 -0.014789046234024411 0.0014134562673825456 0 -0.014908545627263681 0.00073372617997160866 0 -0.014306034843317514 0.0009888435506220242 0 -0.014908545627263681 0.00073372617997160866 0 -0.014225705022206384 0.00046283767466533338 0 -0.014306034843317514 0.0009888435506220242 0 -0.014908545627263681 0.00073372617997160866 0 -0.014225705022206384 0.00046283767466533338 0 -0.014441505278557044 -0.00023949232070587495 0 -0.01514156030000266 -7.3885883827272045e-05 0 -0.014908545627263681 0.00073372617997160866 0 -0.014441505278557044 -0.00023949232070587495 0 -0.014225705022206384 0.00046283767466533338 0 -0.013734252427729696 -0.00019495442574266153 0 -0.013168671134775262 0.00026789975185538247 0 -0.014158459901390613 0.00045936387991455291 0 -0.013393703841627977 0.00031856973113987644 0 -0.014225705022206384 0.00046283767466533338 0 -0.013734252427729696 -0.00019495442574266153 0 -0.014441505278557044 -0.00023949232070587495 0 -0.014225705022206384 0.00046283767466533338 0 -0.013876733305825889 0.00078167906770019177 0 -0.013582611217032105 0.00037636781561972081 0 -0.014225705022206384 0.00046283767466533338 0 -0.013876733305825889 0.00078167906770019177 0 -0.014306034843317514 0.0009888435506220242 0 -0.013876733305825889 0.00078167906770019177 0 -0.014306034843317514 0.0009888435506220242 0 -0.013830229470609261 0.0012074930802942812 0 -0.013787466906262653 -0.00087209996243530331 0 -0.014619088836359127 -0.00097401716064088339 0 -0.013896879484025475 -0.0015347322519182189 0 -0.013787466906262653 -0.00087209996243530331 0 -0.013896879484025475 -0.0015347322519182189 0 -0.013381213774340071 -0.001478827972163024 0 -0.013787466906262653 -0.00087209996243530331 0 -0.013734252427729696 -0.00019495442574266153 0 -0.014441505278557044 -0.00023949232070587495 0 -0.01514156030000266 -7.3885883827272045e-05 0 -0.014441505278557044 -0.00023949232070587495 0 -0.014619088836359127 -0.00097401716064088339 0 -0.013787466906262653 -0.00087209996243530331 0 -0.014441505278557044 -0.00023949232070587495 0 -0.014619088836359127 -0.00097401716064088339 0 -0.014619088836359127 -0.00097401716064088339 0 -0.015387428353374573 -0.00090674021412029708 0 -0.014506441484808947 -0.0017693035607787924 0 -0.014619088836359127 -0.00097401716064088339 0 -0.014506441484808947 -0.0017693035607787924 0 -0.013896879484025475 -0.0015347322519182189 0 -0.01060969770153143 -0.0014979663103091396 0 -0.010151086354919688 -0.0017948763134195342 0 -0.01060969770153143 -0.0014979663103091396 0 -0.0044183121418270568 -0.0013960853771069139 0 -0.01514156030000266 -7.3885883827272045e-05 0 -0.014619088836359127 -0.00097401716064088339 0 -0.015387428353374573 -0.00090674021412029708 0 -0.015614408759694035 -0.00088794337234329333 0 -0.015975963793723569 -0.0020529253606019161 0 -0.016973521226353091 -0.0011053905856727617 0 -0.015731141778339699 -0.00070402608985546471 0 -0.01060969770153143 -0.0014979663103091396 0 -0.01060969770153143 -0.0014979663103091396 0 -0.011246737786171695 -0.0011374141203639473 0 -0.0053580522815969813 -0.0013525933162328618 0 -0.0055391594648822508 -0.0011257301914409422 0 -0.0055768774033079609 -0.0014195880335640489 0 -0.0053580522815969813 -0.0013525933162328618 0 -0.0054756173470717978 -0.0016812185499184209 0 -0.0055768774033079609 -0.0014195880335640489 0 -0.0054756173470717978 -0.0016812185499184209 0 -0.0055768774033079609 -0.0014195880335640489 0 -0.0055694857042141339 -0.0016176461624378049 0 -0.0054756173470717978 -0.0016812185499184209 0 -0.0054885191319202454 -0.0016876105247323296 0 -0.0055694857042141339 -0.0016176461624378049 0 -0.0054756173470717978 -0.0016812185499184209 0 -0.0054885191319202454 -0.0016876105247323296 0 -0.0055705390596266294 -0.0016788040814516905 0 -0.0054885191319202454 -0.0016876105247323296 0 -0.0054557920925242141 -0.0017020747150686627 0 -0.0055079488974542103 -0.001670288245621161 0 -0.0054885191319202454 -0.0016876105247323296 0 -0.0055705390596266294 -0.0016788040814516905 0 -0.0055079488974542103 -0.001670288245621161 0 -0.0055705390596266294 -0.0016788040814516905 0 -0.0055979094429412547 -0.0016616327157077922 0 -0.0055079488974542103 -0.001670288245621161 0 -0.0055705390596266294 -0.0016788040814516905 0 -0.0055979094429412547 -0.0016616327157077922 0 -0.0056840464268744324 -0.0016864851510552026 0 -0.0055705390596266294 -0.0016788040814516905 0 -0.0056693041262792128 -0.0017005678109397893 0 -0.0056840464268744324 -0.0016864851510552026 0 -0.0055705390596266294 -0.0016788040814516905 0 -0.0056693041262792128 -0.0017005678109397893 0 -0.0056080629928781153 -0.00170070334686382 0 -0.0055900108585627811 -0.0020085292264818188 0 -0.0056080629928781153 -0.00170070334686382 0 -0.005762377750280415 -0.0017405858583085972 0 -0.0056693041262792128 -0.0017005678109397893 0 -0.0056080629928781153 -0.00170070334686382 0 -0.005762377750280415 -0.0017405858583085972 0 -0.0055900108585627811 -0.0020085292264818188 0 -0.0054756173470717978 -0.0016812185499184209 0 -0.0056080629928781153 -0.00170070334686382 0 -0.0054756173470717978 -0.0016812185499184209 0 -0.0055705390596266294 -0.0016788040814516905 0 -0.0056080629928781153 -0.00170070334686382 0 -0.0055900108585627811 -0.0020085292264818188 0 -0.0059018112978384812 -0.0018139347760701553 0 -0.005762377750280415 -0.0017405858583085972 0 -0.0059018112978384812 -0.0018139347760701553 0 -0.005762377750280415 -0.0017405858583085972 0 -0.0067632145535854128 -0.001097689142059201 0 -0.005762377750280415 -0.0017405858583085972 0 -0.0057155276739701971 -0.0017070097534324369 0 -0.0057485000363190564 -0.0017070492595980401 0 -0.0056693041262792128 -0.0017005678109397893 0 -0.005762377750280415 -0.0017405858583085972 0 -0.0057155276739701971 -0.0017070097534324369 0 -0.0057155276739701971 -0.0017070097534324369 0 -0.0057485000363190564 -0.0017070492595980401 0 -0.0056840464268744324 -0.0016864851510552026 0 -0.005762377750280415 -0.0017405858583085972 0 -0.0057485000363190564 -0.0017070492595980401 0 -0.0057784379840557752 -0.0017007389516422989 0 -0.0056693041262792128 -0.0017005678109397893 0 -0.0057155276739701971 -0.0017070097534324369 0 -0.0056840464268744324 -0.0016864851510552026 0 -0.005762377750280415 -0.0017405858583085972 0 -0.0057784379840557752 -0.0017007389516422989 0 -0.0058587541328182996 -0.0016930636336163058 0 -0.0057485000363190564 -0.0017070492595980401 0 -0.0057369013537328477 -0.0016860515125583688 0 -0.0056840464268744324 -0.0016864851510552026 0 -0.0055979094429412547 -0.0016616327157077922 0 -0.0056840464268744324 -0.0016864851510552026 0 -0.0057052025404402667 -0.00166407567561645 0 -0.0055979094429412547 -0.0016616327157077922 0 -0.0057052025404402667 -0.00166407567561645 0 -0.0056652699355411095 -0.0016334677231256271 0 -0.0057369013537328477 -0.0016860515125583688 0 -0.0056840464268744324 -0.0016864851510552026 0 -0.0057052025404402667 -0.00166407567561645 0 -0.0057052025404402667 -0.00166407567561645 0 -0.0057798238237115485 -0.001674857134075777 0 -0.0057601995865009491 -0.0016369600827883604 0 -0.0057369013537328477 -0.0016860515125583688 0 -0.0057052025404402667 -0.00166407567561645 0 -0.0057798238237115485 -0.001674857134075777 0 -0.0057798238237115485 -0.001674857134075777 0 -0.0058140547974522725 -0.0016588318621755611 0 -0.0057601995865009491 -0.0016369600827883604 0 -0.0057369013537328477 -0.0016860515125583688 0 -0.0057798238237115485 -0.001674857134075777 0 -0.0057784379840557752 -0.0017007389516422989 0 -0.0057485000363190564 -0.0017070492595980401 0 -0.0057369013537328477 -0.0016860515125583688 0 -0.0057784379840557752 -0.0017007389516422989 0 -0.014506441484808947 -0.0017693035607787924 0 -0.013468812648073421 -0.0026914321346326012 0 -0.013728649161065545 -0.0021859624540371899 0 -0.010151086354919688 -0.0017948763134195342 0 -0.010426515288125505 -0.0018928890817430405 0 -0.0058936066509298621 -0.0017358293359598753 0 -0.006007941951560577 -0.0013319554256766063 0 -0.0059018112978384812 -0.0018139347760701553 0 -0.0068629035976236277 -0.0011558259634525179 0 -0.0067632145535854128 -0.001097689142059201 0 -0.0057798238237115485 -0.001674857134075777 0 -0.0058587541328182996 -0.0016930636336163058 0 -0.0058140547974522725 -0.0016588318621755611 0 -0.0057798238237115485 -0.001674857134075777 0 -0.0057784379840557752 -0.0017007389516422989 0 -0.0058587541328182996 -0.0016930636336163058 0 -0.013728649161065545 -0.0021859624540371899 0 -0.013896879484025475 -0.0015347322519182189 0 -0.013373053734037457 -0.0019439591139996507 0 -0.014506441484808947 -0.0017693035607787924 0 -0.013728649161065545 -0.0021859624540371899 0 -0.013896879484025475 -0.0015347322519182189 0 -0.013896879484025475 -0.0015347322519182189 0 -0.013373053734037457 -0.0019439591139996507 0 -0.013381213774340071 -0.001478827972163024 0 -0.0066551511121152509 -0.00088111273197143776 0 -0.0057445602673024797 -0.0013806369767343561 0 -0.0061891781007317702 -0.0015728519337649862 0 -0.0068443996196630667 -0.0014200130535618565 0 -0.0066551511121152509 -0.00088111273197143776 0 -0.0061891781007317702 -0.0015728519337649862 0 -0.0057099380010633763 -0.00032461905207802516 0 -0.0066551511121152509 -0.00088111273197143776 0 -0.0057445602673024797 -0.0013806369767343561 0 -0.0059752110536231201 -0.001057026406005466 0 -0.0057251486002680386 -0.0012268075283120086 0 -0.0057445602673024797 -0.0013806369767343561 0 -0.005121652547453814 -0.00071823826024635892 0 -0.0059337563976462658 -0.0013061760630548082 0 -0.0055391594648822508 -0.0011257301914409422 0 -0.0057251486002680386 -0.0012268075283120086 0 -0.0055768774033079609 -0.0014195880335640489 0 -0.0055768774033079609 -0.0014195880335640489 0 -0.0057445602673024797 -0.0013806369767343561 0 -0.0055694857042141339 -0.0016176461624378049 0 -0.0057251486002680386 -0.0012268075283120086 0 -0.0055768774033079609 -0.0014195880335640489 0 -0.0057445602673024797 -0.0013806369767343561 0 -0.0057445602673024797 -0.0013806369767343561 0 -0.0057769739463648176 -0.0017073130128836078 0 -0.0055694857042141339 -0.0016176461624378049 0 -0.0054885191319202454 -0.0016876105247323296 0 -0.0055688776628052905 -0.0017307175074222723 0 -0.0054557920925242141 -0.0017020747150686627 0 -0.0054885191319202454 -0.0016876105247323296 0 -0.0055694857042141339 -0.0016176461624378049 0 -0.0055688776628052905 -0.0017307175074222723 0 -0.0057769739463648176 -0.0017073130128836078 0 -0.0055694857042141339 -0.0016176461624378049 0 -0.0055688776628052905 -0.0017307175074222723 0 -0.0057769739463648176 -0.0017073130128836078 0 -0.0055688776628052905 -0.0017307175074222723 0 -0.0056340966018324371 -0.0018016736963307447 0 -0.0057769739463648176 -0.0017073130128836078 0 -0.0059874696589809874 -0.0018490141694864218 0 -0.0056340966018324371 -0.0018016736963307447 0 -0.0057769739463648176 -0.0017073130128836078 0 -0.0061891781007317702 -0.0015728519337649862 0 -0.0059874696589809874 -0.0018490141694864218 0 -0.0057445602673024797 -0.0013806369767343561 0 -0.0057769739463648176 -0.0017073130128836078 0 -0.0061891781007317702 -0.0015728519337649862 0 -0.0064439676533530931 -0.0018927620141088535 0 -0.0061891781007317702 -0.0015728519337649862 0 -0.0059874696589809874 -0.0018490141694864218 0 -0.0064439676533530931 -0.0018927620141088535 0 -0.0068443996196630667 -0.0014200130535618565 0 -0.0061891781007317702 -0.0015728519337649862 0 -0.0064439676533530931 -0.0018927620141088535 0 -0.0059874696589809874 -0.0018490141694864218 0 -0.0060254495776576903 -0.0019200288523861444 0 -0.0059874696589809874 -0.0018490141694864218 0 -0.0057202158483682028 -0.0018282878944498081 0 -0.0060254495776576903 -0.0019200288523861444 0 -0.0057202158483682028 -0.0018282878944498081 0 -0.0054361339794448552 -0.0017032223291359341 0 -0.0054963101940199589 -0.0016526871345594258 0 -0.0057202158483682028 -0.0018282878944498081 0 -0.0054361339794448552 -0.0017032223291359341 0 -0.0054534598117289149 -0.0017502869972762848 0 -0.0054361339794448552 -0.0017032223291359341 0 -0.0054534598117289149 -0.0017502869972762848 0 -0.0052267326718688709 -0.0016563011578763836 0 -0.0054534598117289149 -0.0017502869972762848 0 -0.00546895659927122 -0.0017546244073331169 0 -0.0052056736925481066 -0.0016701167474081392 0 -0.0057202158483682028 -0.0018282878944498081 0 -0.0054534598117289149 -0.0017502869972762848 0 -0.0056340966018324371 -0.0018016736963307447 0 -0.0059874696589809874 -0.0018490141694864218 0 -0.0057202158483682028 -0.0018282878944498081 0 -0.0056340966018324371 -0.0018016736963307447 0 -0.0054534598117289149 -0.0017502869972762848 0 -0.0056340966018324371 -0.0018016736963307447 0 -0.00546895659927122 -0.0017546244073331169 0 -0.0055688776628052905 -0.0017307175074222723 0 -0.0056340966018324371 -0.0018016736963307447 0 -0.0054794342337323634 -0.0017373886230558325 0 -0.0056340966018324371 -0.0018016736963307447 0 -0.0054794342337323634 -0.0017373886230558325 0 -0.00546895659927122 -0.0017546244073331169 0 -0.0054557920925242141 -0.0017020747150686627 0 -0.0054794342337323634 -0.0017373886230558325 0 -0.0053686710351116005 -0.001705426974429148 0 -0.0055688776628052905 -0.0017307175074222723 0 -0.0054557920925242141 -0.0017020747150686627 0 -0.0054794342337323634 -0.0017373886230558325 0 -0.0054557920925242141 -0.0017020747150686627 0 -0.0053686710351116005 -0.001705426974429148 0 -0.0054178704095416428 -0.0016343740659864367 0 -0.0053686710351116005 -0.001705426974429148 0 -0.00546895659927122 -0.0017546244073331169 0 -0.0052056736925481066 -0.0016701167474081392 0 -0.0054794342337323634 -0.0017373886230558325 0 -0.0053686710351116005 -0.001705426974429148 0 -0.00546895659927122 -0.0017546244073331169 0 -0.0053686710351116005 -0.001705426974429148 0 -0.0051614969210759705 -0.0016304730245671056 0 -0.0052056736925481066 -0.0016701167474081392 0 -0.0051614969210759705 -0.0016304730245671056 0 -0.0053096667832992772 -0.0016705629830043101 0 -0.0052005791418429656 -0.0016171448817377417 0 -0.0053686710351116005 -0.001705426974429148 0 -0.0051614969210759705 -0.0016304730245671056 0 -0.0053096667832992772 -0.0016705629830043101 0 -0.0051614969210759705 -0.0016304730245671056 0 -0.0048774377702721378 -0.0014631244144632722 0 -0.0050697638878083829 -0.0015252016719934482 0 -0.0051614969210759705 -0.0016304730245671056 0 -0.0052005791418429656 -0.0016171448817377417 0 -0.0050697638878083829 -0.0015252016719934482 0 -0.0051614969210759705 -0.0016304730245671056 0 -0.0049040552728291144 -0.0015536436955643116 0 -0.0048774377702721378 -0.0014631244144632722 0 -0.0051614969210759705 -0.0016304730245671056 0 -0.0049040552728291144 -0.0015536436955643116 0 -0.0052056736925481066 -0.0016701167474081392 0 -0.0049040552728291144 -0.0015536436955643116 0 -0.0049262622601115476 -0.0015732197107154562 0 -0.0052056736925481066 -0.0016701167474081392 0 -0.0049262622601115476 -0.0015732197107154562 0 -0.0046687132612495625 -0.0015007325340355038 0 -0.0045589695410234287 -0.0014911013635080571 0 -0.0049040552728291144 -0.0015536436955643116 0 -0.0049262622601115476 -0.0015732197107154562 0 -0.0046687132612495625 -0.0015007325340355038 0 -0.0054361339794448552 -0.0017032223291359341 0 -0.0052267326718688709 -0.0016563011578763836 0 -0.0051141277462602398 -0.0015767772888766898 0 -0.0049262622601115476 -0.0015732197107154562 0 -0.0052267326718688709 -0.0016563011578763836 0 -0.0051141277462602398 -0.0015767772888766898 0 -0.0049262622601115476 -0.0015732197107154562 0 -0.0052267326718688709 -0.0016563011578763836 0 -0.0052056736925481066 -0.0016701167474081392 0 -0.0054534598117289149 -0.0017502869972762848 0 -0.0052267326718688709 -0.0016563011578763836 0 -0.0052056736925481066 -0.0016701167474081392 0 -0.0058352165576478453 -0.001443119860663232 0 -0.0059109728063432634 -0.0013840929442497634 0 -0.005936168364429205 -0.0014483815819973285 0 -0.0058352165576478453 -0.001443119860663232 0 -0.0058778397499705433 -0.0015021758633197129 0 -0.005936168364429205 -0.0014483815819973285 0 -0.0058352165576478453 -0.001443119860663232 0 -0.0057867518988410274 -0.0015269077636006062 0 -0.0057500958326690563 -0.0014660883038630052 0 -0.0058352165576478453 -0.001443119860663232 0 -0.0057867518988410274 -0.0015269077636006062 0 -0.0058778397499705433 -0.0015021758633197129 0 -0.0057867518988410274 -0.0015269077636006062 0 -0.0058778397499705433 -0.0015021758633197129 0 -0.0058567681299049254 -0.001561179644956952 0 -0.0058778397499705433 -0.0015021758633197129 0 -0.0059029567598771291 -0.0015425671142834784 0 -0.0058567681299049254 -0.001561179644956952 0 -0.0058778397499705433 -0.0015021758633197129 0 -0.0059029567598771291 -0.0015425671142834784 0 -0.0059579361007115212 -0.0015153169107037187 0 -0.0058778397499705433 -0.0015021758633197129 0 -0.0059579361007115212 -0.0015153169107037187 0 -0.005936168364429205 -0.0014483815819973285 0 -0.0059029567598771291 -0.0015425671142834784 0 -0.0058567681299049254 -0.001561179644956952 0 -0.0059195396105446814 -0.0015900083606321044 0 -0.0058567681299049254 -0.001561179644956952 0 -0.0059195396105446814 -0.0015900083606321044 0 -0.005847082462178986 -0.0016022935379626578 0 -0.0058587541328182996 -0.0016930636336163058 0 -0.0059195396105446814 -0.0015900083606321044 0 -0.0058525658125372984 -0.0016359635112833065 0 -0.0059195396105446814 -0.0015900083606321044 0 -0.0058525658125372984 -0.0016359635112833065 0 -0.005847082462178986 -0.0016022935379626578 0 -0.0058587541328182996 -0.0016930636336163058 0 -0.0058525658125372984 -0.0016359635112833065 0 -0.0058140547974522725 -0.0016588318621755611 0 -0.0058140547974522725 -0.0016588318621755611 0 -0.0058156080499636009 -0.0016265490448938514 0 -0.0057601995865009491 -0.0016369600827883604 0 -0.0058525658125372984 -0.0016359635112833065 0 -0.0058140547974522725 -0.0016588318621755611 0 -0.0058156080499636009 -0.0016265490448938514 0 -0.0058156080499636009 -0.0016265490448938514 0 -0.0057975052705403381 -0.0015952096724937879 0 -0.005847082462178986 -0.0016022935379626578 0 -0.0058525658125372984 -0.0016359635112833065 0 -0.0058156080499636009 -0.0016265490448938514 0 -0.005847082462178986 -0.0016022935379626578 0 -0.0058156080499636009 -0.0016265490448938514 0 -0.0057975052705403381 -0.0015952096724937879 0 -0.0057601995865009491 -0.0016369600827883604 0 -0.0057867518988410274 -0.0015269077636006062 0 -0.0058567681299049254 -0.001561179644956952 0 -0.0057975052705403381 -0.0015952096724937879 0 -0.0058567681299049254 -0.001561179644956952 0 -0.0057975052705403381 -0.0015952096724937879 0 -0.005847082462178986 -0.0016022935379626578 0 -0.0057975052705403381 -0.0015952096724937879 0 -0.0057225298164399318 -0.001587658468184592 0 -0.0057601995865009491 -0.0016369600827883604 0 -0.0057867518988410274 -0.0015269077636006062 0 -0.0057975052705403381 -0.0015952096724937879 0 -0.0057225298164399318 -0.001587658468184592 0 -0.0057225298164399318 -0.001587658468184592 0 -0.0057601995865009491 -0.0016369600827883604 0 -0.0056652699355411095 -0.0016334677231256271 0 -0.0057052025404402667 -0.00166407567561645 0 -0.0057601995865009491 -0.0016369600827883604 0 -0.0056652699355411095 -0.0016334677231256271 0 -0.0057225298164399318 -0.001587658468184592 0 -0.0056542721019838538 -0.001591221780679692 0 -0.0056802092452646214 -0.0015223854021275387 0 -0.0057225298164399318 -0.001587658468184592 0 -0.0056652699355411095 -0.0016334677231256271 0 -0.0056542721019838538 -0.001591221780679692 0 -0.0057867518988410274 -0.0015269077636006062 0 -0.0056802092452646214 -0.0015223854021275387 0 -0.0057500958326690563 -0.0014660883038630052 0 -0.0057867518988410274 -0.0015269077636006062 0 -0.0057225298164399318 -0.001587658468184592 0 -0.0056802092452646214 -0.0015223854021275387 0 -0.0058352165576478453 -0.001443119860663232 0 -0.0057500958326690563 -0.0014660883038630052 0 -0.0057663626592935786 -0.0014036825211221685 0 -0.0057500958326690563 -0.0014660883038630052 0 -0.0056954168524715404 -0.0014101473827479055 0 -0.0057663626592935786 -0.0014036825211221685 0 -0.0056802092452646214 -0.0015223854021275387 0 -0.0055566550097622793 -0.0014296632516348927 0 -0.0056954168524715404 -0.0014101473827479055 0 -0.0056802092452646214 -0.0015223854021275387 0 -0.0057500958326690563 -0.0014660883038630052 0 -0.0056954168524715404 -0.0014101473827479055 0 -0.0055566550097622793 -0.0014296632516348927 0 -0.0055744648320832707 -0.001605439018861547 0 -0.0054178704095416428 -0.0016343740659864367 0 -0.0056802092452646214 -0.0015223854021275387 0 -0.0055566550097622793 -0.0014296632516348927 0 -0.0055744648320832707 -0.001605439018861547 0 -0.0054463632800495522 -0.0015496607859955965 0 -0.0054098887499441544 -0.001621620074122983 0 -0.0056542721019838538 -0.001591221780679692 0 -0.0056802092452646214 -0.0015223854021275387 0 -0.0055744648320832707 -0.001605439018861547 0 -0.0056652699355411095 -0.0016334677231256271 0 -0.0056542721019838538 -0.001591221780679692 0 -0.0055744648320832707 -0.001605439018861547 0 -0.0055979094429412547 -0.0016616327157077922 0 -0.0056652699355411095 -0.0016334677231256271 0 -0.0055744648320832707 -0.001605439018861547 0 -0.0055979094429412547 -0.0016616327157077922 0 -0.0055744648320832707 -0.001605439018861547 0 -0.0055079488974542103 -0.001670288245621161 0 -0.0055744648320832707 -0.001605439018861547 0 -0.0055079488974542103 -0.001670288245621161 0 -0.0054178704095416428 -0.0016343740659864367 0 -0.0054557920925242141 -0.0017020747150686627 0 -0.0055079488974542103 -0.001670288245621161 0 -0.0054178704095416428 -0.0016343740659864367 0 -0.0053686710351116005 -0.001705426974429148 0 -0.0054178704095416428 -0.0016343740659864367 0 -0.0053096667832992772 -0.0016705629830043101 0 -0.0053136676757863472 -0.001667638278167821 0 -0.0054178704095416428 -0.0016343740659864367 0 -0.0053096667832992772 -0.0016705629830043101 0 -0.0053136676757863472 -0.001667638278167821 0 -0.0053096667832992772 -0.0016705629830043101 0 -0.0052949939054385171 -0.0016516852215761374 0 -0.0053096667832992772 -0.0016705629830043101 0 -0.005243197208712521 -0.0016155729062631457 0 -0.0052949939054385171 -0.0016516852215761374 0 -0.0053096667832992772 -0.0016705629830043101 0 -0.0052005791418429656 -0.0016171448817377417 0 -0.005243197208712521 -0.0016155729062631457 0 -0.0052005791418429656 -0.0016171448817377417 0 -0.0051588247500190983 -0.0015389968736717651 0 -0.005243197208712521 -0.0016155729062631457 0 -0.0052005791418429656 -0.0016171448817377417 0 -0.0051588247500190983 -0.0015389968736717651 0 -0.0050697638878083829 -0.0015252016719934482 0 -0.0051588247500190983 -0.0015389968736717651 0 -0.005243197208712521 -0.0016155729062631457 0 -0.0052581094333844745 -0.0015397671968767233 0 -0.005243197208712521 -0.0016155729062631457 0 -0.005298447406646754 -0.0016106618605731791 0 -0.0052581094333844745 -0.0015397671968767233 0 -0.005243197208712521 -0.0016155729062631457 0 -0.005298447406646754 -0.0016106618605731791 0 -0.0052949939054385171 -0.0016516852215761374 0 -0.005298447406646754 -0.0016106618605731791 0 -0.0052581094333844745 -0.0015397671968767233 0 -0.0053151334513431188 -0.0015771597018583679 0 -0.0053151334513431188 -0.0015771597018583679 0 -0.0053498523604711716 -0.0016062082183278305 0 -0.0053515862009129288 -0.0015455837788825358 0 -0.0052581094333844745 -0.0015397671968767233 0 -0.0053151334513431188 -0.0015771597018583679 0 -0.0053515862009129288 -0.0015455837788825358 0 -0.005298447406646754 -0.0016106618605731791 0 -0.0053274266082301951 -0.0016419386031326726 0 -0.0053498523604711716 -0.0016062082183278305 0 -0.005298447406646754 -0.0016106618605731791 0 -0.0053151334513431188 -0.0015771597018583679 0 -0.0053498523604711716 -0.0016062082183278305 0 -0.0053136676757863472 -0.001667638278167821 0 -0.0053274266082301951 -0.0016419386031326726 0 -0.0053669102146570455 -0.001646869429464768 0 -0.0053274266082301951 -0.0016419386031326726 0 -0.0053520928885919736 -0.0016354930018092197 0 -0.0053498523604711716 -0.0016062082183278305 0 -0.005298447406646754 -0.0016106618605731791 0 -0.0053274266082301951 -0.0016419386031326726 0 -0.0052949939054385171 -0.0016516852215761374 0 -0.0053136676757863472 -0.001667638278167821 0 -0.0053274266082301951 -0.0016419386031326726 0 -0.0052949939054385171 -0.0016516852215761374 0 -0.0054463632800495522 -0.0015496607859955965 0 -0.0054995747520383094 -0.0014860531655805772 0 -0.0054995747520383094 -0.0014860531655805772 0 -0.0057464092021998776 -0.001365929720336246 0 -0.0057663861351327245 -0.0013442289339117939 0 -0.0056760672226476841 -0.001293488661394481 0 -0.0058527726455111315 -0.0012575938850980664 0 -0.0055566550097622793 -0.0014296632516348927 0 -0.0056954168524715404 -0.0014101473827479055 0 -0.0056760672226476841 -0.001293488661394481 0 -0.0056954168524715404 -0.0014101473827479055 0 -0.0057663861351327245 -0.0013442289339117939 0 -0.0056760672226476841 -0.001293488661394481 0 -0.0056954168524715404 -0.0014101473827479055 0 -0.0057663626592935786 -0.0014036825211221685 0 -0.0057663861351327245 -0.0013442289339117939 0 -0.0053274266082301951 -0.0016419386031326726 0 -0.0053669102146570455 -0.001646869429464768 0 -0.0053520928885919736 -0.0016354930018092197 0 -0.0053669102146570455 -0.001646869429464768 0 -0.0053520928885919736 -0.0016354930018092197 0 -0.0053498523604711716 -0.0016062082183278305 0 -0.0053635706937742913 -0.0015256886370986033 0 -0.0055233369604112282 -0.0013561032827276473 0 -0.0056354432328894078 -0.0014809731049120901 0 -0.0053669102146570455 -0.001646869429464768 0 -0.0053498523604711716 -0.0016062082183278305 0 -0.0054675336450128714 -0.001569529072766354 0 -0.0053498523604711716 -0.0016062082183278305 0 -0.0053515862009129288 -0.0015455837788825358 0 -0.0054675336450128714 -0.001569529072766354 0 -0.0054995747520383094 -0.0014860531655805772 0 -0.0054907637357026794 -0.0014604042961594355 0 -0.0056354432328894078 -0.0014809731049120901 0 -0.0057292280174147427 -0.0013671959481195313 0 -0.0059168916245103658 -0.001436202840851937 0 -0.0055233369604112282 -0.0013561032827276473 0 -0.0056354432328894078 -0.0014809731049120901 0 -0.0057292280174147427 -0.0013671959481195313 0 -0.0054907637357026794 -0.0014604042961594355 0 -0.0054152656410520125 -0.0013327433978107064 0 -0.0055233369604112282 -0.0013561032827276473 0 -0.0057292280174147427 -0.0013671959481195313 0 -0.0056849190836499846 -0.0011795987333977536 0 -0.0058527726455111315 -0.0012575938850980664 0 -0.0058414735594712868 -0.0013556354938067494 0 -0.0059392548547573653 -0.0013127460185231006 0 -0.0057663861351327245 -0.0013442289339117939 0 -0.0058527726455111315 -0.0012575938850980664 0 -0.0058414735594712868 -0.0013556354938067494 0 -0.0057663626592935786 -0.0014036825211221685 0 -0.0057663861351327245 -0.0013442289339117939 0 -0.0058414735594712868 -0.0013556354938067494 0 -0.0058352165576478453 -0.001443119860663232 0 -0.0057663626592935786 -0.0014036825211221685 0 -0.0058414735594712868 -0.0013556354938067494 0 -0.0058414735594712868 -0.0013556354938067494 0 -0.0059109728063432634 -0.0013840929442497634 0 -0.0059392548547573653 -0.0013127460185231006 0 -0.0058352165576478453 -0.001443119860663232 0 -0.0058414735594712868 -0.0013556354938067494 0 -0.0059109728063432634 -0.0013840929442497634 0 -0.0051932665650994882 -0.0012055434992311899 0 -0.0051271973980822755 -0.0011965375887390696 0 -0.0051731920270335612 -0.0011017615466197286 0 -0.0051932665650994882 -0.0012055434992311899 0 -0.0051984952672528483 -0.0012845979619133358 0 -0.0050983042047651967 -0.0012829973064380593 0 -0.0053515862009129288 -0.0015455837788825358 0 -0.0054675336450128714 -0.001569529072766354 0 -0.0053709046014296285 -0.0014163993893998785 0 -0.0054152656410520125 -0.0013327433978107064 0 -0.0052206249373342659 -0.0013567924934059031 0 -0.0054675336450128714 -0.001569529072766354 0 -0.0055564269560329357 -0.0014739813700707311 0 -0.0053709046014296285 -0.0014163993893998785 0 -0.0050983042047651967 -0.0012829973064380593 0 -0.0051271973980822755 -0.0011965375887390696 0 -0.0050542056427820446 -0.0011709232491182802 0 -0.0051932665650994882 -0.0012055434992311899 0 -0.0050983042047651967 -0.0012829973064380593 0 -0.0051271973980822755 -0.0011965375887390696 0 -0.0050983042047651967 -0.0012829973064380593 0 -0.0050459608666909997 -0.0013453548404049405 0 -0.0050542056427820446 -0.0011709232491182802 0 -0.0052206249373342659 -0.0013567924934059031 0 -0.0050591682551435879 -0.0013379148468795235 0 -0.0052581094333844745 -0.0015397671968767233 0 -0.0053709046014296285 -0.0014163993893998785 0 -0.0050459608666909997 -0.0013453548404049405 0 -0.0052581094333844745 -0.0015397671968767233 0 -0.0053515862009129288 -0.0015455837788825358 0 -0.0053709046014296285 -0.0014163993893998785 0 -0.0051588247500190983 -0.0015389968736717651 0 -0.0052581094333844745 -0.0015397671968767233 0 -0.0050459608666909997 -0.0013453548404049405 0 -0.0051588247500190983 -0.0015389968736717651 0 -0.0050459608666909997 -0.0013453548404049405 0 -0.0050697638878083829 -0.0015252016719934482 0 -0.0050459608666909997 -0.0013453548404049405 0 -0.0050542056427820446 -0.0011709232491182802 0 -0.0048123643938492262 -0.0011766178843355117 0 -0.0048031743790137044 -0.00088147180527205877 0 -0.0050542056427820446 -0.0011709232491182802 0 -0.0048123643938492262 -0.0011766178843355117 0 -0.0048031743790137044 -0.00088147180527205877 0 -0.0048123643938492262 -0.0011766178843355117 0 -0.0047273932053480509 -0.00086973451350238465 0 -0.0047819338144843796 -0.00085226846061186548 0 -0.0045476502764197294 -0.00076205173541262557 0 -0.0048031743790137044 -0.00088147180527205877 0 -0.0050542056427820446 -0.0011709232491182802 0 -0.0050956407198740261 -0.00095217995574605992 0 -0.0051271973980822755 -0.0011965375887390696 0 -0.0050542056427820446 -0.0011709232491182802 0 -0.0051731920270335612 -0.0011017615466197286 0 -0.0050542056427820446 -0.0011709232491182802 0 -0.0050956407198740261 -0.00095217995574605992 0 -0.0051731920270335612 -0.0011017615466197286 0 -0.0050956407198740261 -0.00095217995574605992 0 -0.0051731920270335612 -0.0011017615466197286 0 -0.0052025042993577506 -0.00099627047530537909 0 -0.0051731920270335612 -0.0011017615466197286 0 -0.0052281705257616112 -0.0010668423760691766 0 -0.0052025042993577506 -0.00099627047530537909 0 -0.0051932665650994882 -0.0012055434992311899 0 -0.0051731920270335612 -0.0011017615466197286 0 -0.0052251225380741109 -0.0011294360708155751 0 -0.0051731920270335612 -0.0011017615466197286 0 -0.0052251225380741109 -0.0011294360708155751 0 -0.0052281705257616112 -0.0010668423760691766 0 -0.00456087871916109 -0.001452313344139834 0 -0.0046687132612495625 -0.0015007325340355038 0 -0.0043533674731989066 -0.0014253964194709421 0 -0.00456087871916109 -0.001452313344139834 0 -0.0043392063572814232 -0.0012064620772038901 0 -0.0043533674731989066 -0.0014253964194709421 0 -0.0044769362301211443 -0.0014444132476920657 0 -0.004088776813083732 -0.0012826015770609376 0 -0.0049040552728291144 -0.0015536436955643116 0 -0.00456087871916109 -0.001452313344139834 0 -0.0048774377702721378 -0.0014631244144632722 0 -0.0049040552728291144 -0.0015536436955643116 0 -0.00456087871916109 -0.001452313344139834 0 -0.0046687132612495625 -0.0015007325340355038 0 -0.0050459608666909997 -0.0013453548404049405 0 -0.0048774377702721378 -0.0014631244144632722 0 -0.0050697638878083829 -0.0015252016719934482 0 -0.0048774377702721378 -0.0014631244144632722 0 -0.0046208468256040813 -0.0013137235174656766 0 -0.0048123643938492262 -0.0011766178843355117 0 -0.0050459608666909997 -0.0013453548404049405 0 -0.0048774377702721378 -0.0014631244144632722 0 -0.0048123643938492262 -0.0011766178843355117 0 -0.00456087871916109 -0.001452313344139834 0 -0.0048774377702721378 -0.0014631244144632722 0 -0.0046208468256040813 -0.0013137235174656766 0 -0.0046208468256040813 -0.0013137235174656766 0 -0.0045801086016512569 -0.0011206798084429416 0 -0.0042768550445009008 -0.0012579424451826104 0 -0.0046208468256040813 -0.0013137235174656766 0 -0.0048123643938492262 -0.0011766178843355117 0 -0.0045801086016512569 -0.0011206798084429416 0 -0.0048123643938492262 -0.0011766178843355117 0 -0.0045801086016512569 -0.0011206798084429416 0 -0.0047273932053480509 -0.00086973451350238465 0 -0.0045801086016512569 -0.0011206798084429416 0 -0.0042768550445009008 -0.0012579424451826104 0 -0.0044329310938758084 -0.00087877175860593705 0 -0.0045801086016512569 -0.0011206798084429416 0 -0.0044329310938758084 -0.00087877175860593705 0 -0.0047273932053480509 -0.00086973451350238465 0 -0.0042768550445009008 -0.0012579424451826104 0 -0.0038289882108812354 -0.0010144829416099785 0 -0.0044329310938758084 -0.00087877175860593705 0 -0.00456087871916109 -0.001452313344139834 0 -0.0046208468256040813 -0.0013137235174656766 0 -0.0042768550445009008 -0.0012579424451826104 0 -0.00456087871916109 -0.001452313344139834 0 -0.0042768550445009008 -0.0012579424451826104 0 -0.0038639687016578895 -0.0013990567701501891 0 -0.004088776813083732 -0.0012826015770609376 0 -0.0034698926923093457 -0.00097970733369451713 0 -0.0038639687016578895 -0.0013990567701501891 0 -0.0038289882108812354 -0.0010144829416099785 0 -0.0030955725037729673 -0.0010883641823094356 0 -0.0042768550445009008 -0.0012579424451826104 0 -0.0038639687016578895 -0.0013990567701501891 0 -0.0038289882108812354 -0.0010144829416099785 0 -0.0038513785727878396 -0.00088082315504725789 0 -0.0038165675580371606 -0.0012164414633555412 0 -0.0033550509463526508 -0.00081441979358154134 0 -0.0031594090138138101 -0.00096076371247192131 0 -0.0038165675580371606 -0.0012164414633555412 0 -0.003411310844170224 -0.0011689701341432348 0 -0.0031594090138138101 -0.00096076371247192131 0 -0.0038165675580371606 -0.0012164414633555412 0 -0.0033550509463526508 -0.00081441979358154134 0 -0.0038165675580371606 -0.0012164414633555412 0 -0.0037077963226568576 -0.0013177222423779316 0 -0.003411310844170224 -0.0011689701341432348 0 -0.0043392063572814232 -0.0012064620772038901 0 -0.0038165675580371606 -0.0012164414633555412 0 -0.0043533674731989066 -0.0014253964194709421 0 -0.0043392063572814232 -0.0012064620772038901 0 -0.0038513785727878396 -0.00088082315504725789 0 -0.0038165675580371606 -0.0012164414633555412 0 -0.0038165675580371606 -0.0012164414633555412 0 -0.0043533674731989066 -0.0014253964194709421 0 -0.0040336736967156407 -0.0014232197783556307 0 -0.0043533674731989066 -0.0014253964194709421 0 -0.0040336736967156407 -0.0014232197783556307 0 -0.0043148290439403957 -0.0014556873924803646 0 -0.0038165675580371606 -0.0012164414633555412 0 -0.0037077963226568576 -0.0013177222423779316 0 -0.0040336736967156407 -0.0014232197783556307 0 -0.0037077963226568576 -0.0013177222423779316 0 -0.0040336736967156407 -0.0014232197783556307 0 -0.0037328574622277756 -0.0014809173561568191 0 -0.0040336736967156407 -0.0014232197783556307 0 -0.0043343904343441002 -0.0014567649766271259 0 -0.0043148290439403957 -0.0014556873924803646 0 -0.0040336736967156407 -0.0014232197783556307 0 -0.0043343904343441002 -0.0014567649766271259 0 -0.0040486005041425526 -0.0014538667614527 0 -0.0043343904343441002 -0.0014567649766271259 0 -0.0043148290439403957 -0.0014556873924803646 0 -0.0045589695410234287 -0.0014911013635080571 0 -0.0043533674731989066 -0.0014253964194709421 0 -0.0043148290439403957 -0.0014556873924803646 0 -0.0045589695410234287 -0.0014911013635080571 0 -0.0046687132612495625 -0.0015007325340355038 0 -0.0043533674731989066 -0.0014253964194709421 0 -0.0045589695410234287 -0.0014911013635080571 0 -0.003789058289464057 -0.0014538649581459118 0 -0.0037328574622277756 -0.0014809173561568191 0 -0.0035293650473114135 -0.0015301284827756714 0 -0.003789058289464057 -0.0014538649581459118 0 -0.0031321795612953957 -0.0016366858657320443 0 -0.004004485142102973 -0.0013631406575554687 0 -0.003789058289464057 -0.0014538649581459118 0 -0.004004485142102973 -0.0013631406575554687 0 -0.0042283146285237126 -0.0012338579067990639 0 -0.0040336736967156407 -0.0014232197783556307 0 -0.0040486005041425526 -0.0014538667614527 0 -0.0037328574622277756 -0.0014809173561568191 0 -0.0040486005041425526 -0.0014538667614527 0 -0.0037328574622277756 -0.0014809173561568191 0 -0.0041408169059862889 -0.0014046373087907116 0 -0.003789058289464057 -0.0014538649581459118 0 -0.0037328574622277756 -0.0014809173561568191 0 -0.0041408169059862889 -0.0014046373087907116 0 -0.0043343904343441002 -0.0014567649766271259 0 -0.0040486005041425526 -0.0014538667614527 0 -0.0041408169059862889 -0.0014046373087907116 0 -0.0037328574622277756 -0.0014809173561568191 0 -0.0033989155531717655 -0.0014354958261455684 0 -0.0034186229163320914 -0.0012990879853794757 0 -0.0037328574622277756 -0.0014809173561568191 0 -0.0033989155531717655 -0.0014354958261455684 0 -0.0035293650473114135 -0.0015301284827756714 0 -0.0037077963226568576 -0.0013177222423779316 0 -0.0037328574622277756 -0.0014809173561568191 0 -0.0034186229163320914 -0.0012990879853794757 0 -0.0033989155531717655 -0.0014354958261455684 0 -0.0031321795612953957 -0.0016366858657320443 0 -0.0031697690214133791 -0.0012669982234661426 0 -0.003789058289464057 -0.0014538649581459118 0 -0.0035293650473114135 -0.0015301284827756714 0 -0.0031321795612953957 -0.0016366858657320443 0 -0.0033989155531717655 -0.0014354958261455684 0 -0.0035293650473114135 -0.0015301284827756714 0 -0.0031321795612953957 -0.0016366858657320443 0 -0.0026496340553615887 -0.0015919444541812498 0 -0.0031321795612953957 -0.0016366858657320443 0 -0.0013669282724436546 -0.0012564170823480612 0 -0.0031321795612953957 -0.0016366858657320443 0 -0.0031697690214133791 -0.0012669982234661426 0 -0.0027957328878829746 -0.0010822385081667493 0 -0.0026496340553615887 -0.0015919444541812498 0 -0.0013669282724436546 -0.0012564170823480612 0 -0.0015503911907931494 -0.0013082871447743121 0 -0.0031697690214133791 -0.0012669982234661426 0 -0.0027957328878829746 -0.0010822385081667493 0 -0.0029496977050713735 -0.0010240191820469278 0 -0.002921912985973375 -0.0016907781078353034 0 -0.0021360914805975077 -0.0012205018138042245 0 -0.0031697690214133791 -0.0012669982234661426 0 -0.0034186229163320914 -0.0012990879853794757 0 -0.0029496977050713735 -0.0010240191820469278 0 -0.0034186229163320914 -0.0012990879853794757 0 -0.003411310844170224 -0.0011689701341432348 0 -0.0029496977050713735 -0.0010240191820469278 0 -0.0037077963226568576 -0.0013177222423779316 0 -0.0034186229163320914 -0.0012990879853794757 0 -0.003411310844170224 -0.0011689701341432348 0 -0.0033989155531717655 -0.0014354958261455684 0 -0.0031697690214133791 -0.0012669982234661426 0 -0.0034186229163320914 -0.0012990879853794757 0 -0.0031594090138138101 -0.00096076371247192131 0 -0.0029496977050713735 -0.0010240191820469278 0 -0.0025843695683468236 -0.00070757339422844337 0 -0.0031594090138138101 -0.00096076371247192131 0 -0.003411310844170224 -0.0011689701341432348 0 -0.0029496977050713735 -0.0010240191820469278 0 -0.0021360914805975077 -0.0012205018138042245 0 -0.0013679318937703017 -0.00084167154496884674 0 -0.0027957328878829746 -0.0010822385081667493 0 -0.0029496977050713735 -0.0010240191820469278 0 -0.0021962596401081487 -0.00075360393592213584 0 -0.0013669282724436546 -0.0012564170823480612 0 -0.00063400192287296178 -0.0011229402579052445 0 -0.0010918181124346352 -0.0012281979982893892 0 -0.0013669282724436546 -0.0012564170823480612 0 -0.00063400192287296178 -0.0011229402579052445 0 -0.00053687873789925078 -0.00093311347169378566 0 -0.00063400192287296178 -0.0011229402579052445 0 -0.0007290275363419815 -0.0012646075575708873 0 -0.0010918181124346352 -0.0012281979982893892 0 -0.00063400192287296178 -0.0011229402579052445 0 -0.0003357627830931355 -0.001294547892042724 0 -0.0007290275363419815 -0.0012646075575708873 0 -0.00063400192287296178 -0.0011229402579052445 0 -0.0003357627830931355 -0.001294547892042724 0 3.1160692955695571e-05 -0.0010329076877020791 0 -0.0007290275363419815 -0.0012646075575708873 0 -0.00058831605145357271 -0.0014271779736959457 0 -0.0010169106755557923 -0.0013055229484232231 0 -0.0003357627830931355 -0.001294547892042724 0 -0.0007290275363419815 -0.0012646075575708873 0 -0.00058831605145357271 -0.0014271779736959457 0 -0.0003357627830931355 -0.001294547892042724 0 -0.00058831605145357271 -0.0014271779736959457 0 -0.00039905945562607322 -0.0014539623756900939 0 -0.00058831605145357271 -0.0014271779736959457 0 -0.00070574991244147197 -0.0015136596479758603 0 -0.00069330817530969798 -0.0015154043027219566 0 -0.00058831605145357271 -0.0014271779736959457 0 -0.0010169106755557923 -0.0013055229484232231 0 -0.00069330817530969798 -0.0015154043027219566 0 -0.0026496340553615887 -0.0015919444541812498 0 -0.0010169106755557923 -0.0013055229484232231 0 -0.0015503911907931494 -0.0013082871447743121 0 -0.0026496340553615887 -0.0015919444541812498 0 -0.0010169106755557923 -0.0013055229484232231 0 -0.00069330817530969798 -0.0015154043027219566 0 -0.0013669282724436546 -0.0012564170823480612 0 -0.0015503911907931494 -0.0013082871447743121 0 -0.0010918181124346352 -0.0012281979982893892 0 -0.0010169106755557923 -0.0013055229484232231 0 -0.0015503911907931494 -0.0013082871447743121 0 -0.0010918181124346352 -0.0012281979982893892 0 -0.0007290275363419815 -0.0012646075575708873 0 -0.0010169106755557923 -0.0013055229484232231 0 -0.0010918181124346352 -0.0012281979982893892 0 -0.0015078037162526274 -0.00081217442701081682 0 0.00038715892012656313 -0.00064897230868030554 0 -0.0013842857917397773 3.6400620007074416e-07 0 0.000339307715727993 -4.6906012327763542e-08 0 -4.1549437635303401e-05 4.5730286313893932e-06 0 0.00019840705903343588 -0.0013600277274612011 0 -0.00075508470698872911 -0.0017119070849311005 0 0.00086130893128031271 -0.0011983500055850079 0 0.00019840705903343588 -0.0013600277274612011 0 0.00086130893128031271 -0.0011983500055850079 0 0.00063920012844952264 -0.0010766064495420025 0 0.00019840705903343588 -0.0013600277274612011 0 0.00025547089642804729 -0.0012382588065623446 0 0.00063920012844952264 -0.0010766064495420025 0 0.00019840705903343588 -0.0013600277274612011 0 -0.00015445063128643208 -0.0014483130894116659 0 0.00025547089642804729 -0.0012382588065623446 0 -0.00015445063128643208 -0.0014483130894116659 0 0.00025547089642804729 -0.0012382588065623446 0 -1.8863215553176818e-05 -0.0012744169034981786 0 -0.00015445063128643208 -0.0014483130894116659 0 -1.8863215553176818e-05 -0.0012744169034981786 0 -0.00039905945562607322 -0.0014539623756900939 0 0.00025547089642804729 -0.0012382588065623446 0 -1.8863215553176818e-05 -0.0012744169034981786 0 0.00041056968938946609 -0.0010466326474213676 0 -0.0003357627830931355 -0.001294547892042724 0 -1.8863215553176818e-05 -0.0012744169034981786 0 3.1160692955695571e-05 -0.0010329076877020791 0 -0.0003357627830931355 -0.001294547892042724 0 -1.8863215553176818e-05 -0.0012744169034981786 0 -0.00039905945562607322 -0.0014539623756900939 0 -0.00039905945562607322 -0.0014539623756900939 0 -0.00070574991244147197 -0.0015136596479758603 0 -0.00059254673261127525 -0.0015592631248497477 0 -0.00058831605145357271 -0.0014271779736959457 0 -0.00039905945562607322 -0.0014539623756900939 0 -0.00070574991244147197 -0.0015136596479758603 0 -0.00070574991244147197 -0.0015136596479758603 0 -0.00059254673261127525 -0.0015592631248497477 0 -0.00094928979081869175 -0.0014935636930286154 0 -0.00015445063128643208 -0.0014483130894116659 0 -0.00039905945562607322 -0.0014539623756900939 0 -0.00059254673261127525 -0.0015592631248497477 0 -0.0013842857917397773 3.6400620007074416e-07 0 -0.0022237735983603566 -1.2340363042156459e-05 0 -4.1549437635303401e-05 4.5730286313893932e-06 0 -0.0013842857917397773 3.6400620007074416e-07 0 -0.0022237735983603566 -1.2340363042156459e-05 0 -0.0031065302464407885 -1.5226422166924419e-06 0 0.00019840705903343588 -0.0013600277274612011 0 -0.00015445063128643208 -0.0014483130894116659 0 -0.00075508470698872911 -0.0017119070849311005 0 -0.00015445063128643208 -0.0014483130894116659 0 -0.00059254673261127525 -0.0015592631248497477 0 -0.00075508470698872911 -0.0017119070849311005 0 -0.00059254673261127525 -0.0015592631248497477 0 -0.00075508470698872911 -0.0017119070849311005 0 -0.00094928979081869175 -0.0014935636930286154 0 -0.0022237735983603566 -1.2340363042156459e-05 0 -0.0031065302464407885 -1.5226422166924419e-06 0 -0.0031552108479895925 -0.00026013754949576613 0 -0.00075508470698872911 -0.0017119070849311005 0 -0.0015475277382635485 -0.001148763197083335 0 -0.0031552108479895925 -0.00026013754949576613 0 -0.0015078037162526274 -0.00081217442701081682 0 -0.0028924257622441386 -0.00022640694990886111 0 -0.00075508470698872911 -0.0017119070849311005 0 -0.0015475277382635485 -0.001148763197083335 0 -0.00094928979081869175 -0.0014935636930286154 0 -0.0015475277382635485 -0.001148763197083335 0 -0.00094928979081869175 -0.0014935636930286154 0 -0.00097983240743901041 -0.0013056117283384992 0 -0.0015475277382635485 -0.001148763197083335 0 -0.00097983240743901041 -0.0013056117283384992 0 -0.0016503319532661697 -0.00078717210762806601 0 -0.00070574991244147197 -0.0015136596479758603 0 -0.00094928979081869175 -0.0014935636930286154 0 -0.00097983240743901041 -0.0013056117283384992 0 -0.00097983240743901041 -0.0013056117283384992 0 -0.0013367125425112268 -0.00019305791340095663 0 -0.00072002756994377136 -0.0017170110061233155 0 -0.0013367125425112268 -0.00019305791340095663 0 -0.0016503319532661697 -0.00078717210762806601 0 -0.0031552108479895925 -0.00026013754949576613 0 -0.00097983240743901041 -0.0013056117283384992 0 -0.0013367125425112268 -0.00019305791340095663 0 -0.0016503319532661697 -0.00078717210762806601 0 -0.0031065302464407885 -1.5226422166924419e-06 0 -0.0031552108479895925 -0.00026013754949576613 0 -0.0048277058895494999 1.8788602066409407e-06 0 -0.0013367125425112268 -0.00019305791340095663 0 -0.0031552108479895925 -0.00026013754949576613 0 -0.0048277058895494999 1.8788602066409407e-06 0 -0.0015475277382635485 -0.001148763197083335 0 -0.0016503319532661697 -0.00078717210762806601 0 -0.0031552108479895925 -0.00026013754949576613 0 -0.0026496340553615887 -0.0015919444541812498 0 -0.0031321795612953957 -0.0016366858657320443 0 -0.0047086948940847145 -0.0016598436703436348 0 -0.0026496340553615887 -0.0015919444541812498 0 -0.00069330817530969798 -0.0015154043027219566 0 -0.00072002756994377136 -0.0017170110061233155 0 -0.0027377001864914694 -0.001593265254476343 0 -0.0027839524001917371 -0.0015454914645853942 0 -0.00097983240743901041 -0.0013056117283384992 0 -0.00069330817530969798 -0.0015154043027219566 0 -0.00072002756994377136 -0.0017170110061233155 0 -0.00070574991244147197 -0.0015136596479758603 0 -0.00097983240743901041 -0.0013056117283384992 0 -0.00069330817530969798 -0.0015154043027219566 0 -0.0055957149953520923 -0.00083581474429407162 0 -0.0047086948940847145 -0.0016598436703436348 0 -0.005106577600664952 -0.0010083487102273022 0 -0.0034366803477938837 -0.00063832611151169532 0 -0.0027839524001917371 -0.0015454914645853942 0 -0.0047086948940847145 -0.0016598436703436348 0 -0.005106577600664952 -0.0010083487102273022 0 -0.0046134295177604635 -0.0010865750965065352 0 -0.0031321795612953957 -0.0016366858657320443 0 -0.0047086948940847145 -0.0016598436703436348 0 -0.004004485142102973 -0.0013631406575554687 0 -0.0047086948940847145 -0.0016598436703436348 0 -0.004004485142102973 -0.0013631406575554687 0 -0.0046134295177604635 -0.0010865750965065352 0 -0.004004485142102973 -0.0013631406575554687 0 -0.0046134295177604635 -0.0010865750965065352 0 -0.0042283146285237126 -0.0012338579067990639 0 -0.0046134295177604635 -0.0010865750965065352 0 -0.0046447253820783357 -0.0010238236172605856 0 -0.0042283146285237126 -0.0012338579067990639 0 -0.0046134295177604635 -0.0010865750965065352 0 -0.0050465301152194031 -0.00087965220184578355 0 -0.0046447253820783357 -0.0010238236172605856 0 -0.005106577600664952 -0.0010083487102273022 0 -0.0046134295177604635 -0.0010865750965065352 0 -0.0050465301152194031 -0.00087965220184578355 0 -0.005106577600664952 -0.0010083487102273022 0 -0.0050465301152194031 -0.00087965220184578355 0 -0.0054332528655846877 -0.00077647597802792611 0 -0.0050465301152194031 -0.00087965220184578355 0 -0.0054332528655846877 -0.00077647597802792611 0 -0.0055631675093118548 -0.00070714672862492826 0 -0.0051523657386734088 -0.00075502602294170507 0 -0.0055631675093118548 -0.00070714672862492826 0 -0.0061613322690931447 -0.00043544461816243503 0 -0.0050465301152194031 -0.00087965220184578355 0 -0.0051523657386734088 -0.00075502602294170507 0 -0.0055631675093118548 -0.00070714672862492826 0 -0.0050465301152194031 -0.00087965220184578355 0 -0.0051523657386734088 -0.00075502602294170507 0 -0.0046447253820783357 -0.0010238236172605856 0 -0.0055957149953520923 -0.00083581474429407162 0 -0.0048335205383229565 -1.2365370509591148e-06 0 -0.0056703103135165656 -0.00055812299454785171 0 -0.0034366803477938837 -0.00063832611151169532 0 -0.0048293140675182049 -2.7592883133641957e-07 0 -0.0055957149953520923 -0.00083581474429407162 0 -0.0056703103135165656 -0.00055812299454785171 0 -0.0054332528655846877 -0.00077647597802792611 0 -0.0055957149953520923 -0.00083581474429407162 0 -0.005106577600664952 -0.0010083487102273022 0 -0.0054332528655846877 -0.00077647597802792611 0 -0.0056703103135165656 -0.00055812299454785171 0 -0.0054332528655846877 -0.00077647597802792611 0 -0.0055631675093118548 -0.00070714672862492826 0 -0.0056703103135165656 -0.00055812299454785171 0 -0.0055631675093118548 -0.00070714672862492826 0 -0.0061613322690931447 -0.00043544461816243503 0 -0.0056703103135165656 -0.00055812299454785171 0 -0.0067493717916589291 -5.7493134801131731e-07 0 -0.0061613322690931447 -0.00043544461816243503 0 -0.0048335205383229565 -1.2365370509591148e-06 0 -0.0056703103135165656 -0.00055812299454785171 0 -0.0067493717916589291 -5.7493134801131731e-07 0 -0.0067493717916589291 -5.7493134801131731e-07 0 -0.0061613322690931447 -0.00043544461816243503 0 -0.0073737971648374194 -0.00019110136529705402 0 -0.0061613322690931447 -0.00043544461816243503 0 -0.0073737971648374194 -0.00019110136529705402 0 -0.0073761091425234224 -0.00025681787612960816 0 -0.0063632030469532074 -0.00066034261090734876 0 -0.0058610255927880944 -0.0003613213857651548 0 -0.0081405760464638242 -7.3493095891828016e-05 0 -0.0073737971648374194 -0.00019110136529705402 0 -0.0073761091425234224 -0.00025681787612960816 0 -0.0081405760464638242 -7.3493095891828016e-05 0 -0.0086711177302799865 -8.6792271288406978e-07 0 -0.0073737971648374194 -0.00019110136529705402 0 -0.0067493717916589291 -5.7493134801131731e-07 0 -0.0086711177302799865 -8.6792271288406978e-07 0 -0.0073737971648374194 -0.00019110136529705402 0 -0.0051523657386734088 -0.00075502602294170507 0 -0.0046447253820783357 -0.0010238236172605856 0 -0.0049640823914199319 -0.0010203856030275935 0 -0.0051523657386734088 -0.00075502602294170507 0 -0.0061613322690931447 -0.00043544461816243503 0 -0.0051437033252245412 -0.00079224838537890073 0 -0.0051523657386734088 -0.00075502602294170507 0 -0.0049640823914199319 -0.0010203856030275935 0 -0.0051437033252245412 -0.00079224838537890073 0 -0.0050280204187146873 -0.0011374006155458545 0 -0.0049640823914199319 -0.0010203856030275935 0 -0.0051437033252245412 -0.00079224838537890073 0 -0.0050280204187146873 -0.0011374006155458545 0 -0.0049640823914199319 -0.0010203856030275935 0 -0.0050198529100607394 -0.001329652890302798 0 -0.0049640823914199319 -0.0010203856030275935 0 -0.0050198529100607394 -0.001329652890302798 0 -0.0048109206369300467 -0.0011538390200948317 0 -0.0046447253820783357 -0.0010238236172605856 0 -0.0049640823914199319 -0.0010203856030275935 0 -0.0048109206369300467 -0.0011538390200948317 0 -0.0050368193844062348 -0.0013176571267893673 0 -0.0051003266488787845 -0.0014549670315332152 0 -0.0046114395131380149 -0.0012799909807962326 0 -0.0050198529100607394 -0.001329652890302798 0 -0.0048109206369300467 -0.0011538390200948317 0 -0.0050368193844062348 -0.0013176571267893673 0 -0.0048109206369300467 -0.0011538390200948317 0 -0.0050368193844062348 -0.0013176571267893673 0 -0.0046114395131380149 -0.0012799909807962326 0 -0.0053067463035871695 -0.0018445284545912117 0 -0.0050198529100607394 -0.001329652890302798 0 -0.0055455887089103737 -0.0015758419794089662 0 -0.0050198529100607394 -0.001329652890302798 0 -0.0050368193844062348 -0.0013176571267893673 0 -0.0055455887089103737 -0.0015758419794089662 0 -0.0057202158483682028 -0.0018282878944498081 0 -0.0060254495776576903 -0.0019200288523861444 0 -0.0054963101940199589 -0.0016526871345594258 0 -0.0064644026761094212 -0.0022153700537635474 0 -0.0055455887089103737 -0.0015758419794089662 0 -0.0060254495776576903 -0.0019200288523861444 0 -0.0055455887089103737 -0.0015758419794089662 0 -0.0060254495776576903 -0.0019200288523861444 0 -0.0054963101940199589 -0.0016526871345594258 0 -0.0054963101940199589 -0.0016526871345594258 0 -0.0051003266488787845 -0.0014549670315332152 0 -0.0051141277462602398 -0.0015767772888766898 0 -0.0054361339794448552 -0.0017032223291359341 0 -0.0054963101940199589 -0.0016526871345594258 0 -0.0051141277462602398 -0.0015767772888766898 0 -0.0055455887089103737 -0.0015758419794089662 0 -0.0054963101940199589 -0.0016526871345594258 0 -0.0051003266488787845 -0.0014549670315332152 0 -0.0050368193844062348 -0.0013176571267893673 0 -0.0055455887089103737 -0.0015758419794089662 0 -0.0051003266488787845 -0.0014549670315332152 0 -0.0051003266488787845 -0.0014549670315332152 0 -0.0047379859320838625 -0.0014507989140020645 0 -0.0046114395131380149 -0.0012799909807962326 0 -0.0049262622601115476 -0.0015732197107154562 0 -0.0051141277462602398 -0.0015767772888766898 0 -0.0047875807579353695 -0.001512933712172781 0 -0.0047379859320838625 -0.0014507989140020645 0 -0.0051141277462602398 -0.0015767772888766898 0 -0.0047875807579353695 -0.001512933712172781 0 -0.0051003266488787845 -0.0014549670315332152 0 -0.0047379859320838625 -0.0014507989140020645 0 -0.0051141277462602398 -0.0015767772888766898 0 -0.0043343904343441002 -0.0014567649766271259 0 -0.0045589695410234287 -0.0014911013635080571 0 -0.0047875807579353695 -0.001512933712172781 0 -0.0049262622601115476 -0.0015732197107154562 0 -0.0045589695410234287 -0.0014911013635080571 0 -0.0047875807579353695 -0.001512933712172781 0 -0.0043343904343441002 -0.0014567649766271259 0 -0.0047379859320838625 -0.0014507989140020645 0 -0.0047875807579353695 -0.001512933712172781 0 -0.0043343904343441002 -0.0014567649766271259 0 -0.0047379859320838625 -0.0014507989140020645 0 -0.0044526637020404396 -0.0013894968721550455 0 -0.0047379859320838625 -0.0014507989140020645 0 -0.0044526637020404396 -0.0013894968721550455 0 -0.0046114395131380149 -0.0012799909807962326 0 -0.0043343904343441002 -0.0014567649766271259 0 -0.0044526637020404396 -0.0013894968721550455 0 -0.0041408169059862889 -0.0014046373087907116 0 -0.0044526637020404396 -0.0013894968721550455 0 -0.004380979330354827 -0.0013221891984654993 0 -0.0041408169059862889 -0.0014046373087907116 0 -0.0044526637020404396 -0.0013894968721550455 0 -0.004380979330354827 -0.0013221891984654993 0 -0.0046114395131380149 -0.0012799909807962326 0 -0.004380979330354827 -0.0013221891984654993 0 -0.0043566340245552925 -0.0012313918411431251 0 -0.0046114395131380149 -0.0012799909807962326 0 -0.004380979330354827 -0.0013221891984654993 0 -0.0041408169059862889 -0.0014046373087907116 0 -0.0043566340245552925 -0.0012313918411431251 0 -0.003789058289464057 -0.0014538649581459118 0 -0.0041408169059862889 -0.0014046373087907116 0 -0.0043566340245552925 -0.0012313918411431251 0 -0.0046447253820783357 -0.0010238236172605856 0 -0.0042283146285237126 -0.0012338579067990639 0 -0.0043566340245552925 -0.0012313918411431251 0 -0.003789058289464057 -0.0014538649581459118 0 -0.0042283146285237126 -0.0012338579067990639 0 -0.0043566340245552925 -0.0012313918411431251 0 -0.0046447253820783357 -0.0010238236172605856 0 -0.0043566340245552925 -0.0012313918411431251 0 -0.0046114395131380149 -0.0012799909807962326 0 -0.0046447253820783357 -0.0010238236172605856 0 -0.0048109206369300467 -0.0011538390200948317 0 -0.0046114395131380149 -0.0012799909807962326 0 -0.0036560248209275181 -0.0025394149493270621 0 -0.0038112373285636644 -0.0026362576278749867 0 -0.0038897120959306025 -0.0024406935954266037 0 -0.0036560248209275181 -0.0025394149493270621 0 -0.0038897120959306025 -0.0024406935954266037 0 -0.0037327990907414514 -0.0023009428603465686 0 -0.0036560248209275181 -0.0025394149493270621 0 -0.0037327990907414514 -0.0023009428603465686 0 -0.0034083332010060724 -0.0023482489277413059 0 -0.0036560248209275181 -0.0025394149493270621 0 -0.0034510451290420048 -0.0027265352546462706 0 -0.0034083332010060724 -0.0023482489277413059 0 -0.0033112322001401131 -0.0033136696156231488 0 -0.0034083332010060724 -0.0023482489277413059 0 -0.0029989311548632106 -0.0030194932901959231 0 -0.0035479031820292491 -0.003051971858428731 0 -0.0033768117932430146 -0.0023707697827065354 0 -0.0034083332010060724 -0.0023482489277413059 0 -0.0029989311548632106 -0.0030194932901959231 0 -0.0029383538679153146 -0.0025599711962393736 0 -0.0036560248209275181 -0.0025394149493270621 0 -0.0034510451290420048 -0.0027265352546462706 0 -0.0036407226411104398 -0.0027411133282088111 0 -0.0033112322001401131 -0.0033136696156231488 0 -0.0029989311548632106 -0.0030194932901959231 0 -0.0030216212578488976 -0.0036169023158772319 0 -0.0034510451290420048 -0.0027265352546462706 0 -0.0036407226411104398 -0.0027411133282088111 0 -0.0035476732936933807 -0.002870099315621045 0 -0.0036407226411104398 -0.0027411133282088111 0 -0.0037571685670540166 -0.0028111453212184578 0 -0.0036439766483559858 -0.0028977068812063825 0 -0.0036407226411104398 -0.0027411133282088111 0 -0.0036439766483559858 -0.0028977068812063825 0 -0.0035476732936933807 -0.002870099315621045 0 -0.0036560248209275181 -0.0025394149493270621 0 -0.0036407226411104398 -0.0027411133282088111 0 -0.0038112373285636644 -0.0026362576278749867 0 -0.0036407226411104398 -0.0027411133282088111 0 -0.0038112373285636644 -0.0026362576278749867 0 -0.0037571685670540166 -0.0028111453212184578 0 -0.0038112373285636644 -0.0026362576278749867 0 -0.0037571685670540166 -0.0028111453212184578 0 -0.0039241188410524932 -0.0028304645698706892 0 -0.0039241188410524932 -0.0028304645698706892 0 -0.0041810831031711968 -0.0026511199469173947 0 -0.0041497913126803693 -0.002880489655934826 0 -0.0039241188410524932 -0.0028304645698706892 0 -0.0041810831031711968 -0.0026511199469173947 0 -0.0040031445431544339 -0.0025719023051562332 0 -0.0038112373285636644 -0.0026362576278749867 0 -0.0039241188410524932 -0.0028304645698706892 0 -0.0040031445431544339 -0.0025719023051562332 0 -0.0043916218288267417 -0.0027540008850701061 0 -0.0041810831031711968 -0.0026511199469173947 0 -0.0041497913126803693 -0.002880489655934826 0 -0.0042926871435997041 -0.0027081710269762291 0 -0.0045795402920103326 -0.0027961737435308392 0 -0.0043916218288267417 -0.0027540008850701061 0 -0.0041810831031711968 -0.0026511199469173947 0 -0.0043827213927773211 -0.0024704682185672606 0 -0.0051516314436935839 -0.0031857415239739976 0 -0.0045302458534251071 -0.0026871371370685835 0 -0.0047528640963523539 -0.001990039487873099 0 -0.0041810831031711968 -0.0026511199469173947 0 -0.0043142234315686609 -0.0025495908730024308 0 -0.0041193654000239999 -0.002393216547653215 0 -0.0045795402920103326 -0.0027961737435308392 0 -0.00434345617203598 -0.0025471365139576188 0 -0.0041810831031711968 -0.0026511199469173947 0 -0.0040031445431544339 -0.0025719023051562332 0 -0.0041193654000239999 -0.002393216547653215 0 -0.0038112373285636644 -0.0026362576278749867 0 -0.0040031445431544339 -0.0025719023051562332 0 -0.0038897120959306025 -0.0024406935954266037 0 -0.0040031445431544339 -0.0025719023051562332 0 -0.0041193654000239999 -0.002393216547653215 0 -0.0038897120959306025 -0.0024406935954266037 0 -0.0041193654000239999 -0.002393216547653215 0 -0.0038897120959306025 -0.0024406935954266037 0 -0.0039572363070873272 -0.0021961862329761563 0 -0.0045302458534251071 -0.0026871371370685835 0 -0.0039572363070873272 -0.0021961862329761563 0 -0.0047528640963523539 -0.001990039487873099 0 -0.0039572363070873272 -0.0021961862329761563 0 -0.0047528640963523539 -0.001990039487873099 0 -0.003637642362842833 -0.0016576106799868742 0 -0.00434345617203598 -0.0025471365139576188 0 -0.0039875507714763952 -0.0022387519372214807 0 -0.0086966848979085215 -0.0031147312744302519 0 -0.0089276665176490112 -0.0025338627341661229 0 -0.0083763282812068813 -0.0025508275934480523 0 -0.0086966848979085215 -0.0031147312744302519 0 -0.0089276665176490112 -0.0025338627341661229 0 -0.0093315645700142013 -0.0028576219633041095 0 -0.0089276665176490112 -0.0025338627341661229 0 -0.0083763282812068813 -0.0025508275934480523 0 -0.0085682942558226692 -0.0020855248508765125 0 -0.006788411148234137 -0.0025665317231268465 0 -0.005686192478427398 -0.0021918910952587801 0 -0.0086966848979085215 -0.0031147312744302519 0 -0.0083763282812068813 -0.0025508275934480523 0 -0.0077152699600017407 -0.0027317703928199447 0 -0.0083763282812068813 -0.0025508275934480523 0 -0.0077152699600017407 -0.0027317703928199447 0 -0.0079983549790349981 -0.0022124471262435488 0 -0.003637642362842833 -0.0016576106799868742 0 -0.0036667824403797764 -0.0019629754636980926 0 -0.0039482185493625154 -0.0016867484635317122 0 -0.0039572363070873272 -0.0021961862329761563 0 -0.003637642362842833 -0.0016576106799868742 0 -0.0036667824403797764 -0.0019629754636980926 0 -0.0039572363070873272 -0.0021961862329761563 0 -0.0036667824403797764 -0.0019629754636980926 0 -0.0037327990907414514 -0.0023009428603465686 0 -0.0036667824403797764 -0.0019629754636980926 0 -0.0037327990907414514 -0.0023009428603465686 0 -0.0034083332010060724 -0.0023482489277413059 0 -0.0038897120959306025 -0.0024406935954266037 0 -0.0039572363070873272 -0.0021961862329761563 0 -0.0037327990907414514 -0.0023009428603465686 0 -0.0036667824403797764 -0.0019629754636980926 0 -0.0031670058117251581 -0.0019548341515215084 0 -0.0034083332010060724 -0.0023482489277413059 0 -0.0031670058117251581 -0.0019548341515215084 0 -0.0034083332010060724 -0.0023482489277413059 0 -0.0029383538679153146 -0.0025599711962393736 0 -0.005686192478427398 -0.0021918910952587801 0 -0.0055132517025225057 -0.0020640222027614235 0 -0.0036667824403797764 -0.0019629754636980926 0 -0.0031670058117251581 -0.0019548341515215084 0 -0.0039482185493625154 -0.0016867484635317122 0 -0.003637642362842833 -0.0016576106799868742 0 -0.0039482185493625154 -0.0016867484635317122 0 -0.0043890453774454719 -0.0018232648996329849 0 -0.0031670058117251581 -0.0019548341515215084 0 -0.0022641670650703589 -0.0013193749624365188 0 -0.0025564682423246821 -0.0020924909986676258 0 -0.0039134005313546851 -0.0016386665603800735 0 -0.0035822394672376363 -0.0015238974455887419 0 -0.0039482185493625154 -0.0016867484635317122 0 -0.0049358031873611369 -0.0016244675211350994 0 -0.0043890453774454719 -0.0018232648996329849 0 -0.0031670058117251581 -0.0019548341515215084 0 -0.0039482185493625154 -0.0016867484635317122 0 -0.0022641670650703589 -0.0013193749624365188 0 -0.0022641670650703589 -0.0013193749624365188 0 -0.0018947258307166156 -0.0018939909751727096 0 -0.0025564682423246821 -0.0020924909986676258 0 -0.0022641670650703589 -0.0013193749624365188 0 -0.0018947258307166156 -0.0018939909751727096 0 -0.0012955568809814172 -0.0018972749413188664 0 -0.0035822394672376363 -0.0015238974455887419 0 -0.0029802647006817468 -0.0018047754788110151 0 -0.0018947258307166156 -0.0018939909751727096 0 -0.0015755578229361348 -0.0021854874470462744 0 -0.0012955568809814172 -0.0018972749413188664 0 -0.0018947258307166156 -0.0018939909751727096 0 -0.0015755578229361348 -0.0021854874470462744 0 -0.0018699709593310017 -0.0022528859950685745 0 -0.0018947258307166156 -0.0018939909751727096 0 -0.0025564682423246821 -0.0020924909986676258 0 -0.0024064315026173723 -0.002583880955818952 0 -0.0018977980858540474 -0.0019147474745229076 0 -0.0021506975801448168 -0.0024744666973054406 0 -0.0031670058117251581 -0.0019548341515215084 0 -0.0025564682423246821 -0.0020924909986676258 0 -0.0029383538679153146 -0.0025599711962393736 0 -0.0025564682423246821 -0.0020924909986676258 0 -0.0029383538679153146 -0.0025599711962393736 0 -0.0024064315026173723 -0.002583880955818952 0 -0.004964152288075876 -0.0021108003494969018 0 -0.0040728015585103109 -0.0017298555372076616 0 -0.0039162360950624224 -0.0023909544631217582 0 -0.0029802647006817468 -0.0018047754788110151 0 -0.0021335238050426762 -0.0020904736445746573 0 -0.0010250110962388963 -0.0015225130762114298 0 -0.0006262398317635079 -0.0021212354490476237 0 -0.00033260107702077525 -0.0017974319576491073 0 -0.0022641670650703589 -0.0013193749624365188 0 -0.0010250110962388963 -0.0015225130762114298 0 -0.0012955568809814172 -0.0018972749413188664 0 -0.0015755578229361348 -0.0021854874470462744 0 -0.0012955568809814172 -0.0018972749413188664 0 -0.0011516682459575464 -0.0023456422882568873 0 -0.0012955568809814172 -0.0018972749413188664 0 -0.0006262398317635079 -0.0021212354490476237 0 -0.0011516682459575464 -0.0023456422882568873 0 -0.0010250110962388963 -0.0015225130762114298 0 -0.0012955568809814172 -0.0018972749413188664 0 -0.0006262398317635079 -0.0021212354490476237 0 -0.0006262398317635079 -0.0021212354490476237 0 -0.00074340279459342827 -0.002506726562044185 0 -0.00030412699978813867 -0.0023883766003919503 0 -0.0006262398317635079 -0.0021212354490476237 0 -0.00074340279459342827 -0.002506726562044185 0 -0.0011516682459575464 -0.0023456422882568873 0 -0.0011516682459575464 -0.0023456422882568873 0 -0.0015899010977146926 -0.0024483882185236975 0 -0.0013486688415677911 -0.0028191940134814106 0 -0.00074340279459342827 -0.002506726562044185 0 -0.0013486688415677911 -0.0028191940134814106 0 -0.00059835347870811507 -0.0028537590031486857 0 -3.4726651341298177e-05 -0.003017709753140258 0 -6.353136562750852e-05 -0.0029090569221272718 0 -0.00074340279459342827 -0.002506726562044185 0 -0.0011516682459575464 -0.0023456422882568873 0 -0.0013486688415677911 -0.0028191940134814106 0 -0.00074340279459342827 -0.002506726562044185 0 -0.00059835347870811507 -0.0028537590031486857 0 -0.00030412699978813867 -0.0023883766003919503 0 -0.0018699709593310017 -0.0022528859950685745 0 -0.0015899010977146926 -0.0024483882185236975 0 -0.0020354333954008767 -0.0026231229636696704 0 -0.0021506975801448168 -0.0024744666973054406 0 -0.0012429826130961575 -0.0028685012843858303 0 -0.0029989311548632106 -0.0030194932901959231 0 -0.0029383538679153146 -0.0025599711962393736 0 -0.0027329793126714174 -0.0031352116652613999 0 -0.0025299723697630445 -0.0026797884288497168 0 -0.0012429826130961575 -0.0028685012843858303 0 -0.0029383538679153146 -0.0025599711962393736 0 -0.0024064315026173723 -0.002583880955818952 0 -0.0027329793126714174 -0.0031352116652613999 0 -0.0015755578229361348 -0.0021854874470462744 0 -0.0018699709593310017 -0.0022528859950685745 0 -0.0015899010977146926 -0.0024483882185236975 0 -0.0015755578229361348 -0.0021854874470462744 0 -0.0011516682459575464 -0.0023456422882568873 0 -0.0015899010977146926 -0.0024483882185236975 0 0.00093458583974958393 -0.0031530786616575171 0 0.0011868112265256282 -0.0030959361035276202 0 0.0012483275999466252 -0.0032694027460172634 0 -0.0015899010977146926 -0.0024483882185236975 0 -0.0013486688415677911 -0.0028191940134814106 0 -0.0020354333954008767 -0.0026231229636696704 0 -3.4726651341298177e-05 -0.003017709753140258 0 -0.0012429826130961575 -0.0028685012843858303 0 -0.0029989311548632106 -0.0030194932901959231 0 -0.0027589215471971532 -0.0031084375064647841 0 -0.0030216212578488976 -0.0036169023158772319 0 0.0011868112265256282 -0.0030959361035276202 0 0.0012483275999466252 -0.0032694027460172634 0 0.0013547873058270558 -0.0030787244961045105 0 -0.0012429826130961575 -0.0028685012843858303 0 -0.00085931904460423425 -0.0033285338367258547 0 0.0013547873058270558 -0.0030787244961045105 0 0.001338759399277205 -0.0029395869873993937 0 0.0012564891826642919 -0.0030020874632847075 0 0.0011868112265256282 -0.0030959361035276202 0 0.0013547873058270558 -0.0030787244961045105 0 0.0012564891826642919 -0.0030020874632847075 0 0.001338759399277205 -0.0029395869873993937 0 0.0012598925515107488 -0.0028966479916922609 0 0.0013735195913314525 -0.0028301873470540457 0 0.001338759399277205 -0.0029395869873993937 0 0.0012598925515107488 -0.0028966479916922609 0 0.0012564891826642919 -0.0030020874632847075 0 0.0012598925515107488 -0.0028966479916922609 0 0.0012564891826642919 -0.0030020874632847075 0 0.0011278173416298023 -0.0029518211478463422 0 0.0011868112265256282 -0.0030959361035276202 0 0.0012564891826642919 -0.0030020874632847075 0 0.0011278173416298023 -0.0029518211478463422 0 0.00093458583974958393 -0.0031530786616575171 0 0.0011868112265256282 -0.0030959361035276202 0 0.0011278173416298023 -0.0029518211478463422 0 0.00093458583974958393 -0.0031530786616575171 0 0.0011278173416298023 -0.0029518211478463422 0 0.00086866971855793448 -0.0027772584488690525 0 0.0011929906738505519 -0.0027313114443183318 0 0.00086866971855793448 -0.0027772584488690525 0 0.00099047900657440102 -0.0025150704678150431 0 0.0011278173416298023 -0.0029518211478463422 0 0.0011929906738505519 -0.0027313114443183318 0 0.00086866971855793448 -0.0027772584488690525 0 0.0012598925515107488 -0.0028966479916922609 0 0.0011278173416298023 -0.0029518211478463422 0 0.0011929906738505519 -0.0027313114443183318 0 0.0011929906738505519 -0.0027313114443183318 0 0.0013812065322443869 -0.0026796713577870832 0 0.0013302754297212969 -0.0025914035109541956 0 0.0011929906738505519 -0.0027313114443183318 0 0.0013812065322443869 -0.0026796713577870832 0 0.0013735195913314525 -0.0028301873470540457 0 0.0012598925515107488 -0.0028966479916922609 0 0.0011929906738505519 -0.0027313114443183318 0 0.0013735195913314525 -0.0028301873470540457 0 0.0005763317909945585 -0.0030214661582360792 0 0.00086866971855793448 -0.0027772584488690525 0 0.0005251069368541959 -0.0026984194813256838 0 0.00093458583974958393 -0.0031530786616575171 0 0.0005763317909945585 -0.0030214661582360792 0 0.00086866971855793448 -0.0027772584488690525 0 0.00086866971855793448 -0.0027772584488690525 0 0.0005251069368541959 -0.0026984194813256838 0 0.00068496076982778287 -0.0024966175683702276 0 0.0005251069368541959 -0.0026984194813256838 0 0.00068496076982778287 -0.0024966175683702276 0 0.00037237202658989044 -0.0025287683147054382 0 0.00068496076982778287 -0.0024966175683702276 0 0.00037237202658989044 -0.0025287683147054382 0 0.00051428382800487542 -0.0023776366340621628 0 0.00086866971855793448 -0.0027772584488690525 0 0.00068496076982778287 -0.0024966175683702276 0 0.00099047900657440102 -0.0025150704678150431 0 0.00068496076982778287 -0.0024966175683702276 0 0.000804102400854119 -0.0022955323891764245 0 0.00099047900657440102 -0.0025150704678150431 0 0.000804102400854119 -0.0022955323891764245 0 0.00099047900657440102 -0.0025150704678150431 0 0.0010981540317957694 -0.0022947814219361684 0 0.00068496076982778287 -0.0024966175683702276 0 0.000804102400854119 -0.0022955323891764245 0 0.00051428382800487542 -0.0023776366340621628 0 0.000804102400854119 -0.0022955323891764245 0 0.00051428382800487542 -0.0023776366340621628 0 0.00061424723641121401 -0.0022151398780763023 0 0.0013302754297212969 -0.0025914035109541956 0 0.0012575538822497262 -0.0024018537313855101 0 0.0015355917987905597 -0.0024495720137292132 0 0.0013812065322443869 -0.0026796713577870832 0 0.0013302754297212969 -0.0025914035109541956 0 0.0015355917987905597 -0.0024495720137292132 0 0.0013302754297212969 -0.0025914035109541956 0 0.0011924038374299766 -0.0025601718489786287 0 0.0012575538822497262 -0.0024018537313855101 0 0.0011929906738505519 -0.0027313114443183318 0 0.0013302754297212969 -0.0025914035109541956 0 0.0011924038374299766 -0.0025601718489786287 0 0.0011924038374299766 -0.0025601718489786287 0 0.00099047900657440102 -0.0025150704678150431 0 0.0012575538822497262 -0.0024018537313855101 0 0.0011929906738505519 -0.0027313114443183318 0 0.0011924038374299766 -0.0025601718489786287 0 0.00099047900657440102 -0.0025150704678150431 0 0.00099047900657440102 -0.0025150704678150431 0 0.0010981540317957694 -0.0022947814219361684 0 0.0012575538822497262 -0.0024018537313855101 0 0.0012575538822497262 -0.0024018537313855101 0 0.0015355917987905597 -0.0024495720137292132 0 0.0014245512365166485 -0.002173309666002723 0 0.0010981540317957694 -0.0022947814219361684 0 0.0012575538822497262 -0.0024018537313855101 0 0.0014245512365166485 -0.002173309666002723 0 0.0053673110424637309 -0.00044618923905568068 0 0.0057638872226403078 -0.00060687685626521857 0 0.0019297507969201514 -0.0023375816850109412 0 0.0015355917987905597 -0.0024495720137292132 0 0.0014245512365166485 -0.002173309666002723 0 0.008865262716965876 0.0015114819359891855 0 0.0092568089786275957 0.00075826265241547006 0 0.010124796942805797 0.000942161706480761 0 0.008865262716965876 0.0015114819359891855 0 0.008462900913202856 0.0007095223659834924 0 0.0092568089786275957 0.00075826265241547006 0 0.0053673110424637309 -0.00044618923905568068 0 0.0087095634219889941 0.0011426688465328494 0 0.0011553040801673363 -0.0010846047320827365 0 0.0014798533714024031 -0.0023398154377225816 0 0.00023477280872966666 -0.0028707603744315482 0 0.0053673110424637309 -0.00044618923905568068 0 -0.00082062221902809082 -0.0033129972892909933 0 0.0019297507969201514 -0.0023375816850109412 0 0.0015355917987905597 -0.0024495720137292132 0 0.0016449705087103873 -0.0028873653855714587 0 0.0013812065322443869 -0.0026796713577870832 0 0.0015355917987905597 -0.0024495720137292132 0 0.0014888418017687203 -0.0027880895933022711 0 0.0016892688191620278 -0.0024219411485298828 0 0.00064100699196305646 -0.0029996115266530017 0 0.0015355917987905597 -0.0024495720137292132 0 0.0015350074452771462 -0.0029337668283331915 0 0.0016449705087103873 -0.0028873653855714587 0 0.0013735195913314525 -0.0028301873470540457 0 0.0014455998024143135 -0.0028030496358865328 0 0.0014502634967798499 -0.0028898006601076136 0 0.0013812065322443869 -0.0026796713577870832 0 0.0013735195913314525 -0.0028301873470540457 0 0.0014888418017687203 -0.0027880895933022711 0 0.00064100699196305646 -0.0029996115266530017 0 -0.0014716595148878413 -0.0032990824213136255 0 0.0013352716480003945 -0.0027691585270531427 0 0.00064100699196305646 -0.0029996115266530017 0 -0.00083773323201412201 -0.0029625088251810923 0 -0.0006273455249270844 -0.0028731268398615121 0 -0.00082943553479562749 -0.0032769416656150976 0 -0.0035501383562766397 -0.0031610630186967728 0 -0.0036596242761851843 -0.0030727412554463654 0 -0.0034697818763126122 -0.0030628992140011926 0 -0.00082062221902809082 -0.0033129972892909933 0 -0.0014716595148878413 -0.0032990824213136255 0 0.00064100699196305646 -0.0029996115266530017 0 -0.00082062221902809082 -0.0033129972892909933 0 -0.0037488232465392891 -0.0031703950978100911 0 -0.0036596242761851843 -0.0030727412554463654 0 -0.0038119798135219877 -0.0031327803117416953 0 -0.0037488232465392891 -0.0031703950978100911 0 -0.0035501383562766397 -0.0031610630186967728 0 -0.0036596242761851843 -0.0030727412554463654 0 -0.0017116676172458541 -0.0029807764961275987 0 -0.00082062221902809082 -0.0033129972892909933 0 -0.0036596242761851843 -0.0030727412554463654 0 -0.0037521228070409862 -0.0029566871263631664 0 -0.0038119798135219877 -0.0031327803117416953 0 -0.0037571685670540166 -0.0028111453212184578 0 -0.0037521228070409862 -0.0029566871263631664 0 -0.0036439766483559858 -0.0028977068812063825 0 -0.0036596242761851843 -0.0030727412554463654 0 -0.0036439766483559858 -0.0028977068812063825 0 -0.0035766726933236467 -0.0029688569480759348 0 -0.0036596242761851843 -0.0030727412554463654 0 -0.0037521228070409862 -0.0029566871263631664 0 -0.0036439766483559858 -0.0028977068812063825 0 -0.0036439766483559858 -0.0028977068812063825 0 -0.0035476732936933807 -0.002870099315621045 0 -0.0035766726933236467 -0.0029688569480759348 0 -0.0033112322001401131 -0.0033136696156231488 0 -0.0030216212578488976 -0.0036169023158772319 0 -0.0032306919053764868 -0.004080105561421154 0 -0.0034510451290420048 -0.0027265352546462706 0 -0.0035476732936933807 -0.002870099315621045 0 -0.0034697818763126122 -0.0030628992140011926 0 -0.0035476732936933807 -0.002870099315621045 0 -0.0035766726933236467 -0.0029688569480759348 0 -0.0034697818763126122 -0.0030628992140011926 0 -0.0035479031820292491 -0.003051971858428731 0 -0.0014716595148878413 -0.0032990824213136255 0 -0.00085931904460423425 -0.0033285338367258547 0 -0.0014716595148878413 -0.0032990824213136255 0 0.001338759399277205 -0.0029395869873993937 0 0.0013735195913314525 -0.0028301873470540457 0 0.0014502634967798499 -0.0028898006601076136 0 0.0013547873058270558 -0.0030787244961045105 0 0.001338759399277205 -0.0029395869873993937 0 0.0014502634967798499 -0.0028898006601076136 0 -0.0036596242761851843 -0.0030727412554463654 0 -0.0035766726933236467 -0.0029688569480759348 0 -0.0034697818763126122 -0.0030628992140011926 0 -0.0041497913126803693 -0.002880489655934826 0 -0.004169109643275601 -0.0033849963266919113 0 -0.0044629897323654293 -0.0030096187891107073 0 -0.0043916218288267417 -0.0027540008850701061 0 -0.0041497913126803693 -0.002880489655934826 0 -0.0044629897323654293 -0.0030096187891107073 0 -0.0039241188410524932 -0.0028304645698706892 0 -0.0037521228070409862 -0.0029566871263631664 0 -0.0038119798135219877 -0.0031327803117416953 0 -0.0039241188410524932 -0.0028304645698706892 0 -0.0041497913126803693 -0.002880489655934826 0 -0.0038119798135219877 -0.0031327803117416953 0 -0.0041497913126803693 -0.002880489655934826 0 -0.0038119798135219877 -0.0031327803117416953 0 -0.004169109643275601 -0.0033849963266919113 0 -0.0037571685670540166 -0.0028111453212184578 0 -0.0039241188410524932 -0.0028304645698706892 0 -0.0037521228070409862 -0.0029566871263631664 0 -0.003732141771364775 -0.0031054005867732315 0 -0.0042076907199751152 -0.0034208838511644644 0 -0.0037488232465392891 -0.0031703950978100911 0 -0.0038119798135219877 -0.0031327803117416953 0 -0.003707897205391537 -0.0031516904637157667 0 -0.004169109643275601 -0.0033849963266919113 0 -0.0044629897323654293 -0.0030096187891107073 0 -0.0046318165710908677 -0.0032919118456495177 0 -0.004169109643275601 -0.0033849963266919113 0 -0.0045166097240686509 -0.0036162221189010341 0 -0.0046318165710908677 -0.0032919118456495177 0 -0.0042076907199751152 -0.0034208838511644644 0 -0.002570588326455295 -0.0022477810304164245 0 -0.003707897205391537 -0.0031516904637157667 0 -0.003680306371969695 -0.0030922958449117635 0 -0.0036065947541165794 -0.0031092053639110427 0 0.0020612483794376852 -0.0010073098248080654 0 0.0015044089384527307 -0.0012399478988767477 0 0.00066648686223042799 -0.00036690958771465175 0 0.001938658289397475 -0.0011969156103714461 0 -0.002570588326455295 -0.0022477810304164245 0 0.007204155712839895 0.001817663638353745 0 0.0074384273522297558 0.0019767395410339259 0 0.0070737305001442449 0.00184430127971666 0 0.001938658289397475 -0.0011969156103714461 0 0.0042705649145784235 0.00048252818477994441 0 0.0074384273522297558 0.0019767395410339259 0 0.0073676517842604459 0.0016213952823382772 0 0.007722824618935596 0.0014034184243349583 0 0.0047691835061231449 0.00048811228528867053 0 0.0042705649145784235 0.00048252818477994441 0 0.007204155712839895 0.001817663638353745 0 0.0073676517842604459 0.0016213952823382772 0 0.0070525453376901635 0.0014292640525825357 0 0.007204155712839895 0.001817663638353745 0 0.0074384273522297558 0.0019767395410339259 0 0.0073676517842604459 0.0016213952823382772 0 0.007204155712839895 0.001817663638353745 0 0.0070785055029990562 0.001843614044980655 0 0.0070525453376901635 0.0014292640525825357 0 0.0053673110424637309 -0.00044618923905568068 0 0.001938658289397475 -0.0011969156103714461 0 -0.0017116676172458541 -0.0029807764961275987 0 0.001938658289397475 -0.0011969156103714461 0 0.0011553040801673363 -0.0010846047320827365 0 0.0014798533714024031 -0.0023398154377225816 0 0.0027078911192442005 -0.0018113357899699081 0 -0.0037488232465392891 -0.0031703950978100911 0 -0.003707897205391537 -0.0031516904637157667 0 -0.003680306371969695 -0.0030922958449117635 0 0.0086553264066988912 0.0013807278609102118 0 0.007722824618935596 0.0014034184243349583 0 0.0081609852957209676 0.0010801717586402541 0 0.0086553264066988912 0.0013807278609102118 0 0.0081609852957209676 0.0010801717586402541 0 0.0082480658490953207 0.00056799973652879761 0 0.0086553264066988912 0.0013807278609102118 0 0.0074384273522297558 0.0019767395410339259 0 0.007722824618935596 0.0014034184243349583 0 0.007722824618935596 0.0014034184243349583 0 0.0079342387032052576 0.00081133668636997123 0 0.0081609852957209676 0.0010801717586402541 0 0.0077981943267671841 0.0008459005382812887 0 0.0071083526741044512 0.0010502093956650618 0 0.007722824618935596 0.0014034184243349583 0 0.0068478851361442371 0.0010295214807126037 0 0.0070525453376901635 0.0014292640525825357 0 0.007722824618935596 0.0014034184243349583 0 0.0079342387032052576 0.00081133668636997123 0 0.0068478851361442371 0.0010295214807126037 0 0.0073676517842604459 0.0016213952823382772 0 0.007722824618935596 0.0014034184243349583 0 0.0070525453376901635 0.0014292640525825357 0 0.0042705649145784235 0.00048252818477994441 0 0.0053845538471912497 0.0011128177838217485 0 0.0062139952775818177 0.0013849773504988178 0 0.0062015038766341218 0.00072411650612911021 0 0.0068152077530661079 0.00057450929594587627 0 0.0071083526741044512 0.0010502093956650618 0 0.0053845538471912497 0.0011128177838217485 0 0.0070785055029990562 0.001843614044980655 0 0.0070525453376901635 0.0014292640525825357 0 0.0057888760209703601 0.0013091559357863967 0 0.0071420337840629941 0.0010958493144135363 0 0.0062139952775818177 0.0013849773504988178 0 0.0068152077530661079 0.00057450929594587627 0 0.0068478851361442371 0.0010295214807126037 0 0.0070525453376901635 0.0014292640525825357 0 0.0057888760209703601 0.0013091559357863967 0 0.0036464519432791304 0.00048532666099774488 0 0.0032699234106714171 0.00055638390330051612 0 0.0032274715977933573 0.00031789751654250038 0 0.0042705649145784235 0.00048252818477994441 0 0.00049514363602914653 -0.00050575399320576563 0 0.0015044089384527307 -0.0012399478988767477 0 -0.00024648767851500009 -0.00091062125176849355 0 0.00066648686223042799 -0.00036690958771465175 0 -0.0018658180262953463 -0.0017208543014804734 0 -0.0016963862971320542 -0.0016206864917903058 0 -0.0020244333663228579 -0.0014690755862594705 0 0.00049514363602914653 -0.00050575399320576563 0 -0.002570588326455295 -0.0022477810304164245 0 0.001222672022186989 -0.00022222782303177459 0 0.0006371872802521328 -0.00057290077471992005 0 0.00020385203800172365 -3.1845879091527821e-05 0 0.00049514363602914653 -0.00050575399320576563 0 0.00299470335887915 0.0007184107211470898 0 0.0032699234106714171 0.00055638390330051612 0 0.0029815828120219484 0.00038655629701399622 0 0.0032274715977933573 0.00031789751654250038 0 0.00049514363602914653 -0.00050575399320576563 0 -0.0012262669463324034 -0.00087764858466910997 0 -0.0018658180262953463 -0.0017208543014804734 0 -0.0023330612215155277 -0.0016312772659871594 0 -0.0020244333663228579 -0.0014690755862594705 0 0.0055153518617027239 0.001587789379095154 0 0.0057159524079595089 0.0011935073111405002 0 0.0051555656992382237 0.00059581233197243872 0 0.0055153518617027239 0.001587789379095154 0 0.0061884243611197414 0.0013927821996474084 0 0.0057159524079595089 0.0011935073111405002 0 0.0053845538471912497 0.0011128177838217485 0 0.0059258415461024908 0.0013015041806521861 0 0.00299470335887915 0.0007184107211470898 0 0.0053845538471912497 0.0011128177838217485 0 0.0062139952775818177 0.0013849773504988178 0 0.0057159524079595089 0.0011935073111405002 0 0.0062015038766341218 0.00072411650612911021 0 0.0024096678119127865 0.00070166911113758159 0 0.0017867269911231245 0.00086631028240986895 0 0.0017348777970000986 0.00030526238550396652 0 0.00299470335887915 0.0007184107211470898 0 0.0032364226139712559 0.00066179998618825717 0 0.0055153518617027239 0.001587789379095154 0 0.0051555656992382237 0.00059581233197243872 0 0.0042978241462468822 0.00088979007327711073 0 0.0017867269911231245 0.00086631028240986895 0 0.0013318027080823848 0.00051258268993780473 0 0.0017348777970000986 0.00030526238550396652 0 0.00061959740056070792 0.00024226923663988762 0 -0.00020528489305542222 0.00028438205868637354 0 -0.00014671660989410765 -0.00036770638998219837 0 0.00020385203800172365 -3.1845879091527821e-05 0 -0.00083026008761607746 0.00015622220517066859 0 0.0006371872802521328 -0.00057290077471992005 0 -0.00014671660989410765 -0.00036770638998219837 0 0.00020385203800172365 -3.1845879091527821e-05 0 0.00299470335887915 0.0007184107211470898 0 0.00061959740056070792 0.00024226923663988762 0 -0.0023330612215155277 -0.0016312772659871594 0 -0.0023523282108820608 -0.0013268393177681252 0 -0.0020244333663228579 -0.0014690755862594705 0 -0.0052823545983175036 -0.0030983780306440729 0 -0.0054761068168206663 -0.0031576685216562275 0 -0.0050421289764268993 -0.003398605582698699 0 -0.0023330612215155277 -0.0016312772659871594 0 -0.0025318555081762059 -0.0014227553063873523 0 -0.0023523282108820608 -0.0013268393177681252 0 -0.0038675013333056528 -0.0022537874228845192 0 -0.0036133448054996484 -0.0024368564598959402 0 -0.0023330612215155277 -0.0016312772659871594 0 -0.0025318555081762059 -0.0014227553063873523 0 -0.0027734671225516428 -0.0015430693456000559 0 -0.0012262669463324034 -0.00087764858466910997 0 -0.0018338189361208818 -0.00073851147306239358 0 -0.0025318555081762059 -0.0014227553063873523 0 -0.0026648782565203864 -0.0011931540485701512 0 -0.0027734671225516428 -0.0015430693456000559 0 -0.0043333360240456458 -0.0021515069868274376 0 -0.0038675013333056528 -0.0022537874228845192 0 -0.0025318555081762059 -0.0014227553063873523 0 -0.0026648782565203864 -0.0011931540485701512 0 -0.0023523282108820608 -0.0013268393177681252 0 -0.0056826008584078755 -0.0030298955685072182 0 -0.0054687152030277074 -0.0029840406643610357 0 -0.005659162129439046 -0.0029603851965732189 0 -0.0056826008584078755 -0.0030298955685072182 0 -0.0054761068168206663 -0.0031576685216562275 0 -0.0054687152030277074 -0.0029840406643610357 0 -0.0056691130145453249 -0.0029879379195496777 0 -0.0056892023010920159 -0.0029804888959275955 0 -0.005659162129439046 -0.0029603851965732189 0 -0.0043333360240456458 -0.0021515069868274376 0 -0.0049621720779799454 -0.0029640888996428612 0 -0.0052823545983175036 -0.0030983780306440729 0 -0.0054687152030277074 -0.0029840406643610357 0 -0.0053236224106686589 -0.0029034225153514097 0 -0.0052823545983175036 -0.0030983780306440729 0 -0.0054761068168206663 -0.0031576685216562275 0 -0.0054687152030277074 -0.0029840406643610357 0 -0.0052643681457071574 -0.0030810012593249906 0 -0.0050019902410150165 -0.0028431494022282014 0 -0.0052823545983175036 -0.0030983780306440729 0 -0.0048413309050784059 -0.0031108983908418137 0 -0.0048081680075568612 -0.0027564351821092107 0 -0.0052823545983175036 -0.0030983780306440729 0 -0.0048413309050784059 -0.0031108983908418137 0 -0.0050421289764268993 -0.003398605582698699 0 -0.0052823545983175036 -0.0030983780306440729 0 -0.0051691910145788035 -0.0029349288126262383 0 -0.0053236224106686589 -0.0029034225153514097 0 -0.0044629897323654293 -0.0030096187891107073 0 -0.0048413309050784059 -0.0031108983908418137 0 -0.0048081680075568612 -0.0027564351821092107 0 -0.0043916218288267417 -0.0027540008850701061 0 -0.0044629897323654293 -0.0030096187891107073 0 -0.0048081680075568612 -0.0027564351821092107 0 -0.0044629897323654293 -0.0030096187891107073 0 -0.0048413309050784059 -0.0031108983908418137 0 -0.0046318165710908677 -0.0032919118456495177 0 -0.002570588326455295 -0.0022477810304164245 0 -0.0036133448054996484 -0.0024368564598959402 0 -0.0048413309050784059 -0.0031108983908418137 0 -0.0046318165710908677 -0.0032919118456495177 0 -0.0050421289764268993 -0.003398605582698699 0 -0.0045166097240686509 -0.0036162221189010341 0 -0.0046318165710908677 -0.0032919118456495177 0 -0.0050421289764268993 -0.003398605582698699 0 -0.0052281705257616112 -0.0010668423760691766 0 -0.0052577558766594519 -0.0010532465598578223 0 -0.0052735520959895626 -0.0010933071146070972 0 -0.0052251225380741109 -0.0011294360708155751 0 -0.0052735520959895626 -0.0010933071146070972 0 -0.0052604069395832485 -0.001194195334703154 0 -0.0052251225380741109 -0.0011294360708155751 0 -0.0052281705257616112 -0.0010668423760691766 0 -0.0052735520959895626 -0.0010933071146070972 0 -0.0052281705257616112 -0.0010668423760691766 0 -0.0052367923072640342 -0.0010324976668987633 0 -0.0052577558766594519 -0.0010532465598578223 0 -0.0052281705257616112 -0.0010668423760691766 0 -0.0052367923072640342 -0.0010324976668987633 0 -0.0052025042993577506 -0.00099627047530537909 0 -0.00315874080358275 -0.00063375816561872782 0 -0.0027830086255033241 -0.00060208134729244824 0 -0.00095510278205102159 -0.00017588616947022468 0 -0.0009296509418376366 -9.9072751788766442e-05 0 -0.00093551290537826173 -9.7765218373108763e-05 0 -0.0052577558766594519 -0.0010532465598578223 0 -0.0052682861791181973 -0.0010689639851024189 0 -0.0052525798850529045 -0.0010173009943806545 0 -0.0052367923072640342 -0.0010324976668987633 0 -0.0052577558766594519 -0.0010532465598578223 0 -0.0052525798850529045 -0.0010173009943806545 0 -0.0052577558766594519 -0.0010532465598578223 0 -0.0052666120805046276 -0.0010757521623894169 0 -0.0052682861791181973 -0.0010689639851024189 0 -0.0052666120805046276 -0.0010757521623894169 0 -0.0052649452149127534 -0.0010837141795028123 0 -0.0052682861791181973 -0.0010689639851024189 0 -0.0052577558766594519 -0.0010532465598578223 0 -0.0052666120805046276 -0.0010757521623894169 0 -0.0052735520959895626 -0.0010933071146070972 0 -0.0052666120805046276 -0.0010757521623894169 0 -0.0052735520959895626 -0.0010933071146070972 0 -0.0052649452149127534 -0.0010837141795028123 0 -0.0052682861791181973 -0.0010689639851024189 0 -0.0052629867915483276 -0.0010809677891818685 0 -0.0052633543989966548 -0.0010826899094238513 0 -0.00315874080358275 -0.00063375816561872782 0 -0.003044352967999374 -0.00068578541519987378 0 -0.0010121820331755276 -0.00024344118926961414 0 -0.00095510278205102159 -0.00017588616947022468 0 -0.0010443626970601295 -0.00022895298261648987 0 -0.0010121820331755276 -0.00024344118926961414 0 -0.00095510278205102159 -0.00017588616947022468 0 -0.0010253854420015076 -0.00029222281870826478 0 -0.0052649452149127534 -0.0010837141795028123 0 -0.0052682861791181973 -0.0010689639851024189 0 -0.0052633543989966548 -0.0010826899094238513 0 -0.00095510278205102159 -0.00017588616947022468 0 -0.00097916429890793836 -0.00011632689243210406 0 -0.00095026945668406351 -0.00011355656121859369 0 -0.00095510278205102159 -0.00017588616947022468 0 -0.00093551290537826173 -9.7765218373108763e-05 0 -0.00095026945668406351 -0.00011355656121859369 0 -0.00095510278205102159 -0.00017588616947022468 0 -0.00097916429890793836 -0.00011632689243210406 0 -0.0010443626970601295 -0.00022895298261648987 0 -3.2917941703238565e-05 9.9162515868639645e-05 0 -0.00020528489305542222 0.00028438205868637354 0 0.00096243593844473781 0.00036853613186684495 0 0.0013318027080823848 0.00051258268993780473 0 0.0011735967545850436 0.0010224415394203218 0 0.0017867269911231245 0.00086631028240986895 0 0.0013318027080823848 0.00051258268993780473 0 0.0011735967545850436 0.0010224415394203218 0 -0.00014671660989410765 -0.00036770638998219837 0 -0.00093449889622631253 -0.00015851040708612365 0 -0.00083026008761607746 0.00015622220517066859 0 -0.0010121820331755276 -0.00024344118926961414 0 -0.0010574898878452884 -0.00023000357725803193 0 -0.0010253854420015076 -0.00029222281870826478 0 -0.00020528489305542222 0.00028438205868637354 0 -0.0018338189361208818 -0.00073851147306239358 0 -0.00086725182814939572 0.00014522942364067959 0 -0.00020528489305542222 0.00028438205868637354 0 -0.0034822164201646134 -0.00046504314477940434 0 -0.0038201568209902674 -0.0022946462429191969 0 -0.0028347703409900425 -0.00058433110207739179 0 -0.0043333360240456458 -0.0021515069868274376 0 -0.0018338189361208818 -0.00073851147306239358 0 -0.0052856920050771538 -0.0011139982632448271 0 -0.0052685427542462264 -0.0010958619643493034 0 -0.0052629867915483276 -0.0010809677891818685 0 -0.0018338189361208818 -0.00073851147306239358 0 -0.003044352967999374 -0.00068578541519987378 0 -0.0010574898878452884 -0.00023000357725803193 0 -0.0010802316803817807 -0.00028462199765410265 0 -0.0010253854420015076 -0.00029222281870826478 0 -0.0052105967472707267 -0.001898774831530971 0 -0.003044352967999374 -0.00068578541519987378 0 -0.0040761042508390436 -0.0021764613557517282 0 -0.0034822164201646134 -0.00046504314477940434 0 -0.0038201568209902674 -0.0022946462429191969 0 -0.0052856920050771538 -0.0011139982632448271 0 -0.0052939586022843895 -0.0011181359571115015 0 -0.0052629867915483276 -0.0010809677891818685 0 -0.0061875155151768033 -0.0021770510197420779 0 -0.006232924857537946 -0.002156383081689907 0 -0.0061567813313341902 -0.002121918455315851 0 -0.0043333360240456458 -0.0021515069868274376 0 -0.0052105967472707267 -0.001898774831530971 0 -0.0052105967472707267 -0.001898774831530971 0 -0.0060496420497373939 -0.0015998705018390059 0 -0.0052856920050771538 -0.0011139982632448271 0 -0.0052939586022843895 -0.0011181359571115015 0 -0.0052866407973537798 -0.0011240259824953111 0 -0.0052105967472707267 -0.001898774831530971 0 -0.0064488503394970927 -0.0026630201193425687 0 -0.0052873626897126961 -0.001120272181114348 0 -0.0052782983247178037 -0.0011145313677226381 0 -0.0052740884756618056 -0.0011259828593731516 0 -0.0052856920050771538 -0.0011139982632448271 0 -0.0052873626897126961 -0.001120272181114348 0 -0.0052782983247178037 -0.0011145313677226381 0 -0.005923482373466041 -0.0013605464441594356 0 -0.0060496420497373939 -0.0015998705018390059 0 -0.0052856920050771538 -0.0011139982632448271 0 -0.0052782983247178037 -0.0011145313677226381 0 -0.0052685427542462264 -0.0010958619643493034 0 -0.0052782983247178037 -0.0011145313677226381 0 -0.0052685427542462264 -0.0010958619643493034 0 -0.0052740884756618056 -0.0011259828593731516 0 -0.0054084805436131539 -0.0012270383234598966 0 -0.0054068591975219111 -0.0013321419223531355 0 -0.0055355246106811411 -0.0013871762945978224 0 -0.0052685427542462264 -0.0010958619643493034 0 -0.0052574392168523556 -0.001087701735851444 0 -0.0052740884756618056 -0.0011259828593731516 0 -0.0052357799269122322 -0.001101112063714631 0 -0.0060288077498492207 -0.001380508523200876 0 -0.0052574392168523556 -0.001087701735851444 0 -0.0052629754260975952 -0.0010870709763305031 0 -0.0052633543989966548 -0.0010826899094238513 0 -0.0052685427542462264 -0.0010958619643493034 0 -0.0052574392168523556 -0.001087701735851444 0 -0.0052629754260975952 -0.0010870709763305031 0 -0.0052649452149127534 -0.0010837141795028123 0 -0.0052574392168523556 -0.001087701735851444 0 -0.0052633543989966548 -0.0010826899094238513 0 -0.0052685427542462264 -0.0010958619643493034 0 -0.0052636152297453193 -0.0010855124152702304 0 -0.0052629867915483276 -0.0010809677891818685 0 -0.0052685427542462264 -0.0010958619643493034 0 -0.0052636152297453193 -0.0010855124152702304 0 -0.0052629754260975952 -0.0010870709763305031 0 -0.0052636152297453193 -0.0010855124152702304 0 -0.0052629867915483276 -0.0010809677891818685 0 -0.0052633543989966548 -0.0010826899094238513 0 -0.0052636152297453193 -0.0010855124152702304 0 -0.0052629754260975952 -0.0010870709763305031 0 -0.0052633543989966548 -0.0010826899094238513 0 -0.0052735520959895626 -0.0010933071146070972 0 -0.0052649452149127534 -0.0010837141795028123 0 -0.0052574392168523556 -0.001087701735851444 0 -0.0052735520959895626 -0.0010933071146070972 0 -0.0054084805436131539 -0.0012270383234598966 0 -0.0052604069395832485 -0.001194195334703154 0 -0.0053122443114425192 -0.0011275875291167983 0 -0.0052357799269122322 -0.001101112063714631 0 -0.0054084805436131539 -0.0012270383234598966 0 -0.005316523905690854 -0.0012728289766736377 0 -0.0052604069395832485 -0.001194195334703154 0 -0.0054084805436131539 -0.0012270383234598966 0 -0.0054068591975219111 -0.0013321419223531355 0 -0.005316523905690854 -0.0012728289766736377 0 -0.0054068591975219111 -0.0013321419223531355 0 -0.005316523905690854 -0.0012728289766736377 0 -0.0053008949032198856 -0.0013661850777281247 0 -0.0054152656410520125 -0.0013327433978107064 0 -0.00518675788374058 -0.0012203970639777138 0 -0.0051432951551849924 -0.0013226682814219968 0 -0.005316523905690854 -0.0012728289766736377 0 -0.0052604069395832485 -0.001194195334703154 0 -0.0051432951551849924 -0.0013226682814219968 0 -0.005316523905690854 -0.0012728289766736377 0 -0.0053008949032198856 -0.0013661850777281247 0 -0.0054152656410520125 -0.0013327433978107064 0 -0.0055695327765262767 -0.0012846392596613037 0 -0.0051932665650994882 -0.0012055434992311899 0 -0.0052251225380741109 -0.0011294360708155751 0 -0.0052604069395832485 -0.001194195334703154 0 -0.0051932665650994882 -0.0012055434992311899 0 -0.0051984952672528483 -0.0012845979619133358 0 -0.0052604069395832485 -0.001194195334703154 0 -0.0058527726455111315 -0.0012575938850980664 0 -0.0059392548547573653 -0.0013127460185231006 0 -0.0060351103368146706 -0.0012221978600095464 0 -0.0059927221964414714 -0.0013727766282763552 0 -0.0060670722080989944 -0.0012764471240372379 0 -0.006035592691040037 -0.0014432847127357872 0 -0.0059109728063432634 -0.0013840929442497634 0 -0.0059927221964414714 -0.0013727766282763552 0 -0.005936168364429205 -0.0014483815819973285 0 -0.0059109728063432634 -0.0013840929442497634 0 -0.0059927221964414714 -0.0013727766282763552 0 -0.0059392548547573653 -0.0013127460185231006 0 -0.0059927221964414714 -0.0013727766282763552 0 -0.0060200254507309994 -0.0012980175773696465 0 -0.0060670722080989944 -0.0012764471240372379 0 -0.0060200254507309994 -0.0012980175773696465 0 -0.0060646981396480166 -0.0012778255752785926 0 -0.0060351103368146706 -0.0012221978600095464 0 -0.0061972385828552258 -0.0013888239620300567 0 -0.006367054462517902 -0.0013591828045200996 0 -0.0060200254507309994 -0.0012980175773696465 0 -0.0059392548547573653 -0.0013127460185231006 0 -0.0060351103368146706 -0.0012221978600095464 0 -0.0059927221964414714 -0.0013727766282763552 0 -0.0060200254507309994 -0.0012980175773696465 0 -0.0059392548547573653 -0.0013127460185231006 0 -0.0057464092021998776 -0.001365929720336246 0 -0.0060039329059629644 -0.0013585185774737916 0 -0.0057292280174147427 -0.0013671959481195313 0 -0.0058894790839895605 -0.00138336176364781 0 -0.0059168916245103658 -0.001436202840851937 0 -0.0056849190836499846 -0.0011795987333977536 0 -0.0058894790839895605 -0.00138336176364781 0 -0.0060169693125358232 -0.001260826293118842 0 -0.0057292280174147427 -0.0013671959481195313 0 -0.0056849190836499846 -0.0011795987333977536 0 -0.0058894790839895605 -0.00138336176364781 0 -0.0058894790839895605 -0.00138336176364781 0 -0.0059176958265255821 -0.0014395369472493748 0 -0.0060169693125358232 -0.001260826293118842 0 -0.0059875543069621171 -0.0013620011681137279 0 -0.0060039329059629644 -0.0013585185774737916 0 -0.006367054462517902 -0.0013591828045200996 0 -0.0060039329059629644 -0.0013585185774737916 0 -0.0055695327765262767 -0.0012846392596613037 0 -0.0063657940683962549 -0.0014969084961112735 0 -0.0059176958265255821 -0.0014395369472493748 0 -0.0060169693125358232 -0.001260826293118842 0 -0.0063142486034737785 -0.0013777468418713081 0 -0.006367054462517902 -0.0013591828045200996 0 -0.0069381087666637803 -0.0014596069404025876 0 -0.0060169693125358232 -0.001260826293118842 0 -0.0063142486034737785 -0.0013777468418713081 0 -0.0063676197476127188 -0.0013535352052872311 0 -0.0060039329059629644 -0.0013585185774737916 0 -0.0069381087666637803 -0.0014596069404025876 0 -0.0062963388142790889 -0.0015646187225577162 0 -0.0062195500557137963 -0.0014174870179936717 0 -0.0068496246847215324 -0.0013136287230361655 0 -0.0054068591975219111 -0.0013321419223531355 0 -0.0053008949032198856 -0.0013661850777281247 0 -0.0054747465547683692 -0.001415410434612484 0 -0.0075379890613556429 -0.0019379703225241654 0 -0.0078012735145077446 -0.0020138491448000368 0 -0.0077572083243968928 -0.0023318237215522097 0 -0.0075379890613556429 -0.0019379703225241654 0 -0.0078012735145077446 -0.0020138491448000368 0 -0.0079066329807956429 -0.0017737677459040413 0 -0.0078012735145077446 -0.0020138491448000368 0 -0.0079849321192417919 -0.0021036804872193379 0 -0.0077572083243968928 -0.0023318237215522097 0 -0.006367054462517902 -0.0013591828045200996 0 -0.0093153905018958684 -0.0022651386666415821 0 -0.0097996124533340917 -0.0028510095514021907 0 -0.0098299447036506293 -0.0029064887110106961 0 -0.0099339385422163948 -0.0027548634733315742 0 -0.0097996124533340917 -0.0028510095514021907 0 -0.0098299447036506293 -0.0029064887110106961 0 -0.0095167388850730134 -0.0031507184781571305 0 -0.0088311972531194913 -0.0025594124775203055 0 -0.0091227808652487481 -0.0026816141803402329 0 -0.0079849321192417919 -0.0021036804872193379 0 -0.0079847021714427226 -0.0019314549544887695 0 -0.0082161451624505437 -0.0018791284453543587 0 -0.0078012735145077446 -0.0020138491448000368 0 -0.0079849321192417919 -0.0021036804872193379 0 -0.0079847021714427226 -0.0019314549544887695 0 -0.0078012735145077446 -0.0020138491448000368 0 -0.0079847021714427226 -0.0019314549544887695 0 -0.0079066329807956429 -0.0017737677459040413 0 -0.0079847021714427226 -0.0019314549544887695 0 -0.0079066329807956429 -0.0017737677459040413 0 -0.0079997669553782992 -0.0017592962376279549 0 -0.0054068591975219111 -0.0013321419223531355 0 -0.0054747465547683692 -0.001415410434612484 0 -0.0055355246106811411 -0.0013871762945978224 0 -0.0069381087666637803 -0.0014596069404025876 0 -0.0063657940683962549 -0.0014969084961112735 0 -0.0068260165458139078 -0.0015409209643963207 0 -0.0067020924147111038 -0.0016003619590646608 0 -0.0066189848008306011 -0.001579822358031545 0 -0.0069381087666637803 -0.0014596069404025876 0 -0.0069593498136925041 -0.0016390154670149772 0 -0.0069772410391402999 -0.0017518107401235505 0 -0.0074186806341663501 -0.0018701149325101346 0 -0.0073001843851818538 -0.001698768677753705 0 -0.0063657940683962549 -0.0014969084961112735 0 -0.0060288077498492207 -0.001380508523200876 0 -0.006674627546314941 -0.0014867934685372148 0 -0.0063668831107458294 -0.001630243415532689 0 -0.0065819059426130812 -0.0014629391559005007 0 -0.0063657940683962549 -0.0014969084961112735 0 -0.0069593498136925041 -0.0016390154670149772 0 -0.0069593498136925041 -0.0016390154670149772 0 -0.0068907732213287021 -0.0017749501948563248 0 -0.0063668831107458294 -0.001630243415532689 0 -0.0065819059426130812 -0.0014629391559005007 0 -0.0062874752818512219 -0.0015149548657162526 0 -0.0060288077498492207 -0.001380508523200876 0 -0.0068907732213287021 -0.0017749501948563248 0 -0.0079997669553782992 -0.0017592962376279549 0 -0.0080835313817462541 -0.0018467912584800305 0 -0.0081641538122659753 -0.0018047473587803114 0 -0.0069593498136925041 -0.0016390154670149772 0 -0.0079111008881589378 -0.0021489126558098194 0 -0.0079847021714427226 -0.0019314549544887695 0 -0.0079997669553782992 -0.0017592962376279549 0 -0.0080835313817462541 -0.0018467912584800305 0 -0.0079847021714427226 -0.0019314549544887695 0 -0.0080835313817462541 -0.0018467912584800305 0 -0.0082161451624505437 -0.0018791284453543587 0 -0.0080835313817462541 -0.0018467912584800305 0 -0.0082161451624505437 -0.0018791284453543587 0 -0.0081641538122659753 -0.0018047473587803114 0 -0.0091227808652487481 -0.0026816141803402329 0 -0.0079111008881589378 -0.0021489126558098194 0 -0.0097031660029635522 -0.0029280352697544942 0 -0.0095430315842389372 -0.0030834115528785631 0 -0.0095681375757872937 -0.0027326798161411642 0 -0.0091227808652487481 -0.0026816141803402329 0 -0.010328004706817268 -0.0036083619697487332 0 -0.0096993281125203092 -0.0029286441285987525 0 -0.0095430315842389372 -0.0030834115528785631 0 -0.0095569902030697654 -0.0032500310209594842 0 -0.0091227808652487481 -0.0026816141803402329 0 -0.0084907367713487076 -0.0025770174470458687 0 -0.0091227808652487481 -0.0026816141803402329 0 -0.0091533695492605933 -0.0026897241294515754 0 -0.0076312445790595578 -0.0020754444682903241 0 -0.007566313854187056 -0.0020578483906225488 0 -0.0076308936336274748 -0.0019871383453516399 0 -0.0084907367713487076 -0.0025770174470458687 0 -0.0079111008881589378 -0.0021489126558098194 0 -0.0086831687115070492 -0.0025615876028402366 0 -0.0087510643731867534 -0.0024079891014668281 0 -0.0085365344222282126 -0.0023511918737212575 0 -0.0079111008881589378 -0.0021489126558098194 0 -0.0068907732213287021 -0.0017749501948563248 0 -0.0066369951985332304 -0.0016112890708249073 0 -0.0065889727648373057 -0.0015411730538934241 0 -0.0064078511677588736 -0.0015727946067072608 0 -0.007566313854187056 -0.0020578483906225488 0 -0.0075280627508012184 -0.0020036701116053234 0 -0.0076308936336274748 -0.0019871383453516399 0 -0.0060496420497373939 -0.0015998705018390059 0 -0.0060288077498492207 -0.001380508523200876 0 -0.0064040968354500934 -0.0017191177807229002 0 -0.0066369951985332304 -0.0016112890708249073 0 -0.0064078511677588736 -0.0015727946067072608 0 -0.0084907367713487076 -0.0025770174470458687 0 -0.007139013116742067 -0.00205603120285381 0 -0.0068907732213287021 -0.0017749501948563248 0 -0.007139013116742067 -0.00205603120285381 0 -0.0060496420497373939 -0.0015998705018390059 0 -0.007139013116742067 -0.00205603120285381 0 -0.0080265037236584656 -0.0026306658980889959 0 -0.0081854043662170067 -0.0026999991289288401 0 -0.0083211775511435604 -0.0025820641337077591 0 -0.006232924857537946 -0.002156383081689907 0 -0.0062357966733499678 -0.0021071001338724719 0 -0.0061567813313341902 -0.002121918455315851 0 -0.007139013116742067 -0.00205603120285381 0 -0.0064488503394970927 -0.0026630201193425687 0 -0.0080264321229987813 -0.0028319703147189064 0 -0.0080265037236584656 -0.0026306658980889959 0 -0.0081854043662170067 -0.0026999991289288401 0 -0.0081854043662170067 -0.0026999991289288401 0 -0.0083557169873336948 -0.0026751880071804813 0 -0.0083211775511435604 -0.0025820641337077591 0 -0.00940014566804152 -0.0030907124365413363 0 -0.0086924291487259549 -0.0031115267656663479 0 -0.0081854043662170067 -0.0026999991289288401 0 -0.0081638343363910054 -0.0028684601025159915 0 -0.0083557169873336948 -0.0026751880071804813 0 -0.0095430315842389372 -0.0030834115528785631 0 -0.0095569902030697654 -0.0032500310209594842 0 -0.0091393383051876723 -0.003141855121790407 0 -0.0080264321229987813 -0.0028319703147189064 0 -0.0081854043662170067 -0.0026999991289288401 0 -0.0081638343363910054 -0.0028684601025159915 0 -0.0084907367713487076 -0.0025770174470458687 0 -0.00940014566804152 -0.0030907124365413363 0 -0.0095430315842389372 -0.0030834115528785631 0 -0.0091393383051876723 -0.003141855121790407 0 -0.0095681375757872937 -0.0027326798161411642 0 -0.011014043489329219 -0.0039483234241998117 0 -0.010980588559838945 -0.0038384369880242997 0 -0.011121028200631046 -0.0038500238493754477 0 -0.00940014566804152 -0.0030907124365413363 0 -0.010328004706817268 -0.0036083619697487332 0 -0.01168287580402883 -0.0036498584660921238 0 -0.011270696372034174 -0.0040681178699925897 0 -0.011294453343138399 -0.0032628548831667072 0 -0.010328004706817268 -0.0036083619697487332 0 -0.011569559043188422 -0.0032928286359753655 0 -0.011529049150121028 -0.004206203477971104 0 -0.011569531065632568 -0.0030899794066299815 0 -0.011117085774351597 -0.0035969208609430191 0 -0.010980588559838945 -0.0038384369880242997 0 -0.011121028200631046 -0.0038500238493754477 0 -0.010918042237160842 -0.0037444171139006319 0 -0.011121028200631046 -0.0038500238493754477 0 -0.010918042237160842 -0.0037444171139006319 0 -0.010881691904323127 -0.0034420210271307564 0 -0.010773910488444737 -0.0032078417771521333 0 -0.010328004706817268 -0.0036083619697487332 0 -0.0098299447036506293 -0.0029064887110106961 0 -0.0095438325784616123 -0.0031905629480516178 0 -0.0095167388850730134 -0.0031507184781571305 0 -0.010328004706817268 -0.0036083619697487332 0 -0.011096772908547558 -0.0036363329981133094 0 -0.011569531065632568 -0.0030899794066299815 0 -0.011117085774351597 -0.0035969208609430191 0 -0.011114829564894317 -0.003137552045353589 0 -0.011569531065632568 -0.0030899794066299815 0 -0.011114829564894317 -0.003137552045353589 0 -0.011202922816991963 -0.0025937025928970243 0 -0.011569531065632568 -0.0030899794066299815 0 -0.011202922816991963 -0.0025937025928970243 0 -0.011650893573289241 -0.0020108484341014028 0 -0.011294453343138399 -0.0032628548831667072 0 -0.011533351412353317 -0.0028839375848187907 0 -0.011294673565352732 -0.0024239667212295262 0 -0.011569559043188422 -0.0032928286359753655 0 -0.011458648539080525 -0.0021842081948448273 0 -0.012002601605649475 -0.0028645250762314987 0 -0.01112306470888169 -0.0032869241181067107 0 -0.011689630610370941 -0.003126370138383515 0 -0.011856250569587326 -0.0027155739176670901 0 -0.012099309704022711 -0.0032344531240120996 0 -0.011294453343138399 -0.0032628548831667072 0 -0.011689630610370941 -0.003126370138383515 0 -0.011533351412353317 -0.0028839375848187907 0 -0.011689630610370941 -0.003126370138383515 0 -0.011533351412353317 -0.0028839375848187907 0 -0.011856250569587326 -0.0027155739176670901 0 -0.01168287580402883 -0.0036498584660921238 0 -0.011689630610370941 -0.003126370138383515 0 -0.012099309704022711 -0.0032344531240120996 0 -0.01168287580402883 -0.0036498584660921238 0 -0.011294453343138399 -0.0032628548831667072 0 -0.011689630610370941 -0.003126370138383515 0 -0.010773910488444737 -0.0032078417771521333 0 -0.01112306470888169 -0.0032869241181067107 0 -0.0088311972531194913 -0.0025594124775203055 0 -0.0093153905018958684 -0.0022651386666415821 0 -0.0097996124533340917 -0.0028510095514021907 0 -0.0099339385422163948 -0.0027548634733315742 0 -0.010070559087121986 -0.0025747450192033171 0 -0.0098299447036506293 -0.0029064887110106961 0 -0.0099339385422163948 -0.0027548634733315742 0 -0.010095040120323593 -0.0026328417890565305 0 -0.0060670722080989944 -0.0012764471240372379 0 -0.0061992700321450963 -0.0015021298421415245 0 -0.006035592691040037 -0.0014432847127357872 0 -0.0098550528333819533 -0.0024655430412658637 0 -0.0093153905018958684 -0.0022651386666415821 0 -0.0061992700321450963 -0.0015021298421415245 0 -0.0061269617606263703 -0.0015633131690392648 0 -0.0060519885685311643 -0.0015175799013160398 0 -0.0061992700321450963 -0.0015021298421415245 0 -0.0060519885685311643 -0.0015175799013160398 0 -0.006035592691040037 -0.0014432847127357872 0 -0.0093153905018958684 -0.0022651386666415821 0 -0.0086482972427016479 -0.0018405901288080929 0 -0.0099339385422163948 -0.0027548634733315742 0 -0.010070559087121986 -0.0025747450192033171 0 -0.010103084018782316 -0.0026375715859898604 0 -0.01177635803093076 -0.003855485872159291 0 -0.011866456648297235 -0.0040348761945747953 0 -0.012247514962260359 -0.0037015387710196204 0 -0.01112306470888169 -0.0032869241181067107 0 -0.0093153905018958684 -0.0022651386666415821 0 -0.01177635803093076 -0.003855485872159291 0 -0.012247514962260359 -0.0037015387710196204 0 -0.012763391485410457 -0.0029879320122684736 0 -0.011993203065551574 -0.0028640940086181797 0 -0.012359412810046093 -0.0035782051333558313 0 -0.01248625644243752 -0.0029622757818148016 0 -0.012359412810046093 -0.0035782051333558313 0 -0.01248625644243752 -0.0029622757818148016 0 -0.013060005893286739 -0.0028697269903301564 0 -0.01112306470888169 -0.0032869241181067107 0 -0.013037715523251012 -0.0029337568486621467 0 -0.010426515288125505 -0.0018928890817430405 0 -0.0086482972427016479 -0.0018405901288080929 0 -0.006007941951560577 -0.0013319554256766063 0 -0.0086482972427016479 -0.0018405901288080929 0 -0.013468812648073421 -0.0026914321346326012 0 -0.012247514962260359 -0.0037015387710196204 0 -0.012763391485410457 -0.0029879320122684736 0 -0.0059195396105446814 -0.0015900083606321044 0 -0.0061269617606263703 -0.0015633131690392648 0 -0.0060519885685311643 -0.0015175799013160398 0 -0.0058587541328182996 -0.0016930636336163058 0 -0.0059195396105446814 -0.0015900083606321044 0 -0.0061269617606263703 -0.0015633131690392648 0 -0.0068629035976236277 -0.0011558259634525179 0 -0.0067632145535854128 -0.001097689142059201 0 -0.0078721797643701279 -0.00048192711676216314 0 -0.0059029567598771291 -0.0015425671142834784 0 -0.0059195396105446814 -0.0015900083606321044 0 -0.0059579361007115212 -0.0015153169107037187 0 -0.0059195396105446814 -0.0015900083606321044 0 -0.0059579361007115212 -0.0015153169107037187 0 -0.0060519885685311643 -0.0015175799013160398 0 -0.0059579361007115212 -0.0015153169107037187 0 -0.0060519885685311643 -0.0015175799013160398 0 -0.006035592691040037 -0.0014432847127357872 0 -0.0059579361007115212 -0.0015153169107037187 0 -0.006035592691040037 -0.0014432847127357872 0 -0.005936168364429205 -0.0014483815819973285 0 -0.0059927221964414714 -0.0013727766282763552 0 -0.006035592691040037 -0.0014432847127357872 0 -0.005936168364429205 -0.0014483815819973285 0 -0.0052277108455709336 -0.0027972028884496987 0 -0.0051962180376117191 -0.0026540714216499962 0 -0.0053919330016934863 -0.0027255821802552129 0 -0.0075306047623288413 -0.0030440628888604841 0 -0.0077386762398113434 -0.0032420443899811037 0 -0.0045795402920103326 -0.0027961737435308392 0 -0.0075306047623288413 -0.0030440628888604841 0 -0.0051516314436935839 -0.0031857415239739976 0 -0.0047528640963523539 -0.001990039487873099 0 -0.0060255564997050244 -0.0025233232501072956 0 -0.0050062305031440954 -0.002796879515748286 0 -0.0052277108455709336 -0.0027972028884496987 0 -0.0051962180376117191 -0.0026540714216499962 0 -0.0050062305031440954 -0.002796879515748286 0 -0.0052277108455709336 -0.0027972028884496987 0 -0.0051691910145788035 -0.0029349288126262383 0 -0.0045795402920103326 -0.0027961737435308392 0 -0.0050019902410150165 -0.0028431494022282014 0 -0.0043916218288267417 -0.0027540008850701061 0 -0.0043827213927773211 -0.0024704682185672606 0 -0.0048081680075568612 -0.0027564351821092107 0 -0.0052277108455709336 -0.0027972028884496987 0 -0.0053236224106686589 -0.0029034225153514097 0 -0.0053919330016934863 -0.0027255821802552129 0 -0.0052277108455709336 -0.0027972028884496987 0 -0.0051691910145788035 -0.0029349288126262383 0 -0.0053236224106686589 -0.0029034225153514097 0 -0.0053236224106686589 -0.0029034225153514097 0 -0.0054878168467170554 -0.0028574160075617422 0 -0.0053919330016934863 -0.0027255821802552129 0 -0.0054687152030277074 -0.0029840406643610357 0 -0.0053236224106686589 -0.0029034225153514097 0 -0.0054878168467170554 -0.0028574160075617422 0 -0.0054687152030277074 -0.0029840406643610357 0 -0.0054878168467170554 -0.0028574160075617422 0 -0.0055703374698629739 -0.00290519703038912 0 -0.0052169443637597249 -0.003044528009973276 0 -0.0064488503394970927 -0.0026630201193425687 0 -0.0054687152030277074 -0.0029840406643610357 0 -0.0057747189702205531 -0.0029569825323285514 0 -0.0055703374698629739 -0.00290519703038912 0 -0.0054687152030277074 -0.0029840406643610357 0 -0.005659162129439046 -0.0029603851965732189 0 -0.0056782350167198176 -0.0029407279856096384 0 -0.0056892023010920159 -0.0029804888959275955 0 -0.005659162129439046 -0.0029603851965732189 0 -0.0056782350167198176 -0.0029407279856096384 0 -0.0057747189702205531 -0.0029569825323285514 0 -0.0055703374698629739 -0.00290519703038912 0 -0.0056653256431174514 -0.002875792770952778 0 -0.0054878168467170554 -0.0028574160075617422 0 -0.0056586684314030083 -0.0028092825495189206 0 -0.0055588474920645684 -0.0027726073126300831 0 -0.0054878168467170554 -0.0028574160075617422 0 -0.0056586684314030083 -0.0028092825495189206 0 -0.0056180955593073669 -0.0028646791200411977 0 -0.0054878168467170554 -0.0028574160075617422 0 -0.0055703374698629739 -0.00290519703038912 0 -0.0056180955593073669 -0.0028646791200411977 0 -0.0056586684314030083 -0.0028092825495189206 0 -0.0056688443623717265 -0.0028007060902588889 0 -0.0056555573426124613 -0.0028331086308990734 0 -0.0060088752589227568 -0.0026824661579061197 0 -0.0074278468239416277 -0.0031430381385983419 0 -0.0056586684314030083 -0.0028092825495189206 0 -0.0056653256431174514 -0.002875792770952778 0 -0.0056688443623717265 -0.0028007060902588889 0 -0.0055703374698629739 -0.00290519703038912 0 -0.0056180955593073669 -0.0028646791200411977 0 -0.0056653256431174514 -0.002875792770952778 0 -0.0056586684314030083 -0.0028092825495189206 0 -0.0056180955593073669 -0.0028646791200411977 0 -0.0056653256431174514 -0.002875792770952778 0 -0.0083557169873336948 -0.0026751880071804813 0 -0.0083211775511435604 -0.0025820641337077591 0 -0.0085519138655067838 -0.0029831813190966299 0 -0.0064488503394970927 -0.0026630201193425687 0 -0.0088653908720524761 -0.0032525209048397839 0 -0.0081633748290537086 -0.0028791948344875948 0 -0.0083557169873336948 -0.0026751880071804813 0 -0.0085519138655067838 -0.0029831813190966299 0 -0.011014043489329219 -0.0039483234241998117 0 -0.010980588559838945 -0.0038384369880242997 0 -0.010719865715672487 -0.0038773419230501904 0 -0.0057747189702205531 -0.0029569825323285514 0 -0.0056653256431174514 -0.002875792770952778 0 -0.0056688443623717265 -0.0028007060902588889 0 -0.00940014566804152 -0.0030907124365413363 0 -0.0088653908720524761 -0.0032525209048397839 0 -0.010719865715672487 -0.0038773419230501904 0 -0.010761703060851016 -0.0036605191282542979 0 -0.010918042237160842 -0.0037444171139006319 0 -0.010980588559838945 -0.0038384369880242997 0 -0.010719865715672487 -0.0038773419230501904 0 -0.010918042237160842 -0.0037444171139006319 0 -0.010701058598463422 -0.0039344758284769812 0 -0.010525902138301447 -0.003568063818161472 0 -0.010468628557981398 -0.0038804926139439319 0 -0.010719865715672487 -0.0038773419230501904 0 -0.010761703060851016 -0.0036605191282542979 0 -0.010525902138301447 -0.003568063818161472 0 -0.0088653908720524761 -0.0032525209048397839 0 -0.010569882823156745 -0.0040475613643100889 0 -0.0088653908720524761 -0.0032525209048397839 0 -0.0074278468239416277 -0.0031430381385983419 0 -0.010761703060851016 -0.0036605191282542979 0 -0.010525902138301447 -0.003568063818161472 0 -0.010881691904323127 -0.0034420210271307564 0 -0.010761703060851016 -0.0036605191282542979 0 -0.010918042237160842 -0.0037444171139006319 0 -0.010881691904323127 -0.0034420210271307564 0 -0.010525902138301447 -0.003568063818161472 0 -0.010057363262828571 -0.0037292720297229759 0 -0.010468628557981398 -0.0038804926139439319 0 -0.0054878168467170554 -0.0028574160075617422 0 -0.0053919330016934863 -0.0027255821802552129 0 -0.0055588474920645684 -0.0027726073126300831 0 -0.0077386762398113434 -0.0032420443899811037 0 -0.0074278468239416277 -0.0031430381385983419 0 -0.010525902138301447 -0.003568063818161472 0 -0.010057363262828571 -0.0037292720297229759 0 -0.010317251075938394 -0.003285178505030338 0 -0.010317251075938394 -0.003285178505030338 0 -0.0099676299772878448 -0.0030235486809318101 0 -0.010649894297747738 -0.0029644601640101045 0 -0.010057363262828571 -0.0037292720297229759 0 -0.010317251075938394 -0.003285178505030338 0 -0.0099676299772878448 -0.0030235486809318101 0 -0.010525902138301447 -0.003568063818161472 0 -0.010317251075938394 -0.003285178505030338 0 -0.010649894297747738 -0.0029644601640101045 0 -0.010525902138301447 -0.003568063818161472 0 -0.010881691904323127 -0.0034420210271307564 0 -0.010649894297747738 -0.0029644601640101045 0 -0.011096772908547558 -0.0036363329981133094 0 -0.010644381817849491 -0.0029725746984863386 0 -0.010649894297747738 -0.0029644601640101045 0 -0.011114829564894317 -0.003137552045353589 0 -0.010885427732353974 -0.002785143176145127 0 -0.011117085774351597 -0.0035969208609430191 0 -0.010649894297747738 -0.0029644601640101045 0 -0.011114829564894317 -0.003137552045353589 0 -0.010584864207937781 -0.0025589096414978872 0 -0.011202922816991963 -0.0025937025928970243 0 -0.01136744582667671 -0.0020636510163356755 0 -0.011114829564894317 -0.003137552045353589 0 -0.010885427732353974 -0.002785143176145127 0 -0.011202922816991963 -0.0025937025928970243 0 -0.010649894297747738 -0.0029644601640101045 0 -0.010885427732353974 -0.002785143176145127 0 -0.010584864207937781 -0.0025589096414978872 0 -0.010885427732353974 -0.002785143176145127 0 -0.010584864207937781 -0.0025589096414978872 0 -0.011202922816991963 -0.0025937025928970243 0 -0.0099676299772878448 -0.0030235486809318101 0 -0.010649894297747738 -0.0029644601640101045 0 -0.010584864207937781 -0.0025589096414978872 0 -0.010275059371171616 -0.0030415882718137274 0 -0.010866486891529343 -0.0025404748601550483 0 -0.010362161489320017 -0.0025435454709724185 0 -0.010373818549487761 -0.0029452022866510268 0 -0.010690035108746327 -0.0025749910242045503 0 -0.010866486891529343 -0.0025404748601550483 0 -0.010362161489320017 -0.0025435454709724185 0 -0.010596204032423628 -0.0022530440706851882 0 -0.010362161489320017 -0.0025435454709724185 0 -0.0098572072987619958 -0.0026793047894602133 0 -0.010206314211167335 -0.0022100195210191711 0 -0.010275059371171616 -0.0030415882718137274 0 -0.010362161489320017 -0.0025435454709724185 0 -0.0098572072987619958 -0.0026793047894602133 0 -0.0075306047623288413 -0.0030440628888604841 0 -0.010373818549487761 -0.0029452022866510268 0 -0.0096568138622399723 -0.0035214723772897102 0 -0.010275059371171616 -0.0030415882718137274 0 -0.0098572072987619958 -0.0026793047894602133 0 -0.0093873166606353621 -0.003450737098938967 0 -0.010057363262828571 -0.0037292720297229759 0 -0.0099676299772878448 -0.0030235486809318101 0 -0.006788411148234137 -0.0025665317231268465 0 -0.0075306047623288413 -0.0030440628888604841 0 -0.0096568138622399723 -0.0035214723772897102 0 -0.0098572072987619958 -0.0026793047894602133 0 -0.0093315645700142013 -0.0028576219633041095 0 -0.0086966848979085215 -0.0031147312744302519 0 -0.0096568138622399723 -0.0035214723772897102 0 -0.0093315645700142013 -0.0028576219633041095 0 -0.0098572072987619958 -0.0026793047894602133 0 -0.0094245690052560671 -0.0024654093820226423 0 -0.0097340625505681552 -0.0020764970909651309 0 -0.0098572072987619958 -0.0026793047894602133 0 -0.0093315645700142013 -0.0028576219633041095 0 -0.0094245690052560671 -0.0024654093820226423 0 -0.0089276665176490112 -0.0025338627341661229 0 -0.0093315645700142013 -0.0028576219633041095 0 -0.0094245690052560671 -0.0024654093820226423 0 -0.0089276665176490112 -0.0025338627341661229 0 -0.0094245690052560671 -0.0024654093820226423 0 -0.0092148442490215064 -0.0019662937339104381 0 -0.0092148442490215064 -0.0019662937339104381 0 -0.0095626418538869388 -0.0014192116137000945 0 -0.0097340625505681552 -0.0020764970909651309 0 -0.0094245690052560671 -0.0024654093820226423 0 -0.0092148442490215064 -0.0019662937339104381 0 -0.0097340625505681552 -0.0020764970909651309 0 -0.0092148442490215064 -0.0019662937339104381 0 -0.0095626418538869388 -0.0014192116137000945 0 -0.0088446962537942365 -0.0015091055338958183 0 -0.0095626418538869388 -0.0014192116137000945 0 -0.010131795764216002 -0.001723100620761138 0 -0.0097340625505681552 -0.0020764970909651309 0 -0.0095626418538869388 -0.0014192116137000945 0 -0.010131795764216002 -0.001723100620761138 0 -0.010179286002230616 -0.0012056539013588186 0 -0.010131795764216002 -0.001723100620761138 0 -0.010532678947983525 -0.0015067117695840237 0 -0.010179286002230616 -0.0012056539013588186 0 -0.010131795764216002 -0.001723100620761138 0 -0.0097340625505681552 -0.0020764970909651309 0 -0.010206314211167335 -0.0022100195210191711 0 -0.0098572072987619958 -0.0026793047894602133 0 -0.0097340625505681552 -0.0020764970909651309 0 -0.010206314211167335 -0.0022100195210191711 0 -0.010362161489320017 -0.0025435454709724185 0 -0.010206314211167335 -0.0022100195210191711 0 -0.010596204032423628 -0.0022530440706851882 0 -0.010206314211167335 -0.0022100195210191711 0 -0.010596204032423628 -0.0022530440706851882 0 -0.010539666461739705 -0.0018993619754965473 0 -0.010596204032423628 -0.0022530440706851882 0 -0.010539666461739705 -0.0018993619754965473 0 -0.010921467120347906 -0.002038455089535287 0 -0.010866486891529343 -0.0025404748601550483 0 -0.010596204032423628 -0.0022530440706851882 0 -0.010921467120347906 -0.002038455089535287 0 -0.010539666461739705 -0.0018993619754965473 0 -0.010921467120347906 -0.002038455089535287 0 -0.010932602755816187 -0.001617075104542713 0 -0.010131795764216002 -0.001723100620761138 0 -0.010206314211167335 -0.0022100195210191711 0 -0.010539666461739705 -0.0018993619754965473 0 -0.010866486891529343 -0.0025404748601550483 0 -0.010921467120347906 -0.002038455089535287 0 -0.01136744582667671 -0.0020636510163356755 0 -0.010690035108746327 -0.0025749910242045503 0 -0.011317498266506533 -0.0020986002509911939 0 -0.010921467120347906 -0.002038455089535287 0 -0.011182979090148376 -0.0017840782870708134 0 -0.010932602755816187 -0.001617075104542713 0 -0.011182979090148376 -0.0017840782870708134 0 -0.01136744582667671 -0.0020636510163356755 0 -0.011438055128370577 -0.0016764071673351223 0 -0.010921467120347906 -0.002038455089535287 0 -0.011182979090148376 -0.0017840782870708134 0 -0.01136744582667671 -0.0020636510163356755 0 -0.010932602755816187 -0.001617075104542713 0 -0.011269391932525697 -0.0013770006721625506 0 -0.010892048214304399 -0.00097550524445934295 0 -0.011182979090148376 -0.0017840782870708134 0 -0.011269391932525697 -0.0013770006721625506 0 -0.011438055128370577 -0.0016764071673351223 0 -0.011182979090148376 -0.0017840782870708134 0 -0.010932602755816187 -0.001617075104542713 0 -0.011269391932525697 -0.0013770006721625506 0 -0.010932602755816187 -0.001617075104542713 0 -0.010532678947983525 -0.0015067117695840237 0 -0.010892048214304399 -0.00097550524445934295 0 -0.010131795764216002 -0.001723100620761138 0 -0.010539666461739705 -0.0018993619754965473 0 -0.010532678947983525 -0.0015067117695840237 0 -0.010539666461739705 -0.0018993619754965473 0 -0.010932602755816187 -0.001617075104542713 0 -0.010532678947983525 -0.0015067117695840237 0 -0.010335309193294539 -0.00072764470489875292 0 -0.010892048214304399 -0.00097550524445934295 0 -0.010627508766600503 -0.00040329449578893687 0 -0.010532678947983525 -0.0015067117695840237 0 -0.010892048214304399 -0.00097550524445934295 0 -0.010179286002230616 -0.0012056539013588186 0 -0.010335309193294539 -0.00072764470489875292 0 -0.010892048214304399 -0.00097550524445934295 0 -0.010179286002230616 -0.0012056539013588186 0 -0.011269391932525697 -0.0013770006721625506 0 -0.010892048214304399 -0.00097550524445934295 0 -0.011385213305468831 -0.00071737138185010694 0 -0.011223986211271776 -0.00030186993539435921 0 -0.011786934709891454 -0.00014619944805847169 0 -0.011385213305468831 -0.00071737138185010694 0 -0.011122752877699834 -0.00031132292058791221 0 -0.011752669242742078 -0.00018270838836016904 0 -0.010892048214304399 -0.00097550524445934295 0 -0.011385213305468831 -0.00071737138185010694 0 -0.011122752877699834 -0.00031132292058791221 0 -0.010892048214304399 -0.00097550524445934295 0 -0.011122752877699834 -0.00031132292058791221 0 -0.010627508766600503 -0.00040329449578893687 0 -0.011122752877699834 -0.00031132292058791221 0 -0.010627508766600503 -0.00040329449578893687 0 -0.010450489629035449 0.00012560670442972433 0 -0.010335309193294539 -0.00072764470489875292 0 -0.010627508766600503 -0.00040329449578893687 0 -0.010204293226468614 -0.00035283932282058859 0 -0.010627508766600503 -0.00040329449578893687 0 -0.010204293226468614 -0.00035283932282058859 0 -0.010450489629035449 0.00012560670442972433 0 -0.010204293226468614 -0.00035283932282058859 0 -0.0098536685509221702 -0.0007086659037935382 0 -0.0097412325456737725 -6.8077614479050222e-05 0 -0.010335309193294539 -0.00072764470489875292 0 -0.010204293226468614 -0.00035283932282058859 0 -0.0098536685509221702 -0.0007086659037935382 0 -0.0097412325456737725 -6.8077614479050222e-05 0 -0.0093482797589347875 0.00021210362985718309 0 -0.0091220964803672405 -0.00058522376770161913 0 -0.0098536685509221702 -0.0007086659037935382 0 -0.0097412325456737725 -6.8077614479050222e-05 0 -0.0091220964803672405 -0.00058522376770161913 0 -0.0095626418538869388 -0.0014192116137000945 0 -0.0091220964803672405 -0.00058522376770161913 0 -0.0088446962537942365 -0.0015091055338958183 0 -0.0095626418538869388 -0.0014192116137000945 0 -0.0098536685509221702 -0.0007086659037935382 0 -0.0091220964803672405 -0.00058522376770161913 0 -0.0095626418538869388 -0.0014192116137000945 0 -0.010179286002230616 -0.0012056539013588186 0 -0.0098536685509221702 -0.0007086659037935382 0 -0.010335309193294539 -0.00072764470489875292 0 -0.010179286002230616 -0.0012056539013588186 0 -0.0098536685509221702 -0.0007086659037935382 0 -0.012898541580371462 -0.0020002031527556244 0 -0.012713488780133776 -0.0012810912197115168 0 -0.013381213774340071 -0.001478827972163024 0 -0.012898541580371462 -0.0020002031527556244 0 -0.013373053734037457 -0.0019439591139996507 0 -0.013381213774340071 -0.001478827972163024 0 -0.013728649161065545 -0.0021859624540371899 0 -0.013060005893286739 -0.0028697269903301564 0 -0.013373053734037457 -0.0019439591139996507 0 -0.013060005893286739 -0.0028697269903301564 0 -0.012898541580371462 -0.0020002031527556244 0 -0.013373053734037457 -0.0019439591139996507 0 -0.013468812648073421 -0.0026914321346326012 0 -0.013728649161065545 -0.0021859624540371899 0 -0.012763391485410457 -0.0029879320122684736 0 -0.013627427728751152 -0.0022451484591012169 0 -0.013037715523251012 -0.0029337568486621467 0 -0.012532460939173774 -0.002536882236249793 0 -0.01226892664666039 -0.0018482538962089077 0 -0.012102897123503114 -0.0023440991746395703 0 -0.013060005893286739 -0.0028697269903301564 0 -0.012898541580371462 -0.0020002031527556244 0 -0.012532460939173774 -0.002536882236249793 0 -0.01248625644243752 -0.0029622757818148016 0 -0.013060005893286739 -0.0028697269903301564 0 -0.012532460939173774 -0.002536882236249793 0 -0.011993203065551574 -0.0028640940086181797 0 -0.012532460939173774 -0.002536882236249793 0 -0.012102897123503114 -0.0023440991746395703 0 -0.011993203065551574 -0.0028640940086181797 0 -0.01248625644243752 -0.0029622757818148016 0 -0.012532460939173774 -0.002536882236249793 0 -0.012898541580371462 -0.0020002031527556244 0 -0.01226892664666039 -0.0018482538962089077 0 -0.012713488780133776 -0.0012810912197115168 0 -0.012898541580371462 -0.0020002031527556244 0 -0.012532460939173774 -0.002536882236249793 0 -0.01226892664666039 -0.0018482538962089077 0 -0.011791917992296673 -0.0015800314422736471 0 -0.011612608112659193 -0.0021300569846436023 0 -0.011276255693231131 -0.0013406065305649388 0 -0.01226892664666039 -0.0018482538962089077 0 -0.011791917992296673 -0.0015800314422736471 0 -0.012203610742408088 -0.0013467717112238262 0 -0.01226892664666039 -0.0018482538962089077 0 -0.011791917992296673 -0.0015800314422736471 0 -0.011612608112659193 -0.0021300569846436023 0 -0.01226892664666039 -0.0018482538962089077 0 -0.011612608112659193 -0.0021300569846436023 0 -0.012102897123503114 -0.0023440991746395703 0 -0.011856250569587326 -0.0027155739176670901 0 -0.011612608112659193 -0.0021300569846436023 0 -0.011294673565352732 -0.0024239667212295262 0 -0.011533351412353317 -0.0028839375848187907 0 -0.011856250569587326 -0.0027155739176670901 0 -0.011294673565352732 -0.0024239667212295262 0 -0.012002601605649475 -0.0028645250762314987 0 -0.011615004707557313 -0.0021567747009257959 0 -0.011993203065551574 -0.0028640940086181797 0 -0.011612608112659193 -0.0021300569846436023 0 -0.012102897123503114 -0.0023440991746395703 0 -0.011202922816991963 -0.0025937025928970243 0 -0.011650893573289241 -0.0020108484341014028 0 -0.01136744582667671 -0.0020636510163356755 0 -0.011650893573289241 -0.0020108484341014028 0 -0.01136744582667671 -0.0020636510163356755 0 -0.011438055128370577 -0.0016764071673351223 0 -0.011612608112659193 -0.0021300569846436023 0 -0.011294673565352732 -0.0024239667212295262 0 -0.011276255693231131 -0.0013406065305649388 0 -0.011458648539080525 -0.0021842081948448273 0 -0.011467430047597541 -0.0012209975250928172 0 -0.011650893573289241 -0.0020108484341014028 0 -0.011438055128370577 -0.0016764071673351223 0 -0.011721668426405226 -0.0010844432430225101 0 -0.011269391932525697 -0.0013770006721625506 0 -0.011438055128370577 -0.0016764071673351223 0 -0.011721668426405226 -0.0010844432430225101 0 -0.011269391932525697 -0.0013770006721625506 0 -0.011385213305468831 -0.00071737138185010694 0 -0.011721668426405226 -0.0010844432430225101 0 -0.011385213305468831 -0.00071737138185010694 0 -0.011721668426405226 -0.0010844432430225101 0 -0.011752669242742078 -0.00018270838836016904 0 -0.011467430047597541 -0.0012209975250928172 0 -0.011786934709891454 -0.00014619944805847169 0 -0.012044129176039061 -0.00087143900464472731 0 -0.0122172466815515 4.6834432647618001e-05 0 -0.011290332596974189 -0.00016164146470340718 0 -0.011276255693231131 -0.0013406065305649388 0 -0.012044129176039061 -0.00087143900464472731 0 -0.011290332596974189 -0.00016164146470340718 0 -0.011791917992296673 -0.0015800314422736471 0 -0.012044129176039061 -0.00087143900464472731 0 -0.012203610742408088 -0.0013467717112238262 0 -0.011791917992296673 -0.0015800314422736471 0 -0.011276255693231131 -0.0013406065305649388 0 -0.012044129176039061 -0.00087143900464472731 0 -0.012044129176039061 -0.00087143900464472731 0 -0.012713488780133776 -0.0012810912197115168 0 -0.013033414785138029 -0.00055647625320680966 0 -0.012044129176039061 -0.00087143900464472731 0 -0.012203610742408088 -0.0013467717112238262 0 -0.012713488780133776 -0.0012810912197115168 0 -0.01226892664666039 -0.0018482538962089077 0 -0.012203610742408088 -0.0013467717112238262 0 -0.012713488780133776 -0.0012810912197115168 0 -0.012044129176039061 -0.00087143900464472731 0 -0.013033414785138029 -0.00055647625320680966 0 -0.0122172466815515 4.6834432647618001e-05 0 -0.013787466906262653 -0.00087209996243530331 0 -0.013734252427729696 -0.00019495442574266153 0 -0.013033414785138029 -0.00055647625320680966 0 -0.013787466906262653 -0.00087209996243530331 0 -0.013033414785138029 -0.00055647625320680966 0 -0.013226501378993699 -0.0010484740681377029 0 -0.013734252427729696 -0.00019495442574266153 0 -0.013033414785138029 -0.00055647625320680966 0 -0.013168671134775262 0.00026789975185538247 0 -0.012713488780133776 -0.0012810912197115168 0 -0.013226501378993699 -0.0010484740681377029 0 -0.013381213774340071 -0.001478827972163024 0 -0.013787466906262653 -0.00087209996243530331 0 -0.013226501378993699 -0.0010484740681377029 0 -0.013381213774340071 -0.001478827972163024 0 -0.012713488780133776 -0.0012810912197115168 0 -0.013033414785138029 -0.00055647625320680966 0 -0.013226501378993699 -0.0010484740681377029 0 -0.013469775715453035 0.00092967354976544443 0 -0.013582611217032105 0.00037636781561972081 0 -0.013126384564558051 0.00068675584239227675 0 -0.013876733305825889 0.00078167906770019177 0 -0.013469775715453035 0.00092967354976544443 0 -0.013582611217032105 0.00037636781561972081 0 -0.013876733305825889 0.00078167906770019177 0 -0.013469775715453035 0.00092967354976544443 0 -0.013830229470609261 0.0012074930802942812 0 -0.013033414785138029 -0.00055647625320680966 0 -0.013168671134775262 0.00026789975185538247 0 -0.0122172466815515 4.6834432647618001e-05 0 -0.013582611217032105 0.00037636781561972081 0 -0.012883869931347844 0.00022513892955683146 0 -0.013126384564558051 0.00068675584239227675 0 -0.013393703841627977 0.00031856973113987644 0 -0.01253890202771287 0.00014255467158751206 0 -0.012883869931347844 0.00022513892955683146 0 -0.013126384564558051 0.00068675584239227675 0 -0.012697620947204643 0.00084143034467154348 0 -0.013469775715453035 0.00092967354976544443 0 -0.013126384564558051 0.00068675584239227675 0 -0.012993996634856122 0.0012077144574275289 0 -0.013126384564558051 0.00068675584239227675 0 -0.012697620947204643 0.00084143034467154348 0 -0.012993996634856122 0.0012077144574275289 0 -0.012883869931347844 0.00022513892955683146 0 -0.012697620947204643 0.00084143034467154348 0 -0.012175685463493627 0.00068814851987944806 0 -0.012415833685199475 0.0010317991518427768 0 -0.012697620947204643 0.00084143034467154348 0 -0.012175685463493627 0.00068814851987944806 0 -0.012415833685199475 0.0010317991518427768 0 -0.012697620947204643 0.00084143034467154348 0 -0.012621977578888159 0.0012842594273730359 0 -0.012883869931347844 0.00022513892955683146 0 -0.012162502875231226 6.6446304396329764e-05 0 -0.012175685463493627 0.00068814851987944806 0 -0.01253890202771287 0.00014255467158751206 0 -0.011786934709891454 -0.00014619944805847169 0 -0.011786934709891454 -0.00014619944805847169 0 -0.012132236012501437 0.00067709473181689923 0 -0.012028885120731501 -0.00016138882226946993 0 -0.012064991197241276 0.00059319345492757792 0 -0.011522477420603848 0.00025558234748659182 0 -0.012064991197241276 0.00059319345492757792 0 -0.011368281542532306 0.00082453786789099645 0 -0.011678540960349241 0.0011746609012357281 0 -0.012132236012501437 0.00067709473181689923 0 -0.012154702070904294 0.0012578497101707804 0 -0.012064991197241276 0.00059319345492757792 0 -0.011522477420603848 0.00025558234748659182 0 -0.011368281542532306 0.00082453786789099645 0 -0.012064991197241276 0.00059319345492757792 0 -0.012166872730710888 0.0013272509633716345 0 -0.011678540960349241 0.0011746609012357281 0 -0.012415833685199475 0.0010317991518427768 0 -0.012175685463493627 0.00068814851987944806 0 -0.012166872730710888 0.0013272509633716345 0 -0.012166872730710888 0.0013272509633716345 0 -0.01239522190404101 0.001659364856907884 0 -0.011810948780388325 0.0016850538923945803 0 -0.012166872730710888 0.0013272509633716345 0 -0.011810948780388325 0.0016850538923945803 0 -0.011678540960349241 0.0011746609012357281 0 -0.01239522190404101 0.001659364856907884 0 -0.012720916944277731 0.0019508913036953386 0 -0.012290234465666242 0.0021339712389514057 0 -0.012483307058787084 0.001589401700248715 0 -0.011747814957178958 0.002529433862307699 0 -0.01239522190404101 0.001659364856907884 0 -0.011810948780388325 0.0016850538923945803 0 -0.011904692693693297 0.0024681698769694819 0 -0.01239522190404101 0.001659364856907884 0 -0.012720916944277731 0.0019508913036953386 0 -0.012755787535757672 0.0015662117195838984 0 -0.012720916944277731 0.0019508913036953386 0 -0.012755787535757672 0.0015662117195838984 0 -0.013047076935408301 0.0016821357925129942 0 -0.012166872730710888 0.0013272509633716345 0 -0.01239522190404101 0.001659364856907884 0 -0.012621977578888159 0.0012842594273730359 0 -0.01239522190404101 0.001659364856907884 0 -0.012755787535757672 0.0015662117195838984 0 -0.012621977578888159 0.0012842594273730359 0 -0.012415833685199475 0.0010317991518427768 0 -0.012166872730710888 0.0013272509633716345 0 -0.012621977578888159 0.0012842594273730359 0 -0.012755787535757672 0.0015662117195838984 0 -0.012621977578888159 0.0012842594273730359 0 -0.012993996634856122 0.0012077144574275289 0 -0.012697620947204643 0.00084143034467154348 0 -0.012621977578888159 0.0012842594273730359 0 -0.012993996634856122 0.0012077144574275289 0 -0.013469775715453035 0.00092967354976544443 0 -0.012993996634856122 0.0012077144574275289 0 -0.01343399996143115 0.0014946313177957972 0 -0.012993996634856122 0.0012077144574275289 0 -0.013047076935408301 0.0016821357925129942 0 -0.01343399996143115 0.0014946313177957972 0 -0.012755787535757672 0.0015662117195838984 0 -0.012993996634856122 0.0012077144574275289 0 -0.013047076935408301 0.0016821357925129942 0 -0.013047076935408301 0.0016821357925129942 0 -0.01343399996143115 0.0014946313177957972 0 -0.013504855142617249 0.0021312993695325531 0 -0.012720916944277731 0.0019508913036953386 0 -0.013047076935408301 0.0016821357925129942 0 -0.013504855142617249 0.0021312993695325531 0 -0.013851488060564854 0.0016750909473652294 0 -0.01343399996143115 0.0014946313177957972 0 -0.013504855142617249 0.0021312993695325531 0 -0.013851488060564854 0.0016750909473652294 0 -0.01343399996143115 0.0014946313177957972 0 -0.013830229470609261 0.0012074930802942812 0 -0.013469775715453035 0.00092967354976544443 0 -0.01343399996143115 0.0014946313177957972 0 -0.013830229470609261 0.0012074930802942812 0 -0.0099549010308255595 0.00061049905905720262 0 -0.010312663877769048 0.00095579590951656781 0 -0.0099560035033907056 0.0012336124178084313 0 -0.0099549010308255595 0.00061049905905720262 0 -0.0099560035033907056 0.0012336124178084313 0 -0.0094997893104674987 0.0010993321981644184 0 -0.0099549010308255595 0.00061049905905720262 0 -0.010312663877769048 0.00095579590951656781 0 -0.010475217246353037 0.00060858193852434512 0 -0.0099549010308255595 0.00061049905905720262 0 -0.0093814270034630384 0.00068207816184333271 0 -0.0094997893104674987 0.0010993321981644184 0 -0.0099549010308255595 0.00061049905905720262 0 -0.0093814270034630384 0.00068207816184333271 0 -0.0093482797589347875 0.00021210362985718309 0 -0.0093814270034630384 0.00068207816184333271 0 -0.0094997893104674987 0.0010993321981644184 0 -0.0091301424965253355 0.00089698273024494801 0 -0.0099549010308255595 0.00061049905905720262 0 -0.0097412325456737725 -6.8077614479050222e-05 0 -0.0093482797589347875 0.00021210362985718309 0 -0.0093814270034630384 0.00068207816184333271 0 -0.0093482797589347875 0.00021210362985718309 0 -0.0090002187526767741 0.0005155555323889578 0 -0.010204293226468614 -0.00035283932282058859 0 -0.0097412325456737725 -6.8077614479050222e-05 0 -0.010450489629035449 0.00012560670442972433 0 -0.0099549010308255595 0.00061049905905720262 0 -0.0097412325456737725 -6.8077614479050222e-05 0 -0.010450489629035449 0.00012560670442972433 0 -0.0099549010308255595 0.00061049905905720262 0 -0.010450489629035449 0.00012560670442972433 0 -0.010475217246353037 0.00060858193852434512 0 -0.011122752877699834 -0.00031132292058791221 0 -0.010450489629035449 0.00012560670442972433 0 -0.010944961698357628 0.00040348016163793563 0 -0.010450489629035449 0.00012560670442972433 0 -0.010944961698357628 0.00040348016163793563 0 -0.010475217246353037 0.00060858193852434512 0 -0.011122752877699834 -0.00031132292058791221 0 -0.010944961698357628 0.00040348016163793563 0 -0.011522477420603848 0.00025558234748659182 0 -0.011122752877699834 -0.00031132292058791221 0 -0.012028885120731501 -0.00016138882226946993 0 -0.011522477420603848 0.00025558234748659182 0 -0.010944961698357628 0.00040348016163793563 0 -0.011368281542532306 0.00082453786789099645 0 -0.010731418366556843 0.00094572904658256937 0 -0.010944961698357628 0.00040348016163793563 0 -0.011522477420603848 0.00025558234748659182 0 -0.011368281542532306 0.00082453786789099645 0 -0.011368281542532306 0.00082453786789099645 0 -0.010731418366556843 0.00094572904658256937 0 -0.010900371502441447 0.0013818520955403138 0 -0.010944961698357628 0.00040348016163793563 0 -0.010475217246353037 0.00060858193852434512 0 -0.010731418366556843 0.00094572904658256937 0 -0.010312663877769048 0.00095579590951656781 0 -0.010475217246353037 0.00060858193852434512 0 -0.010731418366556843 0.00094572904658256937 0 -0.010312663877769048 0.00095579590951656781 0 -0.010731418366556843 0.00094572904658256937 0 -0.010459735402400338 0.0013853187425233748 0 -0.010731418366556843 0.00094572904658256937 0 -0.010459735402400338 0.0013853187425233748 0 -0.010900371502441447 0.0013818520955403138 0 -0.010900371502441447 0.0013818520955403138 0 -0.010587300217436412 0.0017952822375144062 0 -0.011014306151660208 0.0017717449126318935 0 -0.010459735402400338 0.0013853187425233748 0 -0.010900371502441447 0.0013818520955403138 0 -0.010587300217436412 0.0017952822375144062 0 -0.011368281542532306 0.00082453786789099645 0 -0.010900371502441447 0.0013818520955403138 0 -0.011365423019731766 0.0014772821406934483 0 -0.011368281542532306 0.00082453786789099645 0 -0.011678540960349241 0.0011746609012357281 0 -0.011365423019731766 0.0014772821406934483 0 -0.010900371502441447 0.0013818520955403138 0 -0.011365423019731766 0.0014772821406934483 0 -0.011014306151660208 0.0017717449126318935 0 -0.011810948780388325 0.0016850538923945803 0 -0.011678540960349241 0.0011746609012357281 0 -0.011365423019731766 0.0014772821406934483 0 -0.011810948780388325 0.0016850538923945803 0 -0.011366286357945813 0.0020409400668219093 0 -0.011904692693693297 0.0024681698769694819 0 -0.011366286357945813 0.0020409400668219093 0 -0.011904692693693297 0.0024681698769694819 0 -0.011162675945835681 0.0025433662845421876 0 -0.011810948780388325 0.0016850538923945803 0 -0.011365423019731766 0.0014772821406934483 0 -0.011366286357945813 0.0020409400668219093 0 -0.011365423019731766 0.0014772821406934483 0 -0.011366286357945813 0.0020409400668219093 0 -0.011014306151660208 0.0017717449126318935 0 -0.011366286357945813 0.0020409400668219093 0 -0.011014306151660208 0.0017717449126318935 0 -0.010818623483969983 0.0021596247710476239 0 -0.011366286357945813 0.0020409400668219093 0 -0.010818623483969983 0.0021596247710476239 0 -0.011162675945835681 0.0025433662845421876 0 -0.010587300217436412 0.0017952822375144062 0 -0.010818623483969983 0.0021596247710476239 0 -0.010331716164560276 0.0021121940582192011 0 -0.010587300217436412 0.0017952822375144062 0 -0.011014306151660208 0.0017717449126318935 0 -0.010818623483969983 0.0021596247710476239 0 -0.010818623483969983 0.0021596247710476239 0 -0.010331716164560276 0.0021121940582192011 0 -0.010431380525751018 0.0027011808784447198 0 -0.0098323596534422974 0.0018939554231539269 0 -0.0095505556147094089 0.002056878893556542 0 -0.010514772198562125 0.0025616570789523578 0 -0.010331716164560276 0.0021121940582192011 0 -0.0097721117355031098 0.0020350483665559239 0 -0.010431380525751018 0.0027011808784447198 0 -0.010331716164560276 0.0021121940582192011 0 -0.010138272952954528 0.001691676013787124 0 -0.0097721117355031098 0.0020350483665559239 0 -0.010138272952954528 0.001691676013787124 0 -0.0097031091270290745 0.0014877239498546225 0 -0.0097721117355031098 0.0020350483665559239 0 -0.010587300217436412 0.0017952822375144062 0 -0.010331716164560276 0.0021121940582192011 0 -0.010138272952954528 0.001691676013787124 0 -0.010459735402400338 0.0013853187425233748 0 -0.010138272952954528 0.001691676013787124 0 -0.0099560035033907056 0.0012336124178084313 0 -0.010459735402400338 0.0013853187425233748 0 -0.010587300217436412 0.0017952822375144062 0 -0.010138272952954528 0.001691676013787124 0 -0.010138272952954528 0.001691676013787124 0 -0.0099560035033907056 0.0012336124178084313 0 -0.0097031091270290745 0.0014877239498546225 0 -0.010312663877769048 0.00095579590951656781 0 -0.010459735402400338 0.0013853187425233748 0 -0.0099560035033907056 0.0012336124178084313 0 -0.0097031091270290745 0.0014877239498546225 0 -0.0097721117355031098 0.0020350483665559239 0 -0.0091614535686095726 0.0013892732289366451 0 -0.0094997893104674987 0.0010993321981644184 0 -0.0097031091270290745 0.0014877239498546225 0 -0.0091614535686095726 0.0013892732289366451 0 -0.0094997893104674987 0.0010993321981644184 0 -0.0091614535686095726 0.0013892732289366451 0 -0.0091301424965253355 0.00089698273024494801 0 -0.0099560035033907056 0.0012336124178084313 0 -0.0094997893104674987 0.0010993321981644184 0 -0.0097031091270290745 0.0014877239498546225 0 -0.0098323596534422974 0.0018939554231539269 0 -0.0095505556147094089 0.002056878893556542 0 -0.0091827195023150635 0.0012922773045422721 0 -0.0097241073437285466 0.0019363801110962458 0 -0.0091819487085410996 0.0013483233101942431 0 -0.010829143220155109 0.0019836162839370684 0 -0.009394207990890165 0.0014802316352521274 0 -0.010245259316832279 0.0021672919601332104 0 -0.009394207990890165 0.0014802316352521274 0 -0.0091466414244212989 0.0020568619621097123 0 -0.0097386007811481341 0.0022959182507085677 0 -0.0095505556147094089 0.002056878893556542 0 -0.0086809966418650419 0.0015787315899715088 0 -0.0091827195023150635 0.0012922773045422721 0 -0.009394207990890165 0.0014802316352521274 0 -0.010245259316832279 0.0021672919601332104 0 -0.0097386007811481341 0.0022959182507085677 0 -0.010268096102777218 0.0020423284086024543 0 -0.0090249565412586236 0.0015351162932320979 0 -0.0091466414244212989 0.0020568619621097123 0 -0.0086523360875686538 0.0022968249695619371 0 -0.0081595780803394528 0.0017685172729343204 0 -0.009394207990890165 0.0014802316352521274 0 -0.0091466414244212989 0.0020568619621097123 0 -0.0081595780803394528 0.0017685172729343204 0 -0.009394207990890165 0.0014802316352521274 0 -0.0081595780803394528 0.0017685172729343204 0 -0.0080070226884291235 0.0011695011279733885 0 -0.0090249565412586236 0.0015351162932320979 0 -0.0081014567545854392 0.0011837996464593016 0 -0.0085248927433627698 0.0011563472515501074 0 -0.0080070226884291235 0.0011695011279733885 0 -0.008256710125301301 0.00086470540725939776 0 -0.0086809966418650419 0.0015787315899715088 0 -0.0085248927433627698 0.0011563472515501074 0 -0.0080070226884291235 0.0011695011279733885 0 -0.0091819487085410996 0.0013483233101942431 0 -0.0086411921133357408 0.0008254062154765731 0 -0.0085248927433627698 0.0011563472515501074 0 -0.0091827195023150635 0.0012922773045422721 0 -0.008599583057633621 0.00078659531120607335 0 -0.0086809966418650419 0.0015787315899715088 0 -0.0085248927433627698 0.0011563472515501074 0 -0.0091827195023150635 0.0012922773045422721 0 -0.0071432213334498857 0.0020652934130231692 0 -0.0081595780803394528 0.0017685172729343204 0 -0.0070319709636524246 0.0013300098228907788 0 -0.0071432213334498857 0.0020652934130231692 0 -0.0081595780803394528 0.0017685172729343204 0 -0.0080175016700632564 0.002478745676081146 0 -0.0086523360875686538 0.0022968249695619371 0 -0.0081595780803394528 0.0017685172729343204 0 -0.0080175016700632564 0.002478745676081146 0 -0.0081595780803394528 0.0017685172729343204 0 -0.0080070226884291235 0.0011695011279733885 0 -0.0070319709636524246 0.0013300098228907788 0 -0.0080070226884291235 0.0011695011279733885 0 -0.0070319709636524246 0.0013300098228907788 0 -0.0072124798309425604 0.00044809506565186326 0 -0.0070319709636524246 0.0013300098228907788 0 -0.0072124798309425604 0.00044809506565186326 0 -0.0064884981107131683 0.00073107029693633967 0 -0.0080070226884291235 0.0011695011279733885 0 -0.0078715031864448719 0.00062536074546508977 0 -0.008256710125301301 0.00086470540725939776 0 -0.0080070226884291235 0.0011695011279733885 0 -0.0078715031864448719 0.00062536074546508977 0 -0.0072124798309425604 0.00044809506565186326 0 -0.0082471539957188218 0.00046242810337609102 0 -0.0077244883475586015 -0.00031409989538676877 0 -0.0078715031864448719 0.00062536074546508977 0 -0.0082851673690614684 0.00050342225636288351 0 -0.0077257494626369163 -0.00029673555135597553 0 -0.0078715031864448719 0.00062536074546508977 0 -0.0072124798309425604 0.00044809506565186326 0 -0.0077257494626369163 -0.00029673555135597553 0 -0.0091614535686095726 0.0013892732289366451 0 -0.0091301424965253355 0.00089698273024494801 0 -0.008599583057633621 0.00078659531120607335 0 -0.0090002187526767741 0.0005155555323889578 0 -0.008599583057633621 0.00078659531120607335 0 -0.0086578549864420977 0.00040345685579454819 0 -0.0090002187526767741 0.0005155555323889578 0 -0.0091301424965253355 0.00089698273024494801 0 -0.008599583057633621 0.00078659531120607335 0 -0.0093814270034630384 0.00068207816184333271 0 -0.0090002187526767741 0.0005155555323889578 0 -0.0091301424965253355 0.00089698273024494801 0 -0.0085248927433627698 0.0011563472515501074 0 -0.008599583057633621 0.00078659531120607335 0 -0.008256710125301301 0.00086470540725939776 0 -0.0078715031864448719 0.00062536074546508977 0 -0.008256710125301301 0.00086470540725939776 0 -0.0082851673690614684 0.00050342225636288351 0 -0.008599583057633621 0.00078659531120607335 0 -0.0082851673690614684 0.00050342225636288351 0 -0.0086578549864420977 0.00040345685579454819 0 -0.008599583057633621 0.00078659531120607335 0 -0.008256710125301301 0.00086470540725939776 0 -0.0082851673690614684 0.00050342225636288351 0 -0.0082851673690614684 0.00050342225636288351 0 -0.0083299229187510197 -0.00013179397798794592 0 -0.0077033378191102408 -0.00035788323012236526 0 -0.0082851673690614684 0.00050342225636288351 0 -0.0086578549864420977 0.00040345685579454819 0 -0.0083299229187510197 -0.00013179397798794592 0 -0.0086578549864420977 0.00040345685579454819 0 -0.0089109182912560994 8.0222506151013983e-05 0 -0.0083299229187510197 -0.00013179397798794592 0 -0.0090002187526767741 0.0005155555323889578 0 -0.0086578549864420977 0.00040345685579454819 0 -0.0089109182912560994 8.0222506151013983e-05 0 -0.0093482797589347875 0.00021210362985718309 0 -0.0090002187526767741 0.0005155555323889578 0 -0.0089109182912560994 8.0222506151013983e-05 0 -0.0091220964803672405 -0.00058522376770161913 0 -0.0084880711738535286 -0.0010182636015089812 0 -0.0083299229187510197 -0.00013179397798794592 0 -0.0089109182912560994 8.0222506151013983e-05 0 -0.0091220964803672405 -0.00058522376770161913 0 -0.0083299229187510197 -0.00013179397798794592 0 -0.0093482797589347875 0.00021210362985718309 0 -0.0089109182912560994 8.0222506151013983e-05 0 -0.0091220964803672405 -0.00058522376770161913 0 -0.0091220964803672405 -0.00058522376770161913 0 -0.0084880711738535286 -0.0010182636015089812 0 -0.0088446962537942365 -0.0015091055338958183 0 -0.0084880711738535286 -0.0010182636015089812 0 -0.0083299229187510197 -0.00013179397798794592 0 -0.0078276175291629863 -0.00099820779216662795 0 -0.0084880711738535286 -0.0010182636015089812 0 -0.0078276175291629863 -0.00099820779216662795 0 -0.008087413024069302 -0.0016056656560136258 0 -0.0083299229187510197 -0.00013179397798794592 0 -0.0077033378191102408 -0.00035788323012236526 0 -0.0078276175291629863 -0.00099820779216662795 0 -0.0072124798309425604 0.00044809506565186326 0 -0.0077257494626369163 -0.00029673555135597553 0 -0.0068536766855322832 -0.00043271988107283961 0 -0.0077257494626369163 -0.00029673555135597553 0 -0.0068536766855322832 -0.00043271988107283961 0 -0.00712406924331034 -0.0011538637747197835 0 -0.0077033378191102408 -0.00035788323012236526 0 -0.0078276175291629863 -0.00099820779216662795 0 -0.0071371498981783353 -0.0012213492765537285 0 -0.0077244883475586015 -0.00031409989538676877 0 -0.0071206287761501957 -0.0012035605863236682 0 -0.0071371498981783353 -0.0012213492765537285 0 -0.0074339800790400208 -0.0020166940669860993 0 -0.008087413024069302 -0.0016056656560136258 0 -0.0078276175291629863 -0.00099820779216662795 0 -0.0071371498981783353 -0.0012213492765537285 0 -0.008087413024069302 -0.0016056656560136258 0 -0.0071206287761501957 -0.0012035605863236682 0 -0.00654727061339403 -0.0020855637635668355 0 -0.0071371498981783353 -0.0012213492765537285 0 -0.0069865217352977262 -0.0019816155905006952 0 -0.0074339800790400208 -0.0020166940669860993 0 -0.0071371498981783353 -0.0012213492765537285 0 -0.0069865217352977262 -0.0019816155905006952 0 -0.0065091850642331403 -0.0021320470472226479 0 -0.0069865217352977262 -0.0019816155905006952 0 -0.0074339800790400208 -0.0020166940669860993 0 -0.0066686470407715916 -0.0023520439003543729 0 -0.0077152699600017407 -0.0027317703928199447 0 -0.0074339800790400208 -0.0020166940669860993 0 -0.0066686470407715916 -0.0023520439003543729 0 -0.0069865217352977262 -0.0019816155905006952 0 -0.0065091850642331403 -0.0021320470472226479 0 -0.0066686470407715916 -0.0023520439003543729 0 -0.0074339800790400208 -0.0020166940669860993 0 -0.0079983549790349981 -0.0022124471262435488 0 -0.008087413024069302 -0.0016056656560136258 0 -0.0077152699600017407 -0.0027317703928199447 0 -0.0074339800790400208 -0.0020166940669860993 0 -0.0079983549790349981 -0.0022124471262435488 0 -0.0079983549790349981 -0.0022124471262435488 0 -0.0085682942558226692 -0.0020855248508765125 0 -0.008087413024069302 -0.0016056656560136258 0 -0.0083763282812068813 -0.0025508275934480523 0 -0.0079983549790349981 -0.0022124471262435488 0 -0.0085682942558226692 -0.0020855248508765125 0 -0.0092148442490215064 -0.0019662937339104381 0 -0.0085682942558226692 -0.0020855248508765125 0 -0.0088446962537942365 -0.0015091055338958183 0 -0.0089276665176490112 -0.0025338627341661229 0 -0.0092148442490215064 -0.0019662937339104381 0 -0.0085682942558226692 -0.0020855248508765125 0 -0.0084880711738535286 -0.0010182636015089812 0 -0.0088446962537942365 -0.0015091055338958183 0 -0.008087413024069302 -0.0016056656560136258 0 -0.0085682942558226692 -0.0020855248508765125 0 -0.0088446962537942365 -0.0015091055338958183 0 -0.008087413024069302 -0.0016056656560136258 0 -0.0046714333125787121 -0.0015503375676130895 0 -0.0050632747735217531 -0.00094472477392509749 0 -0.0039094645344396745 -0.00093813709854837705 0 -0.0046714333125787121 -0.0015503375676130895 0 -0.0053381422064106366 -0.0017963170502823204 0 -0.0050632747735217531 -0.00094472477392509749 0 -0.004964152288075876 -0.0021108003494969018 0 -0.0046714333125787121 -0.0015503375676130895 0 -0.0040728015585103109 -0.0017298555372076616 0 -0.004964152288075876 -0.0021108003494969018 0 -0.0046714333125787121 -0.0015503375676130895 0 -0.0053381422064106366 -0.0017963170502823204 0 -0.0049358031873611369 -0.0016244675211350994 0 -0.004964152288075876 -0.0021108003494969018 0 -0.0053381422064106366 -0.0017963170502823204 0 -0.0053381422064106366 -0.0017963170502823204 0 -0.0065091850642331403 -0.0021320470472226479 0 -0.0066686470407715916 -0.0023520439003543729 0 -0.0049358031873611369 -0.0016244675211350994 0 -0.0053381422064106366 -0.0017963170502823204 0 -0.0043890453774454719 -0.0018232648996329849 0 -0.0053211382342812164 -0.0018256383532145918 0 -0.0055132517025225057 -0.0020640222027614235 0 -0.0053381422064106366 -0.0017963170502823204 0 -0.0065091850642331403 -0.0021320470472226479 0 -0.0061949149368275818 -0.0012214024906655671 0 -0.00712406924331034 -0.0011538637747197835 0 -0.0065091850642331403 -0.0021320470472226479 0 -0.0061949149368275818 -0.0012214024906655671 0 -0.0053381422064106366 -0.0017963170502823204 0 -0.0061949149368275818 -0.0012214024906655671 0 -0.0050632747735217531 -0.00094472477392509749 0 -0.0061949149368275818 -0.0012214024906655671 0 -0.0059513662137414599 -0.00052352100858831852 0 -0.0050632747735217531 -0.00094472477392509749 0 -0.0068536766855322832 -0.00043271988107283961 0 -0.00712406924331034 -0.0011538637747197835 0 -0.0061949149368275818 -0.0012214024906655671 0 -0.0068536766855322832 -0.00043271988107283961 0 -0.0061949149368275818 -0.0012214024906655671 0 -0.0059513662137414599 -0.00052352100858831852 0 -0.0068536766855322832 -0.00043271988107283961 0 -0.0059513662137414599 -0.00052352100858831852 0 -0.006325450927126974 0.00011667096175171617 0 -0.0059513662137414599 -0.00052352100858831852 0 -0.0052066356430619251 -0.00017198487350339827 0 -0.006325450927126974 0.00011667096175171617 0 -0.0052066356430619251 -0.00017198487350339827 0 -0.0050632747735217531 -0.00094472477392509749 0 -0.004407418121328493 -0.00026841220689853985 0 -0.0050632747735217531 -0.00094472477392509749 0 -0.004407418121328493 -0.00026841220689853985 0 -0.0039094645344396745 -0.00093813709854837705 0 -0.0059513662137414599 -0.00052352100858831852 0 -0.0052066356430619251 -0.00017198487350339827 0 -0.0050632747735217531 -0.00094472477392509749 0 -0.0052066356430619251 -0.00017198487350339827 0 -0.004407418121328493 -0.00026841220689853985 0 -0.0044173784224507354 0.00065751345153226295 0 -0.0051721928653627649 -0.00012852419483853287 0 -0.0045479752477650083 0.00052585249987725129 0 -0.0052066356430619251 -0.00017198487350339827 0 -0.0046674087021243652 0.00042305635597936317 0 -0.0055765160250132962 0.00055960266256977051 0 -0.0055765160250132962 0.00055960266256977051 0 -0.0050139498033986854 0.00098502332473501342 0 -0.0059807442468378319 0.0012109093593240066 0 -0.0046674087021243652 0.00042305635597936317 0 -0.0050139498033986854 0.00098502332473501342 0 -0.0039430435994402026 0.0010985973702867919 0 -0.0046674087021243652 0.00042305635597936317 0 -0.0055765160250132962 0.00055960266256977051 0 -0.0050139498033986854 0.00098502332473501342 0 -0.0072124798309425604 0.00044809506565186326 0 -0.0068536766855322832 -0.00043271988107283961 0 -0.006325450927126974 0.00011667096175171617 0 -0.0072124798309425604 0.00044809506565186326 0 -0.006325450927126974 0.00011667096175171617 0 -0.0064884981107131683 0.00073107029693633967 0 -0.0052066356430619251 -0.00017198487350339827 0 -0.0055765160250132962 0.00055960266256977051 0 -0.006325450927126974 0.00011667096175171617 0 -0.0055765160250132962 0.00055960266256977051 0 -0.006325450927126974 0.00011667096175171617 0 -0.0064884981107131683 0.00073107029693633967 0 -0.0055765160250132962 0.00055960266256977051 0 -0.0064884981107131683 0.00073107029693633967 0 -0.0059807442468378319 0.0012109093593240066 0 -0.0070319709636524246 0.0013300098228907788 0 -0.0064884981107131683 0.00073107029693633967 0 -0.0059807442468378319 0.0012109093593240066 0 -0.0070319709636524246 0.0013300098228907788 0 -0.0059807442468378319 0.0012109093593240066 0 -0.006270955702116581 0.0020303227846518159 0 -0.0059807442468378319 0.0012109093593240066 0 -0.006270955702116581 0.0020303227846518159 0 -0.0051378426716238799 0.0017295972871997954 0 -0.0071432213334498857 0.0020652934130231692 0 -0.0070319709636524246 0.0013300098228907788 0 -0.006270955702116581 0.0020303227846518159 0 -0.0050139498033986854 0.00098502332473501342 0 -0.0051378426716238799 0.0017295972871997954 0 -0.0039430435994402026 0.0010985973702867919 0 -0.0050139498033986854 0.00098502332473501342 0 -0.0059807442468378319 0.0012109093593240066 0 -0.0051378426716238799 0.0017295972871997954 0 -0.006270955702116581 0.0020303227846518159 0 -0.0051378426716238799 0.0017295972871997954 0 -0.0055629345830858828 0.002497145751483187 0 -0.0051378426716238799 0.0017295972871997954 0 -0.0049152742304945695 0.0023326628678331336 0 -0.0055629345830858828 0.002497145751483187 0 -0.0051378426716238799 0.0017295972871997954 0 -0.0049152742304945695 0.0023326628678331336 0 -0.0042551657494743931 0.0021213499592115321 0 -0.0049152742304945695 0.0023326628678331336 0 -0.0047108046847873812 0.0029831984727772772 0 -0.0042551657494743931 0.0021213499592115321 0 -0.0049152742304945695 0.0023326628678331336 0 -0.0055629345830858828 0.002497145751483187 0 -0.0047108046847873812 0.0029831984727772772 0 -0.0055629345830858828 0.002497145751483187 0 -0.0057500070059966152 0.0032639164382909287 0 -0.0047108046847873812 0.0029831984727772772 0 -0.0057500070059966152 0.0032639164382909287 0 -0.0047108046847873812 0.0029831984727772772 0 -0.005167423584257206 0.0037439635969269899 0 -0.0047108046847873812 0.0029831984727772772 0 -0.005167423584257206 0.0037439635969269899 0 -0.00449369634903235 0.0038137294652179988 0 -0.0048246308095749105 0.0041351648384806844 0 -0.005167423584257206 0.0037439635969269899 0 -0.00449369634903235 0.0038137294652179988 0 -0.0048246308095749105 0.0041351648384806844 0 -0.00449369634903235 0.0038137294652179988 0 -0.0045520389297054858 0.0042845147843039383 0 -0.0048246308095749105 0.0041351648384806844 0 -0.005167423584257206 0.0037439635969269899 0 -0.0052847995709301692 0.0042477745622006916 0 -0.0057500070059966152 0.0032639164382909287 0 -0.005167423584257206 0.0037439635969269899 0 -0.0059371494434970811 0.0040416079766916867 0 -0.005167423584257206 0.0037439635969269899 0 -0.0052847995709301692 0.0042477745622006916 0 -0.0059371494434970811 0.0040416079766916867 0 -0.0052847995709301692 0.0042477745622006916 0 -0.0057376793037163228 0.0047425527223263599 0 -0.0059371494434970811 0.0040416079766916867 0 -0.01231572729033234 0.0033170155049493861 0 -0.0108765394929486 0.002422946093877006 0 -0.0057376793037163228 0.0047425527223263599 0 -0.0046724622065232495 0.0047019059845915092 0 -0.0047400318660944804 0.0045399006198403574 0 -0.0052847995709301692 0.0042477745622006916 0 -0.0057376793037163228 0.0047425527223263599 0 -0.0047400318660944804 0.0045399006198403574 0 -0.0046684701753129205 0.0046865933539924649 0 -0.0047400318660944804 0.0045399006198403574 0 -0.0045520389297054858 0.0042845147843039383 0 -0.0108765394929486 0.002422946093877006 0 -0.0090934095655167222 0.0042688711566789463 0 -0.0048246308095749105 0.0041351648384806844 0 -0.0047400318660944804 0.0045399006198403574 0 -0.0045520389297054858 0.0042845147843039383 0 -0.0048246308095749105 0.0041351648384806844 0 -0.0052847995709301692 0.0042477745622006916 0 -0.0047400318660944804 0.0045399006198403574 0 -0.0057376793037163228 0.0047425527223263599 0 -0.0069638929890858603 0.0048020630960560985 0 -0.0059371494434970811 0.0040416079766916867 0 -0.01857615347165054 0.0017242191074029942 0 -0.018694427827260485 0.0016912423080221498 0 -0.018659739068960002 0.0017415515569202064 0 -0.01231572729033234 0.0033170155049493861 0 -0.012830387345905376 0.0032225979775653978 0 -0.0069638929890858603 0.0048020630960560985 0 -0.0059371494434970811 0.0040416079766916867 0 -0.0067591564648490374 0.0037275224534693984 0 -0.0057500070059966152 0.0032639164382909287 0 -0.0059371494434970811 0.0040416079766916867 0 -0.0067591564648490374 0.0037275224534693984 0 -0.0069638929890858603 0.0048020630960560985 0 -0.0067591564648490374 0.0037275224534693984 0 -0.0078293713242012977 0.0041948393292003047 0 -0.0067591564648490374 0.0037275224534693984 0 -0.0077915833262541994 0.0032395427595622315 0 -0.0078293713242012977 0.0041948393292003047 0 -0.006495600783374425 0.0029505972717968928 0 -0.0077273629497253389 0.003485247089442407 0 -0.0067591564648490374 0.0037275224534693984 0 -0.0064689056980738726 0.0029513614420202988 0 -0.0077915833262541994 0.0032395427595622315 0 -0.0064689056980738726 0.0029513614420202988 0 -0.0073995332090660663 0.0028566913123998449 0 -0.00723320591953473 0.0035776273875925296 0 -0.0057500070059966152 0.0032639164382909287 0 -0.0067591564648490374 0.0037275224534693984 0 -0.0064689056980738726 0.0029513614420202988 0 -0.006270955702116581 0.0020303227846518159 0 -0.0055629345830858828 0.002497145751483187 0 -0.0064689056980738726 0.0029513614420202988 0 -0.0055629345830858828 0.002497145751483187 0 -0.0057500070059966152 0.0032639164382909287 0 -0.0064689056980738726 0.0029513614420202988 0 -0.0071432213334498857 0.0020652934130231692 0 -0.0064689056980738726 0.0029513614420202988 0 -0.0073995332090660663 0.0028566913123998449 0 -0.0071432213334498857 0.0020652934130231692 0 -0.006270955702116581 0.0020303227846518159 0 -0.0064689056980738726 0.0029513614420202988 0 -0.0071432213334498857 0.0020652934130231692 0 -0.0073995332090660663 0.0028566913123998449 0 -0.0080175016700632564 0.002478745676081146 0 -0.0073995332090660663 0.0028566913123998449 0 -0.0080175016700632564 0.002478745676081146 0 -0.0081897406923462004 0.0031256822982172836 0 -0.0086523360875686538 0.0022968249695619371 0 -0.0080175016700632564 0.002478745676081146 0 -0.0087102971484670621 0.0028582441227723398 0 -0.0080175016700632564 0.002478745676081146 0 -0.0081897406923462004 0.0031256822982172836 0 -0.0087102971484670621 0.0028582441227723398 0 -0.0073995332090660663 0.0028566913123998449 0 -0.0081897406923462004 0.0031256822982172836 0 -0.0079096334135675666 0.0035576565408567988 0 -0.0079096334135675666 0.0035576565408567988 0 -0.00723320591953473 0.0035776273875925296 0 -0.0082374386270385371 0.0043118804703931356 0 -0.0081897406923462004 0.0031256822982172836 0 -0.0084803120144613768 0.0037506176328379911 0 -0.0088435139765833982 0.0034196230675414283 0 -0.0081897406923462004 0.0031256822982172836 0 -0.0084803120144613768 0.0037506176328379911 0 -0.0079096334135675666 0.0035576565408567988 0 -0.0084803120144613768 0.0037506176328379911 0 -0.0079096334135675666 0.0035576565408567988 0 -0.0082374386270385371 0.0043118804703931356 0 -0.0073995332090660663 0.0028566913123998449 0 -0.0079096334135675666 0.0035576565408567988 0 -0.00723320591953473 0.0035776273875925296 0 -0.0097564857344343281 0.0028121424783283827 0 -0.010025938719990274 0.0032948786194304191 0 -0.010347984887128514 0.0026791524837382927 0 -0.0097386007811481341 0.0022959182507085677 0 -0.0097564857344343281 0.0028121424783283827 0 -0.010347984887128514 0.0026791524837382927 0 -0.010245259316832279 0.0021672919601332104 0 -0.0097386007811481341 0.0022959182507085677 0 -0.010347984887128514 0.0026791524837382927 0 -0.0091466414244212989 0.0020568619621097123 0 -0.0097386007811481341 0.0022959182507085677 0 -0.0092360689522915321 0.0026195022578303019 0 -0.0097386007811481341 0.0022959182507085677 0 -0.0097564857344343281 0.0028121424783283827 0 -0.0092360689522915321 0.0026195022578303019 0 -0.0097564857344343281 0.0028121424783283827 0 -0.0094506365584883841 0.0031758803272808334 0 -0.010025938719990274 0.0032948786194304191 0 -0.0097564857344343281 0.0028121424783283827 0 -0.0092360689522915321 0.0026195022578303019 0 -0.0094506365584883841 0.0031758803272808334 0 -0.0092360689522915321 0.0026195022578303019 0 -0.0087102971484670621 0.0028582441227723398 0 -0.0094506365584883841 0.0031758803272808334 0 -0.0091466414244212989 0.0020568619621097123 0 -0.0086523360875686538 0.0022968249695619371 0 -0.0092360689522915321 0.0026195022578303019 0 -0.0086523360875686538 0.0022968249695619371 0 -0.0092360689522915321 0.0026195022578303019 0 -0.0087102971484670621 0.0028582441227723398 0 -0.0081897406923462004 0.0031256822982172836 0 -0.0087102971484670621 0.0028582441227723398 0 -0.0088435139765833982 0.0034196230675414283 0 -0.0084803120144613768 0.0037506176328379911 0 -0.0088435139765833982 0.0034196230675414283 0 -0.0090401545420922182 0.0041348311431687332 0 -0.0088435139765833982 0.0034196230675414283 0 -0.0095022154646613333 0.0037577253501717375 0 -0.0090401545420922182 0.0041348311431687332 0 -0.0087102971484670621 0.0028582441227723398 0 -0.0088435139765833982 0.0034196230675414283 0 -0.0094506365584883841 0.0031758803272808334 0 -0.0088435139765833982 0.0034196230675414283 0 -0.0094506365584883841 0.0031758803272808334 0 -0.0095022154646613333 0.0037577253501717375 0 -0.0094506365584883841 0.0031758803272808334 0 -0.0095022154646613333 0.0037577253501717375 0 -0.010025938719990274 0.0032948786194304191 0 -0.0095022154646613333 0.0037577253501717375 0 -0.010025938719990274 0.0032948786194304191 0 -0.010147017333918559 0.0040477313151037111 0 -0.010025938719990274 0.0032948786194304191 0 -0.010147017333918559 0.0040477313151037111 0 -0.01084294918147514 0.0032671213209724921 0 -0.010147017333918559 0.0040477313151037111 0 -0.009753051004085616 0.0049841434798020747 0 -0.011009960408028586 0.0045534592788862797 0 -0.010147017333918559 0.0040477313151037111 0 -0.0095313132385081503 0.0044814191676003593 0 -0.009753051004085616 0.0049841434798020747 0 -0.021206521891771458 0.0031412660220958497 0 -0.01526942979762551 0.0040535339645306262 0 -0.0095022154646613333 0.0037577253501717375 0 -0.010147017333918559 0.0040477313151037111 0 -0.0095313132385081503 0.0044814191676003593 0 -0.0095313132385081503 0.0044814191676003593 0 -0.0094640490109740103 0.0050103605975531235 0 -0.009753051004085616 0.0049841434798020747 0 -0.016602560839433438 0.0028774297398011001 0 -0.0079605529689762023 0.0040519412017538999 0 -0.011791608114228695 0.0049008207178370426 0 -0.0096290274722363491 0.0038774702268324374 0 -0.010161792212066889 0.005077647930004532 0 -0.0090401545420922182 0.0041348311431687332 0 -0.0094640490109740103 0.0050103605975531235 0 -0.0082374386270385371 0.0043118804703931356 0 -0.0095313132385081503 0.0044814191676003593 0 -0.0090401545420922182 0.0041348311431687332 0 -0.0094640490109740103 0.0050103605975531235 0 -0.0095022154646613333 0.0037577253501717375 0 -0.0095313132385081503 0.0044814191676003593 0 -0.0090401545420922182 0.0041348311431687332 0 -0.0084803120144613768 0.0037506176328379911 0 -0.0090401545420922182 0.0041348311431687332 0 -0.0082374386270385371 0.0043118804703931356 0 -0.016602560839433438 0.0028774297398011001 0 -0.014049548396612153 0.0039953561164898605 0 -0.021758387338504052 0.0030929122671703945 0 -0.023854048728526527 0.0024124577924095445 0 -0.019266414172804006 0.0029663957897486837 0 -0.018441075448729131 0.0029846955460880831 0 -0.018060344735795212 0.0034129476062661605 0 -0.027037363901987868 0.0015617933185788802 0 -0.025744821876499742 0.0020551122824136519 0 -0.026544703567427563 0.002837076874099381 0 -0.019191931083408928 0.0029265943729831498 0 -0.019266414172804006 0.0029663957897486837 0 -0.018441075448729131 0.0029846955460880831 0 -0.016602560839433438 0.0028774297398011001 0 -0.021758387338504052 0.0030929122671703945 0 -0.027037363901987868 0.0015617933185788802 0 -0.027532449763539087 0.0018178611381790919 0 -0.026544703567427563 0.002837076874099381 0 -0.032861601312250285 0.0014486434873719786 0 -0.032818355816060053 0.001460110020803107 0 -0.03289687401678465 0.001497938292880576 0 -0.021758387338504052 0.0030929122671703945 0 -0.031351527786550364 0.0022591824650957772 0 -0.016602560839433438 0.0028774297398011001 0 -0.021206521891771458 0.0031412660220958497 0 -0.020564347437689239 0.0033407411340022515 0 -0.020569148128093153 0.0033568874730489106 0 -0.020566433864542967 0.0033445548004217584 0 -0.021206521891771458 0.0031412660220958497 0 -0.021758387338504052 0.0030929122671703945 0 -0.033099505342242021 0.0014181882100260869 0 -0.032932032915519931 0.0014759659323588666 0 -0.033048907839127374 0.0014051342476284776 0 -0.033139248881555873 0.0014316339282434011 0 -0.033099505342242021 0.0014181882100260869 0 -0.033155470097033089 0.0013324251885885551 0 -0.031351527786550364 0.0022591824650957772 0 -0.031546898425358801 0.0022862433091095724 0 -0.033103439319267167 0.0013628037143463365 0 -0.033099505342242021 0.0014181882100260869 0 -0.033048907839127374 0.0014051342476284776 0 -0.033103439319267167 0.0013628037143463365 0 -0.033099505342242021 0.0014181882100260869 0 -0.033155470097033089 0.0013324251885885551 0 -0.032861601312250285 0.0014486434873719786 0 -0.03289687401678465 0.001497938292880576 0 -0.032932032915519931 0.0014759659323588666 0 -0.031351527786550364 0.0022591824650957772 0 -0.032690467092026859 0.0012800956452392815 0 -0.033130027747524479 0.0014359589901713973 0 -0.033099505342242021 0.0014181882100260869 0 -0.032932032915519931 0.0014759659323588666 0 -0.0077273629497253389 0.003485247089442407 0 -0.0079605529689762023 0.0040519412017538999 0 -0.0077915833262541994 0.0032395427595622315 0 -0.0087242452988950982 0.0042084956504437445 0 -0.0096290274722363491 0.0038774702268324374 0 -0.0087242452988950982 0.0042084956504437445 0 -0.0078293713242012977 0.0041948393292003047 0 -0.0086975283652138864 0.005172847134689385 0 -0.0077915833262541994 0.0032395427595622315 0 -0.0087242452988950982 0.0042084956504437445 0 -0.0078293713242012977 0.0041948393292003047 0 -0.0087242452988950982 0.0042084956504437445 0 -0.0096290274722363491 0.0038774702268324374 0 -0.010161792212066889 0.005077647930004532 0 -0.0087242452988950982 0.0042084956504437445 0 -0.010161792212066889 0.005077647930004532 0 -0.0086975283652138864 0.005172847134689385 0 -0.018441075448729131 0.0029846955460880831 0 -0.018060344735795212 0.0034129476062661605 0 -0.017678897989699675 0.0030424932648357157 0 -0.014049548396612153 0.0039953561164898605 0 -0.013573951366332437 0.0033303382737171314 0 -0.023854048728526527 0.0024124577924095445 0 -0.013573951366332437 0.0033303382737171314 0 -0.0069638929890858603 0.0048020630960560985 0 -0.0078293713242012977 0.0041948393292003047 0 -0.0084343474333440187 0.0047640706357670783 0 -0.018694427827260485 0.0016912423080221498 0 -0.018885387147196175 0.0016776044725479394 0 -0.018778065759237714 0.0017778269926584625 0 -0.0189656924342229 0.0017363859262316786 0 -0.018885387147196175 0.0016776044725479394 0 -0.018778065759237714 0.0017778269926584625 0 -0.012830387345905376 0.0032225979775653978 0 -0.013573951366332437 0.0033303382737171314 0 -0.007922426745404625 0.0034589858295773612 0 -0.013573951366332437 0.0033303382737171314 0 -0.030922972726411705 0.0010290820480470387 0 -0.031007648881663623 0.00093431265161589142 0 -0.031050698745966367 0.00093612423996333684 0 -0.023854048728526527 0.0024124577924095445 0 -0.025213255641265437 0.0011634795227956575 0 -0.030922972726411705 0.0010290820480470387 0 -0.031007648881663623 0.00093431265161589142 0 -0.030874959984506921 0.00095037380873336382 0 -0.023854048728526527 0.0024124577924095445 0 -0.030781027273137081 0.0013999535512303216 0 -0.031007648881663623 0.00093431265161589142 0 -0.030874959984506921 0.00095037380873336382 0 -0.031037290645499972 0.00087758285887897913 0 -0.030781027273137081 0.0013999535512303216 0 -0.032051566791915717 0.00054165635188961126 0 -0.032906111358519244 0.00038195281858310323 0 -0.032870880503207377 0.00063006422140508909 0 -0.032626540314392251 0.00056139919138466731 0 -0.031007648881663623 0.00093431265161589142 0 -0.031050698745966367 0.00093612423996333684 0 -0.031112119473309066 0.0008927541341902964 0 -0.031007648881663623 0.00093431265161589142 0 -0.031037290645499972 0.00087758285887897913 0 -0.031112119473309066 0.0008927541341902964 0 -0.031351527786550364 0.0022591824650957772 0 -0.030781027273137081 0.0013999535512303216 0 -0.033139248881555873 0.0014316339282434011 0 -0.033247525155657202 0.0012523624211477238 0 -0.033406201184280518 0.0011990603072528801 0 -0.033168882317362189 0.001254087481683572 0 -0.033218724963133696 0.0011653078950469187 0 -0.033139090103859327 0.0012049111413201946 0 -0.033168882317362189 0.001254087481683572 0 -0.033247525155657202 0.0012523624211477238 0 -0.033218724963133696 0.0011653078950469187 0 -0.033168882317362189 0.001254087481683572 0 -0.033155470097033089 0.0013324251885885551 0 -0.033083733199954675 0.0013212692446329252 0 -0.033139248881555873 0.0014316339282434011 0 -0.033155470097033089 0.0013324251885885551 0 -0.033247525155657202 0.0012523624211477238 0 -0.033168882317362189 0.001254087481683572 0 -0.033155470097033089 0.0013324251885885551 0 -0.033247525155657202 0.0012523624211477238 0 -0.033103439319267167 0.0013628037143463365 0 -0.033155470097033089 0.0013324251885885551 0 -0.033083733199954675 0.0013212692446329252 0 -0.032906111358519244 0.00038195281858310323 0 -0.033084703262301549 0.00057405766891463895 0 -0.032870880503207377 0.00063006422140508909 0 -0.033247525155657202 0.0012523624211477238 0 -0.033406201184280518 0.0011990603072528801 0 -0.033303673164190979 0.0010665960947987714 0 -0.030781027273137081 0.0013999535512303216 0 -0.03333340127531071 0.0009776942535992747 0 -0.033247525155657202 0.0012523624211477238 0 -0.033303673164190979 0.0010665960947987714 0 -0.033218724963133696 0.0011653078950469187 0 -0.033303673164190979 0.0010665960947987714 0 -0.033209877451954292 0.0010856711572617831 0 -0.033245300159070915 0.00089436271940984561 0 -0.033303673164190979 0.0010665960947987714 0 -0.033209877451954292 0.0010856711572617831 0 -0.033218724963133696 0.0011653078950469187 0 -0.033209877451954292 0.0010856711572617831 0 -0.033218724963133696 0.0011653078950469187 0 -0.033139090103859327 0.0012049111413201946 0 -0.033084703262301549 0.00057405766891463895 0 -0.033245300159070915 0.00089436271940984561 0 -0.033049728563751102 0.00083416993100854907 0 -0.03333340127531071 0.0009776942535992747 0 -0.033180881752991671 0.00082101161456370946 0 -0.033049728563751102 0.00083416993100854907 0 -0.032870880503207377 0.00063006422140508909 0 -0.032687886346609102 0.00080568084193242951 0 -0.033084703262301549 0.00057405766891463895 0 -0.033049728563751102 0.00083416993100854907 0 -0.032870880503207377 0.00063006422140508909 0 -0.033049728563751102 0.00083416993100854907 0 -0.032687886346609102 0.00080568084193242951 0 -0.032994357587737742 0.0010472319499889491 0 -0.033049728563751102 0.00083416993100854907 0 -0.033325265105410562 0.0010067332589640183 0 -0.032994357587737742 0.0010472319499889491 0 -0.033245300159070915 0.00089436271940984561 0 -0.033049728563751102 0.00083416993100854907 0 -0.033325265105410562 0.0010067332589640183 0 -0.032626540314392251 0.00056139919138466731 0 -0.032687886346609102 0.00080568084193242951 0 -0.03215363556651344 0.00072296677499407728 0 -0.032051566791915717 0.00054165635188961126 0 -0.031613356825383257 0.00090874842640170704 0 -0.031037290645499972 0.00087758285887897913 0 -0.03121039491480854 0.00094634157403155922 0 -0.031112119473309066 0.0008927541341902964 0 -0.032870880503207377 0.00063006422140508909 0 -0.032626540314392251 0.00056139919138466731 0 -0.032687886346609102 0.00080568084193242951 0 -0.032687886346609102 0.00080568084193242951 0 -0.03215363556651344 0.00072296677499407728 0 -0.032387005027252634 0.0012514346963861331 0 -0.03121039491480854 0.00094634157403155922 0 -0.031137485477157757 0.00092215389524842855 0 -0.031437343787359739 0.0011455919689736531 0 -0.03121039491480854 0.00094634157403155922 0 -0.031137485477157757 0.00092215389524842855 0 -0.031112119473309066 0.0008927541341902964 0 -0.031137485477157757 0.00092215389524842855 0 -0.030992902975856666 0.0010499301030728624 0 -0.031437343787359739 0.0011455919689736531 0 -0.030992902975856666 0.0010499301030728624 0 -0.030789307949151794 0.0011079142747170494 0 -0.030798102430075802 0.0010045561282201426 0 -0.030992902975856666 0.0010499301030728624 0 -0.030798102430075802 0.0010045561282201426 0 -0.030810625006974644 0.00098030016026348882 0 -0.030789307949151794 0.0011079142747170494 0 -0.030798102430075802 0.0010045561282201426 0 -0.030708753359141874 0.0010249397685122726 0 -0.030798102430075802 0.0010045561282201426 0 -0.030705889535308149 0.00093509309638271324 0 -0.030708753359141874 0.0010249397685122726 0 -0.030810625006974644 0.00098030016026348882 0 -0.030980674320094291 0.00086121901649877271 0 -0.030648571983799094 0.00062706720620663253 0 -0.030810625006974644 0.00098030016026348882 0 -0.030066759137579693 0.0013510685262253777 0 -0.03018023405852056 0.0010139134726703197 0 -0.030681433376963878 0.0010323911070075408 0 -0.030546470497993933 0.0010764932152233569 0 -0.030798102430075802 0.0010045561282201426 0 -0.030810625006974644 0.00098030016026348882 0 -0.030705889535308149 0.00093509309638271324 0 -0.030810625006974644 0.00098030016026348882 0 -0.030648571983799094 0.00062706720620663253 0 -0.03018023405852056 0.0010139134726703197 0 -0.031137485477157757 0.00092215389524842855 0 -0.030992902975856666 0.0010499301030728624 0 -0.030980674320094291 0.00086121901649877271 0 -0.030992902975856666 0.0010499301030728624 0 -0.030810625006974644 0.00098030016026348882 0 -0.030980674320094291 0.00086121901649877271 0 -0.030980674320094291 0.00086121901649877271 0 -0.030648571983799094 0.00062706720620663253 0 -0.031053304433673993 0.0008003725714578366 0 -0.025412508803581466 0.0010179593860536321 0 -0.024608756656134968 0.0013705648375767958 0 -0.018617265024844395 0.0017542593989141768 0 -0.018586891152863199 0.0017552300037918587 0 -0.018655254537255864 0.0017789952827641953 0 -0.018617265024844395 0.0017542593989141768 0 -0.018586891152863199 0.0017552300037918587 0 -0.018592910998992178 0.00175752988435691 0 -0.01857615347165054 0.0017242191074029942 0 -0.018533713960606473 0.0017511539604511683 0 -0.018586891152863199 0.0017552300037918587 0 -0.018533713960606473 0.0017511539604511683 0 -0.018586891152863199 0.0017552300037918587 0 -0.018592910998992178 0.00175752988435691 0 -0.01857615347165054 0.0017242191074029942 0 -0.018586891152863199 0.0017552300037918587 0 -0.018655254537255864 0.0017789952827641953 0 -0.018659739068960002 0.0017415515569202064 0 -0.018778065759237714 0.0017778269926584625 0 -0.018655254537255864 0.0017789952827641953 0 -0.025213255641265437 0.0011634795227956575 0 -0.024608756656134968 0.0013705648375767958 0 -0.01857615347165054 0.0017242191074029942 0 -0.018659739068960002 0.0017415515569202064 0 -0.018655254537255864 0.0017789952827641953 0 -0.018694427827260485 0.0016912423080221498 0 -0.018659739068960002 0.0017415515569202064 0 -0.018778065759237714 0.0017778269926584625 0 -0.031050698745966367 0.00093612423996333684 0 -0.031112119473309066 0.0008927541341902964 0 -0.031053304433673993 0.0008003725714578366 0 -0.031137485477157757 0.00092215389524842855 0 -0.031112119473309066 0.0008927541341902964 0 -0.031053304433673993 0.0008003725714578366 0 -0.031137485477157757 0.00092215389524842855 0 -0.030980674320094291 0.00086121901649877271 0 -0.031053304433673993 0.0008003725714578366 0 -0.031325309747942717 0.00085464667300242216 0 -0.031338007859259144 0.00080517333287162909 0 -0.031356121445274492 0.00080273179996044944 0 -0.031116042535422432 0.00076599556771059305 0 -0.03174946956701738 0.0011676160688487414 0 -0.031361245729463666 0.00078392637041106836 0 -0.031325309747942717 0.00085464667300242216 0 -0.031356523347120531 0.00079701772599150781 0 -0.031325309747942717 0.00085464667300242216 0 -0.031356121445274492 0.00080273179996044944 0 -0.031356523347120531 0.00079701772599150781 0 -0.031316148826418713 0.00080486350181462789 0 -0.031338007859259144 0.00080517333287162909 0 -0.031284319439728106 0.00075684915731033704 0 -0.031316148826418713 0.00080486350181462789 0 -0.031338007859259144 0.00080517333287162909 0 -0.031356121445274492 0.00080273179996044944 0 -0.019593932777647805 0.00011317485211278659 0 -0.019797871280998705 0.00036785389040557611 0 -0.020009274213509592 0.00012888361937464862 0 -0.02514466718417651 0.00043341443922044156 0 -0.026606942572228849 0.00074281510840739219 0 -0.03108264339692458 0.00087474087121066388 0 -0.031252805016280222 0.00078409742250822219 0 -0.030801264960297118 0.00072870100406283134 0 -0.03174946956701738 0.0011676160688487414 0 -0.026606942572228849 0.00074281510840739219 0 -0.031325309747942717 0.00085464667300242216 0 -0.03108264339692458 0.00087474087121066388 0 -0.031252805016280222 0.00078409742250822219 0 -0.031311802779597692 0.00087253271075940139 0 -0.031325309747942717 0.00085464667300242216 0 -0.031252805016280222 0.00078409742250822219 0 -0.019593932777647805 0.00011317485211278659 0 -0.019454393231282688 0.00038049272564339809 0 -0.019797871280998705 0.00036785389040557611 0 -0.019454393231282688 0.00038049272564339809 0 -0.019596735076635213 0.00071661415337152725 0 -0.019797871280998705 0.00036785389040557611 0 -0.016631183322774287 0.0014241296173312548 0 -0.016018503171427251 0.0013559455909865901 0 -0.012720916944277731 0.0019508913036953386 0 -0.013504855142617249 0.0021312993695325531 0 -0.012703184411733215 0.002341225824845417 0 -0.019596735076635213 0.00071661415337152725 0 -0.019797871280998705 0.00036785389040557611 0 -0.020042523889755758 0.00053859045935929347 0 -0.019797871280998705 0.00036785389040557611 0 -0.020016614949143186 0.00032848775341379346 0 -0.020009274213509592 0.00012888361937464862 0 -0.020016614949143186 0.00032848775341379346 0 -0.020042523889755758 0.00053859045935929347 0 -0.020197430132807639 0.00028243265362282074 0 -0.019797871280998705 0.00036785389040557611 0 -0.020016614949143186 0.00032848775341379346 0 -0.020042523889755758 0.00053859045935929347 0 -0.012720916944277731 0.0019508913036953386 0 -0.012703184411733215 0.002341225824845417 0 -0.012290234465666242 0.0021339712389514057 0 -0.012703184411733215 0.002341225824845417 0 -0.012290234465666242 0.0021339712389514057 0 -0.012194603524699558 0.0025022427316406665 0 -0.020042523889755758 0.00053859045935929347 0 -0.020197430132807639 0.00028243265362282074 0 -0.020376431624665316 0.00040453963687151319 0 -0.025344737396863749 0.0014824454853886837 0 -0.02507432047631046 0.0014874143602761783 0 -0.025039442283866994 0.001358229580986185 0 -0.022817287285571756 0.00085685056476633291 0 -0.018045188908173346 0.0023408222204181479 0 -0.016018503171427251 0.0013559455909865901 0 -0.018045188908173346 0.0023408222204181479 0 -0.026606942572228849 0.00074281510840739219 0 -0.029432084017674661 0.0014374011499436014 0 -0.025344737396863749 0.0014824454853886837 0 -0.025203645299384046 0.0015579302697885352 0 -0.02507432047631046 0.0014874143602761783 0 -0.025203645299384046 0.0015579302697885352 0 -0.025641654254587108 0.0016247528618727578 0 -0.025136759998480418 0.0016767683938548968 0 -0.025344737396863749 0.0014824454853886837 0 -0.025203645299384046 0.0015579302697885352 0 -0.025641654254587108 0.0016247528618727578 0 -0.020016614949143186 0.00032848775341379346 0 -0.020197430132807639 0.00028243265362282074 0 -0.020009274213509592 0.00012888361937464862 0 -0.022817287285571756 0.00085685056476633291 0 -0.026606942572228849 0.00074281510840739219 0 -0.031316148826418713 0.00080486350181462789 0 -0.031284319439728106 0.00075684915731033704 0 -0.031269666860142271 0.00082092444696971688 0 -0.032348060010116822 0.0011722175563905022 0 -0.029432084017674661 0.0014374011499436014 0 -0.032670497012501194 0.0013713650763705579 0 -0.032775710139289718 0.0013683479093261489 0 -0.032717335406000754 0.0014750912620416984 0 -0.031284319439728106 0.00075684915731033704 0 -0.031269666860142271 0.00082092444696971688 0 -0.031166105973071755 0.00075959244491452407 0 -0.032775710139289718 0.0013683479093261489 0 -0.032826367593784725 0.0014780443715460847 0 -0.032717335406000754 0.0014750912620416984 0 -0.032775710139289718 0.0013683479093261489 0 -0.032934399331969531 0.0013572794511255977 0 -0.032826367593784725 0.0014780443715460847 0 -0.033364247152327296 0.00098055019848812606 0 -0.027823861842993739 0.0018942530333899384 0 -0.021784052010502063 0.0029625905174188579 0 -0.021756163134027062 0.0029680302884089542 0 -0.021717518444744344 0.0029785403832272212 0 -0.027823861842993739 0.0018942530333899384 0 -0.029432084017674661 0.0014374011499436014 0 -0.024856220960186654 0.0016963831005212793 0 -0.02507432047631046 0.0014874143602761783 0 -0.024984408839688201 0.0013870276926493113 0 -0.024856220960186654 0.0016963831005212793 0 -0.025137819012719907 0.0016679809390611746 0 -0.025083408650292578 0.0016143457202003639 0 -0.024856220960186654 0.0016963831005212793 0 -0.025083408650292578 0.0016143457202003639 0 -0.02507432047631046 0.0014874143602761783 0 -0.027823861842993739 0.0018942530333899384 0 -0.01821678502656766 0.0023006519685202474 0 -0.029432084017674661 0.0014374011499436014 0 -0.027893363649281976 0.00071665318936259086 0 -0.025203645299384046 0.0015579302697885352 0 -0.025083408650292578 0.0016143457202003639 0 -0.02507432047631046 0.0014874143602761783 0 -0.025203645299384046 0.0015579302697885352 0 -0.025136759998480418 0.0016767683938548968 0 -0.025083408650292578 0.0016143457202003639 0 -0.02507432047631046 0.0014874143602761783 0 -0.024984408839688201 0.0013870276926493113 0 -0.025039442283866994 0.001358229580986185 0 -0.01389309463785506 0.0035602058235397914 0 -0.014005142315911753 0.0033735754886074897 0 -0.012996492524190497 0.0032082905970855003 0 -0.018045188908173346 0.0023408222204181479 0 -0.015137838878491596 0.0026107210506392696 0 -0.017003823911488195 0.0025119654553046647 0 -0.016102583952672597 0.0028656445659194919 0 -0.016637252295223247 0.0031405106118584515 0 -0.01821678502656766 0.0023006519685202474 0 -0.015137838878491596 0.0026107210506392696 0 -0.01821678502656766 0.0023006519685202474 0 -0.018045188908173346 0.0023408222204181479 0 -0.011747814957178958 0.002529433862307699 0 -0.015137838878491596 0.0026107210506392696 0 -0.011904692693693297 0.0024681698769694819 0 -0.011475110370794128 0.0032293577292855555 0 -0.011162675945835681 0.0025433662845421876 0 -0.012290234465666242 0.0021339712389514057 0 -0.012194603524699558 0.0025022427316406665 0 -0.01215650429911334 0.0024813284670679911 0 -0.011475110370794128 0.0032293577292855555 0 -0.011162675945835681 0.0025433662845421876 0 -0.010431380525751018 0.0027011808784447198 0 -0.010818623483969983 0.0021596247710476239 0 -0.011162675945835681 0.0025433662845421876 0 -0.010431380525751018 0.0027011808784447198 0 -0.015137838878491596 0.0026107210506392696 0 -0.011064560454039786 0.002592041757799049 0 -0.011064560454039786 0.002592041757799049 0 -0.012965007640840831 0.0033601128920060048 0 -0.014005142315911753 0.0033735754886074897 0 -0.012268628625797631 0.0025038660330268534 0 -0.012996492524190497 0.0032082905970855003 0 -0.017174293373769394 0.0035742980147118967 0 -0.01821678502656766 0.0023006519685202474 0 -0.01237854933716644 0.0040962529668801982 0 -0.012996492524190497 0.0032082905970855003 0 -0.011798699277352154 0.0034077186290924675 0 -0.01237854933716644 0.0040962529668801982 0 -0.01389309463785506 0.0035602058235397914 0 -0.012996492524190497 0.0032082905970855003 0 -0.012298036947612445 0.0026048471791451765 0 -0.012996492524190497 0.0032082905970855003 0 -0.011798699277352154 0.0034077186290924675 0 -0.011798699277352154 0.0034077186290924675 0 -0.01137998887241318 0.0026497903602790492 0 -0.01084294918147514 0.0032671213209724921 0 -0.010268096102777218 0.0020423284086024543 0 -0.011064560454039786 0.002592041757799049 0 -0.012298036947612445 0.0026048471791451765 0 -0.011798699277352154 0.0034077186290924675 0 -0.01137998887241318 0.0026497903602790492 0 -0.0097241073437285466 0.0019363801110962458 0 -0.011064560454039786 0.002592041757799049 0 -0.010829143220155109 0.0019836162839370684 0 -0.012298036947612445 0.0026048471791451765 0 -0.01137998887241318 0.0026497903602790492 0 -0.010245259316832279 0.0021672919601332104 0 -0.010826669526600816 0.0024963698104380886 0 -0.010347984887128514 0.0026791524837382927 0 -0.010829143220155109 0.0019836162839370684 0 -0.010245259316832279 0.0021672919601332104 0 -0.010826669526600816 0.0024963698104380886 0 -0.010829143220155109 0.0019836162839370684 0 -0.01137998887241318 0.0026497903602790492 0 -0.010826669526600816 0.0024963698104380886 0 -0.01137998887241318 0.0026497903602790492 0 -0.010826669526600816 0.0024963698104380886 0 -0.01084294918147514 0.0032671213209724921 0 -0.010025938719990274 0.0032948786194304191 0 -0.010347984887128514 0.0026791524837382927 0 -0.01084294918147514 0.0032671213209724921 0 -0.010826669526600816 0.0024963698104380886 0 -0.010347984887128514 0.0026791524837382927 0 -0.01084294918147514 0.0032671213209724921 0 -0.010147017333918559 0.0040477313151037111 0 -0.01084294918147514 0.0032671213209724921 0 -0.011009960408028586 0.0045534592788862797 0 -0.011798699277352154 0.0034077186290924675 0 -0.01084294918147514 0.0032671213209724921 0 -0.011009960408028586 0.0045534592788862797 0 -0.021582366554176519 0.0029853051372060319 0 -0.021712416783373999 0.0029607442853039341 0 -0.021750145873187885 0.0029834552750812116 0 -0.027823861842993739 0.0018942530333899384 0 -0.028505121972381937 0.0021290348722850967 0 -0.017174293373769394 0.0035742980147118967 0 -0.01526942979762551 0.0040535339645306262 0 -0.021756163134027062 0.0029680302884089542 0 -0.021712416783373999 0.0029607442853039341 0 -0.021750145873187885 0.0029834552750812116 0 -0.021784052010502063 0.0029625905174188579 0 -0.021756163134027062 0.0029680302884089542 0 -0.021750145873187885 0.0029834552750812116 0 -0.01237854933716644 0.0040962529668801982 0 -0.011798699277352154 0.0034077186290924675 0 -0.011009960408028586 0.0045534592788862797 0 -0.032784210116718712 0.0013369285871440045 0 -0.032983259604861433 0.001505144920084687 0 -0.032944625218450825 0.0013062791534363036 0 -0.032784210116718712 0.0013369285871440045 0 -0.03257469939476712 0.0015883657858889615 0 -0.032983259604861433 0.001505144920084687 0 -0.032983259604861433 0.001505144920084687 0 -0.033009398603719771 0.0013589148973820241 0 -0.032944625218450825 0.0013062791534363036 0 -0.032861601312250285 0.0014486434873719786 0 -0.032932032915519931 0.0014759659323588666 0 -0.032983259604861433 0.001505144920084687 0 -0.021206521891771458 0.0031412660220958497 0 -0.028505121972381937 0.0021290348722850967 0 -0.032983259604861433 0.001505144920084687 0 -0.033007932284589411 0.0014239403894238691 0 -0.033009398603719771 0.0013589148973820241 0 -0.032932032915519931 0.0014759659323588666 0 -0.033007932284589411 0.0014239403894238691 0 -0.033048907839127374 0.0014051342476284776 0 -0.033007932284589411 0.0014239403894238691 0 -0.033083733199954675 0.0013212692446329252 0 -0.033009398603719771 0.0013589148973820241 0 -0.033007932284589411 0.0014239403894238691 0 -0.033048907839127374 0.0014051342476284776 0 -0.033083733199954675 0.0013212692446329252 0 -0.033103439319267167 0.0013628037143463365 0 -0.033048907839127374 0.0014051342476284776 0 -0.033083733199954675 0.0013212692446329252 0 -0.032932032915519931 0.0014759659323588666 0 -0.032983259604861433 0.001505144920084687 0 -0.033007932284589411 0.0014239403894238691 0 -0.033168882317362189 0.001254087481683572 0 -0.033139090103859327 0.0012049111413201946 0 -0.033083733199954675 0.0013212692446329252 0 -0.033047749800308036 0.0012385658734454514 0 -0.033139090103859327 0.0012049111413201946 0 -0.033083733199954675 0.0013212692446329252 0 -0.033047749800308036 0.0012385658734454514 0 -0.033083733199954675 0.0013212692446329252 0 -0.033009398603719771 0.0013589148973820241 0 -0.033047749800308036 0.0012385658734454514 0 -0.033009398603719771 0.0013589148973820241 0 -0.032944625218450825 0.0013062791534363036 0 -0.032784210116718712 0.0013369285871440045 0 -0.032944625218450825 0.0013062791534363036 0 -0.033035810482676072 0.0011873808245017041 0 -0.032934399331969531 0.0013572794511255977 0 -0.033035810482676072 0.0011873808245017041 0 -0.032958219953136886 0.001181509333889929 0 -0.033364247152327296 0.00098055019848812606 0 -0.032868759027302109 0.0013770613412461897 0 -0.033047749800308036 0.0012385658734454514 0 -0.032944625218450825 0.0013062791534363036 0 -0.033035810482676072 0.0011873808245017041 0 -0.033035810482676072 0.0011873808245017041 0 -0.033130117930737855 0.0010656434971196183 0 -0.032958219953136886 0.001181509333889929 0 -0.033035810482676072 0.0011873808245017041 0 -0.033130117930737855 0.0010656434971196183 0 -0.033146062453175411 0.0010842663272773838 0 -0.033047749800308036 0.0012385658734454514 0 -0.033139090103859327 0.0012049111413201946 0 -0.033146062453175411 0.0010842663272773838 0 -0.033047749800308036 0.0012385658734454514 0 -0.033035810482676072 0.0011873808245017041 0 -0.033146062453175411 0.0010842663272773838 0 -0.033209877451954292 0.0010856711572617831 0 -0.033139090103859327 0.0012049111413201946 0 -0.033146062453175411 0.0010842663272773838 0 -0.033209877451954292 0.0010856711572617831 0 -0.033245300159070915 0.00089436271940984561 0 -0.033146062453175411 0.0010842663272773838 0 -0.033245300159070915 0.00089436271940984561 0 -0.033248093639546457 0.00098645886538384852 0 -0.033325265105410562 0.0010067332589640183 0 -0.033130117930737855 0.0010656434971196183 0 -0.033146062453175411 0.0010842663272773838 0 -0.033248093639546457 0.00098645886538384852 0 -0.033245300159070915 0.00089436271940984561 0 -0.033146062453175411 0.0010842663272773838 0 -0.033248093639546457 0.00098645886538384852 0 -0.033248093639546457 0.00098645886538384852 0 -0.033325265105410562 0.0010067332589640183 0 -0.033358945937470387 0.0010580752718489035 0 -0.033130117930737855 0.0010656434971196183 0 -0.033358945937470387 0.0010580752718489035 0 -0.033429092233374494 0.0011036674402770074 0 -0.033130117930737855 0.0010656434971196183 0 -0.033248093639546457 0.00098645886538384852 0 -0.033358945937470387 0.0010580752718489035 0 -0.033130117930737855 0.0010656434971196183 0 -0.032876204470521954 0.0011050857323991559 0 -0.032958219953136886 0.001181509333889929 0 -0.033146426659098657 0.001080049803255697 0 -0.033152980837005082 0.0011140936955091002 0 -0.033358945937470387 0.0010580752718489035 0 -0.033429092233374494 0.0011036674402770074 0 -0.033479693989948378 0.0011397638923974723 0 -0.033152980837005082 0.0011140936955091002 0 -0.033070480764892121 0.001172019744698675 0 -0.032876204470521954 0.0011050857323991559 0 -0.032742655592366207 0.0012199485388856418 0 -0.032815392151487384 0.001116775526313419 0 -0.033429092233374494 0.0011036674402770074 0 -0.033355852158182112 0.0012550853684704128 0 -0.033479693989948378 0.0011397638923974723 0 -0.032876204470521954 0.0011050857323991559 0 -0.032831867062287072 0.0012353989723113219 0 -0.032742655592366207 0.0012199485388856418 0 -0.032876204470521954 0.0011050857323991559 0 -0.032831867062287072 0.0012353989723113219 0 -0.032958219953136886 0.001181509333889929 0 -0.032934399331969531 0.0013572794511255977 0 -0.032831867062287072 0.0012353989723113219 0 -0.032958219953136886 0.001181509333889929 0 -0.032775710139289718 0.0013683479093261489 0 -0.032934399331969531 0.0013572794511255977 0 -0.032831867062287072 0.0012353989723113219 0 -0.032775710139289718 0.0013683479093261489 0 -0.032831867062287072 0.0012353989723113219 0 -0.032725219788608782 0.0012988468045814848 0 -0.032670497012501194 0.0013713650763705579 0 -0.032775710139289718 0.0013683479093261489 0 -0.032725219788608782 0.0012988468045814848 0 -0.032670497012501194 0.0013713650763705579 0 -0.032725219788608782 0.0012988468045814848 0 -0.032613826466038075 0.0013227436377833831 0 -0.032348060010116822 0.0011722175563905022 0 -0.031913803528029742 0.0010266059382517912 0 -0.031316148826418713 0.00080486350181462789 0 -0.031269666860142271 0.00082092444696971688 0 -0.031355741133166637 0.00080258134023313997 0 -0.032831867062287072 0.0012353989723113219 0 -0.032725219788608782 0.0012988468045814848 0 -0.032742655592366207 0.0012199485388856418 0 -0.032725219788608782 0.0012988468045814848 0 -0.032742655592366207 0.0012199485388856418 0 -0.032613826466038075 0.0013227436377833831 0 -0.032657575410375589 0.0012356616880232468 0 -0.032591083667058103 0.001183210708988764 0 -0.032815392151487384 0.001116775526313419 0 -0.032742655592366207 0.0012199485388856418 0 -0.032657575410375589 0.0012356616880232468 0 -0.032815392151487384 0.001116775526313419 0 -0.032742655592366207 0.0012199485388856418 0 -0.032657575410375589 0.0012356616880232468 0 -0.032613826466038075 0.0013227436377833831 0 -0.032657575410375589 0.0012356616880232468 0 -0.032509395482271983 0.0013172961323039496 0 -0.032613826466038075 0.0013227436377833831 0 -0.032657575410375589 0.0012356616880232468 0 -0.032509395482271983 0.0013172961323039496 0 -0.032591083667058103 0.001183210708988764 0 -0.031878326279964904 0.0010466487932923965 0 -0.031953061380526566 0.0010496595765558427 0 -0.032270584632411475 0.0012709291171982171 0 -0.032509395482271983 0.0013172961323039496 0 -0.032591083667058103 0.001183210708988764 0 -0.031467938865410244 0.00072622278855688125 0 -0.031493636121058544 0.00085675496646554978 0 -0.031388918569224336 0.0007654562752551561 0 -0.031467938865410244 0.00072622278855688125 0 -0.031388918569224336 0.0007654562752551561 0 -0.031386140861295882 0.00075896054706383372 0 -0.031388918569224336 0.0007654562752551561 0 -0.031386140861295882 0.00075896054706383372 0 -0.031355741133166637 0.00080258134023313997 0 -0.031953061380526566 0.0010496595765558427 0 -0.031913803528029742 0.0010266059382517912 0 -0.031316148826418713 0.00080486350181462789 0 -0.031355741133166637 0.00080258134023313997 0 -0.031356121445274492 0.00080273179996044944 0 -0.031386140861295882 0.00075896054706383372 0 -0.031355741133166637 0.00080258134023313997 0 -0.031356121445274492 0.00080273179996044944 0 -0.031361245729463666 0.00078392637041106836 0 -0.031386140861295882 0.00075896054706383372 0 -0.031356523347120531 0.00079701772599150781 0 -0.031386140861295882 0.00075896054706383372 0 -0.031356121445274492 0.00080273179996044944 0 -0.031356523347120531 0.00079701772599150781 0 -0.033364675636307781 0.00074260376019474558 0 -0.03443928810459785 0.00058799358925560805 0 -0.034948700242794006 0.00038922570785778323 0 -0.034937204507844252 0.00059796157187447794 0 -0.035052716980689493 0.00035874752836694056 0 -0.033376655983599686 0.0010190990429467361 0 -0.033562649749793894 0.00086927340982993317 0 -0.033643737360723965 0.0010131799260221562 0 -0.033562649749793894 0.00086927340982993317 0 -0.033643737360723965 0.0010131799260221562 0 -0.033768609651496154 0.000877387250711363 0 -0.032628094608471922 0.00068166885520777858 0 -0.032495994488743116 0.000840692981429703 0 -0.03281317289352307 0.0010668697482683455 0 -0.032192691161804045 0.0007414165468767256 0 -0.032495994488743116 0.000840692981429703 0 -0.032248620348898194 0.00083806670462290977 0 -0.032192691161804045 0.0007414165468767256 0 -0.032628094608471922 0.00068166885520777858 0 -0.032495994488743116 0.000840692981429703 0 -0.033364675636307781 0.00074260376019474558 0 -0.033005144783718882 0.00087008747753419195 0 -0.032495994488743116 0.000840692981429703 0 -0.032248620348898194 0.00083806670462290977 0 -0.032279077637693269 0.00093448309242258006 0 -0.03227444761328583 0.0010746555326362909 0 -0.032279077637693269 0.00093448309242258006 0 -0.03249825299611641 0.0010231281105972693 0 -0.032495994488743116 0.000840692981429703 0 -0.032279077637693269 0.00093448309242258006 0 -0.03249825299611641 0.0010231281105972693 0 -0.03227444761328583 0.0010746555326362909 0 -0.032591083667058103 0.001183210708988764 0 -0.03249825299611641 0.0010231281105972693 0 -0.03227444761328583 0.0010746555326362909 0 -0.032270584632411475 0.0012709291171982171 0 -0.032591083667058103 0.001183210708988764 0 -0.032591083667058103 0.001183210708988764 0 -0.03249825299611641 0.0010231281105972693 0 -0.03281317289352307 0.0010668697482683455 0 -0.032495994488743116 0.000840692981429703 0 -0.03249825299611641 0.0010231281105972693 0 -0.03281317289352307 0.0010668697482683455 0 -0.032591083667058103 0.001183210708988764 0 -0.03281317289352307 0.0010668697482683455 0 -0.032815392151487384 0.001116775526313419 0 -0.032826481974933812 0.0010608506291767004 0 -0.033070480764892121 0.001172019744698675 0 -0.03281317289352307 0.0010668697482683455 0 -0.033355852158182112 0.0012550853684704128 0 -0.033293357850599281 0.0010675348217869245 0 -0.03281317289352307 0.0010668697482683455 0 -0.033293357850599281 0.0010675348217869245 0 -0.033183975752791535 0.00068763528985271239 0 -0.032628094608471922 0.00068166885520777858 0 -0.03281317289352307 0.0010668697482683455 0 -0.033183975752791535 0.00068763528985271239 0 -0.033643737360723965 0.0010131799260221562 0 -0.033768609651496154 0.000877387250711363 0 -0.033942954523926906 0.00099190269229806893 0 -0.033005144783718882 0.00087008747753419195 0 -0.033587383736317603 0.00084668069425652926 0 -0.033768609651496154 0.000877387250711363 0 -0.033942954523926906 0.00099190269229806893 0 -0.033970495587884356 0.00080748627624445076 0 -0.033942954523926906 0.00099190269229806893 0 -0.033850348733628584 0.0009425713911681581 0 -0.034080949701457412 0.0010074760375080403 0 -0.033942954523926906 0.00099190269229806893 0 -0.034080949701457412 0.0010074760375080403 0 -0.033970495587884356 0.00080748627624445076 0 -0.033587383736317603 0.00084668069425652926 0 -0.033806622801504836 0.00092522273651372529 0 -0.033850348733628584 0.0009425713911681581 0 -0.033748247800312832 0.0010907358319465056 0 -0.034080949701457412 0.0010074760375080403 0 -0.033850348733628584 0.0009425713911681581 0 -0.033667810572077184 0.0010696574323582242 0 -0.033553078534125702 0.0010041323625262705 0 -0.033183975752791535 0.00068763528985271239 0 -0.033850348733628584 0.0009425713911681581 0 -0.033553078534125702 0.0010041323625262705 0 -0.033293357850599281 0.0010675348217869245 0 -0.033183975752791535 0.00068763528985271239 0 -0.033553078534125702 0.0010041323625262705 0 -0.033293357850599281 0.0010675348217869245 0 -0.033553078534125702 0.0010041323625262705 0 -0.033530853519153261 0.0011074111974579918 0 -0.033355852158182112 0.0012550853684704128 0 -0.033293357850599281 0.0010675348217869245 0 -0.033530853519153261 0.0011074111974579918 0 -0.033355852158182112 0.0012550853684704128 0 -0.033479693989948378 0.0011397638923974723 0 -0.033530853519153261 0.0011074111974579918 0 -0.033479693989948378 0.0011397638923974723 0 -0.033530853519153261 0.0011074111974579918 0 -0.033529484997321495 0.0011263533328195784 0 -0.033667810572077184 0.0010696574323582242 0 -0.033530853519153261 0.0011074111974579918 0 -0.033529484997321495 0.0011263533328195784 0 -0.033667810572077184 0.0010696574323582242 0 -0.033553078534125702 0.0010041323625262705 0 -0.033530853519153261 0.0011074111974579918 0 -0.033667810572077184 0.0010696574323582242 0 -0.033529484997321495 0.0011263533328195784 0 -0.03362703912084096 0.0011528669660125991 0 -0.033358945937470387 0.0010580752718489035 0 -0.033479693989948378 0.0011397638923974723 0 -0.033529484997321495 0.0011263533328195784 0 -0.033325265105410562 0.0010067332589640183 0 -0.033358945937470387 0.0010580752718489035 0 -0.033529484997321495 0.0011263533328195784 0 -0.033325265105410562 0.0010067332589640183 0 -0.033529484997321495 0.0011263533328195784 0 -0.033447937774837282 0.0011908457282759038 0 -0.033529484997321495 0.0011263533328195784 0 -0.03362703912084096 0.0011528669660125991 0 -0.033447937774837282 0.0011908457282759038 0 -0.03362703912084096 0.0011528669660125991 0 -0.033447937774837282 0.0011908457282759038 0 -0.033487041681769678 0.0014235547506113023 0 -0.033850348733628584 0.0009425713911681581 0 -0.033667810572077184 0.0010696574323582242 0 -0.03362703912084096 0.0011528669660125991 0 -0.03362703912084096 0.0011528669660125991 0 -0.033748247800312832 0.0010907358319465056 0 -0.03367072154950447 0.0011497870803826172 0 -0.033850348733628584 0.0009425713911681581 0 -0.03362703912084096 0.0011528669660125991 0 -0.033748247800312832 0.0010907358319465056 0 -0.03362703912084096 0.0011528669660125991 0 -0.03367072154950447 0.0011497870803826172 0 -0.033487041681769678 0.0014235547506113023 0 -0.03367072154950447 0.0011497870803826172 0 -0.033702387064575234 0.0012127323210538523 0 -0.03368907553820543 0.0012287479497573271 0 -0.033748247800312832 0.0010907358319465056 0 -0.03367072154950447 0.0011497870803826172 0 -0.033702387064575234 0.0012127323210538523 0 -0.033705243426066567 0.00110936900166415 0 -0.033743453325329596 0.0010724782756978378 0 -0.033748247800312832 0.0010907358319465056 0 -0.033776928733264919 0.0012319754759244021 0 -0.034080949701457412 0.0010074760375080403 0 -0.033748247800312832 0.0010907358319465056 0 -0.033776928733264919 0.0012319754759244021 0 -0.033702387064575234 0.0012127323210538523 0 -0.034281620543561618 0.00091636482045544319 0 -0.034342592277335909 0.00080350752068299148 0 -0.034796986206206068 0.00065051902521407953 0 -0.035062829937707346 0.00028865832687673625 0 -0.034947212348772128 0.00020514675397544592 0 -0.034796986206206068 0.00065051902521407953 0 -0.034947212348772128 0.00020514675397544592 0 -0.034788497277771779 0.00025549814773977132 0 -0.033776928733264919 0.0012319754759244021 0 -0.033689788174646143 0.0012278509170738519 0 -0.033702387064575234 0.0012127323210538523 0 -0.033689788174646143 0.0012278509170738519 0 -0.033702387064575234 0.0012127323210538523 0 -0.03368907553820543 0.0012287479497573271 0 -0.034342592277335909 0.00080350752068299148 0 -0.034463903906062035 0.0003895767635589778 0 -0.033689788174646143 0.0012278509170738519 0 -0.03368907553820543 0.0012287479497573271 0 -0.033722102841065645 0.0011865197682185385 0 -0.035062829937707346 0.00028865832687673625 0 -0.035021716963781063 8.3978636686284357e-05 0 -0.035068487123551491 9.9114499319461361e-05 0 -0.035062829937707346 0.00028865832687673625 0 -0.035021716963781063 8.3978636686284357e-05 0 -0.034947212348772128 0.00020514675397544592 0 -0.035000018533678678 4.2855880734854304e-08 0 -0.035021716963781063 8.3978636686284357e-05 0 -0.03500017333795287 4.365695105410632e-08 0 -0.035000018533678678 4.2855880734854304e-08 0 -0.034900103290951355 6.7510054601811458e-05 0 -0.034999494157131605 3.3828824198882689e-08 0 -0.035000018533678678 4.2855880734854304e-08 0 -0.035021716963781063 8.3978636686284357e-05 0 -0.034900103290951355 6.7510054601811458e-05 0 -0.035021716963781063 8.3978636686284357e-05 0 -0.034900103290951355 6.7510054601811458e-05 0 -0.034947212348772128 0.00020514675397544592 0 -0.034900103290951355 6.7510054601811458e-05 0 -0.034947212348772128 0.00020514675397544592 0 -0.034788497277771779 0.00025549814773977132 0 -0.034900103290951355 6.7510054601811458e-05 0 -0.034624437512235019 0.00025672719978949251 0 -0.034803467556201347 1.8892932057234414e-05 0 -0.034900103290951355 6.7510054601811458e-05 0 -0.034788497277771779 0.00025549814773977132 0 -0.034624437512235019 0.00025672719978949251 0 -0.034900103290951355 6.7510054601811458e-05 0 -0.034803467556201347 1.8892932057234414e-05 0 -0.034999494157131605 3.3828824198882689e-08 0 -0.034803467556201347 1.8892932057234414e-05 0 -0.034999494157131605 3.3828824198882689e-08 0 -0.034965736655355385 3.996894933718469e-05 0 -0.034999494157131605 3.3828824198882689e-08 0 -0.034965736655355385 3.996894933718469e-05 0 -0.035000060910130242 7.3115495901028186e-08 0 -0.034624437512235019 0.00025672719978949251 0 -0.034803467556201347 1.8892932057234414e-05 0 -0.034022476375663663 0.00038353021619543317 0 -0.034764107389691191 3.8926055350716577e-05 0 -0.034530310321224285 0.00021557932336098328 0 -0.034803467556201347 1.8892932057234414e-05 0 -0.035014005610742083 3.1339194667774345e-05 0 -0.034965736655355385 3.996894933718469e-05 0 -0.034359265441901037 0.00057906153535322385 0 -0.033970495587884356 0.00080748627624445076 0 -0.034022476375663663 0.00038353021619543317 0 -0.034624437512235019 0.00025672719978949251 0 -0.034359265441901037 0.00057906153535322385 0 -0.034022476375663663 0.00038353021619543317 0 -0.034788497277771779 0.00025549814773977132 0 -0.034624437512235019 0.00025672719978949251 0 -0.034359265441901037 0.00057906153535322385 0 -0.034796986206206068 0.00065051902521407953 0 -0.034788497277771779 0.00025549814773977132 0 -0.034359265441901037 0.00057906153535322385 0 -0.034281620543561618 0.00091636482045544319 0 -0.034117403497106409 0.0010069930626027382 0 -0.034796986206206068 0.00065051902521407953 0 -0.034359265441901037 0.00057906153535322385 0 -0.034080949701457412 0.0010074760375080403 0 -0.034359265441901037 0.00057906153535322385 0 -0.034080949701457412 0.0010074760375080403 0 -0.033970495587884356 0.00080748627624445076 0 -0.033768609651496154 0.000877387250711363 0 -0.033970495587884356 0.00080748627624445076 0 -0.033733907654797383 0.00069869450033074843 0 -0.0350679725240911 0.00015820127984364482 0 -0.035028564500579264 5.1333892144407393e-05 0 -0.035022551447865882 0.00013305394191364994 0 -0.0350679725240911 0.00015820127984364482 0 -0.035014005610742083 3.1339194667774345e-05 0 -0.035028564500579264 5.1333892144407393e-05 0 -0.033970495587884356 0.00080748627624445076 0 -0.033733907654797383 0.00069869450033074843 0 -0.034022476375663663 0.00038353021619543317 0 -0.0343702447997489 0.00044050921058198193 0 -0.034530310321224285 0.00021557932336098328 0 -0.035014005610742083 3.1339194667774345e-05 0 -0.034965736655355385 3.996894933718469e-05 0 -0.035028564500579264 5.1333892144407393e-05 0 -0.034965736655355385 3.996894933718469e-05 0 -0.035000060910130242 7.3115495901028186e-08 0 -0.035028564500579264 5.1333892144407393e-05 0 -0.035000060910130242 7.3115495901028186e-08 0 -0.035028564500579264 5.1333892144407393e-05 0 -0.035000067485445915 2.574476040282945e-08 0 -0.035028564500579264 5.1333892144407393e-05 0 -0.034982881799149088 6.0180499142323912e-05 0 -0.035022551447865882 0.00013305394191364994 0 -0.035028564500579264 5.1333892144407393e-05 0 -0.035000067485445915 2.574476040282945e-08 0 -0.034982881799149088 6.0180499142323912e-05 0 -0.034999783919088326 1.8441667734256702e-09 0 -0.035000067485445915 2.574476040282945e-08 0 -0.034982881799149088 6.0180499142323912e-05 0 -0.034947497391421369 0.00018280743221939 0 -0.034982881799149088 6.0180499142323912e-05 0 -0.035022551447865882 0.00013305394191364994 0 -0.034947497391421369 0.00018280743221939 0 -0.035022551447865882 0.00013305394191364994 0 -0.035020898520756141 0.00024149244840939693 0 -0.0350679725240911 0.00015820127984364482 0 -0.035022551447865882 0.00013305394191364994 0 -0.035020898520756141 0.00024149244840939693 0 -0.035052716980689493 0.00035874752836694056 0 -0.0350679725240911 0.00015820127984364482 0 -0.035020898520756141 0.00024149244840939693 0 -0.03443928810459785 0.00058799358925560805 0 -0.0343702447997489 0.00044050921058198193 0 -0.033562649749793894 0.00086927340982993317 0 -0.033768609651496154 0.000877387250711363 0 -0.033733907654797383 0.00069869450033074843 0 -0.034948700242794006 0.00038922570785778323 0 -0.034947497391421369 0.00018280743221939 0 -0.035020898520756141 0.00024149244840939693 0 -0.034948700242794006 0.00038922570785778323 0 -0.035052716980689493 0.00035874752836694056 0 -0.035020898520756141 0.00024149244840939693 0 -0.031706703877096912 0.0018616107226628994 0 -0.031423041364228799 0.0015738578143181233 0 -0.031801172977950487 0.001534500503942425 0 -0.031706703877096912 0.0018616107226628994 0 -0.031366766494415665 0.0018551619080547921 0 -0.031423041364228799 0.0015738578143181233 0 -0.031706703877096912 0.0018616107226628994 0 -0.032102807163535974 0.001765004521328054 0 -0.031801172977950487 0.001534500503942425 0 -0.031706703877096912 0.0018616107226628994 0 -0.032102807163535974 0.001765004521328054 0 -0.031963244200276332 0.0020263427737078924 0 -0.031706703877096912 0.0018616107226628994 0 -0.031963244200276332 0.0020263427737078924 0 -0.031746935204986865 0.002171505079263474 0 -0.032102807163535974 0.001765004521328054 0 -0.031963244200276332 0.0020263427737078924 0 -0.032257577836708531 0.0020617336888941258 0 -0.031963244200276332 0.0020263427737078924 0 -0.032257577836708531 0.0020617336888941258 0 -0.032005928418158316 0.0022699624416343701 0 -0.031963244200276332 0.0020263427737078924 0 -0.031746935204986865 0.002171505079263474 0 -0.032005928418158316 0.0022699624416343701 0 -0.031706703877096912 0.0018616107226628994 0 -0.031746935204986865 0.002171505079263474 0 -0.031416971371941931 0.0021539756264340381 0 -0.031706703877096912 0.0018616107226628994 0 -0.031366766494415665 0.0018551619080547921 0 -0.031416971371941931 0.0021539756264340381 0 -0.031416971371941931 0.0021539756264340381 0 -0.031164394817103501 0.0020068097021216399 0 -0.031087113332326107 0.0022612783686096691 0 -0.031366766494415665 0.0018551619080547921 0 -0.031416971371941931 0.0021539756264340381 0 -0.031164394817103501 0.0020068097021216399 0 -0.031164394817103501 0.0020068097021216399 0 -0.030912179650368431 0.002032421428368918 0 -0.031072293105445042 0.0017128576986290801 0 -0.030912179650368431 0.002032421428368918 0 -0.031087113332326107 0.0022612783686096691 0 -0.030687789305046929 0.0022325883488088765 0 -0.031164394817103501 0.0020068097021216399 0 -0.030912179650368431 0.002032421428368918 0 -0.031087113332326107 0.0022612783686096691 0 -0.030912179650368431 0.002032421428368918 0 -0.031072293105445042 0.0017128576986290801 0 -0.030699451506179379 0.0018113334814649962 0 -0.031072293105445042 0.0017128576986290801 0 -0.030844500189532553 0.0014760483044818989 0 -0.030699451506179379 0.0018113334814649962 0 -0.031366766494415665 0.0018551619080547921 0 -0.031423041364228799 0.0015738578143181233 0 -0.031072293105445042 0.0017128576986290801 0 -0.031366766494415665 0.0018551619080547921 0 -0.031164394817103501 0.0020068097021216399 0 -0.031072293105445042 0.0017128576986290801 0 -0.031423041364228799 0.0015738578143181233 0 -0.031072293105445042 0.0017128576986290801 0 -0.03111671019311165 0.0013818123017609611 0 -0.031072293105445042 0.0017128576986290801 0 -0.03111671019311165 0.0013818123017609611 0 -0.030844500189532553 0.0014760483044818989 0 -0.03111671019311165 0.0013818123017609611 0 -0.030844500189532553 0.0014760483044818989 0 -0.030891833204195331 0.0012444493113548082 0 -0.030992902975856666 0.0010499301030728624 0 -0.030789307949151794 0.0011079142747170494 0 -0.030891833204195331 0.0012444493113548082 0 -0.030789307949151794 0.0011079142747170494 0 -0.030891833204195331 0.0012444493113548082 0 -0.030636144245918043 0.0012562512992791808 0 -0.030844500189532553 0.0014760483044818989 0 -0.030891833204195331 0.0012444493113548082 0 -0.030636144245918043 0.0012562512992791808 0 -0.030992902975856666 0.0010499301030728624 0 -0.03111671019311165 0.0013818123017609611 0 -0.030891833204195331 0.0012444493113548082 0 -0.030992902975856666 0.0010499301030728624 0 -0.03111671019311165 0.0013818123017609611 0 -0.031437343787359739 0.0011455919689736531 0 -0.031423041364228799 0.0015738578143181233 0 -0.031437343787359739 0.0011455919689736531 0 -0.031801172977950487 0.001534500503942425 0 -0.031423041364228799 0.0015738578143181233 0 -0.03111671019311165 0.0013818123017609611 0 -0.031437343787359739 0.0011455919689736531 0 -0.031437343787359739 0.0011455919689736531 0 -0.031801172977950487 0.001534500503942425 0 -0.032387005027252634 0.0012514346963861331 0 -0.032102807163535974 0.001765004521328054 0 -0.031801172977950487 0.001534500503942425 0 -0.032387005027252634 0.0012514346963861331 0 -0.031613356825383257 0.00090874842640170704 0 -0.031451643747572609 0.0011204228155222923 0 -0.03215363556651344 0.00072296677499407728 0 -0.031437343787359739 0.0011455919689736531 0 -0.032387005027252634 0.0012514346963861331 0 -0.032687886346609102 0.00080568084193242951 0 -0.032387005027252634 0.0012514346963861331 0 -0.032994357587737742 0.0010472319499889491 0 -0.032387005027252634 0.0012514346963861331 0 -0.032994357587737742 0.0010472319499889491 0 -0.032946515409088058 0.0013825494478420944 0 -0.032387005027252634 0.0012514346963861331 0 -0.032946515409088058 0.0013825494478420944 0 -0.032533219016206955 0.0017552410780012032 0 -0.033325265105410562 0.0010067332589640183 0 -0.032994357587737742 0.0010472319499889491 0 -0.033447937774837282 0.0011908457282759038 0 -0.032994357587737742 0.0010472319499889491 0 -0.032946515409088058 0.0013825494478420944 0 -0.033447937774837282 0.0011908457282759038 0 -0.032946515409088058 0.0013825494478420944 0 -0.033447937774837282 0.0011908457282759038 0 -0.033487041681769678 0.0014235547506113023 0 -0.032946515409088058 0.0013825494478420944 0 -0.033487041681769678 0.0014235547506113023 0 -0.032937776801321941 0.0017982376975636692 0 -0.033487041681769678 0.0014235547506113023 0 -0.032937776801321941 0.0017982376975636692 0 -0.033209306846196059 0.0022126694204163554 0 -0.032937776801321941 0.0017982376975636692 0 -0.032617680204554474 0.002218395810455593 0 -0.033209306846196059 0.0022126694204163554 0 -0.033526144297836 0.0014412088053527025 0 -0.033664589170911301 0.0016136891894873383 0 -0.03367072154950447 0.0011497870803826172 0 -0.033487041681769678 0.0014235547506113023 0 -0.034091909578121644 0.0011584981439370255 0 -0.032102807163535974 0.001765004521328054 0 -0.032387005027252634 0.0012514346963861331 0 -0.032533219016206955 0.0017552410780012032 0 -0.032946515409088058 0.0013825494478420944 0 -0.032937776801321941 0.0017982376975636692 0 -0.032533219016206955 0.0017552410780012032 0 -0.032937776801321941 0.0017982376975636692 0 -0.032533219016206955 0.0017552410780012032 0 -0.032617680204554474 0.002218395810455593 0 -0.032257577836708531 0.0020617336888941258 0 -0.032293204985692374 0.0023079509636139074 0 -0.032617680204554474 0.002218395810455593 0 -0.032102807163535974 0.001765004521328054 0 -0.032533219016206955 0.0017552410780012032 0 -0.032257577836708531 0.0020617336888941258 0 -0.032533219016206955 0.0017552410780012032 0 -0.032257577836708531 0.0020617336888941258 0 -0.032617680204554474 0.002218395810455593 0 -0.032257577836708531 0.0020617336888941258 0 -0.032293204985692374 0.0023079509636139074 0 -0.032005928418158316 0.0022699624416343701 0 -0.032293204985692374 0.0023079509636139074 0 -0.03220276158130031 0.0024909049361403171 0 -0.032005928418158316 0.0022699624416343701 0 -0.032293204985692374 0.0023079509636139074 0 -0.03220276158130031 0.0024909049361403171 0 -0.03247869394499682 0.0024474101321871711 0 -0.033474883596671633 0.0017029764319033917 0 -0.033437516164070702 0.0017231240576568066 0 -0.03220276158130031 0.0024909049361403171 0 -0.03247869394499682 0.0024474101321871711 0 -0.032494960311040016 0.0026630027107228788 0 -0.032293204985692374 0.0023079509636139074 0 -0.03247869394499682 0.0024474101321871711 0 -0.032617680204554474 0.002218395810455593 0 -0.032617680204554474 0.002218395810455593 0 -0.032713040539754074 0.0025414253726920408 0 -0.033209306846196059 0.0022126694204163554 0 -0.03247869394499682 0.0024474101321871711 0 -0.032617680204554474 0.002218395810455593 0 -0.032713040539754074 0.0025414253726920408 0 -0.032713040539754074 0.0025414253726920408 0 -0.032494960311040016 0.0026630027107228788 0 -0.032572281396454142 0.0028694734360150652 0 -0.032713040539754074 0.0025414253726920408 0 -0.03296885993509014 0.0027467054566536532 0 -0.032572281396454142 0.0028694734360150652 0 -0.03247869394499682 0.0024474101321871711 0 -0.032713040539754074 0.0025414253726920408 0 -0.032494960311040016 0.0026630027107228788 0 -0.033474883596671633 0.0017029764319033917 0 -0.033913318361932281 0.0013125035992307456 0 -0.032229965370578033 0.0025188045917571606 0 -0.032494960311040016 0.0026630027107228788 0 -0.032577918034515714 0.0028925778122919107 0 -0.033044491527989439 0.0028167084449747166 0 -0.033913318361932281 0.0013125035992307456 0 -0.034962587076549909 4.9894714270513687e-05 0 -0.034969824889536608 3.9021674302537585e-05 0 -0.034966587964251603 3.6124748554168556e-05 0 -0.032229965370578033 0.0025188045917571606 0 -0.03220276158130031 0.0024909049361403171 0 -0.032494960311040016 0.0026630027107228788 0 -0.03367072154950447 0.0011497870803826172 0 -0.034137268861934737 0.00089577526642396256 0 -0.033909573281088567 0.00074188061210058863 0 -0.03367072154950447 0.0011497870803826172 0 -0.034137268861934737 0.00089577526642396256 0 -0.034091909578121644 0.0011584981439370255 0 -0.034137268861934737 0.00089577526642396256 0 -0.034091909578121644 0.0011584981439370255 0 -0.034693188270327711 0.00063824865802992472 0 -0.033664589170911301 0.0016136891894873383 0 -0.033768420644737868 0.0018261801042404526 0 -0.032713040539754074 0.0025414253726920408 0 -0.033209306846196059 0.0022126694204163554 0 -0.03296885993509014 0.0027467054566536532 0 -0.034137268861934737 0.00089577526642396256 0 -0.034693188270327711 0.00063824865802992472 0 -0.034330226517929593 0.00056807166527920289 0 -0.034137268861934737 0.00089577526642396256 0 -0.034330226517929593 0.00056807166527920289 0 -0.033909573281088567 0.00074188061210058863 0 -0.034330226517929593 0.00056807166527920289 0 -0.033909573281088567 0.00074188061210058863 0 -0.034275767380065117 0.00020897694781990217 0 -0.033743453325329596 0.0010724782756978378 0 -0.034463903906062035 0.0003895767635589778 0 -0.034330226517929593 0.00056807166527920289 0 -0.034275767380065117 0.00020897694781990217 0 -0.034597943078909656 0.00031015557743862892 0 -0.034275767380065117 0.00020897694781990217 0 -0.034597943078909656 0.00031015557743862892 0 -0.034814600962336371 3.0285344894094728e-05 0 -0.034693188270327711 0.00063824865802992472 0 -0.034597943078909656 0.00031015557743862892 0 -0.034828162750318796 0.00016013636740505285 0 -0.034693188270327711 0.00063824865802992472 0 -0.034828162750318796 0.00016013636740505285 0 -0.035036999933493101 7.9990451500102711e-05 0 -0.034597943078909656 0.00031015557743862892 0 -0.034828162750318796 0.00016013636740505285 0 -0.034814600962336371 3.0285344894094728e-05 0 -0.034693188270327711 0.00063824865802992472 0 -0.034330226517929593 0.00056807166527920289 0 -0.034597943078909656 0.00031015557743862892 0 -0.034828162750318796 0.00016013636740505285 0 -0.035000052565166737 -2.467100737495544e-07 0 -0.035036999933493101 7.9990451500102711e-05 0 -0.034828162750318796 0.00016013636740505285 0 -0.035000052565166737 -2.467100737495544e-07 0 -0.034814600962336371 3.0285344894094728e-05 0 -0.035000052565166737 -2.467100737495544e-07 0 -0.034814600962336371 3.0285344894094728e-05 0 -0.034999375784236862 2.429897318305147e-07 0 -0.034463903906062035 0.0003895767635589778 0 -0.035000149934555413 -3.5976757450495619e-07 0 -0.035021716963781063 8.3978636686284357e-05 0 -0.035068487123551491 9.9114499319461361e-05 0 -0.03500017333795287 4.365695105410632e-08 0 -0.034761773327817415 3.6010805606280174e-05 0 -0.034814600962336371 3.0285344894094728e-05 0 -0.034999375784236862 2.429897318305147e-07 0 -0.034463903906062035 0.0003895767635589778 0 -0.034782938743175736 2.446337174866032e-05 0 -0.034969824889536608 3.9021674302537585e-05 0 -0.034974621942248721 3.1800364802790136e-05 0 -0.034966587964251603 3.6124748554168556e-05 0 -0.034984331757646134 1.9300982013006023e-05 0 -0.034974621942248721 3.1800364802790136e-05 0 -0.034966587964251603 3.6124748554168556e-05 0 -0.034984331757646134 1.9300982013006023e-05 0 -0.034974621942248721 3.1800364802790136e-05 0 -0.034975592548284182 3.2166439857843125e-05 0 -0.03296885993509014 0.0027467054566536532 0 -0.032572281396454142 0.0028694734360150652 0 -0.032819892162456718 0.0031789081356717137 0 -0.033913318361932281 0.0013125035992307456 0 -0.034244501793576194 0.00096612481882579824 0 -0.033768420644737868 0.0018261801042404526 0 -0.034244501793576194 0.00096612481882579824 0 -0.033913318361932281 0.0013125035992307456 0 -0.035000550756914543 -1.6197923930165506e-06 0 -0.03507472574012592 0.00044274890418080545 0 -0.034913819669079894 0.00015901893102313616 0 -0.035000346189865209 -8.9356956191784919e-08 0 -0.034244501793576194 0.00096612481882579824 0 -0.03499987338337502 -3.4488694030290452e-07 0 -0.034999986931130052 3.7121518542687539e-10 0 -0.034996517256852419 9.9302321798956537e-06 0 -0.03500000762395606 6.5438503393899106e-09 0 -0.034999597131639755 8.3808288804340598e-08 0 -0.034244501793576194 0.00096612481882579824 0 -0.034913819669079894 0.00015901893102313616 0 -0.034999638436107643 1.121215424818569e-07 0 -0.035000346189865209 -8.9356956191784919e-08 0 -0.034984331757646134 1.9300982013006023e-05 0 -0.034999953620707708 1.1027888288937025e-08 0 -0.034999985584320943 1.5279317846612964e-08 0 -0.034984331757646134 1.9300982013006023e-05 0 -0.034966587964251603 3.6124748554168556e-05 0 -0.034999953620707708 1.1027888288937025e-08 0 -0.034999985584320943 1.5279317846612964e-08 0 -0.034986438963678534 1.8793037726305828e-05 0 -0.03499997032050238 1.3126662605431192e-08 0 -0.034984331757646134 1.9300982013006023e-05 0 -0.034999985584320943 1.5279317846612964e-08 0 -0.034986438963678534 1.8793037726305828e-05 0 -0.03499997032050238 1.3126662605431192e-08 0 -0.034977665068931962 3.0231745925740052e-05 0 -0.034994126862442139 1.5000199160949895e-05 0 -0.034986438963678534 1.8793037726305828e-05 0 -0.03499997032050238 1.3126662605431192e-08 0 -0.034977665068931962 3.0231745925740052e-05 0 -0.034986438963678534 1.8793037726305828e-05 0 -0.034977665068931962 3.0231745925740052e-05 0 -0.034972268929629007 3.5600663242130207e-05 0 -0.034977665068931962 3.0231745925740052e-05 0 -0.034972268929629007 3.5600663242130207e-05 0 -0.034943136224919923 4.3726653398663139e-05 0 -0.034939584392114163 1.5819767560384408e-05 0 -0.035004263895628704 0.00017944103861062557 0 -0.034986438963678534 1.8793037726305828e-05 0 -0.034975592548284182 3.2166439857843125e-05 0 -0.034972268929629007 3.5600663242130207e-05 0 -0.034984331757646134 1.9300982013006023e-05 0 -0.034986438963678534 1.8793037726305828e-05 0 -0.034975592548284182 3.2166439857843125e-05 0 -0.034969824889536608 3.9021674302537585e-05 0 -0.034974621942248721 3.1800364802790136e-05 0 -0.034975592548284182 3.2166439857843125e-05 0 -0.034969824889536608 3.9021674302537585e-05 0 -0.034975592548284182 3.2166439857843125e-05 0 -0.034968798621959687 3.828593550864847e-05 0 -0.033474883596671633 0.0017029764319033917 0 -0.03329203852259905 0.0012959624342906773 0 -0.034962587076549909 4.9894714270513687e-05 0 -0.034968798621959687 3.828593550864847e-05 0 -0.034959425050231981 3.2487371526031696e-05 0 -0.034962587076549909 4.9894714270513687e-05 0 -0.034969824889536608 3.9021674302537585e-05 0 -0.034968798621959687 3.828593550864847e-05 0 -0.034975592548284182 3.2166439857843125e-05 0 -0.034968798621959687 3.828593550864847e-05 0 -0.034972268929629007 3.5600663242130207e-05 0 -0.034968798621959687 3.828593550864847e-05 0 -0.034972268929629007 3.5600663242130207e-05 0 -0.034959425050231981 3.2487371526031696e-05 0 -0.034972268929629007 3.5600663242130207e-05 0 -0.034959425050231981 3.2487371526031696e-05 0 -0.034943136224919923 4.3726653398663139e-05 0 -0.031746935204986865 0.002171505079263474 0 -0.031416971371941931 0.0021539756264340381 0 -0.031600781355426356 0.0025772677565997779 0 -0.031416971371941931 0.0021539756264340381 0 -0.031600781355426356 0.0025772677565997779 0 -0.031291614984455797 0.0023942422202948631 0 -0.032226516656779731 0.0025252702169841906 0 -0.03220276158130031 0.0024909049361403171 0 -0.031600781355426356 0.0025772677565997779 0 -0.03220276158130031 0.0024909049361403171 0 -0.031600781355426356 0.0025772677565997779 0 -0.032005928418158316 0.0022699624416343701 0 -0.031746935204986865 0.002171505079263474 0 -0.031600781355426356 0.0025772677565997779 0 -0.032005928418158316 0.0022699624416343701 0 -0.031087113332326107 0.0022612783686096691 0 -0.03106263775983048 0.0025414054143517791 0 -0.030687789305046929 0.0022325883488088765 0 -0.033046348348410359 0.00094724241923606887 0 -0.031652506203772121 0.0014063260505614978 0 -0.03108919968888358 0.0028893524348484918 0 -0.033046348348410359 0.00094724241923606887 0 -0.033068118595700434 0.00061974071338334179 0 -0.032997689001427764 0.00062414284628167836 0 -0.032988028579626766 0.00054209077033075953 0 -0.031600781355426356 0.0025772677565997779 0 -0.031291614984455797 0.0023942422202948631 0 -0.031056945241590805 0.0026077700212184239 0 -0.031416971371941931 0.0021539756264340381 0 -0.031291614984455797 0.0023942422202948631 0 -0.031087113332326107 0.0022612783686096691 0 -0.031291614984455797 0.0023942422202948631 0 -0.031087113332326107 0.0022612783686096691 0 -0.031056945241590805 0.0026077700212184239 0 -0.034959425050231981 3.2487371526031696e-05 0 -0.034943136224919923 4.3726653398663139e-05 0 -0.03490666437952248 3.2098247886931261e-05 0 -0.03329203852259905 0.0012959624342906773 0 -0.033046348348410359 0.00094724241923606887 0 -0.034982482487281995 4.5170136513694449e-05 0 -0.034984401645439596 6.4557672637349626e-05 0 -0.034999865995836439 3.2141780898425556e-05 0 -0.035004263895628704 0.00017944103861062557 0 -0.033046348348410359 0.00094724241923606887 0 -0.033046348348410359 0.00094724241923606887 0 -0.034168502507783916 0.00030895533531722876 0 -0.033193283132102715 0.00066847100537911937 0 -0.03326466799084709 0.0005882439028215197 0 -0.033105351806628248 0.00060767457849891251 0 -0.033046348348410359 0.00094724241923606887 0 -0.033077643565911835 0.00061460355683521793 0 -0.033193283132102715 0.00066847100537911937 0 -0.03326466799084709 0.0005882439028215197 0 -0.033247889221566525 0.000766578612281289 0 -0.033193283132102715 0.00066847100537911937 0 -0.033247889221566525 0.000766578612281289 0 -0.03300930288525971 0.00080667751389349276 0 -0.034977665068931962 3.0231745925740052e-05 0 -0.034982482487281995 4.5170136513694449e-05 0 -0.034994126862442139 1.5000199160949895e-05 0 -0.034982482487281995 4.5170136513694449e-05 0 -0.034999865995836439 3.2141780898425556e-05 0 -0.034994126862442139 1.5000199160949895e-05 0 -0.03499997032050238 1.3126662605431192e-08 0 -0.034994126862442139 1.5000199160949895e-05 0 -0.035000018346819498 1.3369130818306618e-08 0 -0.034999865995836439 3.2141780898425556e-05 0 -0.034994126862442139 1.5000199160949895e-05 0 -0.034998878366947032 1.1764077115143519e-05 0 -0.034994126862442139 1.5000199160949895e-05 0 -0.034998878366947032 1.1764077115143519e-05 0 -0.035000018346819498 1.3369130818306618e-08 0 -0.034168502507783916 0.00030895533531722876 0 -0.034544660058749545 0.00027048876139799087 0 -0.034999865995836439 3.2141780898425556e-05 0 -0.034998878366947032 1.1764077115143519e-05 0 -0.035005708963401563 4.2790739106184745e-06 0 -0.034999440740245392 2.4476900579434425e-07 0 -0.034999996789078613 1.9781181699748637e-09 0 -0.034999993680516456 -6.7094982273562357e-10 0 -0.033247889221566525 0.000766578612281289 0 -0.033234845733535218 0.00094436279607176799 0 -0.03300930288525971 0.00080667751389349276 0 -0.034998878366947032 1.1764077115143519e-05 0 -0.035000018346819498 1.3369130818306618e-08 0 -0.035005708963401563 4.2790739106184745e-06 0 -0.034999999720666433 6.8039156882168978e-11 0 -0.034999371631016282 5.4241238427514395e-07 0 -0.034999998550451827 6.558527920621993e-10 0 -0.034999295816760541 7.1674744378820873e-07 0 -0.034544660058749545 0.00027048876139799087 0 -0.034544660058749545 0.00027048876139799087 0 -0.034998344782412309 3.7668757668577515e-07 0 -0.034999440740245392 2.4476900579434425e-07 0 -0.034999993680516456 -6.7094982273562357e-10 0 -0.034993949374315131 -1.0503741916680987e-06 0 -0.034544660058749545 0.00027048876139799087 0 -0.033855211199962584 0.00042382144230460359 0 -0.034999993680516456 -6.7094982273562357e-10 0 -0.034995827409980571 -9.1351253476493183e-08 0 -0.034993949374315131 -1.0503741916680987e-06 0 -0.034995827409980571 -9.1351253476493183e-08 0 -0.034993949374315131 -1.0503741916680987e-06 0 -0.03498926425792865 -9.6601260845723404e-07 0 -0.034999993680516456 -6.7094982273562357e-10 0 -0.034999985654888092 1.8219511017501411e-09 0 -0.034995827409980571 -9.1351253476493183e-08 0 -0.034999985654888092 1.8219511017501411e-09 0 -0.034995827409980571 -9.1351253476493183e-08 0 -0.03498926425792865 -9.6601260845723404e-07 0 -0.034993949374315131 -1.0503741916680987e-06 0 -0.03498926425792865 -9.6601260845723404e-07 0 -0.034981550435433356 -5.1963933928185952e-06 0 -0.03300930288525971 0.00080667751389349276 0 -0.03283258634905456 0.00067209041746608327 0 -0.032941073229111849 0.00063619720937593219 0 -0.033855211199962584 0.00042382144230460359 0 -0.034349521887420985 0.00016480878379761989 0 -0.033193283132102715 0.00066847100537911937 0 -0.03300930288525971 0.00080667751389349276 0 -0.033105351806628248 0.00060767457849891251 0 -0.034999989704515282 -3.1753431626073195e-08 0 -0.034970376190253685 1.2149121728072338e-05 0 -0.034993843811246289 1.9220090720814113e-05 0 -0.034999980512249868 1.4686561010204262e-08 0 -0.03496196669100337 1.6640031901964289e-05 0 -0.034999883106275068 2.626969783137937e-08 0 -0.034970376190253685 1.2149121728072338e-05 0 -0.034939647899745886 2.3985753001356162e-05 0 -0.034999883106275068 2.626969783137937e-08 0 -0.034999989704515282 -3.1753431626073195e-08 0 -0.034970376190253685 1.2149121728072338e-05 0 -0.03496196669100337 1.6640031901964289e-05 0 -0.034349521887420985 0.00016480878379761989 0 -0.034939647899745886 2.3985753001356162e-05 0 -0.034937244669033356 5.0474371456277932e-05 0 -0.034881964645303479 9.1594907070338252e-05 0 -0.034937244669033356 5.0474371456277932e-05 0 -0.034900258131917439 9.1096247812300624e-05 0 -0.034881964645303479 9.1594907070338252e-05 0 -0.034970376190253685 1.2149121728072338e-05 0 -0.034939647899745886 2.3985753001356162e-05 0 -0.034937244669033356 5.0474371456277932e-05 0 -0.034970376190253685 1.2149121728072338e-05 0 -0.034937244669033356 5.0474371456277932e-05 0 -0.034993843811246289 1.9220090720814113e-05 0 -0.034937244669033356 5.0474371456277932e-05 0 -0.034934495531903233 9.0108716781478327e-05 0 -0.034900258131917439 9.1096247812300624e-05 0 -0.034937244669033356 5.0474371456277932e-05 0 -0.034979422589976987 6.7506930739555767e-05 0 -0.034934495531903233 9.0108716781478327e-05 0 -0.034937244669033356 5.0474371456277932e-05 0 -0.034979422589976987 6.7506930739555767e-05 0 -0.034993843811246289 1.9220090720814113e-05 0 -0.034868954650909133 0.00012031768228303078 0 -0.034774521684397895 4.815855380261345e-05 0 -0.034618072349352942 0.00010752539976318315 0 -0.034934495531903233 9.0108716781478327e-05 0 -0.034868954650909133 0.00012031768228303078 0 -0.035015411462592148 0.0001480359657061532 0 -0.03516173143667322 0.00018686003558179655 0 -0.034007466164970981 7.0669432175084887e-05 0 -0.034979422589976987 6.7506930739555767e-05 0 -0.034934495531903233 9.0108716781478327e-05 0 -0.035015411462592148 0.0001480359657061532 0 -0.034349521887420985 0.00016480878379761989 0 -0.034040423287306491 0.00033972821726879017 0 -0.034882589999653248 0.00012124088055388234 0 -0.03492128011462925 0.00014100899715015921 0 -0.034804107457724075 -7.0993333565155706e-06 0 -0.034868954650909133 0.00012031768228303078 0 -0.034882589999653248 0.00012124088055388234 0 -0.034774521684397895 4.815855380261345e-05 0 -0.034868954650909133 0.00012031768228303078 0 -0.034900258131917439 9.1096247812300624e-05 0 -0.034882589999653248 0.00012124088055388234 0 -0.034934495531903233 9.0108716781478327e-05 0 -0.034868954650909133 0.00012031768228303078 0 -0.034900258131917439 9.1096247812300624e-05 0 -0.034900258131917439 9.1096247812300624e-05 0 -0.034882589999653248 0.00012124088055388234 0 -0.034881964645303479 9.1594907070338252e-05 0 -0.034673059783957579 0.00025954130829571303 0 -0.034349521887420985 0.00016480878379761989 0 -0.034882589999653248 0.00012124088055388234 0 -0.034804107457724075 -7.0993333565155706e-06 0 -0.034774521684397895 4.815855380261345e-05 0 -0.03283258634905456 0.00067209041746608327 0 -0.03279122180051211 0.00053150251196553647 0 -0.032899737756026982 0.00055476833574266931 0 -0.031987714493589066 0.00068632393330272674 0 -0.031376576115861254 0.00012087886150924187 0 -0.034749759458671411 9.7836095657104443e-06 0 -0.034683551717005913 4.4511508421545344e-05 0 -0.034724334492981082 -4.1669976993261253e-05 0 -0.034804107457724075 -7.0993333565155706e-06 0 -0.034749759458671411 9.7836095657104443e-06 0 -0.034724334492981082 -4.1669976993261253e-05 0 -0.034804107457724075 -7.0993333565155706e-06 0 -0.034774521684397895 4.815855380261345e-05 0 -0.034749759458671411 9.7836095657104443e-06 0 -0.034774521684397895 4.815855380261345e-05 0 -0.034648159828421905 3.334503358855176e-05 0 -0.034618072349352942 0.00010752539976318315 0 -0.035129377177873414 0.00040924761629578335 0 -0.031987714493589066 0.00068632393330272674 0 -0.034774521684397895 4.815855380261345e-05 0 -0.034749759458671411 9.7836095657104443e-06 0 -0.034683551717005913 4.4511508421545344e-05 0 -0.032997689001427764 0.00062414284628167836 0 -0.032941073229111849 0.00063619720937593219 0 -0.032958119614651046 0.00059121864448818061 0 -0.033077643565911835 0.00061460355683521793 0 -0.032945878898523753 0.000632890383865909 0 -0.03300930288525971 0.00080667751389349276 0 -0.033105351806628248 0.00060767457849891251 0 -0.032941073229111849 0.00063619720937593219 0 -0.03283258634905456 0.00067209041746608327 0 -0.032941073229111849 0.00063619720937593219 0 -0.032899737756026982 0.00055476833574266931 0 -0.032941073229111849 0.00063619720937593219 0 -0.032899737756026982 0.00055476833574266931 0 -0.032958119614651046 0.00059121864448818061 0 -0.032899737756026982 0.00055476833574266931 0 -0.032988028579626766 0.00054209077033075953 0 -0.032958119614651046 0.00059121864448818061 0 -0.032997689001427764 0.00062414284628167836 0 -0.032988028579626766 0.00054209077033075953 0 -0.032958119614651046 0.00059121864448818061 0 -0.031652506203772121 0.0014063260505614978 0 -0.031934686012593375 0.0012363340910599055 0 -0.030687789305046929 0.0022325883488088765 0 -0.030699451506179379 0.0018113334814649962 0 -0.030357735461566296 0.0019193193504341746 0 -0.030912179650368431 0.002032421428368918 0 -0.030687789305046929 0.0022325883488088765 0 -0.030699451506179379 0.0018113334814649962 0 -0.030699451506179379 0.0018113334814649962 0 -0.030332778629755721 0.00162694924299127 0 -0.030555758024420031 0.0014944058181949878 0 -0.030332778629755721 0.00162694924299127 0 -0.030357735461566296 0.0019193193504341746 0 -0.030048708867885694 0.0016380698745223964 0 -0.030699451506179379 0.0018113334814649962 0 -0.030332778629755721 0.00162694924299127 0 -0.030357735461566296 0.0019193193504341746 0 -0.03279122180051211 0.00053150251196553647 0 -0.032899737756026982 0.00055476833574266931 0 -0.03287908545557456 0.0004436653144808927 0 -0.032899737756026982 0.00055476833574266931 0 -0.032988028579626766 0.00054209077033075953 0 -0.03287908545557456 0.0004436653144808927 0 -0.034040423287306491 0.00033972821726879017 0 -0.031288792318874888 0.00018686693810396086 0 -0.03279122180051211 0.00053150251196553647 0 -0.03287908545557456 0.0004436653144808927 0 -0.032726371331848116 0.00038105608015569502 0 -0.031376576115861254 0.00012087886150924187 0 -0.031288792318874888 0.00018686693810396086 0 -0.034804107457724075 -7.0993333565155706e-06 0 -0.034724334492981082 -4.1669976993261253e-05 0 -0.034713531909965269 -0.00010263517719778198 0 -0.02803861156157195 0.00038270111469733984 0 -0.02783719825929681 -0.00036194953505684966 0 -0.02829051652834199 -0.00020412781783022476 0 -0.02803861156157195 0.00038270111469733984 0 -0.02783719825929681 -0.00036194953505684966 0 -0.027382750774120706 -0.0001598784926754074 0 -0.02783719825929681 -0.00036194953505684966 0 -0.02829051652834199 -0.00020412781783022476 0 -0.028209392900770149 -0.00057604632628713889 0 -0.031288792318874888 0.00018686693810396086 0 -0.027126072140355308 0.00033547024537768235 0 -0.031934686012593375 0.0012363340910599055 0 -0.029555334311969925 0.0012932408018413613 0 -0.03287908545557456 0.0004436653144808927 0 -0.032726371331848116 0.00038105608015569502 0 -0.032737677143815751 0.00034120757879533946 0 -0.029337517117189581 0.00076910462208740671 0 -0.02939265540053557 0.00063187092575626763 0 -0.02927872475861696 0.00053820153491941202 0 -0.031288792318874888 0.00018686693810396086 0 -0.029555334311969925 0.0012932408018413613 0 -0.029555334311969925 0.0012932408018413613 0 -0.02807857268033493 0.0010572710691996541 0 -0.025732656605676186 0.0010151248575399224 0 -0.025681142339140841 0.00088730350907546731 0 -0.025832738856413514 0.00087410074806350789 0 -0.025780093648743542 0.001048962081722493 0 -0.025732656605676186 0.0010151248575399224 0 -0.025832738856413514 0.00087410074806350789 0 -0.030332778629755721 0.00162694924299127 0 -0.030048708867885694 0.0016380698745223964 0 -0.030219925136583569 0.0012845166127956184 0 -0.029555334311969925 0.0012932408018413613 0 -0.027126072140355308 0.00033547024537768235 0 -0.027126072140355308 0.00033547024537768235 0 -0.025054704000661756 0.00079589083340553355 0 -0.024556808005228855 0.0011611103808487385 0 -0.024284190001339492 0.00086405585053629251 0 -0.024405925148238861 0.00051821538186727395 0 -0.02783719825929681 -0.00036194953505684966 0 -0.028209392900770149 -0.00057604632628713889 0 -0.027653330175355324 -0.0010373921613334174 0 -0.024556808005228855 0.0011611103808487385 0 -0.024284190001339492 0.00086405585053629251 0 -0.02392616117045274 0.00062501893240067162 0 -0.027126072140355308 0.00033547024537768235 0 -0.025858129124250576 -0.00020266337705243298 0 -0.024284190001339492 0.00086405585053629251 0 -0.02392616117045274 0.00062501893240067162 0 -0.023958465036880629 -8.1676839648641355e-05 0 -0.024284190001339492 0.00086405585053629251 0 -0.024405925148238861 0.00051821538186727395 0 -0.023942774306865918 -3.5199779685579337e-05 0 -0.025054704000661756 0.00079589083340553355 0 -0.022121019083387952 0.00064702242904156456 0 -0.024759614063021265 0.00078414145789604554 0 -0.021648178860485961 0.0003646489156662044 0 -0.024405925148238861 0.00051821538186727395 0 -0.024257214104225277 -0.00011195002468922055 0 -0.023942774306865918 -3.5199779685579337e-05 0 -0.025681142339140841 0.00088730350907546731 0 -0.025728703237921979 0.00080996668132187844 0 -0.025626314216762768 0.00075114988141518021 0 -0.025728703237921979 0.00080996668132187844 0 -0.025832738856413514 0.00087410074806350789 0 -0.025770523429340584 0.00072237688639831916 0 -0.025681142339140841 0.00088730350907546731 0 -0.025728703237921979 0.00080996668132187844 0 -0.025832738856413514 0.00087410074806350789 0 -0.030219925136583569 0.0012845166127956184 0 -0.030636144245918043 0.0012562512992791808 0 -0.030486899512992143 0.0010950093336881963 0 -0.030219925136583569 0.0012845166127956184 0 -0.030636144245918043 0.0012562512992791808 0 -0.030555758024420031 0.0014944058181949878 0 -0.030636144245918043 0.0012562512992791808 0 -0.030486899512992143 0.0010950093336881963 0 -0.030641057267176905 0.0010936719634015027 0 -0.030789307949151794 0.0011079142747170494 0 -0.030636144245918043 0.0012562512992791808 0 -0.030641057267176905 0.0010936719634015027 0 -0.030844500189532553 0.0014760483044818989 0 -0.030699451506179379 0.0018113334814649962 0 -0.030555758024420031 0.0014944058181949878 0 -0.030844500189532553 0.0014760483044818989 0 -0.030636144245918043 0.0012562512992791808 0 -0.030555758024420031 0.0014944058181949878 0 -0.030332778629755721 0.00162694924299127 0 -0.030219925136583569 0.0012845166127956184 0 -0.030555758024420031 0.0014944058181949878 0 -0.026119661863978579 -0.00039388306501873143 0 -0.025780892875032334 -0.00077196184865268593 0 -0.026244121956789206 -0.0009566104380896288 0 -0.026237310845394997 -0.00055135784560860759 0 -0.026443741991630521 -0.0013006651562772252 0 -0.026754366024211593 -0.0010016849265183018 0 -0.026438280764341779 -0.00045523455655792561 0 -0.023598105417562708 -0.0016326060664734385 0 -0.026119661863978579 -0.00039388306501873143 0 -0.025628835516038017 -0.00040794161646460033 0 -0.025780892875032334 -0.00077196184865268593 0 -0.017875385708228751 -0.0021018008761944196 0 -0.01822048623175444 -0.0025980709569762097 0 -0.016877269249536943 -0.0028419087567534388 0 -0.014875846610386663 -0.0024608069260170979 0 -0.016063969633451441 -0.0021172133273570275 0 -0.017875385708228751 -0.0021018008761944196 0 -0.01822048623175444 -0.0025980709569762097 0 -0.018820918222032815 -0.002514824366218354 0 -0.01822048623175444 -0.0025980709569762097 0 -0.016877269249536943 -0.0028419087567534388 0 -0.018266336522506206 -0.0032246355039494872 0 -0.018496705585527112 -0.0022462118382834025 0 -0.016063969633451441 -0.0021172133273570275 0 -0.01822048623175444 -0.0025980709569762097 0 -0.018820918222032815 -0.002514824366218354 0 -0.018266336522506206 -0.0032246355039494872 0 -0.021682680187345142 -0.0014100212749496974 0 -0.023598105417562708 -0.0016326060664734385 0 -0.018820918222032815 -0.002514824366218354 0 -0.01910309965261368 -0.0025645000706305209 0 -0.018314336914740929 -0.0031074311523847037 0 -0.017875385708228751 -0.0021018008761944196 0 -0.018820918222032815 -0.002514824366218354 0 -0.01910309965261368 -0.0025645000706305209 0 -0.026443741991630521 -0.0013006651562772252 0 -0.026984064799992123 -0.0014603367354404926 0 -0.02702206709302336 -0.0015308228230619648 0 -0.026443741991630521 -0.0013006651562772252 0 -0.026984064799992123 -0.0014603367354404926 0 -0.026754366024211593 -0.0010016849265183018 0 -0.023598105417562708 -0.0016326060664734385 0 -0.021932936308254887 -0.00070379140834125095 0 -0.027088106795885785 -0.0014881369661578576 0 -0.026984064799992123 -0.0014603367354404926 0 -0.027159063307713602 -0.0010842570325782816 0 -0.023724423508182536 -0.00033478868678418967 0 -0.021932936308254887 -0.00070379140834125095 0 -0.027065491567091319 -0.0014840037527940574 0 -0.026984064799992123 -0.0014603367354404926 0 -0.02702206709302336 -0.0015308228230619648 0 -0.023724423508182536 -0.00033478868678418967 0 -0.024723101823582887 -0.00061031581117197773 0 -0.026984064799992123 -0.0014603367354404926 0 -0.026754366024211593 -0.0010016849265183018 0 -0.027159063307713602 -0.0010842570325782816 0 -0.023304433103035135 7.817206492800592e-05 0 -0.02392616117045274 0.00062501893240067162 0 -0.023958465036880629 -8.1676839648641355e-05 0 -0.027088106795885785 -0.0014881369661578576 0 -0.027159063307713602 -0.0010842570325782816 0 -0.027653330175355324 -0.0010373921613334174 0 -0.023724423508182536 -0.00033478868678418967 0 -0.025858129124250576 -0.00020266337705243298 0 -0.02783719825929681 -0.00036194953505684966 0 -0.027653330175355324 -0.0010373921613334174 0 -0.027394614955041172 -0.00064935784009817791 0 -0.027159063307713602 -0.0010842570325782816 0 -0.027394614955041172 -0.00064935784009817791 0 -0.026945266009322393 -0.00060504741075509524 0 -0.027159063307713602 -0.0010842570325782816 0 -0.027653330175355324 -0.0010373921613334174 0 -0.027394614955041172 -0.00064935784009817791 0 -0.026237310845394997 -0.00055135784560860759 0 -0.026754366024211593 -0.0010016849265183018 0 -0.026945266009322393 -0.00060504741075509524 0 -0.026754366024211593 -0.0010016849265183018 0 -0.027159063307713602 -0.0010842570325782816 0 -0.026945266009322393 -0.00060504741075509524 0 -0.026945266009322393 -0.00060504741075509524 0 -0.026735357194155498 -3.8204560175203318e-05 0 -0.027382750774120706 -0.0001598784926754074 0 -0.02783719825929681 -0.00036194953505684966 0 -0.027394614955041172 -0.00064935784009817791 0 -0.027382750774120706 -0.0001598784926754074 0 -0.027394614955041172 -0.00064935784009817791 0 -0.026945266009322393 -0.00060504741075509524 0 -0.027382750774120706 -0.0001598784926754074 0 -0.02803861156157195 0.00038270111469733984 0 -0.027382750774120706 -0.0001598784926754074 0 -0.027285011452085998 0.00040981790365574234 0 -0.026735357194155498 -3.8204560175203318e-05 0 -0.027382750774120706 -0.0001598784926754074 0 -0.027285011452085998 0.00040981790365574234 0 -0.027285011452085998 0.00040981790365574234 0 -0.026479528654596771 0.00047014292599295359 0 -0.026865026579850574 0.00085245768897011928 0 -0.026735357194155498 -3.8204560175203318e-05 0 -0.027285011452085998 0.00040981790365574234 0 -0.026479528654596771 0.00047014292599295359 0 -0.026735357194155498 -3.8204560175203318e-05 0 -0.026479528654596771 0.00047014292599295359 0 -0.026016719234368491 0.000216871906156375 0 -0.026479528654596771 0.00047014292599295359 0 -0.026016719234368491 0.000216871906156375 0 -0.025982754955892872 0.00069236454095068984 0 -0.026237310845394997 -0.00055135784560860759 0 -0.026945266009322393 -0.00060504741075509524 0 -0.026735357194155498 -3.8204560175203318e-05 0 -0.026438280764341779 -0.00045523455655792561 0 -0.025967849339907912 0.00018518522022625337 0 -0.026237310845394997 -0.00055135784560860759 0 -0.026735357194155498 -3.8204560175203318e-05 0 -0.026016719234368491 0.000216871906156375 0 -0.026119661863978579 -0.00039388306501873143 0 -0.025796598251220656 -9.2617491461866549e-05 0 -0.026016719234368491 0.000216871906156375 0 -0.026119661863978579 -0.00039388306501873143 0 -0.025628835516038017 -0.00040794161646460033 0 -0.025796598251220656 -9.2617491461866549e-05 0 -0.025628835516038017 -0.00040794161646460033 0 -0.025796598251220656 -9.2617491461866549e-05 0 -0.025504156859123207 -7.0091865429204201e-05 0 -0.025796598251220656 -9.2617491461866549e-05 0 -0.025723805516625491 0.00021965761476987986 0 -0.025504156859123207 -7.0091865429204201e-05 0 -0.025796598251220656 -9.2617491461866549e-05 0 -0.025723805516625491 0.00021965761476987986 0 -0.026016719234368491 0.000216871906156375 0 -0.025723805516625491 0.00021965761476987986 0 -0.025982754955892872 0.00069236454095068984 0 -0.025634209833476137 0.00041273434713624894 0 -0.025723805516625491 0.00021965761476987986 0 -0.026016719234368491 0.000216871906156375 0 -0.025982754955892872 0.00069236454095068984 0 -0.029186650888558645 0.00015439451526826631 0 -0.029984085653907963 -0.00011501354951503198 0 -0.034477202803870295 -0.00084110160889655299 0 -0.03474956201357584 -0.0004652946388788939 0 -0.034371235486015062 -0.00046008823276217395 0 -0.034477202803870295 -0.00084110160889655299 0 -0.034371235486015062 -0.00046008823276217395 0 -0.034016234296653326 -0.00094307962238783234 0 -0.034477202803870295 -0.00084110160889655299 0 -0.03474956201357584 -0.0004652946388788939 0 -0.034959748902774868 -0.00061029239621772445 0 -0.026479528654596771 0.00047014292599295359 0 -0.025982754955892872 0.00069236454095068984 0 -0.026865026579850574 0.00085245768897011928 0 -0.029251202153925019 -0.00016694687851692759 0 -0.030928864940495581 0.00034213831815213492 0 -0.031035922702591145 0.00010050321097164145 0 -0.029186650888558645 0.00015439451526826631 0 -0.033455345947907979 -0.00013031987087141486 0 -0.029186650888558645 0.00015439451526826631 0 -0.02827116522195822 0.00044301358063336883 0 -0.03474956201357584 -0.0004652946388788939 0 -0.034959415468236756 -0.00021751264006163618 0 -0.034727083476472888 -0.00020752745487436441 0 -0.03474956201357584 -0.0004652946388788939 0 -0.034371235486015062 -0.00046008823276217395 0 -0.034727083476472888 -0.00020752745487436441 0 -0.0277887215596332 0.00098039375325573988 0 -0.02803861156157195 0.00038270111469733984 0 -0.027285011452085998 0.00040981790365574234 0 -0.0277887215596332 0.00098039375325573988 0 -0.027285011452085998 0.00040981790365574234 0 -0.026865026579850574 0.00085245768897011928 0 -0.033455345947907979 -0.00013031987087141486 0 -0.034007466164970981 7.0669432175084887e-05 0 -0.032830756336449329 0.00035904576234543727 0 -0.031035922702591145 0.00010050321097164145 0 -0.032615228734174662 0.00084276353363934046 0 -0.031987714493589066 0.00068632393330272674 0 -0.02827116522195822 0.00044301358063336883 0 -0.031987714493589066 0.00068632393330272674 0 -0.034007466164970981 7.0669432175084887e-05 0 -0.030928864940495581 0.00034213831815213492 0 -0.031035922702591145 0.00010050321097164145 0 -0.032615228734174662 0.00084276353363934046 0 -0.035071988532766066 -0.00039301040292478832 0 -0.03520228564541495 -0.00023660741766648669 0 -0.034959415468236756 -0.00021751264006163618 0 -0.03474956201357584 -0.0004652946388788939 0 -0.034959748902774868 -0.00061029239621772445 0 -0.035071988532766066 -0.00039301040292478832 0 -0.034959748902774868 -0.00061029239621772445 0 -0.035071988532766066 -0.00039301040292478832 0 -0.035311035757889998 -0.00045487970284442404 0 -0.03474956201357584 -0.0004652946388788939 0 -0.035071988532766066 -0.00039301040292478832 0 -0.034959415468236756 -0.00021751264006163618 0 -0.035071988532766066 -0.00039301040292478832 0 -0.035311035757889998 -0.00045487970284442404 0 -0.03520228564541495 -0.00023660741766648669 0 -0.034007466164970981 7.0669432175084887e-05 0 -0.035144288510387457 -0.00019873614853957404 0 -0.034979422589976987 6.7506930739555767e-05 0 -0.035015411462592148 0.0001480359657061532 0 -0.035038375025663759 5.9208986735526227e-05 0 -0.034993843811246289 1.9220090720814113e-05 0 -0.035038375025663759 5.9208986735526227e-05 0 -0.035048962921281242 -1.5503459872618498e-05 0 -0.034979422589976987 6.7506930739555767e-05 0 -0.034993843811246289 1.9220090720814113e-05 0 -0.035038375025663759 5.9208986735526227e-05 0 -0.035144288510387457 -0.00019873614853957404 0 -0.035051234736504247 7.4902766170619658e-06 0 -0.03520228564541495 -0.00023660741766648669 0 -0.034959415468236756 -0.00021751264006163618 0 -0.035048962921281242 -1.5503459872618498e-05 0 -0.034959415468236756 -0.00021751264006163618 0 -0.035048962921281242 -1.5503459872618498e-05 0 -0.034911766368477259 -8.645378019748433e-05 0 -0.035000064320995422 3.9128168932670081e-08 0 -0.035048962921281242 -1.5503459872618498e-05 0 -0.034957638291775867 5.9005376133901447e-06 0 -0.035048962921281242 -1.5503459872618498e-05 0 -0.034911766368477259 -8.645378019748433e-05 0 -0.034957638291775867 5.9005376133901447e-06 0 -0.034999989704515282 -3.1753431626073195e-08 0 -0.035000064320995422 3.9128168932670081e-08 0 -0.035048962921281242 -1.5503459872618498e-05 0 -0.034999989704515282 -3.1753431626073195e-08 0 -0.034993843811246289 1.9220090720814113e-05 0 -0.035048962921281242 -1.5503459872618498e-05 0 -0.034871091958385524 7.4493680104131488e-06 0 -0.034647437609966761 -8.4504292165541363e-06 0 -0.034371235486015062 -0.00046008823276217395 0 -0.034727083476472888 -0.00020752745487436441 0 -0.034273424948770358 -6.2115038810583244e-05 0 -0.034727083476472888 -0.00020752745487436441 0 -0.034909170766741944 2.3124575124593712e-05 0 -0.034273424948770358 -6.2115038810583244e-05 0 -0.034959415468236756 -0.00021751264006163618 0 -0.034727083476472888 -0.00020752745487436441 0 -0.034911766368477259 -8.645378019748433e-05 0 -0.034727083476472888 -0.00020752745487436441 0 -0.034911766368477259 -8.645378019748433e-05 0 -0.034909170766741944 2.3124575124593712e-05 0 -0.035000064320995422 3.9128168932670081e-08 0 -0.034957638291775867 5.9005376133901447e-06 0 -0.034999776308155262 -2.1646534003801125e-08 0 -0.034911766368477259 -8.645378019748433e-05 0 -0.034909170766741944 2.3124575124593712e-05 0 -0.034957638291775867 5.9005376133901447e-06 0 -0.034909170766741944 2.3124575124593712e-05 0 -0.034957638291775867 5.9005376133901447e-06 0 -0.034999776308155262 -2.1646534003801125e-08 0 -0.034999776308155262 -2.1646534003801125e-08 0 -0.035000174460497899 -4.3820986148363844e-08 0 -0.035036859395991597 -2.9163280593939212e-05 0 -0.034909170766741944 2.3124575124593712e-05 0 -0.034999776308155262 -2.1646534003801125e-08 0 -0.035036859395991597 -2.9163280593939212e-05 0 -0.035000174460497899 -4.3820986148363844e-08 0 -0.035036859395991597 -2.9163280593939212e-05 0 -0.035023107257354746 -5.7393359540454901e-05 0 -0.035036859395991597 -2.9163280593939212e-05 0 -0.035023107257354746 -5.7393359540454901e-05 0 -0.035041964807050359 -0.00024369059907415022 0 -0.034273424948770358 -6.2115038810583244e-05 0 -0.034039601593051617 -0.00036154533111344147 0 -0.033660897969076946 -0.0003005742249320101 0 -0.034647437609966761 -8.4504292165541363e-06 0 -0.034436221866491146 -0.00069116603279761272 0 -0.034982125811743439 -0.00010645391970686654 0 -0.034925644728345376 -0.0001946395814602949 0 -0.035041964807050359 -0.00024369059907415022 0 -0.035023107257354746 -5.7393359540454901e-05 0 -0.034982125811743439 -0.00010645391970686654 0 -0.035041964807050359 -0.00024369059907415022 0 -0.035023107257354746 -5.7393359540454901e-05 0 -0.034982125811743439 -0.00010645391970686654 0 -0.034987539286252173 -2.0852062014347172e-05 0 -0.034982125811743439 -0.00010645391970686654 0 -0.034987539286252173 -2.0852062014347172e-05 0 -0.034933678291302568 -2.2111376512718632e-05 0 -0.035000174460497899 -4.3820986148363844e-08 0 -0.035023107257354746 -5.7393359540454901e-05 0 -0.034987539286252173 -2.0852062014347172e-05 0 -0.035000174460497899 -4.3820986148363844e-08 0 -0.034987539286252173 -2.0852062014347172e-05 0 -0.0349996740934704 8.035614178309099e-08 0 -0.0349996740934704 8.035614178309099e-08 0 -0.034888192017890111 3.1017140432458188e-05 0 -0.034933678291302568 -2.2111376512718632e-05 0 -0.034987539286252173 -2.0852062014347172e-05 0 -0.0349996740934704 8.035614178309099e-08 0 -0.034933678291302568 -2.2111376512718632e-05 0 -0.034888192017890111 3.1017140432458188e-05 0 -0.03494110985795227 2.8202633278519782e-05 0 -0.034964277504489376 -2.4766264122402448e-08 0 -0.0349996740934704 8.035614178309099e-08 0 -0.034888192017890111 3.1017140432458188e-05 0 -0.034964277504489376 -2.4766264122402448e-08 0 -0.034823359059504851 3.4374617207776017e-05 0 -0.034495076403989466 -7.6684783598788382e-05 0 -0.034888192017890111 3.1017140432458188e-05 0 -0.034085168315500521 -0.00014939167219972451 0 -0.034623841715226887 -0.0001868695511433089 0 -0.034888192017890111 3.1017140432458188e-05 0 -0.03494110985795227 2.8202633278519782e-05 0 -0.034939103215658053 5.1048285140905824e-05 0 -0.034085168315500521 -0.00014939167219972451 0 -0.034623841715226887 -0.0001868695511433089 0 -0.034435556402843938 -0.00038693173343858235 0 -0.034888192017890111 3.1017140432458188e-05 0 -0.034933678291302568 -2.2111376512718632e-05 0 -0.034863793712151557 -0.0001196296461353131 0 -0.034982125811743439 -0.00010645391970686654 0 -0.034933678291302568 -2.2111376512718632e-05 0 -0.034863793712151557 -0.0001196296461353131 0 -0.034888192017890111 3.1017140432458188e-05 0 -0.034863793712151557 -0.0001196296461353131 0 -0.034623841715226887 -0.0001868695511433089 0 -0.034863793712151557 -0.0001196296461353131 0 -0.034623841715226887 -0.0001868695511433089 0 -0.03477999784962725 -0.00031940993604726817 0 -0.034623841715226887 -0.0001868695511433089 0 -0.03477999784962725 -0.00031940993604726817 0 -0.034435556402843938 -0.00038693173343858235 0 -0.034982125811743439 -0.00010645391970686654 0 -0.034863793712151557 -0.0001196296461353131 0 -0.034925644728345376 -0.0001946395814602949 0 -0.034863793712151557 -0.0001196296461353131 0 -0.034925644728345376 -0.0001946395814602949 0 -0.03477999784962725 -0.00031940993604726817 0 -0.033968915578230348 -0.00096664967924895058 0 -0.034436221866491146 -0.00069116603279761272 0 -0.03345077500141462 -0.0012186884913080258 0 -0.033376524571374133 -0.0011909646414178629 0 -0.033350787725311692 -0.0012608534343278336 0 -0.03477999784962725 -0.00031940993604726817 0 -0.034646633920086191 -0.00069345843474958408 0 -0.035041964807050359 -0.00024369059907415022 0 -0.034925644728345376 -0.0001946395814602949 0 -0.03477999784962725 -0.00031940993604726817 0 -0.035041964807050359 -0.00024369059907415022 0 -0.03477999784962725 -0.00031940993604726817 0 -0.034646633920086191 -0.00069345843474958408 0 -0.034435556402843938 -0.00038693173343858235 0 -0.034646633920086191 -0.00069345843474958408 0 -0.034435556402843938 -0.00038693173343858235 0 -0.033880377611351861 -0.00063963485462518706 0 -0.034646633920086191 -0.00069345843474958408 0 -0.033880377611351861 -0.00063963485462518706 0 -0.033587673105735565 -0.0011180270258109128 0 -0.034085168315500521 -0.00014939167219972451 0 -0.034435556402843938 -0.00038693173343858235 0 -0.033880377611351861 -0.00063963485462518706 0 -0.03345077500141462 -0.0012186884913080258 0 -0.033496317285090692 -0.0011387280065521307 0 -0.033587673105735565 -0.0011180270258109128 0 -0.033968915578230348 -0.00096664967924895058 0 -0.033652188480980547 -0.0011047990610077616 0 -0.03345077500141462 -0.0012186884913080258 0 -0.033496317285090692 -0.0011387280065521307 0 -0.033453866414707802 -0.0011426232194490734 0 -0.033496317285090692 -0.0011387280065521307 0 -0.033472602540846531 -0.0011390337003198791 0 -0.033453866414707802 -0.0011426232194490734 0 -0.033496317285090692 -0.0011387280065521307 0 -0.033472602540846531 -0.0011390337003198791 0 -0.033466046176273398 -0.0011703321253596329 0 -0.033496317285090692 -0.0011387280065521307 0 -0.033587673105735565 -0.0011180270258109128 0 -0.033489120363588136 -0.0011570193444143707 0 -0.03345077500141462 -0.0012186884913080258 0 -0.033414578080305408 -0.0011739185260787007 0 -0.033376524571374133 -0.0011909646414178629 0 -0.033414578080305408 -0.0011739185260787007 0 -0.033386008357163828 -0.0011532797792542502 0 -0.033376524571374133 -0.0011909646414178629 0 -0.03345077500141462 -0.0012186884913080258 0 -0.033414578080305408 -0.0011739185260787007 0 -0.033453866414707802 -0.0011426232194490734 0 -0.033414578080305408 -0.0011739185260787007 0 -0.033453866414707802 -0.0011426232194490734 0 -0.033404422487222661 -0.0011235135889149468 0 -0.033472602540846531 -0.0011390337003198791 0 -0.033453866414707802 -0.0011426232194490734 0 -0.033457674672773038 -0.001118432421795944 0 -0.033453866414707802 -0.0011426232194490734 0 -0.033404422487222661 -0.0011235135889149468 0 -0.033457674672773038 -0.001118432421795944 0 -0.033386008357163828 -0.0011532797792542502 0 -0.033346923482789136 -0.0011160310230648293 0 -0.033404422487222661 -0.0011235135889149468 0 -0.033414578080305408 -0.0011739185260787007 0 -0.033386008357163828 -0.0011532797792542502 0 -0.033404422487222661 -0.0011235135889149468 0 -0.033376524571374133 -0.0011909646414178629 0 -0.033350787725311692 -0.0012608534343278336 0 -0.033346923482789136 -0.0011160310230648293 0 -0.033733428456791933 -0.00063903382887274475 0 -0.033660897969076946 -0.0003005742249320101 0 -0.033522418974857783 -0.0010238018612979741 0 -0.033758514783608744 -0.00083550520121699289 0 -0.034016234296653326 -0.00094307962238783234 0 -0.033522418974857783 -0.0010238018612979741 0 -0.033386008357163828 -0.0011532797792542502 0 -0.033376524571374133 -0.0011909646414178629 0 -0.033346923482789136 -0.0011160310230648293 0 -0.029984085653907963 -0.00011501354951503198 0 -0.029458384057006948 -0.0005995263512357709 0 -0.033733428456791933 -0.00063903382887274475 0 -0.033758514783608744 -0.00083550520121699289 0 -0.033522418974857783 -0.0010238018612979741 0 -0.034436221866491146 -0.00069116603279761272 0 -0.029458384057006948 -0.0005995263512357709 0 -0.033733428456791933 -0.00063903382887274475 0 -0.033758514783608744 -0.00083550520121699289 0 -0.033925293930616461 -0.00059534169422580737 0 -0.026669819021539663 0.00074691484248593865 0 -0.025533974639798222 0.00066947994758962846 0 -0.025392631983067768 0.00049384355303626229 0 -0.029186650888558645 0.00015439451526826631 0 -0.024409543466252698 0.00043042611853652676 0 -0.034371235486015062 -0.00046008823276217395 0 -0.034016234296653326 -0.00094307962238783234 0 -0.033925293930616461 -0.00059534169422580737 0 -0.033758514783608744 -0.00083550520121699289 0 -0.034016234296653326 -0.00094307962238783234 0 -0.033925293930616461 -0.00059534169422580737 0 -0.034371235486015062 -0.00046008823276217395 0 -0.034273424948770358 -6.2115038810583244e-05 0 -0.034039601593051617 -0.00036154533111344147 0 -0.034371235486015062 -0.00046008823276217395 0 -0.033925293930616461 -0.00059534169422580737 0 -0.034039601593051617 -0.00036154533111344147 0 -0.033925293930616461 -0.00059534169422580737 0 -0.034039601593051617 -0.00036154533111344147 0 -0.03379667119796137 -0.00044059206571350957 0 -0.034039601593051617 -0.00036154533111344147 0 -0.033660897969076946 -0.0003005742249320101 0 -0.03379667119796137 -0.00044059206571350957 0 -0.033733428456791933 -0.00063903382887274475 0 -0.033660897969076946 -0.0003005742249320101 0 -0.03379667119796137 -0.00044059206571350957 0 -0.033733428456791933 -0.00063903382887274475 0 -0.033925293930616461 -0.00059534169422580737 0 -0.03379667119796137 -0.00044059206571350957 0 -0.034925819923498649 1.5686192751800512e-05 0 -0.034837197210388249 -0.00010255231572522792 0 -0.034737716587581687 9.073497676987004e-05 0 -0.034925819923498649 1.5686192751800512e-05 0 -0.034983464704256673 -0.00011223236609151335 0 -0.034837197210388249 -0.00010255231572522792 0 -0.034925819923498649 1.5686192751800512e-05 0 -0.034999855362296134 1.1163929642703054e-07 0 -0.034737716587581687 9.073497676987004e-05 0 -0.034925819923498649 1.5686192751800512e-05 0 -0.034999855362296134 1.1163929642703054e-07 0 -0.034998415653816152 1.5409039143798399e-05 0 -0.034998415653816152 1.5409039143798399e-05 0 -0.035048127693087676 -1.1703045937369688e-05 0 -0.03500086323286275 9.59973893942252e-06 0 -0.034999855362296134 1.1163929642703054e-07 0 -0.034998415653816152 1.5409039143798399e-05 0 -0.035000037359879749 -1.2458488972418068e-08 0 -0.034925819923498649 1.5686192751800512e-05 0 -0.035048127693087676 -1.1703045937369688e-05 0 -0.034983464704256673 -0.00011223236609151335 0 -0.034925819923498649 1.5686192751800512e-05 0 -0.034998415653816152 1.5409039143798399e-05 0 -0.035048127693087676 -1.1703045937369688e-05 0 -0.035049289223581276 -5.0350034271104801e-06 0 -0.035145487934650763 8.2029405525617491e-05 0 -0.035048127693087676 -1.1703045937369688e-05 0 -0.035251216271664429 -6.941410050825986e-05 0 -0.035283232984632699 0.00014877116109070424 0 -0.035251216271664429 -6.941410050825986e-05 0 -0.035283232984632699 0.00014877116109070424 0 -0.035419178709564993 1.6238154204059247e-05 0 -0.035048127693087676 -1.1703045937369688e-05 0 -0.035251216271664429 -6.941410050825986e-05 0 -0.035145486956096483 -0.0002092080495246135 0 -0.035000037359879749 -1.2458488972418068e-08 0 -0.03500086323286275 9.59973893942252e-06 0 -0.034964200331045497 3.0822824208419179e-09 0 -0.034998415653816152 1.5409039143798399e-05 0 -0.035000037359879749 -1.2458488972418068e-08 0 -0.03500086323286275 9.59973893942252e-06 0 -0.035212093273335868 8.073550176861985e-05 0 -0.035264218189605234 0.00012420305251808971 0 -0.03494110985795227 2.8202633278519782e-05 0 -0.034964277504489376 -2.4766264122402448e-08 0 -0.034947438718959271 4.6425279301782105e-05 0 -0.035283232984632699 0.00014877116109070424 0 -0.035486549395162215 0.00029918766061836185 0 -0.035419178709564993 1.6238154204059247e-05 0 -0.035145487934650763 8.2029405525617491e-05 0 -0.035212093273335868 8.073550176861985e-05 0 -0.034939103215658053 5.1048285140905824e-05 0 -0.034947438718959271 4.6425279301782105e-05 0 -0.034934385156197227 3.9144193495268124e-05 0 -0.035251216271664429 -6.941410050825986e-05 0 -0.035419178709564993 1.6238154204059247e-05 0 -0.03535656028784652 -0.0002749566686424368 0 -0.03494110985795227 2.8202633278519782e-05 0 -0.034939103215658053 5.1048285140905824e-05 0 -0.034947438718959271 4.6425279301782105e-05 0 -0.035264218189605234 0.00012420305251808971 0 -0.034312073438436723 -0.0004264286034612686 0 -0.034495076403989466 -7.6684783598788382e-05 0 -0.034312073438436723 -0.0004264286034612686 0 -0.034085168315500521 -0.00014939167219972451 0 -0.033343795910303613 -0.00073702538222517587 0 -0.033880377611351861 -0.00063963485462518706 0 -0.033343795910303613 -0.00073702538222517587 0 -0.033880377611351861 -0.00063963485462518706 0 -0.033527278964600844 -0.00091614194005848243 0 -0.034312073438436723 -0.0004264286034612686 0 -0.03390214913756897 -0.00090757545018759639 0 -0.033880377611351861 -0.00063963485462518706 0 -0.033587673105735565 -0.0011180270258109128 0 -0.033527278964600844 -0.00091614194005848243 0 -0.033587673105735565 -0.0011180270258109128 0 -0.033349849935593187 -0.00096485782851286667 0 -0.033378165350846756 -0.0011599341723694085 0 -0.033587673105735565 -0.0011180270258109128 0 -0.033378165350846756 -0.0011599341723694085 0 -0.033489120363588136 -0.0011570193444143707 0 -0.033587673105735565 -0.0011180270258109128 0 -0.033527278964600844 -0.00091614194005848243 0 -0.033349849935593187 -0.00096485782851286667 0 -0.033343795910303613 -0.00073702538222517587 0 -0.033527278964600844 -0.00091614194005848243 0 -0.033349849935593187 -0.00096485782851286667 0 -0.033371527089260861 -0.00087906259025308958 0 -0.033349849935593187 -0.00096485782851286667 0 -0.03321294228623331 -0.0010472455459628149 0 -0.034312073438436723 -0.0004264286034612686 0 -0.034442059280340727 -0.00055534025205125214 0 -0.033349849935593187 -0.00096485782851286667 0 -0.03321294228623331 -0.0010472455459628149 0 -0.033378165350846756 -0.0011599341723694085 0 -0.03535656028784652 -0.0002749566686424368 0 -0.035210216580817272 -0.00045776649532105568 0 -0.035145486956096483 -0.0002092080495246135 0 -0.035251216271664429 -6.941410050825986e-05 0 -0.03535656028784652 -0.0002749566686424368 0 -0.035145486956096483 -0.0002092080495246135 0 -0.035048127693087676 -1.1703045937369688e-05 0 -0.035145486956096483 -0.0002092080495246135 0 -0.034983464704256673 -0.00011223236609151335 0 -0.035145486956096483 -0.0002092080495246135 0 -0.034983464704256673 -0.00011223236609151335 0 -0.035004961476706557 -0.0003016918556779213 0 -0.035210216580817272 -0.00045776649532105568 0 -0.035015430781805239 -0.00051459648190968629 0 -0.035053004772394696 -0.00066771177550284389 0 -0.035210216580817272 -0.00045776649532105568 0 -0.035004961476706557 -0.0003016918556779213 0 -0.035015430781805239 -0.00051459648190968629 0 -0.035210216580817272 -0.00045776649532105568 0 -0.035145486956096483 -0.0002092080495246135 0 -0.035004961476706557 -0.0003016918556779213 0 -0.034442059280340727 -0.00055534025205125214 0 -0.031822323793401948 -0.0012809052468694129 0 -0.035004961476706557 -0.0003016918556779213 0 -0.035015430781805239 -0.00051459648190968629 0 -0.034792920424448856 -0.00039047017730746647 0 -0.035015430781805239 -0.00051459648190968629 0 -0.034792920424448856 -0.00039047017730746647 0 -0.034914341646168967 -0.00066285350614084867 0 -0.034792920424448856 -0.00039047017730746647 0 -0.034914341646168967 -0.00066285350614084867 0 -0.034651572953011939 -0.00065857328573863878 0 -0.034792920424448856 -0.00039047017730746647 0 -0.034837197210388249 -0.00010255231572522792 0 -0.03458451224581386 -0.0001083961107738774 0 -0.035004961476706557 -0.0003016918556779213 0 -0.034792920424448856 -0.00039047017730746647 0 -0.034837197210388249 -0.00010255231572522792 0 -0.034983464704256673 -0.00011223236609151335 0 -0.035004961476706557 -0.0003016918556779213 0 -0.034837197210388249 -0.00010255231572522792 0 -0.025374299938724622 -0.0015226612551776772 0 -0.027665319678441106 -0.00094615857729566353 0 -0.027467656717270909 -0.0014462973114753308 0 -0.026833606235145812 -0.0010369907559459423 0 -0.028419932971250939 -0.0005439494631070545 0 -0.024594178736468728 -0.0017887889626722879 0 -0.0241494296431858 -0.0021375742124515548 0 -0.023796334433890572 -0.0020259351941273019 0 -0.031438881437306845 -0.0011984258810746184 0 -0.027665319678441106 -0.00094615857729566353 0 -0.034879842950377334 -0.0012783318311993738 0 -0.034644482555346051 -0.00095975853616323209 0 -0.034472397510362601 -0.0013120164432375049 0 -0.034879842950377334 -0.0012783318311993738 0 -0.034914341646168967 -0.00066285350614084867 0 -0.035288583023506244 -0.0008227951994144527 0 -0.034879842950377334 -0.0012783318311993738 0 -0.034644482555346051 -0.00095975853616323209 0 -0.034914341646168967 -0.00066285350614084867 0 -0.034644482555346051 -0.00095975853616323209 0 -0.034914341646168967 -0.00066285350614084867 0 -0.034651572953011939 -0.00065857328573863878 0 -0.031438881437306845 -0.0011984258810746184 0 -0.031822323793401948 -0.0012809052468694129 0 -0.031822323793401948 -0.0012809052468694129 0 -0.029804205299633964 -0.001673241452765062 0 -0.026533906310436048 -0.0023430296864718017 0 -0.026003470095890224 -0.001706970912806974 0 -0.02537386508109734 -0.0017646839325123746 0 -0.026533906310436048 -0.0023430296864718017 0 -0.026003470095890224 -0.001706970912806974 0 -0.026833606235145812 -0.0010369907559459423 0 -0.035402134907863647 -0.0012612558162527214 0 -0.031822323793401948 -0.0012809052468694129 0 -0.035015430781805239 -0.00051459648190968629 0 -0.034914341646168967 -0.00066285350614084867 0 -0.035053004772394696 -0.00066771177550284389 0 -0.025374299938724622 -0.0015226612551776772 0 -0.025516190424171654 -0.001579515831607312 0 -0.026003470095890224 -0.001706970912806974 0 -0.026833606235145812 -0.0010369907559459423 0 -0.025358858475270439 -0.0016576715396305435 0 -0.027467656717270909 -0.0014462973114753308 0 -0.026533906310436048 -0.0023430296864718017 0 -0.026833606235145812 -0.0010369907559459423 0 -0.024594178736468728 -0.0017887889626722879 0 -0.025358858475270439 -0.0016576715396305435 0 -0.025195667609123895 -0.0020734543889272252 0 -0.025358858475270439 -0.0016576715396305435 0 -0.02537386508109734 -0.0017646839325123746 0 -0.025617188028372664 -0.0016605645277223276 0 -0.025358858475270439 -0.0016576715396305435 0 -0.025617188028372664 -0.0016605645277223276 0 -0.025195667609123895 -0.0020734543889272252 0 -0.024812845149108975 -0.0016796196883245855 0 -0.020488331821351409 -0.0029083895518745256 0 -0.03321294228623331 -0.0010472455459628149 0 -0.033269646118534592 -0.0012685522450977915 0 -0.033378165350846756 -0.0011599341723694085 0 -0.026003470095890224 -0.001706970912806974 0 -0.025358858475270439 -0.0016576715396305435 0 -0.02537386508109734 -0.0017646839325123746 0 -0.03321294228623331 -0.0010472455459628149 0 -0.033042323926295629 -0.0011943720717798164 0 -0.033269646118534592 -0.0012685522450977915 0 -0.033378165350846756 -0.0011599341723694085 0 -0.033489120363588136 -0.0011570193444143707 0 -0.03342724720653388 -0.0012636772894647694 0 -0.033269646118534592 -0.0012685522450977915 0 -0.033378165350846756 -0.0011599341723694085 0 -0.03342724720653388 -0.0012636772894647694 0 -0.033489120363588136 -0.0011570193444143707 0 -0.03342724720653388 -0.0012636772894647694 0 -0.033466046176273398 -0.0011703321253596329 0 -0.029804205299633964 -0.001673241452765062 0 -0.024812845149108975 -0.0016796196883245855 0 -0.016049417203538283 -0.0036495565847904222 0 -0.016261823841727144 -0.0027473787026234724 0 -0.016814368925837157 -0.0031572923180443052 0 -0.016261823841727144 -0.0027473787026234724 0 -0.015684575801151106 -0.0029536139264613116 0 -0.015717216021392675 -0.0024739663179654784 0 -0.016049417203538283 -0.0036495565847904222 0 -0.016261823841727144 -0.0027473787026234724 0 -0.015684575801151106 -0.0029536139264613116 0 -0.016261823841727144 -0.0027473787026234724 0 -0.016077694452580452 -0.0021788260749390749 0 -0.015717216021392675 -0.0024739663179654784 0 -0.016261823841727144 -0.0027473787026234724 0 -0.016077694452580452 -0.0021788260749390749 0 -0.016577330382456026 -0.0021712507292013547 0 -0.016077694452580452 -0.0021788260749390749 0 -0.015717216021392675 -0.0024739663179654784 0 -0.015566370420245735 -0.0019986548927635045 0 -0.016261823841727144 -0.0027473787026234724 0 -0.016577330382456026 -0.0021712507292013547 0 -0.016814368925837157 -0.0031572923180443052 0 -0.020488331821351409 -0.0029083895518745256 0 -0.019519799988310764 -0.0022639700502839889 0 -0.024594178736468728 -0.0017887889626722879 0 -0.025195667609123895 -0.0020734543889272252 0 -0.024408605102367625 -0.0025661182420646644 0 -0.016577330382456026 -0.0021712507292013547 0 -0.016814368925837157 -0.0031572923180443052 0 -0.017670104039547448 -0.002630515727246179 0 -0.016577330382456026 -0.0021712507292013547 0 -0.017127778885068442 -0.0024095732157315484 0 -0.017082158661295681 -0.002149423545695891 0 -0.015763642040295425 -0.0021314886702855961 0 -0.019519799988310764 -0.0022639700502839889 0 -0.017127778885068442 -0.0024095732157315484 0 -0.017082158661295681 -0.002149423545695891 0 -0.017265615944764015 -0.0023122685205808104 0 -0.017082158661295681 -0.002149423545695891 0 -0.017388060937927999 -0.0022171889687422849 0 -0.017379108556307702 -0.0020275616538707507 0 -0.017079498785197374 -0.0024367779621657128 0 -0.017265615944764015 -0.0023122685205808104 0 -0.017488565346486452 -0.0024108364787772522 0 -0.019519799988310764 -0.0022639700502839889 0 -0.017259183116180511 -0.0028367674339464626 0 -0.017082158661295681 -0.002149423545695891 0 -0.017265615944764015 -0.0023122685205808104 0 -0.017388060937927999 -0.0022171889687422849 0 -0.024594178736468728 -0.0017887889626722879 0 -0.024408605102367625 -0.0025661182420646644 0 -0.0241494296431858 -0.0021375742124515548 0 -0.024408605102367625 -0.0025661182420646644 0 -0.0241494296431858 -0.0021375742124515548 0 -0.023631531844606233 -0.0021815942398038793 0 -0.019519799988310764 -0.0022639700502839889 0 -0.022001352076249241 -0.0023145646714876652 0 -0.024789749034274312 5.0109462570058548e-05 0 -0.025095396941122037 -0.00019093760744808483 0 -0.024711087416061133 -0.00040234908944434774 0 -0.025155524132166894 -5.1036313602773623e-05 0 -0.020076473154847899 -0.001454649290549367 0 -0.025195898106615933 6.8039284220906308e-05 0 -0.024789749034274312 5.0109462570058548e-05 0 -0.025095396941122037 -0.00019093760744808483 0 -0.025095396941122037 -0.00019093760744808483 0 -0.025504156859123207 -7.0091865429204201e-05 0 -0.025265513857225187 -0.00059659400582406333 0 -0.025195898106615933 6.8039284220906308e-05 0 -0.025504156859123207 -7.0091865429204201e-05 0 -0.025434189447150379 0.00024122157709595922 0 -0.025195898106615933 6.8039284220906308e-05 0 -0.025095396941122037 -0.00019093760744808483 0 -0.025504156859123207 -7.0091865429204201e-05 0 -0.025982754955892872 0.00069236454095068984 0 -0.025634209833476137 0.00041273434713624894 0 -0.025392631983067768 0.00049384355303626229 0 -0.025195898106615933 6.8039284220906308e-05 0 -0.025434189447150379 0.00024122157709595922 0 -0.025130544008684742 0.00026929958345457922 0 -0.025723805516625491 0.00021965761476987986 0 -0.025504156859123207 -7.0091865429204201e-05 0 -0.025434189447150379 0.00024122157709595922 0 -0.025723805516625491 0.00021965761476987986 0 -0.025434189447150379 0.00024122157709595922 0 -0.025634209833476137 0.00041273434713624894 0 -0.025434189447150379 0.00024122157709595922 0 -0.025634209833476137 0.00041273434713624894 0 -0.025392631983067768 0.00049384355303626229 0 -0.025434189447150379 0.00024122157709595922 0 -0.025392631983067768 0.00049384355303626229 0 -0.025130544008684742 0.00026929958345457922 0 -0.024789749034274312 5.0109462570058548e-05 0 -0.025130544008684742 0.00026929958345457922 0 -0.024838592762662069 0.00052349297364763785 0 -0.025533974639798222 0.00066947994758962846 0 -0.025392631983067768 0.00049384355303626229 0 -0.024838592762662069 0.00052349297364763785 0 -0.025392631983067768 0.00049384355303626229 0 -0.025130544008684742 0.00026929958345457922 0 -0.024838592762662069 0.00052349297364763785 0 -0.025155524132166894 -5.1036313602773623e-05 0 -0.029458384057006948 -0.0005995263512357709 0 -0.025195898106615933 6.8039284220906308e-05 0 -0.024789749034274312 5.0109462570058548e-05 0 -0.025130544008684742 0.00026929958345457922 0 -0.033346923482789136 -0.0011160310230648293 0 -0.033404422487222661 -0.0011235135889149468 0 -0.033425731946158596 -0.0011082709947943966 0 -0.029458384057006948 -0.0005995263512357709 0 -0.030722714831564971 -0.00059082083093375446 0 -0.025495279938834336 -0.00064518633942024144 0 -0.025607257736888659 -5.2563378589384571e-05 0 -0.025080691300392793 -0.00012900196014901439 0 -0.032111085622464008 -0.00027965381919273864 0 -0.030722714831564971 -0.00059082083093375446 0 -0.025495279938834336 -0.00064518633942024144 0 -0.025080691300392793 -0.00012900196014901439 0 -0.025019689481415176 -0.00063468334350938579 0 -0.024812845149108975 -0.0016796196883245855 0 -0.030722714831564971 -0.00059082083093375446 0 -0.03342724720653388 -0.0012636772894647694 0 -0.033457674672773038 -0.001118432421795944 0 -0.033466046176273398 -0.0011703321253596329 0 -0.024122272957130288 -0.00073665238561744506 0 -0.025080691300392793 -0.00012900196014901439 0 -0.025019689481415176 -0.00063468334350938579 0 -0.033472602540846531 -0.0011390337003198791 0 -0.033457674672773038 -0.001118432421795944 0 -0.033466046176273398 -0.0011703321253596329 0 -0.033496317285090692 -0.0011387280065521307 0 -0.033489120363588136 -0.0011570193444143707 0 -0.033466046176273398 -0.0011703321253596329 0 -0.024812845149108975 -0.0016796196883245855 0 -0.01935439965987959 -0.0020152835619609492 0 -0.024122272957130288 -0.00073665238561744506 0 -0.024758926216382853 -0.00097678916822156281 0 -0.025019689481415176 -0.00063468334350938579 0 -0.016049417203538283 -0.0036495565847904222 0 -0.015361564152059238 -0.0034039911788997755 0 -0.015684575801151106 -0.0029536139264613116 0 -0.01935439965987959 -0.0020152835619609492 0 -0.020076473154847899 -0.001454649290549367 0 -0.024758926216382853 -0.00097678916822156281 0 -0.025019689481415176 -0.00063468334350938579 0 -0.025381840883180618 -0.0012225898951158775 0 -0.025495279938834336 -0.00064518633942024144 0 -0.025019689481415176 -0.00063468334350938579 0 -0.025381840883180618 -0.0012225898951158775 0 -0.015361564152059238 -0.0034039911788997755 0 -0.014692111477117922 -0.0031465122093725915 0 -0.01485628776545809 -0.0028194996558994446 0 -0.020076473154847899 -0.001454649290549367 0 -0.014432873845497454 -0.0028044268434487705 0 -0.014692111477117922 -0.0031465122093725915 0 -0.01485628776545809 -0.0028194996558994446 0 -0.014724305201080245 -0.0024459382347880414 0 -0.014928994793714076 -0.00094895057925490679 0 -0.014724305201080245 -0.0024459382347880414 0 -0.01481165651602003 -0.0024016504414132171 0 -0.015361564152059238 -0.0034039911788997755 0 -0.01485628776545809 -0.0028194996558994446 0 -0.015277411273851845 -0.002884021062443883 0 -0.01485628776545809 -0.0028194996558994446 0 -0.015277411273851845 -0.002884021062443883 0 -0.015019627307961407 -0.0025773221526204119 0 -0.01485628776545809 -0.0028194996558994446 0 -0.014871738881430299 -0.0025800430106879459 0 -0.015019627307961407 -0.0025773221526204119 0 -0.015361564152059238 -0.0034039911788997755 0 -0.015684575801151106 -0.0029536139264613116 0 -0.015277411273851845 -0.002884021062443883 0 -0.015277411273851845 -0.002884021062443883 0 -0.015385378899848636 -0.0026128076759384142 0 -0.015019627307961407 -0.0025773221526204119 0 -0.015684575801151106 -0.0029536139264613116 0 -0.015277411273851845 -0.002884021062443883 0 -0.015385378899848636 -0.0026128076759384142 0 -0.015684575801151106 -0.0029536139264613116 0 -0.015717216021392675 -0.0024739663179654784 0 -0.015385378899848636 -0.0026128076759384142 0 -0.015717216021392675 -0.0024739663179654784 0 -0.015385378899848636 -0.0026128076759384142 0 -0.015205662779923704 -0.0023151605315157565 0 -0.015385378899848636 -0.0026128076759384142 0 -0.015205662779923704 -0.0023151605315157565 0 -0.015019627307961407 -0.0025773221526204119 0 -0.015717216021392675 -0.0024739663179654784 0 -0.015205662779923704 -0.0023151605315157565 0 -0.015566370420245735 -0.0019986548927635045 0 -0.01485628776545809 -0.0028194996558994446 0 -0.014724305201080245 -0.0024459382347880414 0 -0.014871738881430299 -0.0025800430106879459 0 -0.014884523130685204 -0.0024788784425778545 0 -0.014724305201080245 -0.0024459382347880414 0 -0.014931467380786156 -0.0023449910509317868 0 -0.014724305201080245 -0.0024459382347880414 0 -0.01481165651602003 -0.0024016504414132171 0 -0.014724804856446807 -0.0022793692863530067 0 -0.014884523130685204 -0.0024788784425778545 0 -0.014724305201080245 -0.0024459382347880414 0 -0.014871738881430299 -0.0025800430106879459 0 -0.014884523130685204 -0.0024788784425778545 0 -0.014871738881430299 -0.0025800430106879459 0 -0.015019627307961407 -0.0025773221526204119 0 -0.015205662779923704 -0.0023151605315157565 0 -0.015019627307961407 -0.0025773221526204119 0 -0.014931467380786156 -0.0023449910509317868 0 -0.014884523130685204 -0.0024788784425778545 0 -0.015019627307961407 -0.0025773221526204119 0 -0.014931467380786156 -0.0023449910509317868 0 -0.015205662779923704 -0.0023151605315157565 0 -0.014931467380786156 -0.0023449910509317868 0 -0.014899584427398289 -0.0020886982904077911 0 -0.015205662779923704 -0.0023151605315157565 0 -0.014899584427398289 -0.0020886982904077911 0 -0.01514717831852895 -0.0019960944244451317 0 -0.014724804856446807 -0.0022793692863530067 0 -0.014552602893083655 -0.0020427927539920787 0 -0.014899584427398289 -0.0020886982904077911 0 -0.014931467380786156 -0.0023449910509317868 0 -0.014724804856446807 -0.0022793692863530067 0 -0.014899584427398289 -0.0020886982904077911 0 -0.014724305201080245 -0.0024459382347880414 0 -0.014931467380786156 -0.0023449910509317868 0 -0.014724804856446807 -0.0022793692863530067 0 -0.015067569066963767 -0.0024953773963415494 0 -0.014577124867044664 -0.00234890348902124 0 -0.01481165651602003 -0.0024016504414132171 0 -0.01623478375294914 -0.002855550931795639 0 -0.016252074302867587 -0.0025598223639213364 0 -0.01481165651602003 -0.0024016504414132171 0 -0.016252074302867587 -0.0025598223639213364 0 -0.01537330564183601 -0.001921998856409837 0 -0.014724804856446807 -0.0022793692863530067 0 -0.014533684374794902 -0.0022519627465007151 0 -0.014552602893083655 -0.0020427927539920787 0 -0.01481165651602003 -0.0024016504414132171 0 -0.014533684374794902 -0.0022519627465007151 0 -0.014219618047849977 -0.0022885942121884527 0 -0.01481165651602003 -0.0024016504414132171 0 -0.014724804856446807 -0.0022793692863530067 0 -0.014533684374794902 -0.0022519627465007151 0 -0.014533684374794902 -0.0022519627465007151 0 -0.014219618047849977 -0.0022885942121884527 0 -0.014552602893083655 -0.0020427927539920787 0 -0.015316392200924128 -0.0025618465424013439 0 -0.015591133684162177 -0.0022165671862568758 0 -0.016250087048572701 -0.0024662594097031253 0 -0.01537330564183601 -0.001921998856409837 0 -0.016256006881514008 -0.002326271528785982 0 -0.01537330564183601 -0.001921998856409837 0 -0.015987478167902715 -0.0018327403550761308 0 -0.016256006881514008 -0.002326271528785982 0 -0.014577124867044664 -0.00234890348902124 0 -0.015316392200924128 -0.0025618465424013439 0 -0.015987478167902715 -0.0018327403550761308 0 -0.016377222621620776 -0.0020099055973082651 0 -0.016256006881514008 -0.002326271528785982 0 -0.014928994793714076 -0.00094895057925490679 0 -0.01481165651602003 -0.0024016504414132171 0 -0.01537330564183601 -0.001921998856409837 0 -0.014928994793714076 -0.00094895057925490679 0 -0.01537330564183601 -0.001921998856409837 0 -0.015987478167902715 -0.0018327403550761308 0 -0.025095396941122037 -0.00019093760744808483 0 -0.024711087416061133 -0.00040234908944434774 0 -0.025265513857225187 -0.00059659400582406333 0 -0.020076473154847899 -0.001454649290549367 0 -0.020827099429111685 -0.0010113607517029356 0 -0.014928994793714076 -0.00094895057925490679 0 -0.015987478167902715 -0.0018327403550761308 0 -0.016509574076710228 -0.0015501264877927975 0 -0.021682680187345142 -0.0014100212749496974 0 -0.020827099429111685 -0.0010113607517029356 0 -0.025628835516038017 -0.00040794161646460033 0 -0.025780892875032334 -0.00077196184865268593 0 -0.025265513857225187 -0.00059659400582406333 0 -0.025628835516038017 -0.00040794161646460033 0 -0.025504156859123207 -7.0091865429204201e-05 0 -0.025265513857225187 -0.00059659400582406333 0 -0.016509574076710228 -0.0015501264877927975 0 -0.016377222621620776 -0.0020099055973082651 0 -0.016736618721160328 -0.0023212001914299164 0 -0.015987478167902715 -0.0018327403550761308 0 -0.016509574076710228 -0.0015501264877927975 0 -0.016377222621620776 -0.0020099055973082651 0 -0.017875385708228751 -0.0021018008761944196 0 -0.016736618721160328 -0.0023212001914299164 0 -0.016877269249536943 -0.0028419087567534388 0 -0.017875385708228751 -0.0021018008761944196 0 -0.016509574076710228 -0.0015501264877927975 0 -0.016736618721160328 -0.0023212001914299164 0 -0.016252688608267053 -0.0024447883216018296 0 -0.016736618721160328 -0.0023212001914299164 0 -0.016877269249536943 -0.0028419087567534388 0 -0.016377222621620776 -0.0020099055973082651 0 -0.016736618721160328 -0.0023212001914299164 0 -0.016256006881514008 -0.002326271528785982 0 -0.016252688608267053 -0.0024447883216018296 0 -0.016736618721160328 -0.0023212001914299164 0 -0.016256006881514008 -0.002326271528785982 0 -0.015316392200924128 -0.0025618465424013439 0 -0.015346286186601846 -0.0025352928885012632 0 -0.012805994976474682 -0.0021986060775020977 0 -0.012456886616838633 -0.0020904003132015754 0 -0.012447402064050945 -0.0016317482359815508 0 -0.014577124867044664 -0.00234890348902124 0 -0.014875846610386663 -0.0024608069260170979 0 -0.014986199739882876 -0.0023626543732686569 0 -0.014985268295544711 -0.0023867920131768884 0 -0.014925440063503289 -0.0023430279647021538 0 -0.015316392200924128 -0.0025618465424013439 0 -0.014875846610386663 -0.0024608069260170979 0 -0.012805994976474682 -0.0021986060775020977 0 -0.012447402064050945 -0.0016317482359815508 0 -0.012823613402143476 -0.0012641178603703773 0 -0.012456886616838633 -0.0020904003132015754 0 -0.012447402064050945 -0.0016317482359815508 0 -0.011818503148883976 -0.0016285555307761095 0 -0.012447402064050945 -0.0016317482359815508 0 -0.012337626405779286 -0.00098616233583079119 0 -0.011818503148883976 -0.0016285555307761095 0 -0.012447402064050945 -0.0016317482359815508 0 -0.012337626405779286 -0.00098616233583079119 0 -0.012823613402143476 -0.0012641178603703773 0 -0.012337626405779286 -0.00098616233583079119 0 -0.012823613402143476 -0.0012641178603703773 0 -0.012831351118081789 -0.00035215309266803309 0 -0.014238990559105137 -0.0016074524288883659 0 -0.01465194104068296 -0.0012543800512084876 0 -0.014214106012226592 -0.001080167520690861 0 -0.013735538300284502 -0.0015629579592897106 0 -0.010200719798770505 6.6391405893901303e-05 0 -0.014238990559105137 -0.0016074524288883659 0 -0.014552602893083655 -0.0020427927539920787 0 -0.014923877925956248 -0.0016345807714071021 0 -0.014219618047849977 -0.0022885942121884527 0 -0.014238990559105137 -0.0016074524288883659 0 -0.014552602893083655 -0.0020427927539920787 0 -0.014577124867044664 -0.00234890348902124 0 -0.013735538300284502 -0.0015629579592897106 0 -0.014552602893083655 -0.0020427927539920787 0 -0.014899584427398289 -0.0020886982904077911 0 -0.014923877925956248 -0.0016345807714071021 0 -0.014899584427398289 -0.0020886982904077911 0 -0.014923877925956248 -0.0016345807714071021 0 -0.01514717831852895 -0.0019960944244451317 0 -0.014923877925956248 -0.0016345807714071021 0 -0.015566370420245735 -0.0019986548927635045 0 -0.016183652032575345 -0.0016997594915708096 0 -0.01497483953052174 -0.0016377794568287311 0 -0.015787589060057297 -0.0017439631123328176 0 -0.015205662779923704 -0.0023151605315157565 0 -0.015566370420245735 -0.0019986548927635045 0 -0.01514717831852895 -0.0019960944244451317 0 -0.014923877925956248 -0.0016345807714071021 0 -0.015566370420245735 -0.0019986548927635045 0 -0.01514717831852895 -0.0019960944244451317 0 -0.014923877925956248 -0.0016345807714071021 0 -0.015149616891079203 -0.0013773925098859113 0 -0.01465194104068296 -0.0012543800512084876 0 -0.014923877925956248 -0.0016345807714071021 0 -0.015149616891079203 -0.0013773925098859113 0 -0.015414044817890157 -0.0017677302171963049 0 -0.014238990559105137 -0.0016074524288883659 0 -0.014923877925956248 -0.0016345807714071021 0 -0.01465194104068296 -0.0012543800512084876 0 -0.01465194104068296 -0.0012543800512084876 0 -0.01493035634488352 -0.00096467043961988969 0 -0.01435066395704885 -0.00090099261848592467 0 -0.015149616891079203 -0.0013773925098859113 0 -0.01465194104068296 -0.0012543800512084876 0 -0.01493035634488352 -0.00096467043961988969 0 0.0016801970134240499 -0.0074665493345048399 0 0.0022801697619773578 -0.0061722718861979067 0 0.0013173333005248133 -0.0062256985360165688 0 -0.0069262828653857854 -0.0043786219340557261 0 -0.0044665597109984643 -0.0028970652512919992 0 0.0010471037585668298 -0.0015988520307034741 0 0.001117425287118005 -0.0021269521870299441 0 0.0016250676451479377 -0.0022811274191667603 0 0.0016801970134240499 -0.0074665493345048399 0 0.0029988306185051786 -0.0071819633150346021 0 0.0022801697619773578 -0.0061722718861979067 0 -0.0044665597109984643 -0.0028970652512919992 0 0.0030034202792910353 -0.0048409578276543876 0 0.0010471037585668298 -0.0015988520307034741 0 0.00080196570439247997 -0.0016196146134948774 0 0.001117425287118005 -0.0021269521870299441 0 -0.0055784069398501215 -0.001914805342041206 0 -0.0072049334877091475 -0.0020668605928781118 0 -0.0073399081934631188 0.00020366287186338877 0 -0.0044665597109984643 -0.0028970652512919992 0 -0.0037621605611081509 0.0004606497144542676 0 -0.0080536236495224057 0.00087370980864465186 0 -0.008155306412166578 0.00092348792349415231 0 -0.0081994713408023896 0.00087324262138143815 0 -0.0037621605611081509 0.0004606497144542676 0 -0.0043230521635215027 0.0027748142987821748 0 0.00015759742254395259 0.0044111157379381309 0 -0.00020150061180932631 0.0039683360707615219 0 -0.00040584834701535059 0.0043933308920590794 0 -0.0080536236495224057 0.00087370980864465186 0 -0.008155306412166578 0.00092348792349415231 0 -0.0080728087759041351 0.00093686262775185387 0 -0.008193994705989565 0.0010327047092887861 0 -0.008155306412166578 0.00092348792349415231 0 -0.0080728087759041351 0.00093686262775185387 0 -0.008193994705989565 0.0010327047092887861 0 -0.008155306412166578 0.00092348792349415231 0 -0.0082350586616176929 0.00096610268377843355 0 -0.01014199796831756 8.608013422054912e-05 0 -0.010200719798770505 6.6391405893901303e-05 0 -0.01465194104068296 -0.0012543800512084876 0 -0.01435066395704885 -0.00090099261848592467 0 -0.014214106012226592 -0.001080167520690861 0 -0.0044665597109984643 -0.0028970652512919992 0 -0.010200719798770505 6.6391405893901303e-05 0 -0.0037621605611081509 0.0004606497144542676 0 -0.010200719798770505 6.6391405893901303e-05 0 -0.016805181255027082 -0.0014859546733644903 0 -0.01625374085871446 -0.0019688169087225993 0 -0.017379108556307702 -0.0020275616538707507 0 -0.017082158661295681 -0.002149423545695891 0 -0.016959978403969865 -0.0019326005596904286 0 -0.017379108556307702 -0.0020275616538707507 0 -0.016613897950797769 -0.0019390483466515786 0 -0.017336589043181902 -0.0020272472276604728 0 -0.016577330382456026 -0.0021712507292013547 0 -0.017082158661295681 -0.002149423545695891 0 -0.016959978403969865 -0.0019326005596904286 0 -0.016805181255027082 -0.0014859546733644903 0 -0.01625374085871446 -0.0019688169087225993 0 -0.01583221347222161 -0.0014384177683663838 0 -0.016805181255027082 -0.0014859546733644903 0 -0.01583221347222161 -0.0014384177683663838 0 -0.01638682787938877 -0.00092590052143652624 0 -0.01625374085871446 -0.0019688169087225993 0 -0.01583221347222161 -0.0014384177683663838 0 -0.015414044817890157 -0.0017677302171963049 0 -0.016577330382456026 -0.0021712507292013547 0 -0.016959978403969865 -0.0019326005596904286 0 -0.016183652032575345 -0.0016997594915708096 0 -0.016613897950797769 -0.0019390483466515786 0 -0.015787589060057297 -0.0017439631123328176 0 -0.016077694452580452 -0.0021788260749390749 0 -0.016577330382456026 -0.0021712507292013547 0 -0.016183652032575345 -0.0016997594915708096 0 -0.016077694452580452 -0.0021788260749390749 0 -0.015566370420245735 -0.0019986548927635045 0 -0.016183652032575345 -0.0016997594915708096 0 -0.015149616891079203 -0.0013773925098859113 0 -0.01583221347222161 -0.0014384177683663838 0 -0.015414044817890157 -0.0017677302171963049 0 -0.0069262828653857854 -0.0043786219340557261 0 -0.0079242587962769801 -0.0044280147591022343 0 -0.015149616891079203 -0.0013773925098859113 0 -0.01493035634488352 -0.00096467043961988969 0 -0.015548923585003151 -0.00095925951204631904 0 -0.015149616891079203 -0.0013773925098859113 0 -0.01583221347222161 -0.0014384177683663838 0 -0.015548923585003151 -0.00095925951204631904 0 0.0016801970134240499 -0.0074665493345048399 0 -0.00037104317301751854 -0.0079627891485275128 0 0.0013173333005248133 -0.0062256985360165688 0 -0.00037104317301751854 -0.0079627891485275128 0 -0.00095464131677869973 -0.0061665655511747462 0 0.0013173333005248133 -0.0062256985360165688 0 -0.00037104317301751854 -0.0079627891485275128 0 -0.0026658229595538105 -0.0082585297255962122 0 -0.00095464131677869973 -0.0061665655511747462 0 -0.01583221347222161 -0.0014384177683663838 0 -0.015548923585003151 -0.00095925951204631904 0 -0.01638682787938877 -0.00092590052143652624 0 -0.0079242587962769801 -0.0044280147591022343 0 -0.0094996002995047339 -0.0046016035050143109 0 -0.0026658229595538105 -0.0082585297255962122 0 -0.0031077536907155091 -0.0062713316808586349 0 -0.00095464131677869973 -0.0061665655511747462 0 -0.0026658229595538105 -0.0082585297255962122 0 -0.0031077536907155091 -0.0062713316808586349 0 -0.0041924386634506648 -0.0071731078717512898 0 -0.016805181255027082 -0.0014859546733644903 0 -0.01638682787938877 -0.00092590052143652624 0 -0.017339592862950212 -0.0010017737280714127 0 -0.0026658229595538105 -0.0082585297255962122 0 -0.0046714172292513035 -0.0085166245291787689 0 -0.0041924386634506648 -0.0071731078717512898 0 -0.0094996002995047339 -0.0046016035050143109 0 -0.011198676737496534 -0.0047408337078379973 0 -0.0016028033155541029 -0.0056002535421066958 0 -0.00028577937887964923 -0.005767444697617456 0 -0.00099396434983640655 -0.004651372380630482 0 -0.0016028033155541029 -0.0056002535421066958 0 -0.0011033209170657275 -0.0066964035335739394 0 -0.00028577937887964923 -0.005767444697617456 0 -0.0016028033155541029 -0.0056002535421066958 0 -0.0011033209170657275 -0.0066964035335739394 0 -0.0024432296310339797 -0.0061658163256176511 0 -0.0021170924260905245 -0.0064875691902131225 0 -0.00025213198341737981 -0.0062858747225054473 0 -0.0011033209170657275 -0.0066964035335739394 0 -0.00028577937887964923 -0.005767444697617456 0 0.00044682657134142799 -0.0063774178452437906 0 -0.00028577937887964923 -0.005767444697617456 0 3.3797192395782528e-05 -0.0047916121549822673 0 -0.00099396434983640655 -0.004651372380630482 0 -0.00028577937887964923 -0.005767444697617456 0 0.00044682657134142799 -0.0063774178452437906 0 0.00089840725513734598 -0.0053175190112452258 0 -0.00028577937887964923 -0.005767444697617456 0 0.00089840725513734598 -0.0053175190112452258 0 3.3797192395782528e-05 -0.0047916121549822673 0 0.00044682657134142799 -0.0063774178452437906 0 0.0010894137413556143 -0.0058005145710070278 0 0.00089840725513734598 -0.0053175190112452258 0 -0.00025213198341737981 -0.0062858747225054473 0 0.0012211590818862563 -0.0062341130501047158 0 0.0010894137413556143 -0.0058005145710070278 0 0.0013173333005248133 -0.0062256985360165688 0 0.0016817747869465047 -0.0052851267057770577 0 0.00044682657134142799 -0.0063774178452437906 0 0.0010894137413556143 -0.0058005145710070278 0 0.0013173333005248133 -0.0062256985360165688 0 0.0010894137413556143 -0.0058005145710070278 0 0.00089840725513734598 -0.0053175190112452258 0 0.0016817747869465047 -0.0052851267057770577 0 0.0018577322760820298 -0.0032528795938521916 0 0.0020799778789177058 -0.0029973135888583962 0 0.0020531276661220053 -0.0032081079333432252 0 0.00089840725513734598 -0.0053175190112452258 0 0.0013040422985402022 -0.0041967288790240535 0 0.0016817747869465047 -0.0052851267057770577 0 0.001569140439067918 -0.0036902756901651488 0 0.0016741013687336273 -0.0039557843868947267 0 0.0018577322760820298 -0.0032528795938521916 0 0.0022106808946196956 -0.002759587879144675 0 0.0017925388304257251 -0.002225294546007975 0 0.0018577322760820298 -0.0032528795938521916 0 0.0020531276661220053 -0.0032081079333432252 0 0.0022106808946196956 -0.002759587879144675 0 0.001569140439067918 -0.0036902756901651488 0 0.00078407316831206604 -0.0026389805578649738 0 0.0018577322760820298 -0.0032528795938521916 0 0.00078894002085748676 -0.0026102901282048685 0 0.0017925388304257251 -0.002225294546007975 0 0.0013040422985402022 -0.0041967288790240535 0 0.0004657141986758781 -0.0039609451007070369 0 0.00078894002085748676 -0.0026102901282048685 0 0.0013040422985402022 -0.0041967288790240535 0 0.0004657141986758781 -0.0039609451007070369 0 0.0007196386013186974 -0.0046014842393073147 0 0.00089840725513734598 -0.0053175190112452258 0 0.0013040422985402022 -0.0041967288790240535 0 0.0007196386013186974 -0.0046014842393073147 0 0.0004657141986758781 -0.0039609451007070369 0 0.0007196386013186974 -0.0046014842393073147 0 3.3797192395782528e-05 -0.0047916121549822673 0 0.00089840725513734598 -0.0053175190112452258 0 0.0007196386013186974 -0.0046014842393073147 0 3.3797192395782528e-05 -0.0047916121549822673 0 3.3797192395782528e-05 -0.0047916121549822673 0 -0.0003381664967369396 -0.0036195608953474047 0 -0.00099396434983640655 -0.004651372380630482 0 0.0004657141986758781 -0.0039609451007070369 0 3.3797192395782528e-05 -0.0047916121549822673 0 -0.0003381664967369396 -0.0036195608953474047 0 0.0004657141986758781 -0.0039609451007070369 0 -0.0003381664967369396 -0.0036195608953474047 0 0.00078894002085748676 -0.0026102901282048685 0 -0.0003381664967369396 -0.0036195608953474047 0 -0.00099396434983640655 -0.004651372380630482 0 -0.0019870651994656 -0.0033855579866546239 0 -0.0003381664967369396 -0.0036195608953474047 0 -0.0019870651994656 -0.0033855579866546239 0 -0.0003660288063827407 -0.0020579206360295081 0 -0.00099396434983640655 -0.004651372380630482 0 -0.0021964937274052405 -0.0047002284785722191 0 -0.0019870651994656 -0.0033855579866546239 0 -0.0016028033155541029 -0.0056002535421066958 0 -0.00099396434983640655 -0.004651372380630482 0 -0.0021964937274052405 -0.0047002284785722191 0 0.0011516489026828091 0.00058968945012523896 0 0.00089510390216255892 0.00037688781259260677 0 0.00094922075700608441 -0.0025849874981976454 0 0.0010806628607856774 -0.0033628287828456767 0 0.0012870192592300471 -0.0030160471853023858 0 0.00094922075700608441 -0.0025849874981976454 0 0.0013688818286710634 -0.0026983253321424209 0 0.0012870192592300471 -0.0030160471853023858 0 0.00027421702024607727 0.0036633153808288852 0 -0.00012559598306075074 0.0035469102677089799 0 8.5017259492522701e-05 0.0031322167706525233 0 0.00015759742254395259 0.0044111157379381309 0 0.00027421702024607727 0.0036633153808288852 0 -0.00020150061180932631 0.0039683360707615219 0 0.00027421702024607727 0.0036633153808288852 0 -0.00012559598306075074 0.0035469102677089799 0 -0.00020150061180932631 0.0039683360707615219 0 -0.00012559598306075074 0.0035469102677089799 0 -0.00020150061180932631 0.0039683360707615219 0 -0.00052854771279942472 0.0036925970205404406 0 0.00080196570439247997 -0.0016196146134948774 0 0.00094922075700608441 -0.0025849874981976454 0 0.001117425287118005 -0.0021269521870299441 0 -0.0037621605611081509 0.0004606497144542676 0 0.0011516489026828091 0.00058968945012523896 0 0.00094922075700608441 -0.0025849874981976454 0 0.001117425287118005 -0.0021269521870299441 0 0.0013688818286710634 -0.0026983253321424209 0 0.001117425287118005 -0.0021269521870299441 0 0.0016250676451479377 -0.0022811274191667603 0 0.0013688818286710634 -0.0026983253321424209 0 0.0022801697619773578 -0.0061722718861979067 0 0.0013173333005248133 -0.0062256985360165688 0 0.0016817747869465047 -0.0052851267057770577 0 0.0016250676451479377 -0.0022811274191667603 0 0.0020799778789177058 -0.0029973135888583962 0 0.0016945144651986464 -0.00286351578651154 0 0.0030034202792910353 -0.0048409578276543876 0 0.0016741013687336273 -0.0039557843868947267 0 0.0020799778789177058 -0.0029973135888583962 0 0.0016945144651986464 -0.00286351578651154 0 0.0018474685089024034 -0.0031627357787540329 0 0.0016250676451479377 -0.0022811274191667603 0 0.0013688818286710634 -0.0026983253321424209 0 0.0016945144651986464 -0.00286351578651154 0 0.0016945144651986464 -0.00286351578651154 0 0.0015371570630260164 -0.0030489867898912323 0 0.0018474685089024034 -0.0031627357787540329 0 0.0013688818286710634 -0.0026983253321424209 0 0.0016945144651986464 -0.00286351578651154 0 0.0015371570630260164 -0.0030489867898912323 0 0.0013688818286710634 -0.0026983253321424209 0 0.0015371570630260164 -0.0030489867898912323 0 0.0012870192592300471 -0.0030160471853023858 0 0.0015371570630260164 -0.0030489867898912323 0 0.0014755201901451281 -0.0033460125304830466 0 0.0012870192592300471 -0.0030160471853023858 0 0.0015371570630260164 -0.0030489867898912323 0 0.0014755201901451281 -0.0033460125304830466 0 0.0018474685089024034 -0.0031627357787540329 0 0.0014755201901451281 -0.0033460125304830466 0 0.0018474685089024034 -0.0031627357787540329 0 0.0018131243459986878 -0.0034610040779435147 0 0.0020799778789177058 -0.0029973135888583962 0 0.0018474685089024034 -0.0031627357787540329 0 0.0020531276661220053 -0.0032081079333432252 0 0.0018474685089024034 -0.0031627357787540329 0 0.0020531276661220053 -0.0032081079333432252 0 0.0018131243459986878 -0.0034610040779435147 0 0.002126860405962746 -0.0032066555010566199 0 0.0021326670861233142 -0.0032054177266083246 0 0.0022106808946196956 -0.002759587879144675 0 0.0026899059673377137 -0.0029787404711120354 0 0.0026350698153804601 -0.001926336179466926 0 0.0020531276661220053 -0.0032081079333432252 0 0.0022106808946196956 -0.002759587879144675 0 0.0026899059673377137 -0.0029787404711120354 0 0.0026899059673377137 -0.0029787404711120354 0 0.0032237661984569708 -0.0025871369128617678 0 0.0026350698153804601 -0.001926336179466926 0 0.0014755201901451281 -0.0033460125304830466 0 0.0014836835115253951 -0.0037024034938647832 0 0.0010806628607856774 -0.0033628287828456767 0 0.0021326670861233142 -0.0032054177266083246 0 0.0017993114432895011 -0.0014577270284177283 0 0.0014755201901451281 -0.0033460125304830466 0 0.0018131243459986878 -0.0034610040779435147 0 0.0014836835115253951 -0.0037024034938647832 0 0.00040543237574971666 0.0028563302857527624 0 0.00014119401262706411 0.0025031526899139613 0 0.00045603161060830505 0.0021841023123746924 0 0.00089510390216255892 0.00037688781259260677 0 0.0010593835815407013 0.0015375502541276976 0 0.0011500152462883887 0.00019854262686893589 0 0.0012540912205334569 0.00010251262394450604 0 0.001247857057547974 0.00027997958985956394 0 0.0017993114432895011 -0.0014577270284177283 0 0.00089510390216255892 0.00037688781259260677 0 0.0014755201901451281 -0.0033460125304830466 0 0.0010806628607856774 -0.0033628287828456767 0 0.0012870192592300471 -0.0030160471853023858 0 0.00027421702024607727 0.0036633153808288852 0 0.00037895542195921311 0.0028535879816076735 0 8.5017259492522701e-05 0.0031322167706525233 0 0.00089510390216255892 0.00037688781259260677 0 -0.00040498518526174828 0.0032439436098373529 0 8.5017259492522701e-05 0.0031322167706525233 0 -1.6186454189717466e-05 0.0028056884586326772 0 -0.00045384124020472722 0.0030470472239972719 0 -0.00012559598306075074 0.0035469102677089799 0 8.5017259492522701e-05 0.0031322167706525233 0 -0.00045384124020472722 0.0030470472239972719 0 0.00040543237574971666 0.0028563302857527624 0 8.5017259492522701e-05 0.0031322167706525233 0 -1.6186454189717466e-05 0.0028056884586326772 0 -1.6186454189717466e-05 0.0028056884586326772 0 -0.00018463757152516658 0.0025042621218181195 0 -0.00045384124020472722 0.0030470472239972719 0 -1.6186454189717466e-05 0.0028056884586326772 0 0.00014119401262706411 0.0025031526899139613 0 -0.00018463757152516658 0.0025042621218181195 0 0.00040543237574971666 0.0028563302857527624 0 -1.6186454189717466e-05 0.0028056884586326772 0 0.00014119401262706411 0.0025031526899139613 0 0.00014119401262706411 0.0025031526899139613 0 -0.00018463757152516658 0.0025042621218181195 0 -0.00010999108482084524 0.0022030846709445717 0 -0.00018463757152516658 0.0025042621218181195 0 -0.00045384124020472722 0.0030470472239972719 0 -0.00055632246835019244 0.0023464185109827403 0 -0.0010197754502248458 0.002673062426995543 0 -0.00045384124020472722 0.0030470472239972719 0 -0.00055632246835019244 0.0023464185109827403 0 -0.0010197754502248458 0.002673062426995543 0 -0.00045384124020472722 0.0030470472239972719 0 -0.00094406210261847076 0.0034157450517098014 0 -0.00012559598306075074 0.0035469102677089799 0 -0.00045384124020472722 0.0030470472239972719 0 -0.00052854771279942472 0.0036925970205404406 0 -0.00045384124020472722 0.0030470472239972719 0 -0.00052854771279942472 0.0036925970205404406 0 -0.00094406210261847076 0.0034157450517098014 0 -0.00052854771279942472 0.0036925970205404406 0 -0.00094406210261847076 0.0034157450517098014 0 -0.00095984237889681846 0.003964115110411579 0 -0.00094406210261847076 0.0034157450517098014 0 -0.00095984237889681846 0.003964115110411579 0 -0.0013403650048251384 0.0038285701968354367 0 -0.00095984237889681846 0.003964115110411579 0 -0.00061874154423230952 0.0040808590852609 0 -0.00098920305291002935 0.0043699438871306557 0 -0.00020150061180932631 0.0039683360707615219 0 -0.00052854771279942472 0.0036925970205404406 0 -0.00061874154423230952 0.0040808590852609 0 -0.00052854771279942472 0.0036925970205404406 0 -0.00095984237889681846 0.003964115110411579 0 -0.00061874154423230952 0.0040808590852609 0 -0.0020616390502186462 0.0042498517059080046 0 -0.0013403650048251384 0.0038285701968354367 0 -0.0016111729471015635 0.0046952693706687519 0 -0.00095984237889681846 0.003964115110411579 0 -0.0013403650048251384 0.0038285701968354367 0 -0.0015488826034492718 0.0043241249240171756 0 -0.00077781839847266979 0.0042828209883289774 0 -0.0052657462172644451 0.0027675951663296513 0 -0.00094406210261847076 0.0034157450517098014 0 -0.0013403650048251384 0.0038285701968354367 0 -0.00155516545551763 0.0031740578045380331 0 -0.0013403650048251384 0.0038285701968354367 0 -0.0020299386436071877 0.0036527281002646794 0 -0.00155516545551763 0.0031740578045380331 0 -0.0020616390502186462 0.0042498517059080046 0 -0.0013403650048251384 0.0038285701968354367 0 -0.0020299386436071877 0.0036527281002646794 0 -0.0020299386436071877 0.0036527281002646794 0 -0.00155516545551763 0.0031740578045380331 0 -0.0023215243083867638 0.0030818781226150016 0 -0.0010197754502248458 0.002673062426995543 0 -0.00094406210261847076 0.0034157450517098014 0 -0.00155516545551763 0.0031740578045380331 0 -0.0010197754502248458 0.002673062426995543 0 -0.00155516545551763 0.0031740578045380331 0 -0.0017316121703142273 0.0023676754585249325 0 -0.00155516545551763 0.0031740578045380331 0 -0.0023215243083867638 0.0030818781226150016 0 -0.0017316121703142273 0.0023676754585249325 0 -0.0026763344783217505 0.0024986189118025421 0 -0.0023215243083867638 0.0030818781226150016 0 -0.0017316121703142273 0.0023676754585249325 0 -0.0026763344783217505 0.0024986189118025421 0 -0.0030748792229356153 0.0031493910624309394 0 -0.0036171373040231785 0.0026971481258354019 0 -0.0026763344783217505 0.0024986189118025421 0 -0.0030748792229356153 0.0031493910624309394 0 -0.0023215243083867638 0.0030818781226150016 0 -0.0030748792229356153 0.0031493910624309394 0 -0.0023215243083867638 0.0030818781226150016 0 -0.0029258300067292239 0.0039117570829530915 0 -0.0047108046847873812 0.0029831984727772772 0 -0.0036171373040231785 0.0026971481258354019 0 -0.0042551657494743931 0.0021213499592115321 0 -0.0030748792229356153 0.0031493910624309394 0 -0.0036171373040231785 0.0026971481258354019 0 -0.0038025279146151488 0.003479868883779832 0 -0.0047108046847873812 0.0029831984727772772 0 -0.0038025279146151488 0.003479868883779832 0 -0.00449369634903235 0.0038137294652179988 0 -0.0047108046847873812 0.0029831984727772772 0 -0.0036171373040231785 0.0026971481258354019 0 -0.0038025279146151488 0.003479868883779832 0 -0.0038025279146151488 0.003479868883779832 0 -0.00449369634903235 0.0038137294652179988 0 -0.0040372482208742315 0.0042418948087959976 0 -0.00449369634903235 0.0038137294652179988 0 -0.0040372482208742315 0.0042418948087959976 0 -0.0045520389297054858 0.0042845147843039383 0 -0.0038025279146151488 0.003479868883779832 0 -0.0040372482208742315 0.0042418948087959976 0 -0.0029258300067292239 0.0039117570829530915 0 -0.0040372482208742315 0.0042418948087959976 0 -0.0029258300067292239 0.0039117570829530915 0 -0.0035850240892116077 0.0046760297072300115 0 -0.0046684701753129205 0.0046865933539924649 0 -0.0040372482208742315 0.0042418948087959976 0 -0.0035850240892116077 0.0046760297072300115 0 -0.0108765394929486 0.002422946093877006 0 -0.0072602634801379609 0.0031285914212267388 0 -0.0046684701753129205 0.0046865933539924649 0 -0.0040372482208742315 0.0042418948087959976 0 -0.0045520389297054858 0.0042845147843039383 0 -0.0020299386436071877 0.0036527281002646794 0 -0.0023215243083867638 0.0030818781226150016 0 -0.0029258300067292239 0.0039117570829530915 0 -0.0020616390502186462 0.0042498517059080046 0 -0.0020299386436071877 0.0036527281002646794 0 -0.0029258300067292239 0.0039117570829530915 0 -0.0030748792229356153 0.0031493910624309394 0 -0.0038025279146151488 0.003479868883779832 0 -0.0029258300067292239 0.0039117570829530915 0 -0.0029258300067292239 0.0039117570829530915 0 -0.0025863403813018932 0.0046577321776649621 0 -0.0035850240892116077 0.0046760297072300115 0 -0.0020616390502186462 0.0042498517059080046 0 -0.0029258300067292239 0.0039117570829530915 0 -0.0025863403813018932 0.0046577321776649621 0 -0.010960479067650245 0.0014586810834221751 0 -0.011059850778602191 0.0019914228312535149 0 -0.010593522754097551 0.0019610220444468171 0 -0.010960479067650245 0.0014586810834221751 0 -0.01149266498287714 0.0018414029538972114 0 -0.011059850778602191 0.0019914228312535149 0 -0.0069769216908216634 0.0030844827044394538 0 -0.0072602634801379609 0.0031285914212267388 0 -0.010960479067650245 0.0014586810834221751 0 -0.01149266498287714 0.0018414029538972114 0 -0.011926133471261991 0.00140349142887122 0 -0.01149266498287714 0.0018414029538972114 0 -0.011488126652515161 0.0022180431438910408 0 -0.011059850778602191 0.0019914228312535149 0 -0.011488126652515161 0.0022180431438910408 0 -0.011159953739165795 0.0023841857042304093 0 -0.011059850778602191 0.0019914228312535149 0 -0.011488126652515161 0.0022180431438910408 0 -0.012006660051528657 0.0021339475156975734 0 -0.011742009204276677 0.0029006090067132438 0 -0.01149266498287714 0.0018414029538972114 0 -0.011488126652515161 0.0022180431438910408 0 -0.012006660051528657 0.0021339475156975734 0 -0.011001579752618075 0.0022792104351360238 0 -0.012994287077074293 0.0017260391923877888 0 -0.011159953739165795 0.0023841857042304093 0 -0.010685260429902347 0.002145243590428423 0 -0.010813673466930225 0.0026599407862126908 0 -0.010685260429902347 0.002145243590428423 0 -0.010772523120703766 0.0025156291299848897 0 -0.010527464970627247 0.0022576161947875624 0 -0.010685260429902347 0.002145243590428423 0 -0.011059850778602191 0.0019914228312535149 0 -0.010593522754097551 0.0019610220444468171 0 -0.011159953739165795 0.0023841857042304093 0 -0.010685260429902347 0.002145243590428423 0 -0.011059850778602191 0.0019914228312535149 0 -0.012830929005003645 0.0013376275327945755 0 -0.011926133471261991 0.00140349142887122 0 -0.012569371729953739 0.0019846801447436987 0 -0.0108765394929486 0.002422946093877006 0 -0.01560246300429901 0.001795091116882874 0 -0.011926133471261991 0.00140349142887122 0 -0.012006660051528657 0.0021339475156975734 0 -0.012569371729953739 0.0019846801447436987 0 -0.01149266498287714 0.0018414029538972114 0 -0.011926133471261991 0.00140349142887122 0 -0.012006660051528657 0.0021339475156975734 0 -0.012006660051528657 0.0021339475156975734 0 -0.012569371729953739 0.0019846801447436987 0 -0.012317691376944604 0.0026629000752932748 0 -0.01560246300429901 0.001795091116882874 0 -0.02027076724916255 0.0017525224790558239 0 -0.018617265024844395 0.0017542593989141768 0 -0.018592910998992178 0.00175752988435691 0 -0.018636681171618891 0.0017341806374130274 0 -0.030648571983799094 0.00062706720620663253 0 -0.03018023405852056 0.0010139134726703197 0 -0.029237102337909732 0.00092845750313236752 0 -0.025412508803581466 0.0010179593860536321 0 -0.02027076724916255 0.0017525224790558239 0 -0.03018023405852056 0.0010139134726703197 0 -0.029585825843343381 0.0012735699119640418 0 -0.029237102337909732 0.00092845750313236752 0 -0.030066759137579693 0.0013510685262253777 0 -0.03018023405852056 0.0010139134726703197 0 -0.029585825843343381 0.0012735699119640418 0 -0.029585825843343381 0.0012735699119640418 0 -0.029237102337909732 0.00092845750313236752 0 -0.029188938258057299 0.0015730892523796304 0 -0.030546470497993933 0.0010764932152233569 0 -0.0286102295863177 0.0012316647024758157 0 -0.030066759137579693 0.0013510685262253777 0 -0.029585825843343381 0.0012735699119640418 0 -0.029188938258057299 0.0015730892523796304 0 -0.02027076724916255 0.0017525224790558239 0 -0.016481022472892532 0.0016302849020133137 0 -0.021582543737049931 0.00056753589070853078 0 -0.020850065325415237 0.0021839051547132421 0 -0.018875367501868814 0.0016029768460896086 0 -0.012006660051528657 0.0021339475156975734 0 -0.012317691376944604 0.0026629000752932748 0 -0.011742009204276677 0.0029006090067132438 0 -0.029237102337909732 0.00092845750313236752 0 -0.028949033791951552 0.0015059876957652834 0 -0.029188938258057299 0.0015730892523796304 0 -0.02027076724916255 0.0017525224790558239 0 -0.02495484535552929 0.0013010615836820895 0 -0.02495484535552929 0.0013010615836820895 0 -0.016481022472892532 0.0016302849020133137 0 -0.022454165164973682 0.001147603448950053 0 -0.022544121028730234 0.00095095674495000303 0 -0.0215327207201658 0.00065733353035951907 0 -0.026087243922735891 0.00092350719509863566 0 -0.02322874962600293 0.0011392298742460231 0 -0.025832738856413514 0.00087410074806350789 0 -0.025904095332961091 0.00069359735419644887 0 -0.025770523429340584 0.00072237688639831916 0 -0.030219925136583569 0.0012845166127956184 0 -0.030486899512992143 0.0010950093336881963 0 -0.030379699986901012 0.00096326800502217081 0 -0.02807857268033493 0.0010572710691996541 0 -0.026087243922735891 0.00092350719509863566 0 -0.030486899512992143 0.0010950093336881963 0 -0.030379699986901012 0.00096326800502217081 0 -0.030457156697512748 0.00094809738542634661 0 -0.026087243922735891 0.00092350719509863566 0 -0.0286102295863177 0.0012316647024758157 0 -0.025838995864842937 0.0016039463454257303 0 -0.026066825721643719 0.0011044791766437632 0 -0.026891529368388421 0.0013477863320545832 0 -0.026087243922735891 0.00092350719509863566 0 -0.02495484535552929 0.0013010615836820895 0 -0.02495484535552929 0.0013010615836820895 0 -0.0286102295863177 0.0012316647024758157 0 -0.030486899512992143 0.0010950093336881963 0 -0.030457156697512748 0.00094809738542634661 0 -0.030583065816354928 0.00099082405478717085 0 -0.030705889535308149 0.00093509309638271324 0 -0.030461902829891113 0.0009473155293522838 0 -0.030583065816354928 0.00099082405478717085 0 -0.0286102295863177 0.0012316647024758157 0 -0.030299080584310353 0.0013698446927359516 0 -0.030486899512992143 0.0010950093336881963 0 -0.030583065816354928 0.00099082405478717085 0 -0.030641057267176905 0.0010936719634015027 0 -0.030789307949151794 0.0011079142747170494 0 -0.030641057267176905 0.0010936719634015027 0 -0.030708753359141874 0.0010249397685122726 0 -0.030705889535308149 0.00093509309638271324 0 -0.030583065816354928 0.00099082405478717085 0 -0.030708753359141874 0.0010249397685122726 0 -0.030583065816354928 0.00099082405478717085 0 -0.030641057267176905 0.0010936719634015027 0 -0.030708753359141874 0.0010249397685122726 0 -0.012994287077074293 0.0017260391923877888 0 -0.018858025872171155 0.00098469250669358196 0 -0.015823451928427289 0.0013060139517977046 0 -0.016491435916380213 0.0015024453815496903 0 -0.015916520773123981 0.0017226895687417231 0 -0.011159953739165795 0.0023841857042304093 0 -0.010813673466930225 0.0026599407862126908 0 -0.011742009204276677 0.0029006090067132438 0 -0.012994287077074293 0.0017260391923877888 0 -0.016481022472892532 0.0016302849020133137 0 -0.011488126652515161 0.0022180431438910408 0 -0.011159953739165795 0.0023841857042304093 0 -0.011742009204276677 0.0029006090067132438 0 -0.022454165164973682 0.001147603448950053 0 -0.0215327207201658 0.00065733353035951907 0 -0.021120486564148871 0.0014577156440457898 0 -0.02322874962600293 0.0011392298742460231 0 -0.022121019083387952 0.00064702242904156456 0 -0.016481022472892532 0.0016302849020133137 0 -0.018858025872171155 0.00098469250669358196 0 -0.0215327207201658 0.00065733353035951907 0 -0.021120486564148871 0.0014577156440457898 0 -0.01973679623160287 0.0013478382532291072 0 -0.025728703237921979 0.00080996668132187844 0 -0.025770523429340584 0.00072237688639831916 0 -0.025626314216762768 0.00075114988141518021 0 -0.021120486564148871 0.0014577156440457898 0 -0.019820958736846011 0.0017703003097302951 0 -0.01973679623160287 0.0013478382532291072 0 -0.016119941441767278 0.00060183856657035296 0 -0.016240098768166417 0.0011290088443402678 0 -0.015959146290761162 0.0012378291613636542 0 -0.018858025872171155 0.00098469250669358196 0 -0.018767989656877055 0.00041435818291579664 0 -0.020289907904959159 0.00065478162543300877 0 -0.020372169368813649 0.0005680658451135941 0 -0.020475847424751125 0.00058149604845304543 0 -0.022121019083387952 0.00064702242904156456 0 -0.021648178860485961 0.0003646489156662044 0 -0.020372169368813649 0.0005680658451135941 0 -0.020450382942949753 0.00049551246598250761 0 -0.020475847424751125 0.00058149604845304543 0 -0.020272531012806922 0.00054063629373581783 0 -0.020372169368813649 0.0005680658451135941 0 -0.020450382942949753 0.00049551246598250761 0 -0.020272531012806922 0.00054063629373581783 0 -0.020289907904959159 0.00065478162543300877 0 -0.020372169368813649 0.0005680658451135941 0 -0.022121019083387952 0.00064702242904156456 0 -0.018858025872171155 0.00098469250669358196 0 -0.023724423508182536 -0.00033478868678418967 0 -0.021648178860485961 0.0003646489156662044 0 -0.022637447448964745 -0.00075369339762715228 0 -0.020264777481659384 0.00049729155524174827 0 -0.022894711963554835 -0.00052776791113888575 0 -0.022637447448964745 -0.00075369339762715228 0 -0.02006815351200843 -0.00011167125753073199 0 -0.020264777481659384 0.00049729155524174827 0 -0.016861814213402888 0.00033586289622536983 0 -0.016835356721813386 0.00034312915897536479 0 -0.016961070031553168 0.00025501683695199496 0 -0.018767989656877055 0.00041435818291579664 0 -0.021932936308254887 -0.00070379140834125095 0 -0.021648178860485961 0.0003646489156662044 0 -0.018767989656877055 0.00041435818291579664 0 -0.016861814213402888 0.00033586289622536983 0 -0.016835356721813386 0.00034312915897536479 0 -0.016795185195649629 0.00033372419388277223 0 -0.018767989656877055 0.00041435818291579664 0 -0.013877787842186656 0.0010777448517034279 0 -0.016119941441767278 0.00060183856657035296 0 -0.015959146290761162 0.0012378291613636542 0 -0.015676202876476569 0.00047384055380874935 0 -0.016835356721813386 0.00034312915897536479 0 -0.016785962847191548 0.00034123386553356401 0 -0.016795185195649629 0.00033372419388277223 0 -0.016835356721813386 0.00034312915897536479 0 -0.016785962847191548 0.00034123386553356401 0 -0.016749121074623948 0.0003644219881343882 0 -0.016795185195649629 0.00033372419388277223 0 -0.016746645922039331 0.00033101992649428678 0 -0.016726712119878612 0.00029226086372406197 0 -0.016785962847191548 0.00034123386553356401 0 -0.016795185195649629 0.00033372419388277223 0 -0.016746645922039331 0.00033101992649428678 0 -0.010772523120703766 0.0025156291299848897 0 -0.010424103733895155 0.0024140039902915233 0 -0.010527464970627247 0.0022576161947875624 0 -0.012994287077074293 0.0017260391923877888 0 -0.013877787842186656 0.0010777448517034279 0 -0.012283271406671075 0.00061744165693734538 0 -0.016072427180581703 -0.00025004637407824681 0 -0.016692923748577646 0.00030796914707845679 0 -0.016701858063381772 0.00037860816289893122 0 -0.016662075481084452 0.00041279394414897531 0 -0.0084553405648351496 0.0010081000196853842 0 -0.0083864981284244491 0.0010087715628661572 0 -0.0084069235435772199 0.00096659594878940815 0 -0.016692923748577646 0.00030796914707845679 0 -0.016746645922039331 0.00033101992649428678 0 -0.016726712119878612 0.00029226086372406197 0 -0.012283271406671075 0.00061744165693734538 0 -0.012429232869167103 0.00080936126834389558 0 -0.016746645922039331 0.00033101992649428678 0 -0.016749121074623948 0.0003644219881343882 0 -0.016701858063381772 0.00037860816289893122 0 -0.016692923748577646 0.00030796914707845679 0 -0.016746645922039331 0.00033101992649428678 0 -0.016701858063381772 0.00037860816289893122 0 -0.016785962847191548 0.00034123386553356401 0 -0.016746645922039331 0.00033101992649428678 0 -0.016749121074623948 0.0003644219881343882 0 -0.016749121074623948 0.0003644219881343882 0 -0.016701858063381772 0.00037860816289893122 0 -0.016677177898053813 0.00042939976645968561 0 -0.016635078831499152 0.00050645206119798289 0 -0.017282310972202054 -0.00027032380820669264 0 -0.021238207544950368 -0.0013704306193748788 0 -0.02042072489747537 -0.0010493829640079197 0 -0.021005432742904197 -0.00067957290563288729 0 -0.016835356721813386 0.00034312915897536479 0 -0.016749121074623948 0.0003644219881343882 0 -0.016677177898053813 0.00042939976645968561 0 -0.016835356721813386 0.00034312915897536479 0 -0.017043376396325759 0.00031754695440786083 0 -0.016961070031553168 0.00025501683695199496 0 -0.016701858063381772 0.00037860816289893122 0 -0.016677177898053813 0.00042939976645968561 0 -0.016662075481084452 0.00041279394414897531 0 -0.017282310972202054 -0.00027032380820669264 0 -0.017335752898210884 -0.0010845349462878691 0 -0.016072427180581703 -0.00025004637407824681 0 -0.017335752898210884 -0.0010845349462878691 0 -0.016439743007925944 -0.00034023575535581434 0 -0.016359906243919042 -0.00040967523901512477 0 -0.016328439794470333 -0.00030662117526408366 0 -0.017282310972202054 -0.00027032380820669264 0 -0.016072427180581703 -0.00025004637407824681 0 -0.017282310972202054 -0.00027032380820669264 0 -0.021932936308254887 -0.00070379140834125095 0 -0.020878037988984695 -0.00063939982026506043 0 -0.02042072489747537 -0.0010493829640079197 0 -0.021005432742904197 -0.00067957290563288729 0 -0.023598105417562708 -0.0016326060664734385 0 -0.017335752898210884 -0.0010845349462878691 0 -0.01910309965261368 -0.0025645000706305209 0 -0.019348641442262841 -0.00341171904515553 0 -0.018314336914740929 -0.0031074311523847037 0 -0.014494157541354601 -0.00075293771087008596 0 -0.014295746995820481 -0.0008317199418786034 0 -0.013996432769262912 -0.0006070517642713148 0 -0.017335752898210884 -0.0010845349462878691 0 -0.016063969633451441 -0.0021172133273570275 0 -0.011976651726974074 -0.0012121697136459513 0 -0.010935189292849111 0.00048678568514179182 0 -0.014295746995820481 -0.0008317199418786034 0 -0.013871641686268976 -0.00074942357573782453 0 -0.014267300102612901 -0.0010281079100641036 0 -0.016072427180581703 -0.00025004637407824681 0 -0.010935189292849111 0.00048678568514179182 0 -0.014515749687684393 -0.00082497952390099473 0 -0.014295746995820481 -0.0008317199418786034 0 -0.014267300102612901 -0.0010281079100641036 0 -0.014515749687684393 -0.00082497952390099473 0 -0.014494157541354601 -0.00075293771087008596 0 -0.014295746995820481 -0.0008317199418786034 0 -0.014875846610386663 -0.0024608069260170979 0 -0.011976651726974074 -0.0012121697136459513 0 -0.014706416433441149 -0.0023722038765533458 0 -0.013834929936047536 -0.0020890886683131312 0 -0.014014792070488325 -0.001866070110651735 0 -0.014295746995820481 -0.0008317199418786034 0 -0.013996432769262912 -0.0006070517642713148 0 -0.013871641686268976 -0.00074942357573782453 0 -0.016063969633451441 -0.0021172133273570275 0 -0.011976651726974074 -0.0012121697136459513 0 -0.008193994705989565 0.0010327047092887861 0 -0.0083192186725820003 0.0010181396440383061 0 -0.0082350586616176929 0.00096610268377843355 0 -0.01014199796831756 8.608013422054912e-05 0 -0.011976651726974074 -0.0012121697136459513 0 -0.008193994705989565 0.0010327047092887861 0 -0.0083093250550688811 0.0011172803772852833 0 -0.0083192186725820003 0.0010181396440383061 0 -0.0083093250550688811 0.0011172803772852833 0 -0.0083192186725820003 0.0010181396440383061 0 -0.00839471224873258 0.0010586459430767684 0 -0.013098776280179122 0.00050512029823857507 0 -0.013217871648867353 0.00015436039724633213 0 -0.013375592455922063 0.00030307597648021286 0 -0.0085216781468945638 0.00039630270207652101 0 -0.010935189292849111 0.00048678568514179182 0 -0.0083192186725820003 0.0010181396440383061 0 -0.0083754701550213043 0.0010590254073952173 0 -0.0083864981284244491 0.0010087715628661572 0 -0.0083192186725820003 0.0010181396440383061 0 -0.0083864981284244491 0.0010087715628661572 0 -0.0083606633689792074 0.0009707700802612946 0 -0.012283271406671075 0.00061744165693734538 0 -0.010935189292849111 0.00048678568514179182 0 -0.0084553405648351496 0.0010081000196853842 0 -0.0083754701550213043 0.0010590254073952173 0 -0.0083864981284244491 0.0010087715628661572 0 -0.0083192186725820003 0.0010181396440383061 0 -0.0083606633689792074 0.0009707700802612946 0 -0.0083054231153884325 0.00093793962318489469 0 -0.0083864981284244491 0.0010087715628661572 0 -0.0083606633689792074 0.0009707700802612946 0 -0.0084069235435772199 0.00096659594878940815 0 -0.0083606633689792074 0.0009707700802612946 0 -0.0083852683844140869 0.00092605119777993089 0 -0.0084069235435772199 0.00096659594878940815 0 -0.0083606633689792074 0.0009707700802612946 0 -0.0083054231153884325 0.00093793962318489469 0 -0.0083852683844140869 0.00092605119777993089 0 -0.0083192186725820003 0.0010181396440383061 0 -0.0083054231153884325 0.00093793962318489469 0 -0.0082350586616176929 0.00096610268377843355 0 -0.0083054231153884325 0.00093793962318489469 0 -0.0082350586616176929 0.00096610268377843355 0 -0.0081994713408023896 0.00087324262138143815 0 -0.008155306412166578 0.00092348792349415231 0 -0.0082350586616176929 0.00096610268377843355 0 -0.0081994713408023896 0.00087324262138143815 0 -0.0083054231153884325 0.00093793962318489469 0 -0.0081994713408023896 0.00087324262138143815 0 -0.008330051971846145 0.00087687041861961074 0 -0.00020150061180932631 0.0039683360707615219 0 -0.00061874154423230952 0.0040808590852609 0 -0.00040584834701535059 0.0043933308920590794 0 -0.00061874154423230952 0.0040808590852609 0 -0.00040584834701535059 0.0043933308920590794 0 -0.00098920305291002935 0.0043699438871306557 0 -0.0043230521635215027 0.0027748142987821748 0 -0.0046071834163698665 0.0026051437012612078 0 -0.00095984237889681846 0.003964115110411579 0 -0.00098920305291002935 0.0043699438871306557 0 -0.0015488826034492718 0.0043241249240171756 0 -0.0083054231153884325 0.00093793962318489469 0 -0.0083852683844140869 0.00092605119777993089 0 -0.008330051971846145 0.00087687041861961074 0 -0.0083852683844140869 0.00092605119777993089 0 -0.008330051971846145 0.00087687041861961074 0 -0.0084423836182322149 0.00087984241094145679 0 -0.0046071834163698665 0.0026051437012612078 0 -0.0052657462172644451 0.0027675951663296513 0 -0.0083852683844140869 0.00092605119777993089 0 -0.0084423836182322149 0.00087984241094145679 0 -0.0084431150573830802 0.00093636244623271543 0 -0.0052657462172644451 0.0027675951663296513 0 -0.010888216757419515 0.0016300718615419984 0 -0.0020616390502186462 0.0042498517059080046 0 -0.0025863403813018932 0.0046577321776649621 0 -0.0016111729471015635 0.0046952693706687519 0 -0.0098440818496551494 0.0015334612598958551 0 -0.010593522754097551 0.0019610220444468171 0 -0.010113083031651909 0.0023078402874439556 0 -0.010960479067650245 0.0014586810834221751 0 -0.0098440818496551494 0.0015334612598958551 0 -0.010593522754097551 0.0019610220444468171 0 -0.0069769216908216634 0.0030844827044394538 0 -0.0052657462172644451 0.0027675951663296513 0 -0.010346663782870563 0.0021271935550026847 0 -0.010888216757419515 0.0016300718615419984 0 -0.010593522754097551 0.0019610220444468171 0 -0.010527464970627247 0.0022576161947875624 0 -0.010345680170142049 0.0021943496687404002 0 -0.010685260429902347 0.002145243590428423 0 -0.010593522754097551 0.0019610220444468171 0 -0.010527464970627247 0.0022576161947875624 0 -0.013877787842186656 0.0010777448517034279 0 -0.012429232869167103 0.00080936126834389558 0 -0.013877787842186656 0.0010777448517034279 0 -0.010888216757419515 0.0016300718615419984 0 -0.012480751270515039 0.0010853412061807425 0 -0.012412321233250725 0.00089236765990827497 0 -0.012242314953400961 0.0010142362240808029 0 -0.010424103733895155 0.0024140039902915233 0 -0.010527464970627247 0.0022576161947875624 0 -0.010345680170142049 0.0021943496687404002 0 -0.010888216757419515 0.0016300718615419984 0 -0.012429232869167103 0.00080936126834389558 0 -0.0084423836182322149 0.00087984241094145679 0 -0.008501771902899179 0.00096564447125889658 0 -0.0084431150573830802 0.00093636244623271543 0 -0.008501771902899179 0.00096564447125889658 0 -0.0084677740551897356 0.00098858825129185461 0 -0.0084618655792816043 0.00096275653592118595 0 -0.0084677740551897356 0.00098858825129185461 0 -0.0084618655792816043 0.00096275653592118595 0 -0.0084351004403926001 0.00096061137716952748 0 -0.0084677740551897356 0.00098858825129185461 0 -0.0084425500930367173 0.00098097924573651869 0 -0.0084351004403926001 0.00096061137716952748 0 -0.012429232869167103 0.00080936126834389558 0 -0.010756735063554467 0.0005359328888389647 0 -0.011964538353444845 0.00068276398319270409 0 -0.011571752316852807 0.00096819127430610547 0 -0.011849486864838499 0.0010497955675172529 0 -0.0084553405648351496 0.0010081000196853842 0 -0.0084685318600749085 0.00097290617558739656 0 -0.0084069235435772199 0.00096659594878940815 0 -0.012283271406671075 0.00061744165693734538 0 -0.010756735063554467 0.0005359328888389647 0 -0.0084425500930367173 0.00098097924573651869 0 -0.0084069235435772199 0.00096659594878940815 0 -0.0084351004403926001 0.00096061137716952748 0 -0.010756735063554467 0.0005359328888389647 0 -0.0088321850095247241 0.00041810171303391716 0 -0.0083852683844140869 0.00092605119777993089 0 -0.0084069235435772199 0.00096659594878940815 0 -0.0084351004403926001 0.00096061137716952748 0 -0.0083852683844140869 0.00092605119777993089 0 -0.0084351004403926001 0.00096061137716952748 0 -0.0084431150573830802 0.00093636244623271543 0 -0.008501771902899179 0.00096564447125889658 0 -0.0084618655792816043 0.00096275653592118595 0 -0.0084431150573830802 0.00093636244623271543 0 -0.0084618655792816043 0.00096275653592118595 0 -0.0084351004403926001 0.00096061137716952748 0 -0.0084431150573830802 0.00093636244623271543 0 -0.026975256164247667 0.00010143572499800634 0 -0.026761425297069763 0.00013670569034040928 0 -0.026144336508389994 0.00014196368371306186 0 -0.026975256164247667 0.00010143572499800634 0 -0.026761425297069763 0.00013670569034040928 0 -0.027885193964151653 -5.3528512073249323e-05 0 -0.025749705001381188 0.00070221653731206732 0 -0.025633462669748579 0.00043758208758353732 0 -0.027678116797427297 1.0607322207436111e-06 0 -0.026761425297069763 0.00013670569034040928 0 -0.027885193964151653 -5.3528512073249323e-05 0 -0.027678116797427297 1.0607322207436111e-06 0 -0.026761425297069763 0.00013670569034040928 0 -0.025796915851023502 1.7781146102260427e-07 0 -0.026761425297069763 0.00013670569034040928 0 -0.02576396437204782 0.00013642898617787636 0 -0.025796915851023502 1.7781146102260427e-07 0 -0.026761425297069763 0.00013670569034040928 0 -0.026144336508389994 0.00014196368371306186 0 -0.02576396437204782 0.00013642898617787636 0 -0.02512122920265664 0.00068287558931866385 0 -0.02548562577259492 0.00093631474874367291 0 -0.025406847232544594 0.00048749351931578978 0 -0.02548562577259492 0.00093631474874367291 0 -0.02587464085325579 0.00070184280926653122 0 -0.025406847232544594 0.00048749351931578978 0 -0.02548562577259492 0.00093631474874367291 0 -0.025891413356979438 0.0011941843724223226 0 -0.02587464085325579 0.00070184280926653122 0 -0.02517582310841214 0.0011161765052324778 0 -0.02512122920265664 0.00068287558931866385 0 -0.02548562577259492 0.00093631474874367291 0 -0.02517582310841214 0.0011161765052324778 0 -0.02548562577259492 0.00093631474874367291 0 -0.025500876793119045 0.0013300679607866806 0 -0.02517582310841214 0.0011161765052324778 0 -0.025500876793119045 0.0013300679607866806 0 -0.025207323609850951 0.0014523033882366044 0 -0.035546614224838853 0.001298890729247071 0 -0.035219469198259371 0.0010346461960972905 0 -0.035094903858940055 0.0017316969484695746 0 -0.030587836620502053 0.0014106289908306321 0 -0.030625078767955279 0.001450457359427552 0 -0.02548562577259492 0.00093631474874367291 0 -0.025500876793119045 0.0013300679607866806 0 -0.025891413356979438 0.0011941843724223226 0 -0.035219469198259371 0.0010346461960972905 0 -0.03555779079452609 0.00085980337099856826 0 -0.035277983591304247 0.00059035253101297484 0 -0.035546614224838853 0.001298890729247071 0 -0.035219469198259371 0.0010346461960972905 0 -0.03555779079452609 0.00085980337099856826 0 -0.035546614224838853 0.001298890729247071 0 -0.03555779079452609 0.00085980337099856826 0 -0.035764067543225204 0.00087502227679774872 0 -0.035546614224838853 0.001298890729247071 0 -0.035764067543225204 0.00087502227679774872 0 -0.035968519562744682 0.0010158512861368916 0 -0.030587836620502053 0.0014106289908306321 0 -0.029766530408228277 9.3631675535912052e-05 0 -0.027898976511021131 -0.0012456117312801556 0 -0.027239888053952173 -0.00087682641900950259 0 -0.027885193964151653 -5.3528512073249323e-05 0 -0.035764067543225204 0.00087502227679774872 0 -0.035968519562744682 0.0010158512861368916 0 -0.036011511669672709 0.00077191892208120427 0 -0.029766530408228277 9.3631675535912052e-05 0 -0.033546538774948113 0.00039977816496057021 0 -0.031889351580036258 -0.00074771776732076244 0 -0.032082388842209916 -0.00054284569987369884 0 -0.032455926080863541 -0.00039457948228199536 0 -0.030172104715468908 -0.00044330802121271106 0 -0.033546538774948113 0.00039977816496057021 0 -0.031049011549215438 -0.00012695437057296568 0 -0.031310492070251342 -0.00025173540801222172 0 -0.031284392693066355 2.7308007442771446e-05 0 -0.030172104715468908 -0.00044330802121271106 0 -0.029766530408228277 9.3631675535912052e-05 0 -0.026975256164247667 0.00010143572499800634 0 -0.027239888053952173 -0.00087682641900950259 0 -0.027885193964151653 -5.3528512073249323e-05 0 -0.025749705001381188 0.00070221653731206732 0 -0.029766530408228277 9.3631675535912052e-05 0 -0.027678116797427297 1.0607322207436111e-06 0 -0.027885193964151653 -5.3528512073249323e-05 0 -0.02955560736596809 -2.4751253414403743e-06 0 -0.031889351580036258 -0.00074771776732076244 0 -0.032082388842209916 -0.00054284569987369884 0 -0.030859409471851194 -8.5044420702475316e-07 0 -0.030172104715468908 -0.00044330802121271106 0 -0.029558066655938114 -6.9615380629258131e-07 0 -0.030305713784744229 -1.8999185339097041e-06 0 -0.029562331427551877 1.6249804839406222e-09 0 -0.030851696538022971 -4.6033817571539402e-09 0 -0.027898976511021131 -0.0012456117312801556 0 -0.027885193964151653 -5.3528512073249323e-05 0 -0.02955560736596809 -2.4751253414403743e-06 0 -0.030172104715468908 -0.00044330802121271106 0 -0.030855767082669343 -4.6420827840106269e-07 0 -0.030859409471851194 -8.5044420702475316e-07 0 -0.032414358403820745 -0.00024000620016349382 0 -0.033214970237397959 0.00017336232420600304 0 -0.032082388842209916 -0.00054284569987369884 0 -0.030859409471851194 -8.5044420702475316e-07 0 -0.032414358403820745 -0.00024000620016349382 0 -0.035043161453330397 0.00012659335608698267 0 -0.03504431720767201 0.00013332983743974863 0 -0.03508343665639313 0.0001446254478521274 0 -0.033546538774948113 0.00039977816496057021 0 -0.033810262866372516 7.1937287584118833e-07 0 -0.032082388842209916 -0.00054284569987369884 0 -0.032455926080863541 -0.00039457948228199536 0 -0.032425123045153194 -0.00010789852079038624 0 -0.032623074382161894 -0.00072087182058384013 0 -0.033810262866372516 7.1937287584118833e-07 0 -0.034969843976383232 -1.5848358784732357e-05 0 -0.034984249332655142 5.347662589719153e-07 0 -0.034991544879868094 -4.1513153516524329e-06 0 -0.033810262866372516 7.1937287584118833e-07 0 -0.034110805674807329 0.00013635570759274018 0 -0.030859409471851194 -8.5044420702475316e-07 0 -0.033214970237397959 0.00017336232420600304 0 -0.034998500007693466 5.1275938509067396e-07 0 -0.034110805674807329 0.00013635570759274018 0 -0.034999636299289524 3.42497877027109e-07 0 -0.034984249332655142 5.347662589719153e-07 0 -0.034999986692859107 3.879104986088124e-09 0 -0.034994439574389608 1.0641453264133489e-06 0 -0.033214970237397959 0.00017336232420600304 0 -0.034998668608221137 -1.5992508034452861e-07 0 -0.034998500007693466 5.1275938509067396e-07 0 -0.034999994640555462 2.0295440815744167e-09 0 -0.034999020137235076 3.9809418876165895e-07 0 -0.035000001606147968 -7.8952274626222261e-10 0 -0.035004609222184714 1.5558993051450945e-05 0 -0.03500003996860495 4.3571494280447307e-08 0 -0.034999994640555462 2.0295440815744167e-09 0 -0.034994439574389608 1.0641453264133489e-06 0 -0.034999020137235076 3.9809418876165895e-07 0 -0.034999986692859107 3.879104986088124e-09 0 -0.034999994640555462 2.0295440815744167e-09 0 -0.034994439574389608 1.0641453264133489e-06 0 -0.034984249332655142 5.347662589719153e-07 0 -0.034994439574389608 1.0641453264133489e-06 0 -0.034991544879868094 -4.1513153516524329e-06 0 -0.035004609222184714 1.5558993051450945e-05 0 -0.035204656144624341 0.00014499281167259484 0 -0.034994439574389608 1.0641453264133489e-06 0 -0.034999020137235076 3.9809418876165895e-07 0 -0.034991544879868094 -4.1513153516524329e-06 0 -0.035066570651866392 7.2273101140332225e-05 0 -0.035087805789601932 0.00014266996571150932 0 -0.035053306920111847 0.00014579588718414206 0 -0.035066570651866392 7.2273101140332225e-05 0 -0.035053306920111847 0.00014579588718414206 0 -0.034990849052081094 6.4250631408670238e-05 0 -0.035565545385690407 0.00042948767018318612 0 -0.035277983591304247 0.00059035253101297484 0 -0.035053306920111847 0.00014579588718414206 0 -0.035087805789601932 0.00014266996571150932 0 -0.03508343665639313 0.0001446254478521274 0 -0.035053306920111847 0.00014579588718414206 0 -0.035676192147438016 0.00041352448652736421 0 -0.034944035385880083 8.4068351780195111e-05 0 -0.033810262866372516 7.1937287584118833e-07 0 -0.035204656144624341 0.00014499281167259484 0 -0.033546538774948113 0.00039977816496057021 0 -0.035676192147438016 0.00041352448652736421 0 -0.03504431720767201 0.00013332983743974863 0 -0.035087805789601932 0.00014266996571150932 0 -0.03508343665639313 0.0001446254478521274 0 -0.03555779079452609 0.00085980337099856826 0 -0.035764067543225204 0.00087502227679774872 0 -0.035565545385690407 0.00042948767018318612 0 -0.035764067543225204 0.00087502227679774872 0 -0.036011511669672709 0.00077191892208120427 0 -0.035565545385690407 0.00042948767018318612 0 -0.03555779079452609 0.00085980337099856826 0 -0.035565545385690407 0.00042948767018318612 0 -0.035277983591304247 0.00059035253101297484 0 -0.035277983591304247 0.00059035253101297484 0 -0.03493753686782388 0.00056851865566861202 0 -0.035053306920111847 0.00014579588718414206 0 -0.035219469198259371 0.0010346461960972905 0 -0.035277983591304247 0.00059035253101297484 0 -0.03493753686782388 0.00056851865566861202 0 -0.03493753686782388 0.00056851865566861202 0 -0.034613836511635077 0.00034311324491977145 0 -0.034826715719045713 0.00016648132354548929 0 -0.03493753686782388 0.00056851865566861202 0 -0.034613836511635077 0.00034311324491977145 0 -0.03447253999214081 0.00064743573064188317 0 -0.034613836511635077 0.00034311324491977145 0 -0.034343018316941719 0.00036933350863911429 0 -0.03447253999214081 0.00064743573064188317 0 -0.034613836511635077 0.00034311324491977145 0 -0.034826715719045713 0.00016648132354548929 0 -0.034649887822452888 0.00017862471184447863 0 -0.03493753686782388 0.00056851865566861202 0 -0.034826715719045713 0.00016648132354548929 0 -0.035053306920111847 0.00014579588718414206 0 -0.034826715719045713 0.00016648132354548929 0 -0.034990849052081094 6.4250631408670238e-05 0 -0.034904386053026093 5.0120253849534845e-05 0 -0.034826715719045713 0.00016648132354548929 0 -0.035053306920111847 0.00014579588718414206 0 -0.034990849052081094 6.4250631408670238e-05 0 -0.034826715719045713 0.00016648132354548929 0 -0.034904386053026093 5.0120253849534845e-05 0 -0.034649887822452888 0.00017862471184447863 0 -0.034904386053026093 5.0120253849534845e-05 0 -0.035000071568304231 -4.7811091021094333e-08 0 -0.034999764295644366 4.1136410728978448e-08 0 -0.035066570651866392 7.2273101140332225e-05 0 -0.034990849052081094 6.4250631408670238e-05 0 -0.035000071568304231 -4.7811091021094333e-08 0 -0.034990849052081094 6.4250631408670238e-05 0 -0.034904386053026093 5.0120253849534845e-05 0 -0.035000071568304231 -4.7811091021094333e-08 0 -0.034999776969251536 8.5772901637158851e-08 0 -0.034866600588661596 6.4027511037318693e-05 0 -0.034816436162397289 0.00010762493056767883 0 -0.034999776969251536 8.5772901637158851e-08 0 -0.034999764295644366 4.1136410728978448e-08 0 -0.034866600588661596 6.4027511037318693e-05 0 -0.034904386053026093 5.0120253849534845e-05 0 -0.034999764295644366 4.1136410728978448e-08 0 -0.034866600588661596 6.4027511037318693e-05 0 -0.034866600588661596 6.4027511037318693e-05 0 -0.034816436162397289 0.00010762493056767883 0 -0.034649887822452888 0.00017862471184447863 0 -0.034904386053026093 5.0120253849534845e-05 0 -0.034866600588661596 6.4027511037318693e-05 0 -0.034649887822452888 0.00017862471184447863 0 -0.034816436162397289 0.00010762493056767883 0 -0.034634023109724965 0.00020126783007533663 0 -0.034739567340167518 0.00017011239487584802 0 -0.034816436162397289 0.00010762493056767883 0 -0.034634023109724965 0.00020126783007533663 0 -0.034649887822452888 0.00017862471184447863 0 -0.034634023109724965 0.00020126783007533663 0 -0.034431578554033546 0.000290874831777966 0 -0.03459257471056932 0.00022686777714593968 0 -0.034634023109724965 0.00020126783007533663 0 -0.03459257471056932 0.00022686777714593968 0 -0.034739567340167518 0.00017011239487584802 0 -0.034634023109724965 0.00020126783007533663 0 -0.034649887822452888 0.00017862471184447863 0 -0.034431578554033546 0.000290874831777966 0 -0.034431578554033546 0.000290874831777966 0 -0.034343018316941719 0.00036933350863911429 0 -0.033913371951740781 0.00051117125743751709 0 -0.034613836511635077 0.00034311324491977145 0 -0.034649887822452888 0.00017862471184447863 0 -0.034343018316941719 0.00036933350863911429 0 -0.034649887822452888 0.00017862471184447863 0 -0.034431578554033546 0.000290874831777966 0 -0.034343018316941719 0.00036933350863911429 0 -0.034431578554033546 0.000290874831777966 0 -0.034397104355671081 0.00028879614346226812 0 -0.033913371951740781 0.00051117125743751709 0 -0.034397104355671081 0.00028879614346226812 0 -0.033913371951740781 0.00051117125743751709 0 -0.034640517268647433 0.00011523774154252778 0 -0.034431578554033546 0.000290874831777966 0 -0.03459257471056932 0.00022686777714593968 0 -0.034397104355671081 0.00028879614346226812 0 -0.03459257471056932 0.00022686777714593968 0 -0.034397104355671081 0.00028879614346226812 0 -0.034640517268647433 0.00011523774154252778 0 -0.033249302575240398 0.002038056856752382 0 -0.033913371951740781 0.00051117125743751709 0 -0.030144770264937153 0.00075778780747994066 0 -0.033903688995572404 0.00051537479199485563 0 -0.032403703102171673 4.1646077335717387e-05 0 -0.033913371951740781 0.00051117125743751709 0 -0.030144770264937153 0.00075778780747994066 0 -0.030124032949063913 -6.0816325697061547e-06 0 -0.031500618951521828 0.0015642470936743668 0 -0.029994407691489026 0.00064431229435731171 0 -0.02959981416918037 0.00086148719443546705 0 -0.029089533021745669 0.000927019431821959 0 -0.030144770264937153 0.00075778780747994066 0 -0.02959981416918037 0.00086148719443546705 0 -0.029089533021745669 0.000927019431821959 0 -0.029071582210428725 0.00079092707252264129 0 -0.02959981416918037 0.00086148719443546705 0 -0.029071582210428725 0.00079092707252264129 0 -0.029542268884145736 0.00081839099676310337 0 -0.033249302575240398 0.002038056856752382 0 -0.034205280269378933 0.0014004280157471438 0 -0.034387501371744629 0.0023612959478155802 0 -0.031500618951521828 0.0015642470936743668 0 -0.029397609467109505 0.0014102355900236251 0 -0.033913371951740781 0.00051117125743751709 0 -0.03447253999214081 0.00064743573064188317 0 -0.034205280269378933 0.0014004280157471438 0 -0.033249302575240398 0.002038056856752382 0 -0.033913371951740781 0.00051117125743751709 0 -0.034205280269378933 0.0014004280157471438 0 -0.034343018316941719 0.00036933350863911429 0 -0.033913371951740781 0.00051117125743751709 0 -0.03447253999214081 0.00064743573064188317 0 -0.03493753686782388 0.00056851865566861202 0 -0.03447253999214081 0.00064743573064188317 0 -0.034776354248848784 0.0012480543510792509 0 -0.03447253999214081 0.00064743573064188317 0 -0.034776354248848784 0.0012480543510792509 0 -0.034205280269378933 0.0014004280157471438 0 -0.035219469198259371 0.0010346461960972905 0 -0.03493753686782388 0.00056851865566861202 0 -0.034776354248848784 0.0012480543510792509 0 -0.035219469198259371 0.0010346461960972905 0 -0.034776354248848784 0.0012480543510792509 0 -0.035094903858940055 0.0017316969484695746 0 -0.034776354248848784 0.0012480543510792509 0 -0.035094903858940055 0.0017316969484695746 0 -0.034387501371744629 0.0023612959478155802 0 -0.034776354248848784 0.0012480543510792509 0 -0.034205280269378933 0.0014004280157471438 0 -0.034387501371744629 0.0023612959478155802 0 -0.030625078767955279 0.001450457359427552 0 -0.029397609467109505 0.0014102355900236251 0 -0.025891413356979438 0.0011941843724223226 0 -0.026317767438551843 0.0010175219465748475 0 -0.02587464085325579 0.00070184280926653122 0 -0.029397609467109505 0.0014102355900236251 0 -0.024967031429410119 0.00045706316220971702 0 -0.026902700910096444 0.0016802292657479938 0 -0.02587464085325579 0.00070184280926653122 0 -0.026791592956684273 0.00029517651662610249 0 -0.026902700910096444 0.0016802292657479938 0 -0.028686889346664642 0.00074845649434403933 0 -0.026791592956684273 0.00029517651662610249 0 -0.028686889346664642 0.00074845649434403933 0 -0.029222517117997792 0.00068184071990045995 0 -0.029386483405783988 0.00026036791571489476 0 -0.028686889346664642 0.00074845649434403933 0 -0.029386483405783988 0.00026036791571489476 0 -0.028847212549856435 -0.00016195039731161387 0 -0.029071582210428725 0.00079092707252264129 0 -0.029222517117997792 0.00068184071990045995 0 -0.029542268884145736 0.00081839099676310337 0 -0.028686889346664642 0.00074845649434403933 0 -0.029071582210428725 0.00079092707252264129 0 -0.029222517117997792 0.00068184071990045995 0 -0.029089533021745669 0.000927019431821959 0 -0.028837272482420021 0.0007851311383619726 0 -0.029071582210428725 0.00079092707252264129 0 -0.029397609467109505 0.0014102355900236251 0 -0.028069167490546026 0.00084177569428809166 0 -0.028837272482420021 0.0007851311383619726 0 -0.028686889346664642 0.00074845649434403933 0 -0.029071582210428725 0.00079092707252264129 0 -0.03006601108433795 0.00054950108556810261 0 -0.030138823101900896 4.2294089411051126e-05 0 -0.029816103496185829 0.00082320841132166582 0 -0.029656499819541517 0.00055272724313935992 0 -0.030166035320092315 1.2717659187118544e-05 0 -0.029816103496185829 0.00082320841132166582 0 -0.029656499819541517 0.00055272724313935992 0 -0.029542268884145736 0.00081839099676310337 0 -0.029222517117997792 0.00068184071990045995 0 -0.029656499819541517 0.00055272724313935992 0 -0.029542268884145736 0.00081839099676310337 0 -0.029222517117997792 0.00068184071990045995 0 -0.029656499819541517 0.00055272724313935992 0 -0.029386483405783988 0.00026036791571489476 0 -0.029656499819541517 0.00055272724313935992 0 -0.029386483405783988 0.00026036791571489476 0 -0.030166035320092315 1.2717659187118544e-05 0 -0.029386483405783988 0.00026036791571489476 0 -0.030166035320092315 1.2717659187118544e-05 0 -0.029742018886934424 -0.0004146330748405917 0 -0.030166035320092315 1.2717659187118544e-05 0 -0.030651478770569496 -9.3345161220793722e-05 0 -0.030509960067612196 -0.00033772614882955127 0 -0.030288601603381725 0.00039590688304315435 0 -0.030166035320092315 1.2717659187118544e-05 0 -0.030651478770569496 -9.3345161220793722e-05 0 -0.030651478770569496 -9.3345161220793722e-05 0 -0.030803471051401535 -0.00030109848326076764 0 -0.030509960067612196 -0.00033772614882955127 0 -0.030651478770569496 -9.3345161220793722e-05 0 -0.030803471051401535 -0.00030109848326076764 0 -0.031021113615313865 -0.00031795686574264537 0 -0.030803471051401535 -0.00030109848326076764 0 -0.030979182581768072 -0.00037735987054105143 0 -0.03062918801079861 -0.00047988273362482408 0 -0.030803471051401535 -0.00030109848326076764 0 -0.031021113615313865 -0.00031795686574264537 0 -0.030979182581768072 -0.00037735987054105143 0 -0.030651478770569496 -9.3345161220793722e-05 0 -0.031021113615313865 -0.00031795686574264537 0 -0.03132860916742148 -0.00059722574670332466 0 -0.031021113615313865 -0.00031795686574264537 0 -0.03132860916742148 -0.00059722574670332466 0 -0.031233005760483847 -0.00051608069837173298 0 -0.030704444643782108 -0.00014708345010705571 0 -0.031129156850356891 -4.6700969939464578e-05 0 -0.030288601603381725 0.00039590688304315435 0 -0.030651478770569496 -9.3345161220793722e-05 0 -0.030957135081645739 0.00055188584705820971 0 -0.030288601603381725 0.00039590688304315435 0 -0.030594566707229643 0.00070941362560643676 0 -0.030957135081645739 0.00055188584705820971 0 -0.030594566707229643 0.00070941362560643676 0 -0.030957135081645739 0.00055188584705820971 0 -0.030799581678973828 0.00097896735790149562 0 -0.03132860916742148 -0.00059722574670332466 0 -0.031702422434433067 -0.00088430066036065665 0 -0.031233005760483847 -0.00051608069837173298 0 -0.03132860916742148 -0.00059722574670332466 0 -0.031861559963956031 -0.00079106088574288074 0 -0.031702422434433067 -0.00088430066036065665 0 -0.030799581678973828 0.00097896735790149562 0 -0.030970718102703701 0.0012730196106197568 0 -0.031246636343363228 0.0011367169884743146 0 -0.030957135081645739 0.00055188584705820971 0 -0.030799581678973828 0.00097896735790149562 0 -0.031246636343363228 0.0011367169884743146 0 -0.031129156850356891 -4.6700969939464578e-05 0 -0.031422100711380963 0.00019043072042065133 0 -0.030799581678973828 0.00097896735790149562 0 -0.030338799087489918 0.00090056630460074274 0 -0.030686622952803732 0.0012457484345426361 0 -0.030594566707229643 0.00070941362560643676 0 -0.030799581678973828 0.00097896735790149562 0 -0.030338799087489918 0.00090056630460074274 0 -0.030799581678973828 0.00097896735790149562 0 -0.030686622952803732 0.0012457484345426361 0 -0.030970718102703701 0.0012730196106197568 0 -0.029601441565700045 0.00054707029357138962 0 -0.029523768814499769 0.00073052250705035618 0 -0.029332956742691721 0.00017935409553236392 0 -0.029756228256997256 0.00085252695058400489 0 -0.03234055362564698 0.00052943690686176981 0 -0.030338799087489918 0.00090056630460074274 0 -0.030358524419964453 0.0014083139529299054 0 -0.030686622952803732 0.0012457484345426361 0 -0.029601441565700045 0.00054707029357138962 0 -0.029523768814499769 0.00073052250705035618 0 -0.029685642551978118 0.00083977708465041297 0 -0.029816103496185829 0.00082320841132166582 0 -0.029523768814499769 0.00073052250705035618 0 -0.029685642551978118 0.00083977708465041297 0 -0.030288601603381725 0.00039590688304315435 0 -0.030594566707229643 0.00070941362560643676 0 -0.030338799087489918 0.00090056630460074274 0 -0.03006601108433795 0.00054950108556810261 0 -0.029756228256997256 0.00085252695058400489 0 -0.029816103496185829 0.00082320841132166582 0 -0.029542268884145736 0.00081839099676310337 0 -0.029685642551978118 0.00083977708465041297 0 -0.02959981416918037 0.00086148719443546705 0 -0.029542268884145736 0.00081839099676310337 0 -0.029685642551978118 0.00083977708465041297 0 -0.02959981416918037 0.00086148719443546705 0 -0.029685642551978118 0.00083977708465041297 0 -0.030144770264937153 0.00075778780747994066 0 -0.029685642551978118 0.00083977708465041297 0 -0.029770135997386017 0.00043877841736469404 0 -0.030144770264937153 0.00075778780747994066 0 -0.029601441565700045 0.00054707029357138962 0 -0.029685642551978118 0.00083977708465041297 0 -0.029770135997386017 0.00043877841736469404 0 -0.029770135997386017 0.00043877841736469404 0 -0.030144770264937153 0.00075778780747994066 0 -0.030124032949063913 -6.0816325697061547e-06 0 -0.032403703102171673 4.1646077335717387e-05 0 -0.03234055362564698 0.00052943690686176981 0 -0.034640517268647433 0.00011523774154252778 0 -0.034729694814038849 0.00016030331304037147 0 -0.034816741023199441 0.00011387576840069526 0 -0.029770135997386017 0.00043877841736469404 0 -0.030124032949063913 -6.0816325697061547e-06 0 -0.029332956742691721 0.00017935409553236392 0 -0.03459257471056932 0.00022686777714593968 0 -0.034640517268647433 0.00011523774154252778 0 -0.034729694814038849 0.00016030331304037147 0 -0.029601441565700045 0.00054707029357138962 0 -0.029770135997386017 0.00043877841736469404 0 -0.029332956742691721 0.00017935409553236392 0 -0.034851702207661428 7.5436750996488955e-05 0 -0.034858049867546051 0.00012519827836019983 0 -0.034926241407863767 0.00011432649386660971 0 -0.034816741023199441 0.00011387576840069526 0 -0.034858049867546051 0.00012519827836019983 0 -0.034797327391836698 0.00014738015130936027 0 -0.034858049867546051 0.00012519827836019983 0 -0.034797327391836698 0.00014738015130936027 0 -0.034874395894075698 0.00010650922978723223 0 -0.034729694814038849 0.00016030331304037147 0 -0.034816741023199441 0.00011387576840069526 0 -0.034797327391836698 0.00014738015130936027 0 -0.03234055362564698 0.00052943690686176981 0 -0.034781280103638554 -2.7570554959996237e-05 0 -0.034797327391836698 0.00014738015130936027 0 -0.034739567340167518 0.00017011239487584802 0 -0.034874395894075698 0.00010650922978723223 0 -0.03459257471056932 0.00022686777714593968 0 -0.034729694814038849 0.00016030331304037147 0 -0.034739567340167518 0.00017011239487584802 0 -0.034729694814038849 0.00016030331304037147 0 -0.034797327391836698 0.00014738015130936027 0 -0.034739567340167518 0.00017011239487584802 0 -0.034816436162397289 0.00010762493056767883 0 -0.034739567340167518 0.00017011239487584802 0 -0.034874395894075698 0.00010650922978723223 0 -0.034858049867546051 0.00012519827836019983 0 -0.034874395894075698 0.00010650922978723223 0 -0.03494899724716883 7.9393796976170406e-05 0 -0.034874395894075698 0.00010650922978723223 0 -0.034999875222479632 8.0722709947142174e-08 0 -0.03494899724716883 7.9393796976170406e-05 0 -0.034999776969251536 8.5772901637158851e-08 0 -0.034874395894075698 0.00010650922978723223 0 -0.034999875222479632 8.0722709947142174e-08 0 -0.034999776969251536 8.5772901637158851e-08 0 -0.034816436162397289 0.00010762493056767883 0 -0.034874395894075698 0.00010650922978723223 0 -0.034999971036519473 6.4541835817837489e-08 0 -0.034958122163975806 9.2668624903535847e-05 0 -0.034929975199039787 6.5937179338468882e-05 0 -0.034999971036519473 6.4541835817837489e-08 0 -0.03494899724716883 7.9393796976170406e-05 0 -0.034958122163975806 9.2668624903535847e-05 0 -0.034999875222479632 8.0722709947142174e-08 0 -0.034999971036519473 6.4541835817837489e-08 0 -0.03494899724716883 7.9393796976170406e-05 0 -0.03494899724716883 7.9393796976170406e-05 0 -0.034958122163975806 9.2668624903535847e-05 0 -0.034926241407863767 0.00011432649386660971 0 -0.034858049867546051 0.00012519827836019983 0 -0.03494899724716883 7.9393796976170406e-05 0 -0.034926241407863767 0.00011432649386660971 0 -0.034958122163975806 9.2668624903535847e-05 0 -0.034948090256698323 0.00012609522647249126 0 -0.034926241407863767 0.00011432649386660971 0 -0.034958122163975806 9.2668624903535847e-05 0 -0.034948090256698323 0.00012609522647249126 0 -0.034938883777531335 0.00012379968182016623 0 -0.033026753933000232 0.00089066580548768058 0 -0.033061645851441272 0.00082750847906627734 0 -0.034948090256698323 0.00012609522647249126 0 -0.034935216260792455 0.00010433331029883832 0 -0.034923296392494335 0.00021259879772766356 0 -0.03094532638181911 0.0015911280605740521 0 -0.03117681304825743 0.0014349135990937133 0 -0.031545932612844121 0.0017398845237818078 0 -0.034948090256698323 0.00012609522647249126 0 -0.034935216260792455 0.00010433331029883832 0 -0.034926241407863767 0.00011432649386660971 0 -0.034851702207661428 7.5436750996488955e-05 0 -0.034935216260792455 0.00010433331029883832 0 -0.034926241407863767 0.00011432649386660971 0 -0.030358524419964453 0.0014083139529299054 0 -0.03094532638181911 0.0015911280605740521 0 -0.030686622952803732 0.0012457484345426361 0 -0.03234055362564698 0.00052943690686176981 0 -0.033026753933000232 0.00089066580548768058 0 -0.03094532638181911 0.0015911280605740521 0 -0.03117681304825743 0.0014349135990937133 0 -0.030970718102703701 0.0012730196106197568 0 -0.03094532638181911 0.0015911280605740521 0 -0.030686622952803732 0.0012457484345426361 0 -0.030970718102703701 0.0012730196106197568 0 -0.03117681304825743 0.0014349135990937133 0 -0.030970718102703701 0.0012730196106197568 0 -0.031246636343363228 0.0011367169884743146 0 -0.03265355144326023 -0.00022699225790049981 0 -0.032739410674264051 0.0003915537605367191 0 -0.031861559963956031 -0.00079106088574288074 0 -0.033061645851441272 0.00082750847906627734 0 -0.031422100711380963 0.00019043072042065133 0 -0.032477055056023378 -0.00056210366669796094 0 -0.03265355144326023 -0.00022699225790049981 0 -0.031861559963956031 -0.00079106088574288074 0 -0.03117681304825743 0.0014349135990937133 0 -0.031545932612844121 0.0017398845237818078 0 -0.031246636343363228 0.0011367169884743146 0 -0.032477055056023378 -0.00056210366669796094 0 -0.032870486042537055 -0.00041167958808571129 0 -0.032512346511786305 -0.0007904996489923044 0 -0.032477055056023378 -0.00056210366669796094 0 -0.03265355144326023 -0.00022699225790049981 0 -0.032870486042537055 -0.00041167958808571129 0 -0.033164130627759796 -0.00062179810938324802 0 -0.033534277385418851 -0.00030350869935029666 0 -0.033733833701347617 -0.00055861002185233729 0 -0.033164130627759796 -0.00062179810938324802 0 -0.032870486042537055 -0.00041167958808571129 0 -0.033534277385418851 -0.00030350869935029666 0 -0.033164130627759796 -0.00062179810938324802 0 -0.032870486042537055 -0.00041167958808571129 0 -0.032512346511786305 -0.0007904996489923044 0 -0.03265355144326023 -0.00022699225790049981 0 -0.032870486042537055 -0.00041167958808571129 0 -0.0332027915343946 -0.00012814016035483857 0 -0.03265355144326023 -0.00022699225790049981 0 -0.0332027915343946 -0.00012814016035483857 0 -0.032900503245903247 0.00017770544458500489 0 -0.032870486042537055 -0.00041167958808571129 0 -0.0332027915343946 -0.00012814016035483857 0 -0.033534277385418851 -0.00030350869935029666 0 -0.0332027915343946 -0.00012814016035483857 0 -0.033534277385418851 -0.00030350869935029666 0 -0.033775423196869533 -3.8737492662053072e-05 0 -0.034923296392494335 0.00021259879772766356 0 -0.034842659906161033 0.00012184706965437309 0 -0.034463414694062985 0.00022023585528744023 0 -0.033061645851441272 0.00082750847906627734 0 -0.034641835043261869 0.00015059727434336962 0 -0.033428457515241955 0.00013699996956945026 0 -0.032739410674264051 0.0003915537605367191 0 -0.034463414694062985 0.00022023585528744023 0 -0.0332027915343946 -0.00012814016035483857 0 -0.033775423196869533 -3.8737492662053072e-05 0 -0.033428457515241955 0.00013699996956945026 0 -0.0332027915343946 -0.00012814016035483857 0 -0.033428457515241955 0.00013699996956945026 0 -0.032900503245903247 0.00017770544458500489 0 -0.033428457515241955 0.00013699996956945026 0 -0.032900503245903247 0.00017770544458500489 0 -0.032739410674264051 0.0003915537605367191 0 -0.033775423196869533 -3.8737492662053072e-05 0 -0.033428457515241955 0.00013699996956945026 0 -0.034463414694062985 0.00022023585528744023 0 -0.034948090256698323 0.00012609522647249126 0 -0.034923296392494335 0.00021259879772766356 0 -0.034938883777531335 0.00012379968182016623 0 -0.03265355144326023 -0.00022699225790049981 0 -0.032900503245903247 0.00017770544458500489 0 -0.032739410674264051 0.0003915537605367191 0 -0.034923296392494335 0.00021259879772766356 0 -0.034938883777531335 0.00012379968182016623 0 -0.034842659906161033 0.00012184706965437309 0 -0.034958122163975806 9.2668624903535847e-05 0 -0.034938883777531335 0.00012379968182016623 0 -0.034929975199039787 6.5937179338468882e-05 0 -0.034938883777531335 0.00012379968182016623 0 -0.034929975199039787 6.5937179338468882e-05 0 -0.034842659906161033 0.00012184706965437309 0 -0.034842659906161033 0.00012184706965437309 0 -0.034793194357716148 4.9604037741287602e-05 0 -0.034463414694062985 0.00022023585528744023 0 -0.034929975199039787 6.5937179338468882e-05 0 -0.034842659906161033 0.00012184706965437309 0 -0.034793194357716148 4.9604037741287602e-05 0 -0.034793194357716148 4.9604037741287602e-05 0 -0.034999847334365307 -1.5502038963481608e-08 0 -0.034999581010130232 5.0475750067959771e-08 0 -0.034929975199039787 6.5937179338468882e-05 0 -0.034793194357716148 4.9604037741287602e-05 0 -0.034999847334365307 -1.5502038963481608e-08 0 -0.034999971036519473 6.4541835817837489e-08 0 -0.034929975199039787 6.5937179338468882e-05 0 -0.034999847334365307 -1.5502038963481608e-08 0 -0.034999855362296134 1.1163929642703054e-07 0 -0.034999581010130232 5.0475750067959771e-08 0 -0.034737716587581687 9.073497676987004e-05 0 -0.034793194357716148 4.9604037741287602e-05 0 -0.034999581010130232 5.0475750067959771e-08 0 -0.034737716587581687 9.073497676987004e-05 0 -0.034793194357716148 4.9604037741287602e-05 0 -0.034463414694062985 0.00022023585528744023 0 -0.034737716587581687 9.073497676987004e-05 0 -0.034463414694062985 0.00022023585528744023 0 -0.034737716587581687 9.073497676987004e-05 0 -0.03458451224581386 -0.0001083961107738774 0 -0.034837197210388249 -0.00010255231572522792 0 -0.034737716587581687 9.073497676987004e-05 0 -0.03458451224581386 -0.0001083961107738774 0 -0.034463414694062985 0.00022023585528744023 0 -0.03458451224581386 -0.0001083961107738774 0 -0.03417925797820677 -0.00021235443701074337 0 -0.033775423196869533 -3.8737492662053072e-05 0 -0.034463414694062985 0.00022023585528744023 0 -0.03417925797820677 -0.00021235443701074337 0 -0.033534277385418851 -0.00030350869935029666 0 -0.03417925797820677 -0.00021235443701074337 0 -0.033733833701347617 -0.00055861002185233729 0 -0.033534277385418851 -0.00030350869935029666 0 -0.033775423196869533 -3.8737492662053072e-05 0 -0.03417925797820677 -0.00021235443701074337 0 -0.03417925797820677 -0.00021235443701074337 0 -0.034105524897722242 -0.00052548911926173685 0 -0.034419316550603027 -0.00051885317669349566 0 -0.034105524897722242 -0.00052548911926173685 0 -0.034419316550603027 -0.00051885317669349566 0 -0.034011092967848155 -0.00088499667720181674 0 -0.034105524897722242 -0.00052548911926173685 0 -0.033733833701347617 -0.00055861002185233729 0 -0.034011092967848155 -0.00088499667720181674 0 -0.03417925797820677 -0.00021235443701074337 0 -0.034105524897722242 -0.00052548911926173685 0 -0.033733833701347617 -0.00055861002185233729 0 -0.03458451224581386 -0.0001083961107738774 0 -0.03417925797820677 -0.00021235443701074337 0 -0.034419316550603027 -0.00051885317669349566 0 -0.034792920424448856 -0.00039047017730746647 0 -0.03458451224581386 -0.0001083961107738774 0 -0.034419316550603027 -0.00051885317669349566 0 -0.034792920424448856 -0.00039047017730746647 0 -0.034419316550603027 -0.00051885317669349566 0 -0.034651572953011939 -0.00065857328573863878 0 -0.034419316550603027 -0.00051885317669349566 0 -0.034651572953011939 -0.00065857328573863878 0 -0.034390137399153038 -0.00093035535333305466 0 -0.034644482555346051 -0.00095975853616323209 0 -0.034651572953011939 -0.00065857328573863878 0 -0.034390137399153038 -0.00093035535333305466 0 -0.034419316550603027 -0.00051885317669349566 0 -0.034390137399153038 -0.00093035535333305466 0 -0.034011092967848155 -0.00088499667720181674 0 -0.034390137399153038 -0.00093035535333305466 0 -0.034196200894480749 -0.0013204061571270094 0 -0.034011092967848155 -0.00088499667720181674 0 -0.034390137399153038 -0.00093035535333305466 0 -0.034472397510362601 -0.0013120164432375049 0 -0.034196200894480749 -0.0013204061571270094 0 -0.034644482555346051 -0.00095975853616323209 0 -0.034390137399153038 -0.00093035535333305466 0 -0.034472397510362601 -0.0013120164432375049 0 -0.034879842950377334 -0.0012783318311993738 0 -0.034472397510362601 -0.0013120164432375049 0 -0.034440002439988376 -0.0017284981280582582 0 -0.034472397510362601 -0.0013120164432375049 0 -0.034196200894480749 -0.0013204061571270094 0 -0.034232434557671637 -0.0015688368553272907 0 -0.034232434557671637 -0.0015688368553272907 0 -0.034440002439988376 -0.0017284981280582582 0 -0.034166731785192313 -0.0018168043820681252 0 -0.034472397510362601 -0.0013120164432375049 0 -0.034232434557671637 -0.0015688368553272907 0 -0.034440002439988376 -0.0017284981280582582 0 -0.033903128768879451 -0.0019282506859311245 0 -0.033725722615996802 -0.0013433878300563363 0 -0.033025424874710392 -0.0016305106543033152 0 -0.034232434557671637 -0.0015688368553272907 0 -0.033894643967959472 -0.0016799649648473116 0 -0.034166731785192313 -0.0018168043820681252 0 -0.034101522756748735 -0.00099532676526112892 0 -0.031394633097549099 -0.0016340363448979153 0 -0.034196200894480749 -0.0013204061571270094 0 -0.034232434557671637 -0.0015688368553272907 0 -0.033894643967959472 -0.0016799649648473116 0 -0.034196200894480749 -0.0013204061571270094 0 -0.033903128768879451 -0.0019282506859311245 0 -0.033725722615996802 -0.0013433878300563363 0 -0.033725722615996802 -0.0013433878300563363 0 -0.034011092967848155 -0.00088499667720181674 0 -0.033396257054090203 -0.0010019173323200928 0 -0.034196200894480749 -0.0013204061571270094 0 -0.033725722615996802 -0.0013433878300563363 0 -0.034011092967848155 -0.00088499667720181674 0 -0.033733833701347617 -0.00055861002185233729 0 -0.034011092967848155 -0.00088499667720181674 0 -0.033396257054090203 -0.0010019173323200928 0 -0.033164130627759796 -0.00062179810938324802 0 -0.033733833701347617 -0.00055861002185233729 0 -0.033396257054090203 -0.0010019173323200928 0 -0.033396257054090203 -0.0010019173323200928 0 -0.032512346511786305 -0.0007904996489923044 0 -0.033025424874710392 -0.0016305106543033152 0 -0.033164130627759796 -0.00062179810938324802 0 -0.033396257054090203 -0.0010019173323200928 0 -0.032512346511786305 -0.0007904996489923044 0 -0.033725722615996802 -0.0013433878300563363 0 -0.033396257054090203 -0.0010019173323200928 0 -0.033025424874710392 -0.0016305106543033152 0 -0.032512346511786305 -0.0007904996489923044 0 -0.031702422434433067 -0.00088430066036065665 0 -0.033025424874710392 -0.0016305106543033152 0 -0.031861559963956031 -0.00079106088574288074 0 -0.032512346511786305 -0.0007904996489923044 0 -0.031702422434433067 -0.00088430066036065665 0 -0.032477055056023378 -0.00056210366669796094 0 -0.031861559963956031 -0.00079106088574288074 0 -0.032512346511786305 -0.0007904996489923044 0 -0.031669416396360138 -0.00091460612691820098 0 -0.032136601820776892 -0.0011614659020771432 0 -0.031702422434433067 -0.00088430066036065665 0 -0.031233005760483847 -0.00051608069837173298 0 -0.030982173904074418 -0.00071668711525082346 0 -0.031394633097549099 -0.0016340363448979153 0 -0.032136601820776892 -0.0011614659020771432 0 -0.030675541628254591 -0.00057643348110683482 0 -0.030982173904074418 -0.00071668711525082346 0 -0.030956978725788526 -0.00050083348344658767 0 -0.031233005760483847 -0.00051608069837173298 0 -0.030982173904074418 -0.00071668711525082346 0 -0.030956978725788526 -0.00050083348344658767 0 -0.030956978725788526 -0.00050083348344658767 0 -0.031076476465832652 -0.00034853043553605047 0 -0.030763749145963956 -0.00043497899458550904 0 -0.032664040995225817 0.00018717498271721925 0 -0.026872367048706818 -0.0019148855484206815 0 -0.031021113615313865 -0.00031795686574264537 0 -0.031233005760483847 -0.00051608069837173298 0 -0.031076476465832652 -0.00034853043553605047 0 -0.031233005760483847 -0.00051608069837173298 0 -0.030956978725788526 -0.00050083348344658767 0 -0.031076476465832652 -0.00034853043553605047 0 -0.031021113615313865 -0.00031795686574264537 0 -0.031076476465832652 -0.00034853043553605047 0 -0.030979182581768072 -0.00037735987054105143 0 -0.031076476465832652 -0.00034853043553605047 0 -0.030979182581768072 -0.00037735987054105143 0 -0.031121994566301971 -0.00039665975602779386 0 -0.018329731432173396 -0.0022128239824240666 0 -0.017993399751381395 -0.002303682982157604 0 -0.018050849300287185 -0.0026267994132746697 0 -0.031076476465832652 -0.00034853043553605047 0 -0.031121994566301971 -0.00039665975602779386 0 -0.031034095117674878 -0.00039253159567244762 0 -0.024360972121683762 -0.0015177818948591628 0 -0.026872367048706818 -0.0019148855484206815 0 -0.017993399751381395 -0.002303682982157604 0 -0.017663281066164865 -0.0022111119831817357 0 -0.01784118701891739 -0.0025213821895016426 0 -0.017663281066164865 -0.0022111119831817357 0 -0.017388060937927999 -0.0022171889687422849 0 -0.017379108556307702 -0.0020275616538707507 0 -0.017663281066164865 -0.0022111119831817357 0 -0.017388060937927999 -0.0022171889687422849 0 -0.017488565346486452 -0.0024108364787772522 0 -0.017265615944764015 -0.0023122685205808104 0 -0.017388060937927999 -0.0022171889687422849 0 -0.017488565346486452 -0.0024108364787772522 0 -0.017663281066164865 -0.0022111119831817357 0 -0.017488565346486452 -0.0024108364787772522 0 -0.01784118701891739 -0.0025213821895016426 0 -0.017079498785197374 -0.0024367779621657128 0 -0.017488565346486452 -0.0024108364787772522 0 -0.017610668627365121 -0.0027245352658652883 0 -0.022001352076249241 -0.0023145646714876652 0 -0.0178194458735376 -0.0035071848312462472 0 -0.017488565346486452 -0.0024108364787772522 0 -0.017610668627365121 -0.0027245352658652883 0 -0.01784118701891739 -0.0025213821895016426 0 -0.0241494296431858 -0.0021375742124515548 0 -0.023796334433890572 -0.0020259351941273019 0 -0.023631531844606233 -0.0021815942398038793 0 -0.027665319678441106 -0.00094615857729566353 0 -0.022001352076249241 -0.0023145646714876652 0 -0.027665319678441106 -0.00094615857729566353 0 -0.025538703440095633 -0.0022711205252143622 0 -0.026148004614329118 -0.001307580296499156 0 -0.024760114873543602 -0.00264222752586468 0 -0.023645309668854374 -0.0021137167790278742 0 -0.017796715139478791 -0.0026357835265884643 0 -0.017828119487274755 -0.0026562644143645177 0 -0.01784118701891739 -0.0025213821895016426 0 -0.022001352076249241 -0.0023145646714876652 0 -0.025538703440095633 -0.0022711205252143622 0 -0.027992871117833509 -0.0020875236888936717 0 -0.027525167870626015 -0.0018673920241849828 0 -0.028266655357689716 -0.0016386688038159904 0 -0.030675541628254591 -0.00057643348110683482 0 -0.030956978725788526 -0.00050083348344658767 0 -0.030763749145963956 -0.00043497899458550904 0 -0.025538703440095633 -0.0022711205252143622 0 -0.026872367048706818 -0.0019148855484206815 0 -0.031394633097549099 -0.0016340363448979153 0 -0.025538703440095633 -0.0022711205252143622 0 -0.031394633097549099 -0.0016340363448979153 0 -0.026872367048706818 -0.0019148855484206815 0 -0.017993399751381395 -0.002303682982157604 0 -0.018050849300287185 -0.0026267994132746697 0 -0.01784118701891739 -0.0025213821895016426 0 -0.017828119487274755 -0.0026562644143645177 0 -0.018050849300287185 -0.0026267994132746697 0 -0.01784118701891739 -0.0025213821895016426 0 -0.017888732656730747 -0.0017385926249980934 0 -0.018168412684621698 -0.0011137478573138668 0 -0.017339592862950212 -0.0010017737280714127 0 -0.01736364308768093 -0.0015657712806990427 0 -0.017888732656730747 -0.0017385926249980934 0 -0.017339592862950212 -0.0010017737280714127 0 -0.016805181255027082 -0.0014859546733644903 0 -0.01736364308768093 -0.0015657712806990427 0 -0.017379108556307702 -0.0020275616538707507 0 -0.016805181255027082 -0.0014859546733644903 0 -0.01736364308768093 -0.0015657712806990427 0 -0.017339592862950212 -0.0010017737280714127 0 -0.01736364308768093 -0.0015657712806990427 0 -0.017379108556307702 -0.0020275616538707507 0 -0.017888732656730747 -0.0017385926249980934 0 -0.017663281066164865 -0.0022111119831817357 0 -0.017379108556307702 -0.0020275616538707507 0 -0.017888732656730747 -0.0017385926249980934 0 -0.017993399751381395 -0.002303682982157604 0 -0.017663281066164865 -0.0022111119831817357 0 -0.017888732656730747 -0.0017385926249980934 0 -0.018329731432173396 -0.0022128239824240666 0 -0.017993399751381395 -0.002303682982157604 0 -0.017888732656730747 -0.0017385926249980934 0 -0.024360972121683762 -0.0015177818948591628 0 -0.025701822570571232 -0.00068198688811786754 0 -0.018329731432173396 -0.0022128239824240666 0 -0.017888732656730747 -0.0017385926249980934 0 -0.018637512563380223 -0.0017138725340618722 0 -0.030979182581768072 -0.00037735987054105143 0 -0.031137138051341679 -0.00080553617247706543 0 -0.03062918801079861 -0.00047988273362482408 0 -0.030979182581768072 -0.00037735987054105143 0 -0.031121994566301971 -0.00039665975602779386 0 -0.031137138051341679 -0.00080553617247706543 0 -0.018637512563380223 -0.0017138725340618722 0 -0.018168412684621698 -0.0011137478573138668 0 -0.018941923138759573 -0.001200389097747633 0 -0.025701822570571232 -0.00068198688811786754 0 -0.018485501328024168 -0.0027861073781878564 0 -0.031137138051341679 -0.00080553617247706543 0 -0.030710037586126591 -0.00184731944591057 0 -0.030517995501775468 -0.0012188458782933771 0 -0.017888732656730747 -0.0017385926249980934 0 -0.018637512563380223 -0.0017138725340618722 0 -0.018168412684621698 -0.0011137478573138668 0 -0.0071013419590241125 -0.0089297986244292922 0 -0.0076238265929869367 -0.0075105147288425326 0 -0.0059258725252330363 -0.0080018272643078304 0 -0.0071013419590241125 -0.0089297986244292922 0 -0.0076238265929869367 -0.0075105147288425326 0 -0.010215986210724823 -0.0092032134000799796 0 -0.011793744906962196 -0.0052819997458067296 0 -0.018485501328024168 -0.0027861073781878564 0 -0.0076238265929869367 -0.0075105147288425326 0 -0.010215986210724823 -0.0092032134000799796 0 -0.010498873088591997 -0.0087452846807969092 0 -0.0060623991775644792 -0.007832893768942634 0 -0.012075353968784076 -0.0063451948187050917 0 -0.0067767152427845494 -0.0074701806157854425 0 -0.0056264323624291212 -0.0077103870026080422 0 -0.0054794002704395871 -0.0068799146963892215 0 -0.0067767152427845494 -0.0074701806157854425 0 -0.0056264323624291212 -0.0077103870026080422 0 -0.0071809525316178149 -0.0086482252060332294 0 -0.0056264323624291212 -0.0077103870026080422 0 -0.0050979697325538986 -0.0067778924950286801 0 -0.0054794002704395871 -0.0068799146963892215 0 -0.0076238265929869367 -0.0075105147288425326 0 -0.0058802659791298778 -0.0074866496748080928 0 -0.0059258725252330363 -0.0080018272643078304 0 -0.0060623991775644792 -0.007832893768942634 0 -0.005434870374981176 -0.0068323303771291389 0 -0.0076238265929869367 -0.0075105147288425326 0 -0.0058802659791298778 -0.0074866496748080928 0 -0.0050979697325538986 -0.0067778924950286801 0 -0.0058802659791298778 -0.0074866496748080928 0 -0.0049955691949175266 -0.0076016071624406224 0 -0.0050979697325538986 -0.0067778924950286801 0 -0.0058802659791298778 -0.0074866496748080928 0 -0.0059258725252330363 -0.0080018272643078304 0 -0.0049955691949175266 -0.0076016071624406224 0 -0.0071013419590241125 -0.0089297986244292922 0 -0.0059258725252330363 -0.0080018272643078304 0 -0.0046714172292513035 -0.0085166245291787689 0 -0.011793744906962196 -0.0052819997458067296 0 -0.011198676737496534 -0.0047408337078379973 0 -0.0059258725252330363 -0.0080018272643078304 0 -0.0046714172292513035 -0.0085166245291787689 0 -0.0049955691949175266 -0.0076016071624406224 0 -0.0046714172292513035 -0.0085166245291787689 0 -0.0049955691949175266 -0.0076016071624406224 0 -0.0041924386634506648 -0.0071731078717512898 0 -0.0049955691949175266 -0.0076016071624406224 0 -0.0041924386634506648 -0.0071731078717512898 0 -0.0050979697325538986 -0.0067778924950286801 0 -0.0011033209170657275 -0.0066964035335739394 0 -0.0030892330960837671 -0.0069570562390019949 0 -0.0024432296310339797 -0.0061658163256176511 0 -0.0021170924260905245 -0.0064875691902131225 0 -0.0040353965582202193 -0.0067340051570038287 0 -0.0031077536907155091 -0.0062713316808586349 0 -0.0041924386634506648 -0.0071731078717512898 0 -0.0049980365476638066 -0.0065291149365239894 0 -0.0041924386634506648 -0.0071731078717512898 0 -0.0049980365476638066 -0.0065291149365239894 0 -0.0050979697325538986 -0.0067778924950286801 0 -0.0030892330960837671 -0.0069570562390019949 0 -0.0024432296310339797 -0.0061658163256176511 0 -0.0034078145564035794 -0.0060324652024493731 0 -0.0040353965582202193 -0.0067340051570038287 0 -0.0053801431133108637 -0.0068544918292333824 0 -0.0049980365476638066 -0.0065291149365239894 0 -0.0050979697325538986 -0.0067778924950286801 0 -0.0054794002704395871 -0.0068799146963892215 0 -0.0030892330960837671 -0.0069570562390019949 0 -0.0043081023168601287 -0.006208082502554872 0 -0.0054794002704395871 -0.0068799146963892215 0 -0.0030892330960837671 -0.0069570562390019949 0 -0.0043081023168601287 -0.006208082502554872 0 -0.0034078145564035794 -0.0060324652024493731 0 -0.0043081023168601287 -0.006208082502554872 0 -0.0034078145564035794 -0.0060324652024493731 0 -0.0041299536585018143 -0.0053341157489432411 0 -0.0034078145564035794 -0.0060324652024493731 0 -0.0041299536585018143 -0.0053341157489432411 0 -0.0028860816803007866 -0.0054271423837462919 0 -0.0016028033155541029 -0.0056002535421066958 0 -0.0028860816803007866 -0.0054271423837462919 0 -0.0021964937274052405 -0.0047002284785722191 0 -0.0016028033155541029 -0.0056002535421066958 0 -0.0024432296310339797 -0.0061658163256176511 0 -0.0028860816803007866 -0.0054271423837462919 0 -0.0024432296310339797 -0.0061658163256176511 0 -0.0034078145564035794 -0.0060324652024493731 0 -0.0028860816803007866 -0.0054271423837462919 0 -0.0021964937274052405 -0.0047002284785722191 0 -0.003193786222257607 -0.0043676696747306587 0 -0.0019870651994656 -0.0033855579866546239 0 -0.0028860816803007866 -0.0054271423837462919 0 -0.0021964937274052405 -0.0047002284785722191 0 -0.003193786222257607 -0.0043676696747306587 0 -0.0041299536585018143 -0.0053341157489432411 0 -0.0028860816803007866 -0.0054271423837462919 0 -0.003193786222257607 -0.0043676696747306587 0 -0.0041299536585018143 -0.0053341157489432411 0 -0.0043761235742564818 -0.0043072643333614 0 -0.003193786222257607 -0.0043676696747306587 0 -0.0043761235742564818 -0.0043072643333614 0 -0.003193786222257607 -0.0043676696747306587 0 -0.0039558625158635351 -0.003459596492888321 0 -0.003193786222257607 -0.0043676696747306587 0 -0.0039558625158635351 -0.003459596492888321 0 -0.0019870651994656 -0.0033855579866546239 0 -0.0039558625158635351 -0.003459596492888321 0 -0.0019870651994656 -0.0033855579866546239 0 -0.0030612098973278631 -0.0023375960242629406 0 -0.0064662097702835892 -0.003757564664096321 0 -0.0059623132250599736 -0.0031094788599804152 0 -0.0052982006434803899 -0.0035516039923654138 0 -0.0064662097702835892 -0.003757564664096321 0 -0.0052982006434803899 -0.0035516039923654138 0 -0.0061072387457173118 -0.0044432141122081577 0 -0.0064662097702835892 -0.003757564664096321 0 -0.0059623132250599736 -0.0031094788599804152 0 -0.0066128570853734537 -0.0026221294334751342 0 -0.0064662097702835892 -0.003757564664096321 0 -0.0073016358938095228 -0.0036465771862992536 0 -0.0066128570853734537 -0.0026221294334751342 0 -0.0059623132250599736 -0.0031094788599804152 0 -0.0052982006434803899 -0.0035516039923654138 0 -0.0053334875112405105 -0.0023631876166678419 0 -0.0043761235742564818 -0.0043072643333614 0 -0.0039558625158635351 -0.003459596492888321 0 -0.0052982006434803899 -0.0035516039923654138 0 -0.0039558625158635351 -0.003459596492888321 0 -0.0052982006434803899 -0.0035516039923654138 0 -0.0042533092179531731 -0.0025261066231993209 0 -0.0052982006434803899 -0.0035516039923654138 0 -0.0053089940530672971 -0.0048174528514258628 0 -0.0061072387457173118 -0.0044432141122081577 0 -0.0043761235742564818 -0.0043072643333614 0 -0.0052982006434803899 -0.0035516039923654138 0 -0.0053089940530672971 -0.0048174528514258628 0 -0.0041299536585018143 -0.0053341157489432411 0 -0.0043761235742564818 -0.0043072643333614 0 -0.0053089940530672971 -0.0048174528514258628 0 -0.0053089940530672971 -0.0048174528514258628 0 -0.0061072387457173118 -0.0044432141122081577 0 -0.0064990223781377782 -0.005444538338354718 0 -0.0064662097702835892 -0.003757564664096321 0 -0.0061072387457173118 -0.0044432141122081577 0 -0.0068949757824723432 -0.0046787848597745216 0 -0.0061072387457173118 -0.0044432141122081577 0 -0.0068949757824723432 -0.0046787848597745216 0 -0.0064990223781377782 -0.005444538338354718 0 -0.0064990223781377782 -0.005444538338354718 0 -0.0063622667937190472 -0.0064149350883237061 0 -0.00766031608078832 -0.0063082118773420967 0 -0.0064990223781377782 -0.005444538338354718 0 -0.0053529647826939435 -0.0057976676547490565 0 -0.0063622667937190472 -0.0064149350883237061 0 -0.0053089940530672971 -0.0048174528514258628 0 -0.0064990223781377782 -0.005444538338354718 0 -0.0053529647826939435 -0.0057976676547490565 0 -0.0041299536585018143 -0.0053341157489432411 0 -0.0053089940530672971 -0.0048174528514258628 0 -0.0053529647826939435 -0.0057976676547490565 0 -0.0043081023168601287 -0.006208082502554872 0 -0.0041299536585018143 -0.0053341157489432411 0 -0.0053529647826939435 -0.0057976676547490565 0 -0.0043081023168601287 -0.006208082502554872 0 -0.0053529647826939435 -0.0057976676547490565 0 -0.0054794002704395871 -0.0068799146963892215 0 -0.0053529647826939435 -0.0057976676547490565 0 -0.0054794002704395871 -0.0068799146963892215 0 -0.0063622667937190472 -0.0064149350883237061 0 -0.0067767152427845494 -0.0074701806157854425 0 -0.0054794002704395871 -0.0068799146963892215 0 -0.0063622667937190472 -0.0064149350883237061 0 -0.0067767152427845494 -0.0074701806157854425 0 -0.0063622667937190472 -0.0064149350883237061 0 -0.00766031608078832 -0.0063082118773420967 0 -0.0067767152427845494 -0.0074701806157854425 0 -0.00766031608078832 -0.0063082118773420967 0 -0.0081284654234220419 -0.0073186164118328248 0 -0.00766031608078832 -0.0063082118773420967 0 -0.0092955266177354272 -0.0059280885537166374 0 -0.0081284654234220419 -0.0073186164118328248 0 -0.014445373510959919 -0.002135914484382015 0 -0.015136523204453337 -0.0028680038296268855 0 -0.013578369434537435 -0.0034555197058940756 0 -0.011937502540640309 -0.0039858127575680491 0 -0.010546162679631261 -0.0055518727194333846 0 -0.00766031608078832 -0.0063082118773420967 0 -0.0092955266177354272 -0.0059280885537166374 0 -0.0084776088665034447 -0.0053355735821834253 0 -0.0064990223781377782 -0.005444538338354718 0 -0.00766031608078832 -0.0063082118773420967 0 -0.0074624918394964272 -0.0052690806364278763 0 -0.00766031608078832 -0.0063082118773420967 0 -0.0084776088665034447 -0.0053355735821834253 0 -0.0074624918394964272 -0.0052690806364278763 0 -0.0068949757824723432 -0.0046787848597745216 0 -0.0064990223781377782 -0.005444538338354718 0 -0.0074624918394964272 -0.0052690806364278763 0 -0.0068949757824723432 -0.0046787848597745216 0 -0.0074624918394964272 -0.0052690806364278763 0 -0.0078134654919793101 -0.0045374932950428808 0 -0.0064662097702835892 -0.003757564664096321 0 -0.0068949757824723432 -0.0046787848597745216 0 -0.0073016358938095228 -0.0036465771862992536 0 -0.0068949757824723432 -0.0046787848597745216 0 -0.0078134654919793101 -0.0045374932950428808 0 -0.0073016358938095228 -0.0036465771862992536 0 -0.0084776088665034447 -0.0053355735821834253 0 -0.0074624918394964272 -0.0052690806364278763 0 -0.0078134654919793101 -0.0045374932950428808 0 -0.0085566645428229258 -0.0052771521138018224 0 -0.0096459127519142231 -0.0036366788497879943 0 -0.0084776088665034447 -0.0053355735821834253 0 -0.0090748854313476655 -0.0040130102561861296 0 -0.0095268016948711533 -0.0035322707691516192 0 -0.0084776088665034447 -0.0053355735821834253 0 -0.0084068324950506632 -0.0043673013166380375 0 -0.0090748854313476655 -0.0040130102561861296 0 -0.0084776088665034447 -0.0053355735821834253 0 -0.0078134654919793101 -0.0045374932950428808 0 -0.0084068324950506632 -0.0043673013166380375 0 -0.0078134654919793101 -0.0045374932950428808 0 -0.0084068324950506632 -0.0043673013166380375 0 -0.0082500082566379675 -0.0035512352413354722 0 -0.0090932006733903843 -0.0039183365270480976 0 -0.0092045389830480197 -0.0022459028966384971 0 -0.0090748854313476655 -0.0040130102561861296 0 -0.0095268016948711533 -0.0035322707691516192 0 -0.0093970578816337195 -0.0023764317452756095 0 -0.0084068324950506632 -0.0043673013166380375 0 -0.0082500082566379675 -0.0035512352413354722 0 -0.0090748854313476655 -0.0040130102561861296 0 -0.0082500082566379675 -0.0035512352413354722 0 -0.0090748854313476655 -0.0040130102561861296 0 -0.0090567018623707116 -0.0020276834637277231 0 -0.0082500082566379675 -0.0035512352413354722 0 -0.0073016358938095228 -0.0036465771862992536 0 -0.0077918236303311534 -0.0026981585580048094 0 -0.0073016358938095228 -0.0036465771862992536 0 -0.0077918236303311534 -0.0026981585580048094 0 -0.0066128570853734537 -0.0026221294334751342 0 -0.0078134654919793101 -0.0045374932950428808 0 -0.0082500082566379675 -0.0035512352413354722 0 -0.0073016358938095228 -0.0036465771862992536 0 -0.012884709160470621 -0.0028950333286616452 0 -0.013688790944213972 -0.0019380915858083884 0 -0.015605152730806034 -0.0012472226066564192 0 -0.015178932176176623 -0.0013231938437742775 0 -0.015475294205438672 -0.00086419603321308031 0 -0.0098099029657139694 -0.0036721770955735994 0 -0.01062290888073692 -0.0044604745654623357 0 -0.011892420299424057 -0.0030537850690317415 0 -0.0084776088665034447 -0.0053355735821834253 0 -0.0098099029657139694 -0.0036721770955735994 0 -0.01062290888073692 -0.0044604745654623357 0 -0.011937502540640309 -0.0039858127575680491 0 -0.012884709160470621 -0.0028950333286616452 0 -0.015178932176176623 -0.0013231938437742775 0 -0.015643190096840624 -0.0015711491896641244 0 -0.015477419988378772 -0.0019887346964401658 0 -0.015605152730806034 -0.0012472226066564192 0 -0.015178932176176623 -0.0013231938437742775 0 -0.015643190096840624 -0.0015711491896641244 0 -0.015643190096840624 -0.0015711491896641244 0 -0.015477419988378772 -0.0019887346964401658 0 -0.016108284318180646 -0.0019287271481457104 0 -0.014445373510959919 -0.002135914484382015 0 -0.015477419988378772 -0.0019887346964401658 0 -0.015136523204453337 -0.0028680038296268855 0 -0.0092955266177354272 -0.0059280885537166374 0 -0.0084776088665034447 -0.0053355735821834253 0 -0.01062290888073692 -0.0044604745654623357 0 -0.014445373510959919 -0.002135914484382015 0 -0.015178932176176623 -0.0013231938437742775 0 -0.015477419988378772 -0.0019887346964401658 0 -0.015136523204453337 -0.0028680038296268855 0 -0.016141424208068827 -0.0037853350703970427 0 -0.016380187507077638 -0.0025086072104726154 0 -0.015477419988378772 -0.0019887346964401658 0 -0.015136523204453337 -0.0028680038296268855 0 -0.016380187507077638 -0.0025086072104726154 0 -0.016141424208068827 -0.0037853350703970427 0 -0.01571893136017604 -0.0045888458112340012 0 -0.014891330465337745 -0.0040317044553780023 0 -0.015136523204453337 -0.0028680038296268855 0 -0.016141424208068827 -0.0037853350703970427 0 -0.014891330465337745 -0.0040317044553780023 0 -0.02463257105138696 -0.0022388202823841801 0 -0.020925277515983408 -0.0030429809969121225 0 -0.01571893136017604 -0.0045888458112340012 0 -0.015497785341032893 -0.0054326741323390661 0 -0.01710108289357706 -0.0049395454148654467 0 -0.016141424208068827 -0.0037853350703970427 0 -0.01571893136017604 -0.0045888458112340012 0 -0.01710108289357706 -0.0049395454148654467 0 -0.01571893136017604 -0.0045888458112340012 0 -0.015041632472083222 -0.0048136069657339154 0 -0.015497785341032893 -0.0054326741323390661 0 -0.014468032830644423 -0.0046925594298148441 0 -0.014891330465337745 -0.0040317044553780023 0 -0.013958978021244158 -0.0044124189053611103 0 -0.014475012058965137 -0.0052424241773811938 0 -0.015041632472083222 -0.0048136069657339154 0 -0.015497785341032893 -0.0054326741323390661 0 -0.014475012058965137 -0.0052424241773811938 0 -0.015041632472083222 -0.0048136069657339154 0 -0.014468032830644423 -0.0046925594298148441 0 -0.01571893136017604 -0.0045888458112340012 0 -0.015041632472083222 -0.0048136069657339154 0 -0.014891330465337745 -0.0040317044553780023 0 -0.015041632472083222 -0.0048136069657339154 0 -0.014468032830644423 -0.0046925594298148441 0 -0.014891330465337745 -0.0040317044553780023 0 -0.015136523204453337 -0.0028680038296268855 0 -0.014891330465337745 -0.0040317044553780023 0 -0.013578369434537435 -0.0034555197058940756 0 -0.014891330465337745 -0.0040317044553780023 0 -0.013578369434537435 -0.0034555197058940756 0 -0.013958978021244158 -0.0044124189053611103 0 -0.010546162679631261 -0.0055518727194333846 0 -0.012075353968784076 -0.0063451948187050917 0 -0.0067767152427845494 -0.0074701806157854425 0 -0.0081284654234220419 -0.0073186164118328248 0 -0.0071809525316178149 -0.0086482252060332294 0 -0.013578369434537435 -0.0034555197058940756 0 -0.012806555681102356 -0.0048213079117576186 0 -0.013958978021244158 -0.0044124189053611103 0 -0.013456989355892056 -0.0051293522511858276 0 -0.012806555681102356 -0.0048213079117576186 0 -0.013958978021244158 -0.0044124189053611103 0 -0.023625644870743086 -0.0036039116777699825 0 -0.012075353968784076 -0.0063451948187050917 0 -0.023625644870743086 -0.0036039116777699825 0 -0.018485501328024168 -0.0027861073781878564 0 -0.021959796935039889 -0.0052254649512763398 0 -0.014801082056545317 -0.0045313459733998928 0 -0.016136130840066296 -0.0023604521662854397 0 -0.018485501328024168 -0.0027861073781878564 0 -0.012075353968784076 -0.0063451948187050917 0 -0.020716720002164561 -0.0035061621991510474 0 -0.023625644870743086 -0.0036039116777699825 0 -0.014475012058965137 -0.0052424241773811938 0 -0.013456989355892056 -0.0051293522511858276 0 -0.01409086514496008 -0.0048689406557717151 0 -0.014468032830644423 -0.0046925594298148441 0 -0.013958978021244158 -0.0044124189053611103 0 -0.01409086514496008 -0.0048689406557717151 0 -0.013456989355892056 -0.0051293522511858276 0 -0.013958978021244158 -0.0044124189053611103 0 -0.01409086514496008 -0.0048689406557717151 0 -0.014475012058965137 -0.0052424241773811938 0 -0.014468032830644423 -0.0046925594298148441 0 -0.01409086514496008 -0.0048689406557717151 0 -0.028721275529982309 -0.0019056488843057079 0 -0.029584283584524289 -0.0019687644068339923 0 -0.028866214261436252 -0.0015007634171195978 0 -0.023625644870743086 -0.0036039116777699825 0 -0.030421516269437617 -0.0022107029208664536 0 -0.030017797015427464 -0.001900714351571472 0 -0.028866214261436252 -0.0015007634171195978 0 -0.029825794126928096 -0.0012046677431982063 0 -0.029825794126928096 -0.0012046677431982063 0 -0.028978932564973709 -0.00096487799474374045 0 -0.03062918801079861 -0.00047988273362482408 0 -0.028866214261436252 -0.0015007634171195978 0 -0.029825794126928096 -0.0012046677431982063 0 -0.028978932564973709 -0.00096487799474374045 0 -0.030017797015427464 -0.001900714351571472 0 -0.030710037586126591 -0.00184731944591057 0 -0.030517995501775468 -0.0012188458782933771 0 -0.030017797015427464 -0.001900714351571472 0 -0.029825794126928096 -0.0012046677431982063 0 -0.030517995501775468 -0.0012188458782933771 0 -0.029825794126928096 -0.0012046677431982063 0 -0.030517995501775468 -0.0012188458782933771 0 -0.03062918801079861 -0.00047988273362482408 0 -0.031137138051341679 -0.00080553617247706543 0 -0.030517995501775468 -0.0012188458782933771 0 -0.03062918801079861 -0.00047988273362482408 0 -0.030803471051401535 -0.00030109848326076764 0 -0.03062918801079861 -0.00047988273362482408 0 -0.030509960067612196 -0.00033772614882955127 0 -0.030445996738226386 -0.00056158298049513759 0 -0.030234360528549057 -0.00063735526320526567 0 -0.030390997376723346 -0.00070945967564042497 0 -0.03062918801079861 -0.00047988273362482408 0 -0.03046668512063478 -0.0004956118941611457 0 -0.030390997376723346 -0.00070945967564042497 0 -0.03046668512063478 -0.0004956118941611457 0 -0.030185982376925557 -0.00042558968268054348 0 -0.03062918801079861 -0.00047988273362482408 0 -0.03046668512063478 -0.0004956118941611457 0 -0.030509960067612196 -0.00033772614882955127 0 -0.03046668512063478 -0.0004956118941611457 0 -0.030509960067612196 -0.00033772614882955127 0 -0.030185982376925557 -0.00042558968268054348 0 -0.030166035320092315 1.2717659187118544e-05 0 -0.030509960067612196 -0.00033772614882955127 0 -0.030185982376925557 -0.00042558968268054348 0 -0.030390997376723346 -0.00070945967564042497 0 -0.029742018886934424 -0.0004146330748405917 0 -0.030185982376925557 -0.00042558968268054348 0 -0.030166035320092315 1.2717659187118544e-05 0 -0.029742018886934424 -0.0004146330748405917 0 -0.030185982376925557 -0.00042558968268054348 0 -0.029742018886934424 -0.0004146330748405917 0 -0.029165911017554093 -0.00072181881936531967 0 -0.028847212549856435 -0.00016195039731161387 0 -0.029386483405783988 0.00026036791571489476 0 -0.029742018886934424 -0.0004146330748405917 0 -0.028847212549856435 -0.00016195039731161387 0 -0.02463257105138696 -0.0022388202823841801 0 -0.028017586995362637 -0.00073963534633519586 0 -0.029742018886934424 -0.0004146330748405917 0 -0.029165911017554093 -0.00072181881936531967 0 -0.029626919798114795 -0.0012083256601420798 0 -0.029165911017554093 -0.00072181881936531967 0 -0.029626919798114795 -0.0012083256601420798 0 -0.028357776242946667 -0.001146988035429169 0 -0.028866214261436252 -0.0015007634171195978 0 -0.028978932564973709 -0.00096487799474374045 0 -0.027336072049666104 -0.0018212805769154939 0 -0.020716720002164561 -0.0035061621991510474 0 -0.02463257105138696 -0.0022388202823841801 0 -0.030390997376723346 -0.00070945967564042497 0 -0.029742018886934424 -0.0004146330748405917 0 -0.029626919798114795 -0.0012083256601420798 0 -0.030445996738226386 -0.00056158298049513759 0 -0.02463257105138696 -0.0022388202823841801 0 -0.028721275529982309 -0.0019056488843057079 0 -0.028866214261436252 -0.0015007634171195978 0 -0.027336072049666104 -0.0018212805769154939 0 -0.028017586995362637 -0.00073963534633519586 0 -0.02621193890085368 -0.00059001935200140155 0 -0.028357776242946667 -0.001146988035429169 0 -0.027740799742573961 -0.00024710275723911291 0 -0.026443109959340995 -0.00050555637399711908 0 -0.026267834220252292 -0.00064496938977612274 0 -0.026443109959340995 -0.00050555637399711908 0 -0.026317040836118848 -0.00055923594352401515 0 -0.028357776242946667 -0.001146988035429169 0 -0.028847212549856435 -0.00016195039731161387 0 -0.027740799742573961 -0.00024710275723911291 0 -0.029165911017554093 -0.00072181881936531967 0 -0.028357776242946667 -0.001146988035429169 0 -0.028847212549856435 -0.00016195039731161387 0 -0.028686889346664642 0.00074845649434403933 0 -0.028847212549856435 -0.00016195039731161387 0 -0.027740799742573961 -0.00024710275723911291 0 -0.028686889346664642 0.00074845649434403933 0 -0.027740799742573961 -0.00024710275723911291 0 -0.026791592956684273 0.00029517651662610249 0 -0.027740799742573961 -0.00024710275723911291 0 -0.026791592956684273 0.00029517651662610249 0 -0.026443109959340995 -0.00050555637399711908 0 -0.02587464085325579 0.00070184280926653122 0 -0.026791592956684273 0.00029517651662610249 0 -0.025511410745977174 2.8985399699557233e-06 0 -0.026791592956684273 0.00029517651662610249 0 -0.026443109959340995 -0.00050555637399711908 0 -0.025511410745977174 2.8985399699557233e-06 0 -0.026443109959340995 -0.00050555637399711908 0 -0.02586502856031327 -0.00051469160796667446 0 -0.025511410745977174 2.8985399699557233e-06 0 -0.026443109959340995 -0.00050555637399711908 0 -0.02586502856031327 -0.00051469160796667446 0 -0.026317040836118848 -0.00055923594352401515 0 -0.02586502856031327 -0.00051469160796667446 0 -0.026248660909393068 -0.00072676047656007495 0 -0.026317040836118848 -0.00055923594352401515 0 -0.02586502856031327 -0.00051469160796667446 0 -0.025680631849171607 -0.001012552543462205 0 -0.025073501917270532 -0.00068668245986378018 0 -0.02586502856031327 -0.00051469160796667446 0 -0.026248660909393068 -0.00072676047656007495 0 -0.025680631849171607 -0.001012552543462205 0 -0.023011427727319556 -0.0023314251078139798 0 -0.023929789148897145 -0.0018799054767093181 0 -0.023011427727319556 -0.0023314251078139798 0 -0.020925277515983408 -0.0030429809969121225 0 -0.026267834220252292 -0.00064496938977612274 0 -0.026317040836118848 -0.00055923594352401515 0 -0.026242343673898463 -0.00056668899635880696 0 -0.026248660909393068 -0.00072676047656007495 0 -0.026317040836118848 -0.00055923594352401515 0 -0.026242343673898463 -0.00056668899635880696 0 -0.026021155135469147 -0.00067365507834025724 0 -0.026267834220252292 -0.00064496938977612274 0 -0.026242343673898463 -0.00056668899635880696 0 -0.016141424208068827 -0.0037853350703970427 0 -0.019435984035907721 -0.0041301730457533135 0 -0.016380187507077638 -0.0025086072104726154 0 -0.016141424208068827 -0.0037853350703970427 0 -0.019435984035907721 -0.0041301730457533135 0 -0.01710108289357706 -0.0049395454148654467 0 -0.01642852960433051 -0.002429885969124938 0 -0.017886286759648127 -0.0017280120243634944 0 -0.019435984035907721 -0.0041301730457533135 0 -0.016380187507077638 -0.0025086072104726154 0 -0.019384405199960299 -0.0013409171618124765 0 -0.01639767325613934 -0.0020187286343779243 0 -0.016108284318180646 -0.0019287271481457104 0 -0.016342259205852704 -0.001622075946310457 0 -0.015477419988378772 -0.0019887346964401658 0 -0.016380187507077638 -0.0025086072104726154 0 -0.016108284318180646 -0.0019287271481457104 0 -0.016380187507077638 -0.0025086072104726154 0 -0.01639767325613934 -0.0020187286343779243 0 -0.016108284318180646 -0.0019287271481457104 0 -0.015643190096840624 -0.0015711491896641244 0 -0.016108284318180646 -0.0019287271481457104 0 -0.015954495951941497 -0.0014617871471855398 0 -0.015605152730806034 -0.0012472226066564192 0 -0.015643190096840624 -0.0015711491896641244 0 -0.015954495951941497 -0.0014617871471855398 0 -0.016108284318180646 -0.0019287271481457104 0 -0.015954495951941497 -0.0014617871471855398 0 -0.016342259205852704 -0.001622075946310457 0 -0.015954495951941497 -0.0014617871471855398 0 -0.016342259205852704 -0.001622075946310457 0 -0.016218072140848389 -0.001081881757729504 0 -0.015812316268487309 -0.0010787628015860677 0 -0.016218072140848389 -0.001081881757729504 0 -0.015813368322703598 -0.0007863181174333953 0 -0.015954495951941497 -0.0014617871471855398 0 -0.015812316268487309 -0.0010787628015860677 0 -0.016218072140848389 -0.001081881757729504 0 -0.015605152730806034 -0.0012472226066564192 0 -0.015812316268487309 -0.0010787628015860677 0 -0.015475294205438672 -0.00086419603321308031 0 -0.015605152730806034 -0.0012472226066564192 0 -0.015954495951941497 -0.0014617871471855398 0 -0.015812316268487309 -0.0010787628015860677 0 -0.016913460015566973 -0.0010496702022198339 0 -0.016650612585038711 -0.0014451833304331698 0 -0.016983655711262279 -0.0014752600866413097 0 -0.016913460015566973 -0.0010496702022198339 0 -0.016218072140848389 -0.001081881757729504 0 -0.016650612585038711 -0.0014451833304331698 0 -0.016342259205852704 -0.001622075946310457 0 -0.016218072140848389 -0.001081881757729504 0 -0.016650612585038711 -0.0014451833304331698 0 -0.016342259205852704 -0.001622075946310457 0 -0.016650612585038711 -0.0014451833304331698 0 -0.016767870901084742 -0.0018082731005808427 0 -0.016650612585038711 -0.0014451833304331698 0 -0.016767870901084742 -0.0018082731005808427 0 -0.016983655711262279 -0.0014752600866413097 0 -0.01639767325613934 -0.0020187286343779243 0 -0.016342259205852704 -0.001622075946310457 0 -0.016767870901084742 -0.0018082731005808427 0 -0.017886286759648127 -0.0017280120243634944 0 -0.019590429741970644 -0.0012628244346793926 0 -0.019384405199960299 -0.0013409171618124765 0 -0.022583333506306234 -0.00061213124858984752 0 -0.022304059894285473 -0.0027847216733188087 0 -0.019435984035907721 -0.0041301730457533135 0 -0.019384405199960299 -0.0013409171618124765 0 -0.022304059894285473 -0.0027847216733188087 0 -0.022583333506306234 -0.00061213124858984752 0 -0.022304059894285473 -0.0027847216733188087 0 -0.024360110962900593 -0.0013398995592891316 0 -0.023929789148897145 -0.0018799054767093181 0 -0.024386989802624208 -0.0014053194965015106 0 -0.025680631849171607 -0.001012552543462205 0 -0.024360110962900593 -0.0013398995592891316 0 -0.025073501917270532 -0.00068668245986378018 0 -0.024360110962900593 -0.0013398995592891316 0 -0.024440432014265503 -0.0006410671223369658 0 -0.025073501917270532 -0.00068668245986378018 0 -0.024101022657005842 -0.0010479762326442593 0 -0.024360110962900593 -0.0013398995592891316 0 -0.024440432014265503 -0.0006410671223369658 0 -0.024101022657005842 -0.0010479762326442593 0 -0.023628346832235771 -0.0012161782835681705 0 -0.023690340891344617 -0.00056288955257109176 0 -0.024101022657005842 -0.0010479762326442593 0 -0.023690340891344617 -0.00056288955257109176 0 -0.024440432014265503 -0.0006410671223369658 0 -0.024101022657005842 -0.0010479762326442593 0 -0.024314000640342823 -0.0011573353014360461 0 -0.023628346832235771 -0.0012161782835681705 0 -0.024101022657005842 -0.0010479762326442593 0 -0.024360110962900593 -0.0013398995592891316 0 -0.024314000640342823 -0.0011573353014360461 0 -0.019590429741970644 -0.0012628244346793926 0 -0.020970654455227149 -0.0014416088117587731 0 -0.022583333506306234 -0.00061213124858984752 0 -0.024360110962900593 -0.0013398995592891316 0 -0.024314000640342823 -0.0011573353014360461 0 -0.016767870901084742 -0.0018082731005808427 0 -0.016983655711262279 -0.0014752600866413097 0 -0.017321228712659419 -0.0016321104182797797 0 -0.016983655711262279 -0.0014752600866413097 0 -0.017321228712659419 -0.0016321104182797797 0 -0.017544965680416174 -0.0013275444047640057 0 -0.017321228712659419 -0.0016321104182797797 0 -0.017544965680416174 -0.0013275444047640057 0 -0.017939746672951774 -0.0014190747045962587 0 -0.020970654455227149 -0.0014416088117587731 0 -0.019390103741155754 -0.0010012957475899163 0 -0.024314000640342823 -0.0011573353014360461 0 -0.023355613381424223 -0.0020527286655004796 0 -0.023628346832235771 -0.0012161782835681705 0 -0.017544965680416174 -0.0013275444047640057 0 -0.017543353234945894 -0.00093333126883089811 0 -0.017939746672951774 -0.0014190747045962587 0 -0.016913460015566973 -0.0010496702022198339 0 -0.017544965680416174 -0.0013275444047640057 0 -0.017543353234945894 -0.00093333126883089811 0 -0.016913460015566973 -0.0010496702022198339 0 -0.016983655711262279 -0.0014752600866413097 0 -0.017544965680416174 -0.0013275444047640057 0 -0.018272120893522415 -2.0522124629560966e-07 0 -0.019390103741155754 -0.0010012957475899163 0 -0.018270507660058347 -1.2610109905990794e-06 0 -0.016698777714891741 4.9041505491502558e-05 0 -0.016587593978212044 -0.0007009280447144887 0 -0.018270507660058347 -1.2610109905990794e-06 0 -0.016698777714891741 4.9041505491502558e-05 0 -0.01667573218327412 0.00011924070755826524 0 -0.016342436768843227 7.8782665684430368e-05 0 -0.016698777714891741 4.9041505491502558e-05 0 -0.016587593978212044 -0.0007009280447144887 0 -0.016660229833488648 -0.0003452943264921835 0 -0.019390103741155754 -0.0010012957475899163 0 -0.023355613381424223 -0.0020527286655004796 0 -0.022642172034342815 -0.0016240780767463653 0 -0.023628346832235771 -0.0012161782835681705 0 -0.019390103741155754 -0.0010012957475899163 0 -0.021264513460898846 -0.0008306449548651164 0 -0.018275964158557687 1.1203874744242741e-07 0 -0.01960576859173874 -0.00014101935811276518 0 -0.019545623906320229 0.000121846919771323 0 -0.018275964158557687 1.1203874744242741e-07 0 -0.02015395842413922 -5.987706078446101e-07 0 -0.019545623906320229 0.000121846919771323 0 -0.022642172034342815 -0.0016240780767463653 0 -0.022857832299306376 -0.00065055863484731835 0 -0.021031349648360766 -0.00012138562164754109 0 -0.021264513460898846 -0.0008306449548651164 0 -0.020865337716555674 -8.2396014947697013e-05 0 -0.02015395842413922 -5.987706078446101e-07 0 -0.019545623906320229 0.000121846919771323 0 -0.021031349648360766 -0.00012138562164754109 0 -0.022642172034342815 -0.0016240780767463653 0 -0.023628346832235771 -0.0012161782835681705 0 -0.022857832299306376 -0.00065055863484731835 0 -0.023628346832235771 -0.0012161782835681705 0 -0.022857832299306376 -0.00065055863484731835 0 -0.023690340891344617 -0.00056288955257109176 0 -0.022857832299306376 -0.00065055863484731835 0 -0.023690340891344617 -0.00056288955257109176 0 -0.022901183262984331 -0.00013991185320944995 0 -0.021031349648360766 -0.00012138562164754109 0 -0.022901183262984331 -0.00013991185320944995 0 -0.022036712383678107 -5.1022215954575997e-07 0 -0.02015395842413922 -5.987706078446101e-07 0 -0.021031349648360766 -0.00012138562164754109 0 -0.022036712383678107 -5.1022215954575997e-07 0 -0.022857832299306376 -0.00065055863484731835 0 -0.021031349648360766 -0.00012138562164754109 0 -0.022901183262984331 -0.00013991185320944995 0 -0.022901183262984331 -0.00013991185320944995 0 -0.022036712383678107 -5.1022215954575997e-07 0 -0.023290697710110622 3.3838209611643699e-05 0 -0.022901183262984331 -0.00013991185320944995 0 -0.023290697710110622 3.3838209611643699e-05 0 -0.024028229960277619 2.4572669982550844e-05 0 -0.022036712383678107 -5.1022215954575997e-07 0 -0.023290697710110622 3.3838209611643699e-05 0 -0.023916471038254318 5.6612067778960391e-07 0 -0.023916471038254318 5.6612067778960391e-07 0 -0.024028229960277619 2.4572669982550844e-05 0 -0.024812804145485094 0.00017950101471814848 0 -0.023290697710110622 3.3838209611643699e-05 0 -0.023916471038254318 5.6612067778960391e-07 0 -0.024028229960277619 2.4572669982550844e-05 0 -0.024028229960277619 2.4572669982550844e-05 0 -0.024754500094885442 6.4308531017504052e-05 0 -0.024812804145485094 0.00017950101471814848 0 -0.023690340891344617 -0.00056288955257109176 0 -0.022901183262984331 -0.00013991185320944995 0 -0.024028229960277619 2.4572669982550844e-05 0 -0.024028229960277619 2.4572669982550844e-05 0 -0.024440432014265503 -0.0006410671223369658 0 -0.02491874095477185 -0.0002598419375169938 0 -0.023690340891344617 -0.00056288955257109176 0 -0.024028229960277619 2.4572669982550844e-05 0 -0.024440432014265503 -0.0006410671223369658 0 -0.02586502856031327 -0.00051469160796667446 0 -0.025073501917270532 -0.00068668245986378018 0 -0.02491874095477185 -0.0002598419375169938 0 -0.024440432014265503 -0.0006410671223369658 0 -0.025073501917270532 -0.00068668245986378018 0 -0.02491874095477185 -0.0002598419375169938 0 -0.02586502856031327 -0.00051469160796667446 0 -0.02491874095477185 -0.0002598419375169938 0 -0.025511410745977174 2.8985399699557233e-06 0 -0.02491874095477185 -0.0002598419375169938 0 -0.024754500094885442 6.4308531017504052e-05 0 -0.025511410745977174 2.8985399699557233e-06 0 -0.024028229960277619 2.4572669982550844e-05 0 -0.02491874095477185 -0.0002598419375169938 0 -0.024754500094885442 6.4308531017504052e-05 0 -0.024754500094885442 6.4308531017504052e-05 0 -0.025511410745977174 2.8985399699557233e-06 0 -0.025095940905264447 0.00022474834427739469 0 -0.025511410745977174 2.8985399699557233e-06 0 -0.025406847232544594 0.00048749351931578978 0 -0.025095940905264447 0.00022474834427739469 0 -0.02587464085325579 0.00070184280926653122 0 -0.025511410745977174 2.8985399699557233e-06 0 -0.025406847232544594 0.00048749351931578978 0 -0.02512122920265664 0.00068287558931866385 0 -0.025406847232544594 0.00048749351931578978 0 -0.025095940905264447 0.00022474834427739469 0 -0.025633462669748579 0.00043758208758353732 0 -0.025213373154531617 0.00031214684030234075 0 -0.025095940905264447 0.00022474834427739469 0 -0.02576396437204782 0.00013642898617787636 0 -0.024812804145485094 0.00017950101471814848 0 -0.026144336508389994 0.00014196368371306186 0 -0.025095940905264447 0.00022474834427739469 0 -0.02576396437204782 0.00013642898617787636 0 -0.02576396437204782 0.00013642898617787636 0 -0.025796915851023502 1.7781146102260427e-07 0 -0.024812804145485094 0.00017950101471814848 0 -0.023916471038254318 5.6612067778960391e-07 0 -0.025796915851023502 1.7781146102260427e-07 0 -0.024812804145485094 0.00017950101471814848 0 -0.024754500094885442 6.4308531017504052e-05 0 -0.025095940905264447 0.00022474834427739469 0 -0.024812804145485094 0.00017950101471814848 0 -0.011108312585242908 -7.7065350998287762e-05 0 -0.010428957839854418 3.1871874115307333e-07 0 -0.011033828315722676 0.00012839315845341939 0 -0.0079874135995107818 -0.00056580491016517808 0 -0.010419966148449601 -2.0697081691077258e-06 0 -0.0086233425219420946 0.00011846988318787824 0 -0.0096268816887757173 -0.0002864708020629248 0 -0.010423289991808662 -1.3318295719870423e-07 0 -0.010419966148449601 -2.0697081691077258e-06 0 -0.0086233425219420946 0.00011846988318787824 0 -0.0085149531011661679 1.1267562646774984e-06 0 -0.0086233425219420946 0.00011846988318787824 0 -0.0078732855607881042 0.00014954386057835321 0 -0.0079099739126602033 0.00016304039501751269 0 -0.0079874135995107818 -0.00056580491016517808 0 -0.0086233425219420946 0.00011846988318787824 0 -0.0078732855607881042 0.00014954386057835321 0 -0.0079874135995107818 -0.00056580491016517808 0 -0.0078732855607881042 0.00014954386057835321 0 -0.0075304406917219169 -5.3493091941127811e-05 0 -0.0075304406917219169 -5.3493091941127811e-05 0 -0.007437669696583344 -0.00043365495940050024 0 -0.0072316544482447492 -0.00028550039513758693 0 -0.0096268816887757173 -0.0002864708020629248 0 -0.0091708032309678073 -0.00027757234209779477 0 -0.0079874135995107818 -0.00056580491016517808 0 -0.0075304406917219169 -5.3493091941127811e-05 0 -0.007437669696583344 -0.00043365495940050024 0 -0.011108312585242908 -7.7065350998287762e-05 0 -0.011386665809482261 0.00015429912859479415 0 -0.011033828315722676 0.00012839315845341939 0 -0.011108312585242908 -7.7065350998287762e-05 0 -0.0115087265074988 -2.8622153973407251e-05 0 -0.011386665809482261 0.00015429912859479415 0 -0.012284690380347844 -2.672198003298711e-05 0 -0.012223651936999886 -1.1273444937397451e-05 0 -0.0115087265074988 -2.8622153973407251e-05 0 -0.011386665809482261 0.00015429912859479415 0 -0.011706999411285446 0.00019625946538511749 0 -0.012284690380347844 -2.672198003298711e-05 0 -0.014390161546499178 0.0003862440909163794 0 -0.013848811108898232 -8.1879572679324677e-05 0 -0.013918389464487266 0.00013675689753512806 0 -0.014087464338402057 -4.4307333967094316e-05 0 -0.013848811108898232 -8.1879572679324677e-05 0 -0.013851077441391562 0.00021115412415176056 0 -0.013918389464487266 0.00013675689753512806 0 -0.013848811108898232 -8.1879572679324677e-05 0 -0.013268018696001173 -0.00021596560451111834 0 -0.013851077441391562 0.00021115412415176056 0 -0.013268018696001173 -0.00021596560451111834 0 -0.012934793241683543 1.3125635782000867e-06 0 -0.013851077441391562 0.00021115412415176056 0 -0.010428957839854418 3.1871874115307333e-07 0 -0.011033828315722676 0.00012839315845341939 0 -0.011150608825736727 -3.2997644794781073e-07 0 -0.013268018696001173 -0.00021596560451111834 0 -0.01116000719898568 -2.3199701476762237e-06 0 -0.012934793241683543 1.3125635782000867e-06 0 -0.012223651936999886 -1.1273444937397451e-05 0 -0.011156216761214133 -4.9768190910947255e-08 0 -0.012934793241683543 1.3125635782000867e-06 0 -0.013851077441391562 0.00021115412415176056 0 -0.014714666076337011 -5.8804722342716307e-08 0 -0.013851077441391562 0.00021115412415176056 0 -0.014933709127156806 6.2524547770169677e-05 0 -0.014069989376326995 4.4931567294558782e-05 0 -0.013851077441391562 0.00021115412415176056 0 -0.014933709127156806 6.2524547770169677e-05 0 -0.014714666076337011 -5.8804722342716307e-08 0 -0.014933709127156806 6.2524547770169677e-05 0 -0.014714666076337011 -5.8804722342716307e-08 0 -0.016069290949028699 1.781781058143849e-05 0 -0.014714666076337011 -5.8804722342716307e-08 0 -0.016069290949028699 1.781781058143849e-05 0 -0.01649447923147002 6.1244891307924399e-07 0 -0.014933709127156806 6.2524547770169677e-05 0 -0.016069290949028699 1.781781058143849e-05 0 -0.014069989376326995 4.4931567294558782e-05 0 -0.015924977123911992 3.3129751949705282e-05 0 -0.015299548935210554 0.00014240628303223993 0 -0.016069290949028699 1.781781058143849e-05 0 -0.016432881958518684 0.00015640558240505382 0 -0.016534371463275375 9.0776268809209185e-05 0 -0.016069290949028699 1.781781058143849e-05 0 -0.016432881958518684 0.00015640558240505382 0 -0.01667573218327412 0.00011924070755826524 0 -0.016698777714891741 4.9041505491502558e-05 0 -0.016432881958518684 0.00015640558240505382 0 -0.01667573218327412 0.00011924070755826524 0 -0.016342436768843227 7.8782665684430368e-05 0 -0.016698777714891741 4.9041505491502558e-05 0 -0.016432881958518684 0.00015640558240505382 0 -0.018270507660058347 -1.2610109905990794e-06 0 -0.01667573218327412 0.00011924070755826524 0 -0.01649447923147002 6.1244891307924399e-07 0 -0.016069290949028699 1.781781058143849e-05 0 -0.01667573218327412 0.00011924070755826524 0 -0.01649447923147002 6.1244891307924399e-07 0 -0.016913460015566973 -0.0010496702022198339 0 -0.017543353234945894 -0.00093333126883089811 0 -0.017116645162534957 -0.00043269023314452599 0 -0.016660229833488648 -0.0003452943264921835 0 -0.016841271742034449 -0.00019276202758008659 0 -0.016342436768843227 7.8782665684430368e-05 0 -0.016432881958518684 0.00015640558240505382 0 -0.016489644070835714 0.00012770423812302905 0 -0.016432881958518684 0.00015640558240505382 0 -0.016489644070835714 0.00012770423812302905 0 -0.016534371463275375 9.0776268809209185e-05 0 -0.016841271742034449 -0.00019276202758008659 0 -0.01653774120316447 0.00013401888665137628 0 -0.016489644070835714 0.00012770423812302905 0 -0.016534371463275375 9.0776268809209185e-05 0 -0.016523380393089652 0.00013961903148907825 0 -0.016534371463275375 9.0776268809209185e-05 0 -0.016594649300037827 0.00042556470909000613 0 -0.016523380393089652 0.00013961903148907825 0 -0.013851077441391562 0.00021115412415176056 0 -0.014069989376326995 4.4931567294558782e-05 0 -0.013918389464487266 0.00013675689753512806 0 -0.015299548935210554 0.00014240628303223993 0 -0.015380913802016767 0.00026107888592225969 0 -0.016594649300037827 0.00042556470909000613 0 -0.016373432775286131 0.00043722728484891122 0 -0.016523380393089652 0.00013961903148907825 0 -0.016373432775286131 0.00043722728484891122 0 -0.016086031343299657 0.00041194105979749631 0 -0.016523380393089652 0.00013961903148907825 0 -0.015824682336421304 0.0006993103697577616 0 -0.016049206408322872 0.00067086331529279876 0 -0.016086031343299657 0.00041194105979749631 0 -0.016373432775286131 0.00043722728484891122 0 -0.016049206408322872 0.00067086331529279876 0 -0.016086031343299657 0.00041194105979749631 0 -0.015824682336421304 0.0006993103697577616 0 -0.016086031343299657 0.00041194105979749631 0 -0.015704569825764583 0.00065655238367347192 0 -0.016086031343299657 0.00041194105979749631 0 -0.015838474950056931 0.00026118230209124183 0 -0.015704569825764583 0.00065655238367347192 0 -0.016086031343299657 0.00041194105979749631 0 -0.016089814326084379 1.8236318288234419e-05 0 -0.016523380393089652 0.00013961903148907825 0 -0.016086031343299657 0.00041194105979749631 0 -0.015838474950056931 0.00026118230209124183 0 -0.016089814326084379 1.8236318288234419e-05 0 -0.015838474950056931 0.00026118230209124183 0 -0.016089814326084379 1.8236318288234419e-05 0 -0.015764709297186322 -6.7555462067920289e-05 0 -0.017116645162534957 -0.00043269023314452599 0 -0.016523380393089652 0.00013961903148907825 0 -0.016454207126136287 -0.00054812896528379327 0 -0.016089814326084379 1.8236318288234419e-05 0 -0.016523380393089652 0.00013961903148907825 0 -0.016454207126136287 -0.00054812896528379327 0 -0.016089814326084379 1.8236318288234419e-05 0 -0.016454207126136287 -0.00054812896528379327 0 -0.015958005067606452 -0.00047830741086515106 0 -0.016089814326084379 1.8236318288234419e-05 0 -0.015958005067606452 -0.00047830741086515106 0 -0.015764709297186322 -6.7555462067920289e-05 0 -0.016218072140848389 -0.001081881757729504 0 -0.016454207126136287 -0.00054812896528379327 0 -0.015958005067606452 -0.00047830741086515106 0 -0.016913460015566973 -0.0010496702022198339 0 -0.017116645162534957 -0.00043269023314452599 0 -0.016454207126136287 -0.00054812896528379327 0 -0.016913460015566973 -0.0010496702022198339 0 -0.016218072140848389 -0.001081881757729504 0 -0.016454207126136287 -0.00054812896528379327 0 -0.01446909994609338 -0.00086614029530253953 0 -0.013688790944213972 -0.0019380915858083884 0 -0.015813368322703598 -0.0007863181174333953 0 -0.015536400340237245 -0.00034096434441491767 0 -0.015475294205438672 -0.00086419603321308031 0 -0.015812316268487309 -0.0010787628015860677 0 -0.015813368322703598 -0.0007863181174333953 0 -0.015475294205438672 -0.00086419603321308031 0 -0.016218072140848389 -0.001081881757729504 0 -0.015813368322703598 -0.0007863181174333953 0 -0.015958005067606452 -0.00047830741086515106 0 -0.015958005067606452 -0.00047830741086515106 0 -0.015536400340237245 -0.00034096434441491767 0 -0.015764709297186322 -6.7555462067920289e-05 0 -0.015813368322703598 -0.0007863181174333953 0 -0.015958005067606452 -0.00047830741086515106 0 -0.015536400340237245 -0.00034096434441491767 0 -0.013315236423357198 -0.0015154911287106304 0 -0.012522501850747745 -0.00084203188849307374 0 -0.013456149813184505 -0.00013262700663975528 0 -0.013315236423357198 -0.0015154911287106304 0 -0.013456149813184505 -0.00013262700663975528 0 -0.015370851147662824 0.00040617152118648572 0 -0.013456149813184505 -0.00013262700663975528 0 -0.012978774688929037 0.00086291222432928342 0 -0.012128216323124948 0.00016279336561021582 0 -0.012522501850747745 -0.00084203188849307374 0 -0.013456149813184505 -0.00013262700663975528 0 -0.012128216323124948 0.00016279336561021582 0 -0.01446909994609338 -0.00086614029530253953 0 -0.015338586285255524 0.00039143295621228198 0 -0.015536400340237245 -0.00034096434441491767 0 -0.015764709297186322 -6.7555462067920289e-05 0 -0.015370851147662824 0.00040617152118648572 0 -0.013456149813184505 -0.00013262700663975528 0 -0.015370851147662824 0.00040617152118648572 0 -0.014262760971888144 0.00081782302521586257 0 -0.015838474950056931 0.00026118230209124183 0 -0.015764709297186322 -6.7555462067920289e-05 0 -0.015370851147662824 0.00040617152118648572 0 -0.016051543689864473 0.00055289874408145077 0 -0.01291818045103176 0.0012506115344421379 0 -0.015704569825764583 0.00065655238367347192 0 -0.015672369489364214 0.00072203804038361284 0 -0.015525108879867598 0.00075137528504256625 0 -0.015704569825764583 0.00065655238367347192 0 -0.014262760971888144 0.00081782302521586257 0 -0.013787941646626967 0.0020730371941401755 0 -0.015838474950056931 0.00026118230209124183 0 -0.015704569825764583 0.00065655238367347192 0 -0.015370851147662824 0.00040617152118648572 0 -0.015704569825764583 0.00065655238367347192 0 -0.015370851147662824 0.00040617152118648572 0 -0.014262760971888144 0.00081782302521586257 0 -0.015672369489364214 0.00072203804038361284 0 -0.015525108879867598 0.00075137528504256625 0 -0.015673013087667546 0.00077525836286261118 0 -0.015824682336421304 0.0006993103697577616 0 -0.015704569825764583 0.00065655238367347192 0 -0.015672369489364214 0.00072203804038361284 0 -0.015824682336421304 0.0006993103697577616 0 -0.015672369489364214 0.00072203804038361284 0 -0.015673013087667546 0.00077525836286261118 0 -0.013573239946245852 0.0018439976315729844 0 -0.011787632137315303 0.0016406717129106773 0 -0.012208033929569869 0.001001293828588006 0 -0.013456149813184505 -0.00013262700663975528 0 -0.012978774688929037 0.00086291222432928342 0 -0.014262760971888144 0.00081782302521586257 0 -0.012978774688929037 0.00086291222432928342 0 -0.014262760971888144 0.00081782302521586257 0 -0.013787941646626967 0.0020730371941401755 0 -0.013164228990137411 0.0012816213619660257 0 -0.01291818045103176 0.0012506115344421379 0 -0.012978774688929037 0.00086291222432928342 0 -0.013573239946245852 0.0018439976315729844 0 -0.012208033929569869 0.001001293828588006 0 -0.009763225245144426 0.001598571152839135 0 -0.0098966537570546083 0.0010473699747928602 0 -0.0093384285936380963 0.00098268274290338651 0 -0.009763225245144426 0.001598571152839135 0 -0.0098966537570546083 0.0010473699747928602 0 -0.010599564266440237 0.0010934062439524337 0 -0.0098966537570546083 0.0010473699747928602 0 -0.0098417497204725604 0.00049028476621452727 0 -0.010599564266440237 0.0010934062439524337 0 -0.0098966537570546083 0.0010473699747928602 0 -0.0098417497204725604 0.00049028476621452727 0 -0.0093384285936380963 0.00098268274290338651 0 -0.0092864973620538083 0.0003587893552623215 0 -0.0093384285936380963 0.00098268274290338651 0 -0.0089099342546031229 0.00033025572417567792 0 -0.012580365624460762 0.00097473005057257124 0 -0.010824470998392236 0.00060162876813072135 0 -0.0098417497204725604 0.00049028476621452727 0 -0.0092864973620538083 0.0003587893552623215 0 -0.0093384285936380963 0.00098268274290338651 0 -0.015695666014882124 0.00092001435738499533 0 -0.015503980975948618 0.00076936847162252596 0 -0.015527185141172883 0.00056625574303201807 0 -0.0089917698831601528 0.00038765497057536403 0 -0.010824470998392236 0.00060162876813072135 0 -0.015669825878777272 0.00093755514555151373 0 -0.015695666014882124 0.00092001435738499533 0 -0.015503980975948618 0.00076936847162252596 0 -0.01291818045103176 0.0012506115344421379 0 -0.012580365624460762 0.00097473005057257124 0 -0.015525108879867598 0.00075137528504256625 0 -0.015695666014882124 0.00092001435738499533 0 -0.015669401940078466 0.00085359967758806207 0 -0.015669825878777272 0.00093755514555151373 0 -0.015669401940078466 0.00085359967758806207 0 -0.015823000936332585 0.00081390526876475456 0 -0.015669825878777272 0.00093755514555151373 0 -0.015695666014882124 0.00092001435738499533 0 -0.015669401940078466 0.00085359967758806207 0 -0.015525108879867598 0.00075137528504256625 0 -0.015673013087667546 0.00077525836286261118 0 -0.015669401940078466 0.00085359967758806207 0 -0.015824682336421304 0.0006993103697577616 0 -0.015673013087667546 0.00077525836286261118 0 -0.015823000936332585 0.00081390526876475456 0 -0.015673013087667546 0.00077525836286261118 0 -0.015669401940078466 0.00085359967758806207 0 -0.015823000936332585 0.00081390526876475456 0 -0.015669825878777272 0.00093755514555151373 0 -0.015823000936332585 0.00081390526876475456 0 -0.016260680028046169 0.0010016106667749911 0 -0.015824682336421304 0.0006993103697577616 0 -0.016049206408322872 0.00067086331529279876 0 -0.015823000936332585 0.00081390526876475456 0 -0.016204062932913259 0.0010925716151557088 0 -0.014390161546499178 0.0003862440909163794 0 -0.016049206408322872 0.00067086331529279876 0 -0.015823000936332585 0.00081390526876475456 0 -0.016260680028046169 0.0010016106667749911 0 -0.016373432775286131 0.00043722728484891122 0 -0.016049206408322872 0.00067086331529279876 0 -0.016260680028046169 0.0010016106667749911 0 -0.016594649300037827 0.00042556470909000613 0 -0.016373432775286131 0.00043722728484891122 0 -0.016260680028046169 0.0010016106667749911 0 -0.015380913802016767 0.00026107888592225969 0 -0.014390161546499178 0.0003862440909163794 0 -0.0115087265074988 -2.8622153973407251e-05 0 -0.011706999411285446 0.00019625946538511749 0 -0.011880763550596711 6.1794187217117865e-06 0 -0.015081635914973791 0.00088264655590300446 0 -0.015503980975948618 0.00076936847162252596 0 -0.015422066998254038 0.00054806692682456593 0 -0.015669825878777272 0.00093755514555151373 0 -0.015081635914973791 0.00088264655590300446 0 -0.015503980975948618 0.00076936847162252596 0 -0.014390161546499178 0.0003862440909163794 0 -0.010809533679323359 1.2770687896780941e-06 0 -0.015503980975948618 0.00076936847162252596 0 -0.015527185141172883 0.00056625574303201807 0 -0.015422066998254038 0.00054806692682456593 0 -0.0088377643586509125 0.00033646392903937116 0 -0.0087458631827040598 0.00019390604730757939 0 -0.0088209629131734777 0.0001144341111920233 0 -0.0087345200400660902 0.00020467249193063876 0 -0.0079080713070838974 -0.00099642145872065276 0 -0.0089695106470101659 -0.00021977719929938027 0 -0.0087345200400660902 0.00020467249193063876 0 -0.0088209629131734777 0.0001144341111920233 0 -0.0089695106470101659 -0.00021977719929938027 0 -0.010824470998392236 0.00060162876813072135 0 -0.0096820152611211026 2.5729698047041841e-05 0 -0.010124033537705412 0.0001832441395099342 0 -0.010176427477116954 0.00026604664304614642 0 -0.010250738481586613 0.00019128323259259887 0 -0.0070324689675123602 -0.00037946016613175991 0 -0.0070682985227974952 -0.00041240232246170358 0 -0.0072316544482447492 -0.00028550039513758693 0 -0.010824470998392236 0.00060162876813072135 0 -0.010809533679323359 1.2770687896780941e-06 0 -0.0070324689675123602 -0.00037946016613175991 0 -0.0072316544482447492 -0.00028550039513758693 0 -0.0072089460295079394 -3.2510698617248096e-05 0 -0.0096820152611211026 2.5729698047041841e-05 0 -0.0095474429559567666 0.00011322113104796724 0 -0.0096820152611211026 2.5729698047041841e-05 0 -0.010809533679323359 1.2770687896780941e-06 0 -0.0091708032309678073 -0.00027757234209779477 0 -0.010809533679323359 1.2770687896780941e-06 0 -0.007437669696583344 -0.00043365495940050024 0 -0.0070682985227974952 -0.00041240232246170358 0 -0.0072316544482447492 -0.00028550039513758693 0 -0.0075304406917219169 -5.3493091941127811e-05 0 -0.0072316544482447492 -0.00028550039513758693 0 -0.0072089460295079394 -3.2510698617248096e-05 0 -0.0096820152611211026 2.5729698047041841e-05 0 -0.0063603999985399349 -0.0004562244590989272 0 -0.0063603999985399349 -0.0004562244590989272 0 -0.0071430491769849114 -0.00015540401860832893 0 -0.0051384362822733468 -0.00030038568065516842 0 -0.0051075372305744516 -0.00029199709274794626 0 -0.0052031910317936921 -0.00010453190897371516 0 -0.0051075372305744516 -0.00029199709274794626 0 -0.0055515052078554247 -0.0002019561422149167 0 -0.0052031910317936921 -0.00010453190897371516 0 -0.0051075372305744516 -0.00029199709274794626 0 -0.0046545770021645689 -0.00052545563304071596 0 -0.0046116984493826752 -0.00026470019365652954 0 -0.0049958786587152764 -0.00034195477274016477 0 -0.0053761747139865097 -0.00027694068253581708 0 -0.0046545770021645689 -0.00052545563304071596 0 -0.0043404345059558031 -0.00037811657798849643 0 -0.0046116984493826752 -0.00026470019365652954 0 -0.0055808613153944036 0.00021954827672409166 0 -0.0055515052078554247 -0.0002019561422149167 0 -0.0058950833843503889 0.00024549547209548795 0 -0.0055808613153944036 0.00021954827672409166 0 -0.0055515052078554247 -0.0002019561422149167 0 -0.0052031910317936921 -0.00010453190897371516 0 -0.0075632391511337898 0.0002358875449899296 0 -0.0071430491769849114 -0.00015540401860832893 0 -0.0098417497204725604 0.00049028476621452727 0 -0.0092864973620538083 0.0003587893552623215 0 -0.0089695106470101659 -0.00021977719929938027 0 -0.0092864973620538083 0.0003587893552623215 0 -0.0088377643586509125 0.00033646392903937116 0 -0.0088209629131734777 0.0001144341111920233 0 -0.0092864973620538083 0.0003587893552623215 0 -0.0088209629131734777 0.0001144341111920233 0 -0.0089695106470101659 -0.00021977719929938027 0 -0.00065706201206726226 -0.0011833307155568655 0 -0.0010009543830798464 -0.0012114439849025302 0 -0.00081279624700271208 -0.00081833260364065543 0 -0.00056964133169159408 -0.00093917886706644895 0 -0.00065706201206726226 -0.0011833307155568655 0 -0.00081279624700271208 -0.00081833260364065543 0 -0.00056964133169159408 -0.00093917886706644895 0 -0.00065706201206726226 -0.0011833307155568655 0 -0.0004171912082187752 -0.0010755052913311689 0 -0.00065706201206726226 -0.0011833307155568655 0 -0.00059665239962376608 -0.0013999565335009502 0 -0.0004171912082187752 -0.0010755052913311689 0 -0.0044276746980431245 -0.00033723785849680289 0 -0.0038131620406267504 -0.00060941607362474475 0 -0.0044325797881660123 -0.00023774325255379629 0 -0.00065706201206726226 -0.0011833307155568655 0 -0.00065129487952223766 -0.0013645100241526261 0 -0.0010009543830798464 -0.0012114439849025302 0 -0.0017440633896495744 -0.001021818899956876 0 -0.0021430209844129221 -0.00045257041007760855 0 -0.00065706201206726226 -0.0011833307155568655 0 -0.00065033431359706056 -0.0013760689410497115 0 -0.00059665239962376608 -0.0013999565335009502 0 -0.0024313844557704192 -0.00012900465932621128 0 -0.0023877192718143201 -0.00014795792898525157 0 -0.0024295965488732572 -0.00017620177594867612 0 -0.0021430209844129221 -0.00045257041007760855 0 -0.0024447465026505117 -0.00029332014733069367 0 -0.0021590119302225593 -0.00025064331093591481 0 -0.0024447465026505117 -0.00029332014733069367 0 -0.0021430209844129221 -0.00045257041007760855 0 -0.0021590119302225593 -0.00025064331093591481 0 -0.0021430209844129221 -0.00045257041007760855 0 -0.0040019654475929711 -0.00058890775631057228 0 -0.0053761747139865097 -0.00027694068253581708 0 -0.0040019654475929711 -0.00058890775631057228 0 -0.0055515052078554247 -0.0002019561422149167 0 -0.0061175337674859017 2.3992954289454011e-05 0 -0.0058950833843503889 0.00024549547209548795 0 -0.0046545770021645689 -0.00052545563304071596 0 -0.0042037407423771321 -0.00072177567755178575 0 -0.0043404345059558031 -0.00037811657798849643 0 -0.0040019654475929711 -0.00058890775631057228 0 -0.0026315588905380266 -0.00060342144362313685 0 -0.0012594550952333605 -0.00050021040097545429 0 -0.0008927453621835772 -0.00048926415962233943 0 -0.00081279624700271208 -0.00081833260364065543 0 -0.0010009543830798464 -0.0012114439849025302 0 -0.0012594550952333605 -0.00050021040097545429 0 -0.00081279624700271208 -0.00081833260364065543 0 -0.0012594550952333605 -0.00050021040097545429 0 -0.0008927453621835772 -0.00048926415962233943 0 -0.0009299596822560977 -0.00023940838736675248 0 -0.00081279624700271208 -0.00081833260364065543 0 -0.00060449220989132349 -0.00053227583841573226 0 -0.00050564713073945108 -0.0007506464905545913 0 -0.00056964133169159408 -0.00093917886706644895 0 -0.00081279624700271208 -0.00081833260364065543 0 -0.00050564713073945108 -0.0007506464905545913 0 -0.00060449220989132349 -0.00053227583841573226 0 -0.00038070225520976165 -0.00028415083907395094 0 -0.00069182194888576761 -0.00027688464163987174 0 -0.0008927453621835772 -0.00048926415962233943 0 -0.00081279624700271208 -0.00081833260364065543 0 -0.00060449220989132349 -0.00053227583841573226 0 -0.0008927453621835772 -0.00048926415962233943 0 -0.00060449220989132349 -0.00053227583841573226 0 -0.00069182194888576761 -0.00027688464163987174 0 -0.00060449220989132349 -0.00053227583841573226 0 -0.00031712330045569672 -0.00063181538777880904 0 -0.00038070225520976165 -0.00028415083907395094 0 -0.00031712330045569672 -0.00063181538777880904 0 5.0311695638548961e-05 -0.0005795331261812766 0 -0.00038070225520976165 -0.00028415083907395094 0 -0.00013239519240450953 -0.00076641506736805883 0 -0.00032860276629775203 -0.00086604835494950795 0 7.0824922798491807e-05 -0.00099022118328081967 0 -0.00013239519240450953 -0.00076641506736805883 0 -0.00031712330045569672 -0.00063181538777880904 0 5.0311695638548961e-05 -0.0005795331261812766 0 -0.00013239519240450953 -0.00076641506736805883 0 5.0311695638548961e-05 -0.0005795331261812766 0 7.0824922798491807e-05 -0.00099022118328081967 0 -0.00060449220989132349 -0.00053227583841573226 0 -0.00050564713073945108 -0.0007506464905545913 0 -0.00031712330045569672 -0.00063181538777880904 0 -0.00056964133169159408 -0.00093917886706644895 0 -0.00032860276629775203 -0.00086604835494950795 0 -0.00050564713073945108 -0.0007506464905545913 0 -0.00032860276629775203 -0.00086604835494950795 0 -0.00050564713073945108 -0.0007506464905545913 0 -0.00031712330045569672 -0.00063181538777880904 0 -0.00013239519240450953 -0.00076641506736805883 0 -0.00032860276629775203 -0.00086604835494950795 0 -0.00031712330045569672 -0.00063181538777880904 0 0.00033288999340623033 -0.00039036251688273442 0 7.0824922798491807e-05 -0.00099022118328081967 0 0.00079366043185050399 -0.00053303653416684679 0 -0.00079597766590816391 -0.00022369169899425412 0 0.00024139385763981996 0.00011454075588730218 0 -0.0017282569657356009 0.00056575901233602845 0 -0.0012489013920510285 0.00044855527685000072 0 -0.001158388831873366 0.00093874978673597152 0 0.00033288999340623033 -0.00039036251688273442 0 5.0311695638548961e-05 -0.0005795331261812766 0 7.0824922798491807e-05 -0.00099022118328081967 0 0.00033288999340623033 -0.00039036251688273442 0 0.00079366043185050399 -0.00053303653416684679 0 0.00067336530158087278 -0.00031784598272763216 0 -0.0017282569657356009 0.00056575901233602845 0 -0.00154148364124783 0.00023931528130655372 0 -0.0012489013920510285 0.00044855527685000072 0 -0.0017282569657356009 0.00056575901233602845 0 -0.00154148364124783 0.00023931528130655372 0 -0.0018675228782970854 0.00027851665811593602 0 -0.00154148364124783 0.00023931528130655372 0 -0.0018675228782970854 0.00027851665811593602 0 -0.0019045355897534747 0.00012182259630882229 0 -0.00154148364124783 0.00023931528130655372 0 -0.0012149957309526866 8.8559519194870816e-05 0 -0.0012489013920510285 0.00044855527685000072 0 -0.0022954855324020243 0.00018676889219354636 0 -0.0017282569657356009 0.00056575901233602845 0 -0.0018675228782970854 0.00027851665811593602 0 -0.0021590119302225593 -0.00025064331093591481 0 -0.00079597766590816391 -0.00022369169899425412 0 -0.00059665239962376608 -0.0013999565335009502 0 7.0824922798491807e-05 -0.00099022118328081967 0 -0.0004171912082187752 -0.0010755052913311689 0 -0.00056964133169159408 -0.00093917886706644895 0 -0.00032860276629775203 -0.00086604835494950795 0 -0.0004171912082187752 -0.0010755052913311689 0 -0.00032860276629775203 -0.00086604835494950795 0 7.0824922798491807e-05 -0.00099022118328081967 0 -0.0004171912082187752 -0.0010755052913311689 0 -0.0022954855324020243 0.00018676889219354636 0 -0.0018675228782970854 0.00027851665811593602 0 -0.0019045355897534747 0.00012182259630882229 0 -0.0022954855324020243 0.00018676889219354636 0 -0.0019045355897534747 0.00012182259630882229 0 -0.0020065321623867647 6.2102144906629118e-05 0 -0.0021590119302225593 -0.00025064331093591481 0 -0.0031588795497094787 0.00040659291388111184 0 -0.0033034953381024059 0.00031473459378138647 0 -0.003304303063210045 0.00031653337994013689 0 -0.0033080675866422136 0.00031591277823600055 0 -0.0031588795497094787 0.00040659291388111184 0 -0.0044753742223010247 0.00060565293974081873 0 -0.0027742496153061458 0.00049610799926850331 0 -0.0031588795497094787 0.00040659291388111184 0 -0.0045152483954472074 0.0011784369238973735 0 -0.0044319599056050823 0.0007467176695597716 0 -0.0048290954776371792 0.00099890644444867332 0 -0.00154148364124783 0.00023931528130655372 0 -0.0013181878520492347 -0.00023311344798591382 0 -0.0012149957309526866 8.8559519194870816e-05 0 -0.0045152483954472074 0.0011784369238973735 0 -0.0038349514183016412 0.00088293795441934573 0 -0.0044319599056050823 0.0007467176695597716 0 -0.00154148364124783 0.00023931528130655372 0 -0.0019045355897534747 0.00012182259630882229 0 -0.0013181878520492347 -0.00023311344798591382 0 -0.0031588795497094787 0.00040659291388111184 0 -0.0026583086904030375 0.00063324752281435494 0 -0.0019045355897534747 0.00012182259630882229 0 -0.002006700285818651 6.3814689877631566e-05 0 -0.0013181878520492347 -0.00023311344798591382 0 -0.0038349514183016412 0.00088293795441934573 0 -0.0041089105999925777 0.00041891659439318753 0 -0.0044319599056050823 0.0007467176695597716 0 -0.0028566452911196021 0.00068802541804966291 0 -0.0032533297489964366 4.4125115051723609e-05 0 -0.0026709592797599067 0.00060537034691808512 0 -0.0026583086904030375 0.00063324752281435494 0 -0.0036404996279874734 0.00028370353993481523 0 -0.0044319599056050823 0.0007467176695597716 0 -0.0048102236677566284 0.00054180191947646487 0 -0.0048290954776371792 0.00099890644444867332 0 -0.0041089105999925777 0.00041891659439318753 0 -0.0044319599056050823 0.0007467176695597716 0 -0.004486343442454778 0.00043567998260072649 0 -0.004486343442454778 0.00043567998260072649 0 -0.0048102236677566284 0.00054180191947646487 0 -0.0046781082932585011 0.00018437506049322658 0 -0.0063921951641128447 0.00084157148890445538 0 -0.0069544000221792388 0.00062698842251299278 0 -0.0044319599056050823 0.0007467176695597716 0 -0.004486343442454778 0.00043567998260072649 0 -0.0048102236677566284 0.00054180191947646487 0 -0.0089434993261759202 0.0013796524774281681 0 -0.0083438350952732623 0.0014192573474166052 0 -0.0075213198869767068 0.0010649760533504916 0 -0.0076858506626814533 0.0011122211716994459 0 -0.007519407701582939 0.00098881433292946131 0 -0.0075213198869767068 0.0010649760533504916 0 -0.0075613930006559159 0.0011775739441388297 0 -0.0076858506626814533 0.0011122211716994459 0 -0.011309438278330728 0.0030991548697890865 0 -0.0095804648412314702 0.0017214032835349527 0 -0.010751354932230698 0.0014620146776178498 0 -0.0063921951641128447 0.00084157148890445538 0 -0.0083438350952732623 0.0014192573474166052 0 -0.0063921951641128447 0.00084157148890445538 0 -0.0058168904994007871 0.00065098723020013262 0 -0.0063921951641128447 0.00084157148890445538 0 -0.0044753742223010247 0.00060565293974081873 0 -0.0056324912910607405 0.00096839414263904643 0 -0.0055904710637960488 0.00041691056519460324 0 -0.0054451823486262284 0.00050252250351703117 0 -0.0038131620406267504 -0.00060941607362474475 0 -0.0042280689840063137 0.00045606682937854667 0 -0.0044325797881660123 -0.00023774325255379629 0 -0.0040019654475929711 -0.00058890775631057228 0 -0.0058168904994007871 0.00065098723020013262 0 -0.0061175337674859017 2.3992954289454011e-05 0 -0.0062722860708012132 0.00039487820806643462 0 -0.0058950833843503889 0.00024549547209548795 0 -0.0044753742223010247 0.00060565293974081873 0 -0.0058168904994007871 0.00065098723020013262 0 -0.0058168904994007871 0.00065098723020013262 0 -0.0089434993261759202 0.0013796524774281681 0 -0.0033034953381024059 0.00031473459378138647 0 -0.0033080675866422136 0.00031591277823600055 0 -0.0033038793069103027 0.00031464418741418209 0 -0.0044753742223010247 0.00060565293974081873 0 -0.0024447465026505117 -0.00029332014733069367 0 -0.0044713743483226313 0.00031287628229460167 0 -0.0042280689840063137 0.00045606682937854667 0 -0.0044325797881660123 -0.00023774325255379629 0 -0.0055808613153944036 0.00021954827672409166 0 -0.0058950833843503889 0.00024549547209548795 0 -0.0060117833479898597 0.00055499800778337194 0 -0.0062722860708012132 0.00039487820806643462 0 -0.0058950833843503889 0.00024549547209548795 0 -0.0060117833479898597 0.00055499800778337194 0 -0.0075632391511337898 0.0002358875449899296 0 -0.0089434993261759202 0.0013796524774281681 0 -0.011309438278330728 0.0030991548697890865 0 -0.011787632137315303 0.0016406717129106773 0 -0.010751354932230698 0.0014620146776178498 0 -0.01291818045103176 0.0012506115344421379 0 -0.0089434993261759202 0.0013796524774281681 0 -0.013573239946245852 0.0018439976315729844 0 -0.011309438278330728 0.0030991548697890865 0 -0.011787632137315303 0.0016406717129106773 0 -0.011787632137315303 0.0016406717129106773 0 -0.011384552528018428 0.00081754099477314825 0 -0.010751354932230698 0.0014620146776178498 0 -0.011787632137315303 0.0016406717129106773 0 -0.011384552528018428 0.00081754099477314825 0 -0.012208033929569869 0.001001293828588006 0 -0.012978774688929037 0.00086291222432928342 0 -0.012208033929569869 0.001001293828588006 0 -0.012128216323124948 0.00016279336561021582 0 -0.011384552528018428 0.00081754099477314825 0 -0.012208033929569869 0.001001293828588006 0 -0.012128216323124948 0.00016279336561021582 0 -0.0095804648412314702 0.0017214032835349527 0 -0.010039949398861958 0.00051264987716240023 0 -0.0095262656094756357 -0.0005279656091584467 0 -0.0095804648412314702 0.0017214032835349527 0 -0.010751354932230698 0.0014620146776178498 0 -0.010205240934759711 0.0010288860013421763 0 -0.011384552528018428 0.00081754099477314825 0 -0.010751354932230698 0.0014620146776178498 0 -0.010544726800931534 0.00055618073760210372 0 -0.010751354932230698 0.0014620146776178498 0 -0.010544726800931534 0.00055618073760210372 0 -0.010205240934759711 0.0010288860013421763 0 -0.010544726800931534 0.00055618073760210372 0 -0.010205240934759711 0.0010288860013421763 0 -0.010039949398861958 0.00051264987716240023 0 -0.0095804648412314702 0.0017214032835349527 0 -0.010205240934759711 0.0010288860013421763 0 -0.010039949398861958 0.00051264987716240023 0 -0.010039949398861958 0.00051264987716240023 0 -0.010332057921552533 -0.00019511152716925105 0 -0.0095262656094756357 -0.0005279656091584467 0 -0.010544726800931534 0.00055618073760210372 0 -0.010332057921552533 -0.00019511152716925105 0 -0.011011876136684841 0.00010863969941653238 0 -0.010544726800931534 0.00055618073760210372 0 -0.010039949398861958 0.00051264987716240023 0 -0.010332057921552533 -0.00019511152716925105 0 -0.01072695023279863 -0.00071554035454178707 0 -0.010332057921552533 -0.00019511152716925105 0 -0.011011876136684841 0.00010863969941653238 0 -0.01072695023279863 -0.00071554035454178707 0 -0.010332057921552533 -0.00019511152716925105 0 -0.010160926923778558 -0.00067798944143765438 0 -0.010332057921552533 -0.00019511152716925105 0 -0.010160926923778558 -0.00067798944143765438 0 -0.0095262656094756357 -0.0005279656091584467 0 -0.010160926923778558 -0.00067798944143765438 0 -0.010072400388537081 -0.0012640116899104855 0 -0.0095262656094756357 -0.0005279656091584467 0 -0.01072695023279863 -0.00071554035454178707 0 -0.012128216323124948 0.00016279336561021582 0 -0.010711125057482231 -0.0018645571926199193 0 -0.012522501850747745 -0.00084203188849307374 0 -0.012128216323124948 0.00016279336561021582 0 -0.010980480248333308 -0.0019932106863569526 0 -0.011384552528018428 0.00081754099477314825 0 -0.012128216323124948 0.00016279336561021582 0 -0.011011876136684841 0.00010863969941653238 0 -0.011384552528018428 0.00081754099477314825 0 -0.010544726800931534 0.00055618073760210372 0 -0.011011876136684841 0.00010863969941653238 0 -0.01072695023279863 -0.00071554035454178707 0 -0.012128216323124948 0.00016279336561021582 0 -0.011011876136684841 0.00010863969941653238 0 -0.013315236423357198 -0.0015154911287106304 0 -0.012522501850747745 -0.00084203188849307374 0 -0.010980480248333308 -0.0019932106863569526 0 -0.013315236423357198 -0.0015154911287106304 0 -0.010980480248333308 -0.0019932106863569526 0 -0.011892420299424057 -0.0030537850690317415 0 -0.012052111887550293 7.9111485634940406e-05 0 -0.010866766610913696 -0.0018817988162662164 0 -0.010072400388537081 -0.0012640116899104855 0 -0.010711125057482231 -0.0018645571926199193 0 -0.0093970578816337195 -0.0023764317452756095 0 -0.010072400388537081 -0.0012640116899104855 0 -0.0093970578816337195 -0.0023764317452756095 0 -0.0095262656094756357 -0.0005279656091584467 0 -0.01072695023279863 -0.00071554035454178707 0 -0.010072400388537081 -0.0012640116899104855 0 -0.010711125057482231 -0.0018645571926199193 0 -0.01072695023279863 -0.00071554035454178707 0 -0.010160926923778558 -0.00067798944143765438 0 -0.010072400388537081 -0.0012640116899104855 0 -0.0095268016948711533 -0.0035322707691516192 0 -0.010711125057482231 -0.0018645571926199193 0 -0.0093970578816337195 -0.0023764317452756095 0 -0.0098099029657139694 -0.0036721770955735994 0 -0.010980480248333308 -0.0019932106863569526 0 -0.011892420299424057 -0.0030537850690317415 0 -0.0096459127519142231 -0.0036366788497879943 0 -0.010866766610913696 -0.0018817988162662164 0 -0.0077486189675606857 -0.0015307585437727984 0 -0.0063832026744638773 -0.0013872648384936164 0 -0.0066128570853734537 -0.0026221294334751342 0 -0.0077918236303311534 -0.0026981585580048094 0 -0.0077486189675606857 -0.0015307585437727984 0 -0.0066128570853734537 -0.0026221294334751342 0 -0.0082500082566379675 -0.0035512352413354722 0 -0.0077918236303311534 -0.0026981585580048094 0 -0.0090567018623707116 -0.0020276834637277231 0 -0.0077918236303311534 -0.0026981585580048094 0 -0.0090567018623707116 -0.0020276834637277231 0 -0.0077486189675606857 -0.0015307585437727984 0 -0.0086715782512777964 -0.00096581296399084247 0 -0.0077486189675606857 -0.0015307585437727984 0 -0.0087809627146822628 -0.00015400233691424965 0 -0.0090567018623707116 -0.0020276834637277231 0 -0.0086715782512777964 -0.00096581296399084247 0 -0.0077486189675606857 -0.0015307585437727984 0 -0.0092045389830480197 -0.0022459028966384971 0 -0.009413949531886517 -0.00030364741629359274 0 -0.0079633714021167621 -0.0013315541103504232 0 -0.0078309078368497681 0.00020976694726191809 0 -0.0090567018623707116 -0.0020276834637277231 0 -0.0086715782512777964 -0.00096581296399084247 0 -0.0090858161550919914 -0.00016389662673501763 0 -0.0077486189675606857 -0.0015307585437727984 0 -0.0073120909938779533 -0.00034366834971232501 0 -0.0084440621842604546 0.0004214179482961289 0 -0.0077486189675606857 -0.0015307585437727984 0 -0.0073120909938779533 -0.00034366834971232501 0 -0.0063832026744638773 -0.0013872648384936164 0 -0.0073120909938779533 -0.00034366834971232501 0 -0.0076178407803007041 0.00058962646331328227 0 -0.0061877812698013781 -0.00049315157787802022 0 -0.0060300108985997889 0.00022403584899325285 0 -0.0068012167159133665 -0.00015909400372275857 0 -0.0073120909938779533 -0.00034366834971232501 0 -0.0077483938887280028 0.0005481811623264315 0 -0.0084440621842604546 0.0004214179482961289 0 -0.0073120909938779533 -0.00034366834971232501 0 -0.0077483938887280028 0.0005481811623264315 0 -0.0076178407803007041 0.00058962646331328227 0 -0.0077483938887280028 0.0005481811623264315 0 -0.007616820573073454 0.00058636573851420068 0 -0.0081238604963383698 0.00097389892208995848 0 -0.0062111480492071172 0.00019717538378259491 0 -0.0060300108985997889 0.00022403584899325285 0 -0.0077486189675606857 -0.0015307585437727984 0 -0.0087809627146822628 -0.00015400233691424965 0 -0.0084966786281123613 0.00035215160586582787 0 -0.0090858161550919914 -0.00016389662673501763 0 -0.0085418923199895615 0.0002707341120594969 0 -0.0088865512646075263 0.0011905332898473205 0 -0.0090858161550919914 -0.00016389662673501763 0 -0.0087809627146822628 -0.00015400233691424965 0 -0.0085418923199895615 0.0002707341120594969 0 -0.0086715782512777964 -0.00096581296399084247 0 -0.0090858161550919914 -0.00016389662673501763 0 -0.0087809627146822628 -0.00015400233691424965 0 -0.0083503853565024214 -0.00014125709624739617 0 -0.0078309078368497681 0.00020976694726191809 0 -0.0077483938887280028 0.0005481811623264315 0 -0.0084440621842604546 0.0004214179482961289 0 -0.0081238604963383698 0.00097389892208995848 0 -0.0078309078368497681 0.00020976694726191809 0 -0.005784367498632521 -2.2796905275693872e-05 0 -0.0041089105999925777 0.00041891659439318753 0 -0.004486343442454778 0.00043567998260072649 0 -0.0043850757766143809 -4.3058153951229715e-05 0 -0.0083438350952732623 0.0014192573474166052 0 -0.009413949531886517 -0.00030364741629359274 0 -0.0091358974785440451 0.0013851714045398007 0 -0.0090858161550919914 -0.00016389662673501763 0 -0.0088865512646075263 0.0011905332898473205 0 -0.004486343442454778 0.00043567998260072649 0 -0.0043850757766143809 -4.3058153951229715e-05 0 -0.0046781082932585011 0.00018437506049322658 0 -0.0078309078368497681 0.00020976694726191809 0 -0.0069544000221792388 0.00062698842251299278 0 -0.005784367498632521 -2.2796905275693872e-05 0 -0.0069544000221792388 0.00062698842251299278 0 -0.007003686746371451 0.00011642867797426395 0 -0.0069372504963951245 0.00022991744146194903 0 -0.0070907974254875387 0.00034811523502734516 0 -0.00698043188902137 0.00087322892744725331 0 -0.0069953572653086785 0.001125108906605382 0 -0.0071106138525107634 0.0012140512941166237 0 -0.0083438350952732623 0.0014192573474166052 0 -0.0069544000221792388 0.00062698842251299278 0 -0.0032533297489964366 4.4125115051723609e-05 0 -0.0033623355854245428 -0.00083685978732397719 0 -0.0036537008987352682 -0.00061511452679264579 0 -0.0032533297489964366 4.4125115051723609e-05 0 -0.0033623355854245428 -0.00083685978732397719 0 -0.0022642586419764398 -0.000515401210602967 0 -0.0060300108985997889 0.00022403584899325285 0 -0.005784367498632521 -2.2796905275693872e-05 0 -0.0036404996279874734 0.00028370353993481523 0 -0.005784367498632521 -2.2796905275693872e-05 0 -0.0060300108985997889 0.00022403584899325285 0 -0.0038461680035150143 0.00027020520113052205 0 -0.0032533297489964366 4.4125115051723609e-05 0 -0.0022642586419764398 -0.000515401210602967 0 -0.0024806948130362567 4.5705779241794216e-05 0 -0.0022642586419764398 -0.000515401210602967 0 -0.0019592289681763615 9.822049552239714e-05 0 -0.0024806948130362567 4.5705779241794216e-05 0 -0.0038461680035150143 0.00027020520113052205 0 -0.0022851415926174439 0.00084296357776089247 0 -0.0022642586419764398 -0.000515401210602967 0 -0.001217567416968726 -0.00019113212490851287 0 -0.0019592289681763615 9.822049552239714e-05 0 -0.0056052175713498216 0.0011376724700662936 0 -0.0041504791831932595 0.00092662195069605604 0 -0.0035462430389753166 0.0017354348545840872 0 -0.0056052175713498216 0.0011376724700662936 0 -0.0043955058544130005 -1.4350412073507246e-05 0 -0.0041504791831932595 0.00092662195069605604 0 -0.0056052175713498216 0.0011376724700662936 0 -0.0043955058544130005 -1.4350412073507246e-05 0 -0.0061877812698013781 -0.00049315157787802022 0 -0.0075312517695741961 0.00056036576036471786 0 -0.0056052175713498216 0.0011376724700662936 0 -0.0061877812698013781 -0.00049315157787802022 0 -0.0073120909938779533 -0.00034366834971232501 0 -0.0061877812698013781 -0.00049315157787802022 0 -0.0063832026744638773 -0.0013872648384936164 0 -0.0063832026744638773 -0.0013872648384936164 0 -0.0051075922348458617 -0.00095429414412499488 0 -0.0053334875112405105 -0.0023631876166678419 0 -0.0061877812698013781 -0.00049315157787802022 0 -0.0063832026744638773 -0.0013872648384936164 0 -0.0051075922348458617 -0.00095429414412499488 0 -0.0051075922348458617 -0.00095429414412499488 0 -0.0053334875112405105 -0.0023631876166678419 0 -0.0039550829193230348 -0.001452662666921129 0 -0.0043955058544130005 -1.4350412073507246e-05 0 -0.0061877812698013781 -0.00049315157787802022 0 -0.0051075922348458617 -0.00095429414412499488 0 -0.0043955058544130005 -1.4350412073507246e-05 0 -0.0051075922348458617 -0.00095429414412499488 0 -0.0039550829193230348 -0.001452662666921129 0 -0.0052982006434803899 -0.0035516039923654138 0 -0.0053334875112405105 -0.0023631876166678419 0 -0.0042533092179531731 -0.0025261066231993209 0 -0.0053334875112405105 -0.0023631876166678419 0 -0.0042533092179531731 -0.0025261066231993209 0 -0.0039550829193230348 -0.001452662666921129 0 -0.0063832026744638773 -0.0013872648384936164 0 -0.0053334875112405105 -0.0023631876166678419 0 -0.0066128570853734537 -0.0026221294334751342 0 -0.0059623132250599736 -0.0031094788599804152 0 -0.0053334875112405105 -0.0023631876166678419 0 -0.0066128570853734537 -0.0026221294334751342 0 -0.0019870651994656 -0.0033855579866546239 0 -0.0030612098973278631 -0.0023375960242629406 0 -0.0015848382702847797 -0.0016717599838018871 0 -0.0030612098973278631 -0.0023375960242629406 0 -0.0027084420694591573 -0.0014871655560892924 0 -0.0015848382702847797 -0.0016717599838018871 0 -0.0039558625158635351 -0.003459596492888321 0 -0.0030612098973278631 -0.0023375960242629406 0 -0.0042533092179531731 -0.0025261066231993209 0 -0.0030612098973278631 -0.0023375960242629406 0 -0.0042533092179531731 -0.0025261066231993209 0 -0.0039550829193230348 -0.001452662666921129 0 -0.0030612098973278631 -0.0023375960242629406 0 -0.0039550829193230348 -0.001452662666921129 0 -0.0027084420694591573 -0.0014871655560892924 0 -0.0043955058544130005 -1.4350412073507246e-05 0 -0.0039550829193230348 -0.001452662666921129 0 -0.0026930965966577543 -0.00053152808654266233 0 -0.0039550829193230348 -0.001452662666921129 0 -0.0027084420694591573 -0.0014871655560892924 0 -0.0026930965966577543 -0.00053152808654266233 0 -0.0026930965966577543 -0.00053152808654266233 0 -0.00092654141746970303 -0.00090048259298142576 0 -0.0015848382702847797 -0.0016717599838018871 0 -0.0027084420694591573 -0.0014871655560892924 0 -0.0026930965966577543 -0.00053152808654266233 0 -0.0015848382702847797 -0.0016717599838018871 0 -0.0026930965966577543 -0.00053152808654266233 0 -0.0022148604172368734 0.00025582430247506668 0 -0.0012948504859226066 -5.440853268362783e-05 0 -0.0026930965966577543 -0.00053152808654266233 0 -0.00092654141746970303 -0.00090048259298142576 0 -0.0012948504859226066 -5.440853268362783e-05 0 -0.0026930965966577543 -0.00053152808654266233 0 -0.0022148604172368734 0.00025582430247506668 0 -0.0030265755927525494 0.00084365265388631875 0 -0.0022148604172368734 0.00025582430247506668 0 -0.0030265755927525494 0.00084365265388631875 0 -0.0016906353994226811 0.00082914195594737696 0 -0.0022148604172368734 0.00025582430247506668 0 -0.0016906353994226811 0.00082914195594737696 0 -0.0012948504859226066 -5.440853268362783e-05 0 -0.0043955058544130005 -1.4350412073507246e-05 0 -0.0026930965966577543 -0.00053152808654266233 0 -0.0030265755927525494 0.00084365265388631875 0 -0.0043955058544130005 -1.4350412073507246e-05 0 -0.0041504791831932595 0.00092662195069605604 0 -0.0030265755927525494 0.00084365265388631875 0 -0.0041504791831932595 0.00092662195069605604 0 -0.0030265755927525494 0.00084365265388631875 0 -0.0035462430389753166 0.0017354348545840872 0 -0.0031390512271694182 0.001357008486130451 0 -0.0022851415926174439 0.00084296357776089247 0 -0.0022851415926174439 0.00084296357776089247 0 0.00027246822986965873 0.0010384343293790938 0 -0.0030265755927525494 0.00084365265388631875 0 -0.0035765101042221884 0.0017956786618692825 0 -0.0020604533599989446 0.002262409679423108 0 -0.0030265755927525494 0.00084365265388631875 0 -0.0016906353994226811 0.00082914195594737696 0 -0.0020604533599989446 0.002262409679423108 0 0.0022495008070596754 0.00082593645958817577 0 0.0021888888981226682 0.00058109075939676469 0 0.0023963203861860293 0.00053938909217825714 0 0.0021888888981226682 0.00058109075939676469 0 0.0022337329754885853 0.00038369298226798194 0 0.0023963203861860293 0.00053938909217825714 0 0.0022337329754885853 0.00038369298226798194 0 0.0023963203861860293 0.00053938909217825714 0 0.0023974079405879554 0.00033028413838606744 0 0.0016338541269259117 0.00082077630664558843 0 0.0034114147657962014 0.00063536317487441867 0 0.0023963203861860293 0.00053938909217825714 0 0.0026728640106025341 0.00051384508869376151 0 0.0023974079405879554 0.00033028413838606744 0 0.0023963203861860293 0.00053938909217825714 0 0.0026192818153949189 0.00060660938175666863 0 0.0026728640106025341 0.00051384508869376151 0 0.00027246822986965873 0.0010384343293790938 0 0.00068176316313001682 0.00042016676220008015 0 0.0022495008070596754 0.00082593645958817577 0 0.0023963203861860293 0.00053938909217825714 0 0.0026192818153949189 0.00060660938175666863 0 -0.00028403716960729913 0.00091441381100815255 0 -0.00055566824092471241 0.00083533068009396618 0 -0.00010449739659129825 0.00061495413578387017 0 -0.0022851415926174439 0.00084296357776089247 0 0.00068176316313001682 0.00042016676220008015 0 -0.001217567416968726 -0.00019113212490851287 0 -0.0019592289681763615 9.822049552239714e-05 0 -0.0016409736636936632 0.00053914941409258037 0 -0.0019592289681763615 9.822049552239714e-05 0 -0.0019996310477227129 0.00044228525390891641 0 -0.0022254395706515387 0.00030368815579640213 0 -0.0019592289681763615 9.822049552239714e-05 0 -0.0019996310477227129 0.00044228525390891641 0 -0.0016409736636936632 0.00053914941409258037 0 -0.0019996310477227129 0.00044228525390891641 0 -0.0016409736636936632 0.00053914941409258037 0 -0.0019913617980331305 0.00070377075344610731 0 -0.0019996310477227129 0.00044228525390891641 0 -0.0022254395706515387 0.00030368815579640213 0 -0.0021916376806879862 0.00057717664628303457 0 -0.0019996310477227129 0.00044228525390891641 0 -0.0021916376806879862 0.00057717664628303457 0 -0.0019913617980331305 0.00070377075344610731 0 -0.0032533297489964366 4.4125115051723609e-05 0 -0.0024986235359987685 0.00035252283626356536 0 -0.0026709592797599067 0.00060537034691808512 0 -0.0032533297489964366 4.4125115051723609e-05 0 -0.0024806948130362567 4.5705779241794216e-05 0 -0.0024986235359987685 0.00035252283626356536 0 -0.0019592289681763615 9.822049552239714e-05 0 -0.0024806948130362567 4.5705779241794216e-05 0 -0.0022254395706515387 0.00030368815579640213 0 -0.0024806948130362567 4.5705779241794216e-05 0 -0.0022254395706515387 0.00030368815579640213 0 -0.0024986235359987685 0.00035252283626356536 0 -0.0022254395706515387 0.00030368815579640213 0 -0.0021916376806879862 0.00057717664628303457 0 -0.0024986235359987685 0.00035252283626356536 0 -0.0021916376806879862 0.00057717664628303457 0 -0.0024986235359987685 0.00035252283626356536 0 -0.002425390649109356 0.00060536637863761202 0 -0.0024986235359987685 0.00035252283626356536 0 -0.0026709592797599067 0.00060537034691808512 0 -0.002425390649109356 0.00060536637863761202 0 -0.0023432952346397538 0.00088798363749970392 0 -0.0017009602717812642 0.00081900193660053506 0 -0.0023280753938341239 0.0015593441846659651 0 -0.0013181878520492347 -0.00023311344798591382 0 -0.0012149957309526866 8.8559519194870816e-05 0 -0.00096010681266398489 0.00037909587689057038 0 -0.0026583086904030375 0.00063324752281435494 0 -0.00067721930610940742 0.00046507422689447879 0 -0.0028546784634098958 0.00067870466519638346 0 -0.0023432952346397538 0.00088798363749970392 0 -0.0023280753938341239 0.0015593441846659651 0 -0.0028546784634098958 0.00067870466519638346 0 -0.0026709592797599067 0.00060537034691808512 0 -0.0023432952346397538 0.00088798363749970392 0 -0.0026583086904030375 0.00063324752281435494 0 -0.002695952285934727 0.00064316014815867092 0 -0.0022879352357943103 0.00092240234155242014 0 -0.0011772009731509108 0.00049508637629217043 0 -0.0021916376806879862 0.00057717664628303457 0 -0.0023432952346397538 0.00088798363749970392 0 -0.0019900505354894051 0.00070480623496800121 0 -0.0026709592797599067 0.00060537034691808512 0 -0.0023432952346397538 0.00088798363749970392 0 -0.002425390649109356 0.00060536637863761202 0 -0.0021916376806879862 0.00057717664628303457 0 -0.0023432952346397538 0.00088798363749970392 0 -0.002425390649109356 0.00060536637863761202 0 0.00062970471591919884 0.00044887063086124397 0 0.00056733333524791769 0.00055317312892989314 0 0.00049616373003419378 0.00050864929228084006 0 0.00068176316313001682 0.00042016676220008015 0 -0.0011772009731509108 0.00049508637629217043 0 0.00068176316313001682 0.00042016676220008015 0 0.0016338541269259117 0.00082077630664558843 0 -0.0023432952346397538 0.00088798363749970392 0 -0.0017009602717812642 0.00081900193660053506 0 -0.0019111510482131479 0.00068472329673822268 0 -0.001714895558961901 0.00035662894302407024 0 -0.0011772009731509108 0.00049508637629217043 0 0.0016338541269259117 0.00082077630664558843 0 -0.0011772009731509108 0.00049508637629217043 0 -0.0017009602717812642 0.00081900193660053506 0 -0.0023280753938341239 0.0015593441846659651 0 -0.0022356965317541018 0.0017141106779139487 0 0.0016338541269259117 0.00082077630664558843 0 0.00083261491199410564 0.00079581857993001645 0 0.0040831964547586195 0.00092309445487499028 0 0.0040442712145017509 0.00066207645775506264 0 0.0042345799137928873 0.00065494411696080505 0 0.0040442712145017509 0.00066207645775506264 0 0.0042345799137928873 0.00065494411696080505 0 0.0040856551674386997 0.00045875903473044773 0 -0.00089454293460770049 0.00048293079935606643 0 -0.0012489013920510285 0.00044855527685000072 0 -0.001158388831873366 0.00093874978673597152 0 -0.0012149957309526866 8.8559519194870816e-05 0 -0.00095649731033814543 0.00037708194684021764 0 -0.0012489013920510285 0.00044855527685000072 0 -0.0011707376055010801 7.9332916905512025e-05 0 -0.00067721930610940742 0.00046507422689447879 0 -0.00095649731033814543 0.00037708194684021764 0 -0.00089454293460770049 0.00048293079935606643 0 -0.0012489013920510285 0.00044855527685000072 0 -0.00067721930610940742 0.00046507422689447879 0 0.00083261491199410564 0.00079581857993001645 0 0.0018024820081595241 0.00020201915817199859 0 0.0017905138191203914 0.0006650563553132129 0 0.0016033530846094636 0.00054207527541242186 0 0.0018024820081595241 0.00020201915817199859 0 0.0017905138191203914 0.0006650563553132129 0 0.0020211228040409061 0.0005707021231227561 0 0.00083261491199410564 0.00079581857993001645 0 0.00024139385763981996 0.00011454075588730218 0 0.0029324872556501678 0.00024477552736340151 0 0.00024139385763981996 0.00011454075588730218 0 0.001134147564813911 -0.0003177799195885349 0 0.00080729209501546992 -0.00054007573728816172 0 0.00067336530158087278 -0.00031784598272763216 0 0.00024139385763981996 0.00011454075588730218 0 0.00055570486842156748 -0.00032163859020372922 0 0.00083261491199410564 0.00079581857993001645 0 0.0032119679585979888 0.00054972556033478946 0 0.001948687537765293 0.00010560864423946757 0 0.0025887769801991333 0.0012024336942840952 0 0.0028796874487543108 0.0010805693577976461 0 0.0040442712145017509 0.00066207645775506264 0 0.0040856551674386997 0.00045875903473044773 0 0.003972026760133412 0.0004951973819106181 0 0.00083261491199410564 0.00079581857993001645 0 0.0040388661019347986 0.00065774014809137757 0 0.0029324872556501678 0.00024477552736340151 0 0.0032119679585979888 0.00054972556033478946 0 0.0032119679585979888 0.00054972556033478946 0 0.0040388661019347986 0.00065774014809137757 0 0.004217499563790539 0.00039122927024585276 0 0.0039681807934170334 0.00029459938179893631 0 0.003972026760133412 0.0004951973819106181 0 0.0040388661019347986 0.00065774014809137757 0 0.004061063922147173 0.00051799371272296638 0 0.003972026760133412 0.0004951973819106181 0 0.0037527650915152862 0.00028138259091589163 0 0.003733552316063937 0.00054340965430395966 0 0.0039681807934170334 0.00029459938179893631 0 0.003972026760133412 0.0004951973819106181 0 0.0037527650915152862 0.00028138259091589163 0 0.0037527650915152862 0.00028138259091589163 0 0.0035049086662411787 5.634902086740392e-05 0 0.0033543448941945032 0.00060215623644220692 0 0.0037527650915152862 0.00028138259091589163 0 0.003733552316063937 0.00054340965430395966 0 0.0033543448941945032 0.00060215623644220692 0 0.003733552316063937 0.00054340965430395966 0 0.0038140229045872426 0.00077776393636975365 0 0.0033543448941945032 0.00060215623644220692 0 0.0022337329754885853 0.00038369298226798194 0 0.0023974079405879554 0.00033028413838606744 0 0.0021939683557902789 0.00020075951285163549 0 0.0034114147657962014 0.00063536317487441867 0 0.0027114417476375714 0.00034821492117158276 0 0.0040442712145017509 0.00066207645775506264 0 0.003972026760133412 0.0004951973819106181 0 0.0038140229045872426 0.00077776393636975365 0 0.0040831964547586195 0.00092309445487499028 0 0.0040442712145017509 0.00066207645775506264 0 0.0038140229045872426 0.00077776393636975365 0 0.003972026760133412 0.0004951973819106181 0 0.003733552316063937 0.00054340965430395966 0 0.0038140229045872426 0.00077776393636975365 0 0.0043536324726915114 -0.00015740375780857316 0 0.0044847804845981167 -0.00038004061450309435 0 0.004270280148569441 -0.00053326545735520091 0 0.0043536324726915114 -0.00015740375780857316 0 0.0038123057674078588 -0.00030109176901595836 0 0.004270280148569441 -0.00053326545735520091 0 0.0043536324726915114 -0.00015740375780857316 0 0.0038123057674078588 -0.00030109176901595836 0 0.0042321721152965503 0.0001245137696859315 0 0.0043536324726915114 -0.00015740375780857316 0 0.0044578030766256578 -9.509224610314557e-05 0 0.0045232804963181517 -0.00019555941594804339 0 0.0042985778276865456 -7.4647272630878978e-05 0 0.0043758256981298376 0.00025562708172728084 0 0.0038159847136373126 -0.00027915112303671834 0 0.0041163679266803203 5.4689825664492327e-05 0 0.0038123057674078588 -0.00030109176901595836 0 0.0035049086662411787 5.634902086740392e-05 0 0.0039453493482782759 1.3144892311972118e-05 0 0.0037527650915152862 0.00028138259091589163 0 0.0035049086662411787 5.634902086740392e-05 0 0.0039453493482782759 1.3144892311972118e-05 0 0.004217499563790539 0.00039122927024585276 0 0.0039681807934170334 0.00029459938179893631 0 0.0039453493482782759 1.3144892311972118e-05 0 0.0040388661019347986 0.00065774014809137757 0 0.0041163679266803203 5.4689825664492327e-05 0 0.0045770224012517064 0.00053550085896981472 0 0.0042321721152965503 0.0001245137696859315 0 0.0044507179304907494 5.1223406165107489e-05 0 0.0039681807934170334 0.00029459938179893631 0 0.0037527650915152862 0.00028138259091589163 0 0.0039453493482782759 1.3144892311972118e-05 0 0.0043536324726915114 -0.00015740375780857316 0 0.0042321721152965503 0.0001245137696859315 0 0.0044507179304907494 5.1223406165107489e-05 0 0.0046996961272182782 -3.6820453375967726e-05 0 0.0044578030766256578 -9.509224610314557e-05 0 0.0046235374009634227 -0.00014647722111361152 0 0.0029324872556501678 0.00024477552736340151 0 0.0043758256981298376 0.00025562708172728084 0 0.0032119679585979888 0.00054972556033478946 0 0.0043758256981298376 0.00025562708172728084 0 0.0046797458054589876 0.00049167963774481027 0 0.0045770224012517064 0.00053550085896981472 0 0.0044507179304907494 5.1223406165107489e-05 0 0.0032232253175437163 0.00019393668348374345 0 0.0035483765367246632 5.8073358973670326e-05 0 0.0038745031743686489 0.00062681631346116684 0 0.0046996961272182782 -3.6820453375967726e-05 0 0.0047673187233730442 -0.00017294435056842012 0 0.0047824631279598179 -0.00015178022105334825 0 0.0029324872556501678 0.00024477552736340151 0 0.002746287672091782 -0.00015897588069125476 0 0.001134147564813911 -0.0003177799195885349 0 0.00067336530158087278 -0.00031784598272763216 0 0.00050530636954404322 -7.6174542117766401e-05 0 0.0046996961272182782 -3.6820453375967726e-05 0 0.0046235374009634227 -0.00014647722111361152 0 0.0047673187233730442 -0.00017294435056842012 0 0.0046235374009634227 -0.00014647722111361152 0 0.0047673187233730442 -0.00017294435056842012 0 0.0046587034451808038 -0.00025258206194416665 0 0.0047673187233730442 -0.00017294435056842012 0 0.0048254375036360661 -0.00024539122667395816 0 0.0046587034451808038 -0.00025258206194416665 0 0.0044578030766256578 -9.509224610314557e-05 0 0.0046235374009634227 -0.00014647722111361152 0 0.0045232804963181517 -0.00019555941594804339 0 0.0046235374009634227 -0.00014647722111361152 0 0.0045232804963181517 -0.00019555941594804339 0 0.0046587034451808038 -0.00025258206194416665 0 0.0045232804963181517 -0.00019555941594804339 0 0.0046587034451808038 -0.00025258206194416665 0 0.0044847804845981167 -0.00038004061450309435 0 0.0043536324726915114 -0.00015740375780857316 0 0.0045232804963181517 -0.00019555941594804339 0 0.0044847804845981167 -0.00038004061450309435 0 0.0046587034451808038 -0.00025258206194416665 0 0.0044847804845981167 -0.00038004061450309435 0 0.004743600840965344 -0.00053176904174454605 0 0.0044847804845981167 -0.00038004061450309435 0 0.004743600840965344 -0.00053176904174454605 0 0.0045503702789631666 -0.0006859482513173798 0 0.0048254375036360661 -0.00024539122667395816 0 0.004743600840965344 -0.00053176904174454605 0 0.0051049273184543579 -0.00071147015584890688 0 0.0048254375036360661 -0.00024539122667395816 0 0.0046587034451808038 -0.00025258206194416665 0 0.004743600840965344 -0.00053176904174454605 0 0.004743600840965344 -0.00053176904174454605 0 0.0048332027561558888 -0.00082173584046179758 0 0.0051049273184543579 -0.00071147015584890688 0 0.0048332027561558888 -0.00082173584046179758 0 0.0045503702789631666 -0.0006859482513173798 0 0.0046553925147622272 -0.00097008797864201553 0 0.004743600840965344 -0.00053176904174454605 0 0.0048332027561558888 -0.00082173584046179758 0 0.0045503702789631666 -0.0006859482513173798 0 0.0045503702789631666 -0.0006859482513173798 0 0.0042823644402561287 -0.00086349657497023413 0 0.0046553925147622272 -0.00097008797864201553 0 0.0045503702789631666 -0.0006859482513173798 0 0.0042823644402561287 -0.00086349657497023413 0 0.004270280148569441 -0.00053326545735520091 0 0.0044847804845981167 -0.00038004061450309435 0 0.0045503702789631666 -0.0006859482513173798 0 0.004270280148569441 -0.00053326545735520091 0 0.0038123057674078588 -0.00030109176901595836 0 0.003978089537033512 -0.00065303541432654242 0 0.0034282170509566104 -0.00052681871514112565 0 0.0038123057674078588 -0.00030109176901595836 0 0.004270280148569441 -0.00053326545735520091 0 0.003978089537033512 -0.00065303541432654242 0 0.0042823644402561287 -0.00086349657497023413 0 0.004270280148569441 -0.00053326545735520091 0 0.003978089537033512 -0.00065303541432654242 0 0.0042823644402561287 -0.00086349657497023413 0 0.003978089537033512 -0.00065303541432654242 0 0.0040087352304285324 -0.00096163882578470734 0 0.0042823644402561287 -0.00086349657497023413 0 0.0045118312790301965 -0.001081258493399071 0 0.0042578206044012858 -0.0010580399317049439 0 0.0042823644402561287 -0.00086349657497023413 0 0.0042578206044012858 -0.0010580399317049439 0 0.0040087352304285324 -0.00096163882578470734 0 0.0042823644402561287 -0.00086349657497023413 0 0.0045118312790301965 -0.001081258493399071 0 0.0046553925147622272 -0.00097008797864201553 0 0.0045118312790301965 -0.001081258493399071 0 0.0042578206044012858 -0.0010580399317049439 0 0.0044399923655964813 -0.0012197597671630056 0 0.0042578206044012858 -0.0010580399317049439 0 0.0044399923655964813 -0.0012197597671630056 0 0.004336751687172566 -0.0011373153039770138 0 0.0045118312790301965 -0.001081258493399071 0 0.0044399923655964813 -0.0012197597671630056 0 0.0050029002015981733 -0.0013107422423055202 0 0.0044399923655964813 -0.0012197597671630056 0 0.0045537705917262196 -0.0013724669316892539 0 0.0050029002015981733 -0.0013107422423055202 0 0.0044399923655964813 -0.0012197597671630056 0 0.0045537705917262196 -0.0013724669316892539 0 0.0044180995783501594 -0.0012416141377119931 0 0.0045537705917262196 -0.0013724669316892539 0 0.0044180995783501594 -0.0012416141377119931 0 0.0044913129873194145 -0.0012742419522400166 0 0.0051720373709579414 -0.0012938972079856764 0 0.0050029002015981733 -0.0013107422423055202 0 0.0052932428337388801 -0.0012746059939626076 0 0.0051720373709579414 -0.0012938972079856764 0 0.0050029002015981733 -0.0013107422423055202 0 0.00512604054726978 -0.0012661421583116735 0 0.005445959375782264 -0.0013165872573076556 0 0.0050029002015981733 -0.0013107422423055202 0 0.0052932428337388801 -0.0012746059939626076 0 0.0050047786401564397 -0.0013261882525637263 0 0.0050221080602223852 -0.0013089346400539743 0 0.0050029002015981733 -0.0013107422423055202 0 0.0050832532742804606 -0.001148731539925333 0 0.00512604054726978 -0.0012661421583116735 0 0.0050029002015981733 -0.0013107422423055202 0 0.0049167798394169834 -0.0010182025663667399 0 0.0050832532742804606 -0.001148731539925333 0 0.0045118312790301965 -0.001081258493399071 0 0.0050029002015981733 -0.0013107422423055202 0 0.0046553925147622272 -0.00097008797864201553 0 0.0049167798394169834 -0.0010182025663667399 0 0.0050439369572596151 -0.00096055312974090905 0 0.0050832532742804606 -0.001148731539925333 0 0.0050029002015981733 -0.0013107422423055202 0 0.0046553925147622272 -0.00097008797864201553 0 0.0049167798394169834 -0.0010182025663667399 0 0.0048332027561558888 -0.00082173584046179758 0 0.0046553925147622272 -0.00097008797864201553 0 0.0049167798394169834 -0.0010182025663667399 0 0.0048332027561558888 -0.00082173584046179758 0 0.0050439369572596151 -0.00096055312974090905 0 0.0051049273184543579 -0.00071147015584890688 0 0.0048332027561558888 -0.00082173584046179758 0 0.0049167798394169834 -0.0010182025663667399 0 0.0050439369572596151 -0.00096055312974090905 0 0.0050439369572596151 -0.00096055312974090905 0 0.0052347508863851491 -0.0010759158369932063 0 0.0051049273184543579 -0.00071147015584890688 0 0.0050181036480354754 -0.00042180248482658121 0 0.0049452811327705421 -0.00040007028339583933 0 0.0047275331518916251 0.00020152929592333495 0 0.0045315348123872593 0.00023863993613200413 0 0.004622629272576082 -2.9499289330096997e-05 0 0.0047275331518916251 0.00020152929592333495 0 0.004622629272576082 -2.9499289330096997e-05 0 0.0048116689322800924 -9.0577435878243137e-05 0 0.0047275331518916251 0.00020152929592333495 0 0.0045965213909140998 0.0005826024781559314 0 0.0045315348123872593 0.00023863993613200413 0 0.0050439369572596151 -0.00096055312974090905 0 0.0052347508863851491 -0.0010759158369932063 0 0.0050832532742804606 -0.001148731539925333 0 0.0052347508863851491 -0.0010759158369932063 0 0.0050832532742804606 -0.001148731539925333 0 0.0051827231541758797 -0.0012191969242573574 0 0.0050832532742804606 -0.001148731539925333 0 0.00512604054726978 -0.0012661421583116735 0 0.0051827231541758797 -0.0012191969242573574 0 0.00512604054726978 -0.0012661421583116735 0 0.0051827231541758797 -0.0012191969242573574 0 0.0051870225965884821 -0.0012747041384483348 0 0.0051827231541758797 -0.0012191969242573574 0 0.0052102693548405242 -0.0012631403205691674 0 0.0051870225965884821 -0.0012747041384483348 0 0.0050181036480354754 -0.00042180248482658121 0 0.0046345986518042696 -0.00043920219666068142 0 0.0051827231541758797 -0.0012191969242573574 0 0.0052401547784335905 -0.0012863961692619733 0 0.0052102693548405242 -0.0012631403205691674 0 0.0052347508863851491 -0.0010759158369932063 0 0.0051827231541758797 -0.0012191969242573574 0 0.0052401547784335905 -0.0012863961692619733 0 0.0052102693548405242 -0.0012631403205691674 0 0.0052201884253827531 -0.0012645235276538328 0 0.0052309765762095497 -0.001255348806931268 0 0.0052401547784335905 -0.0012863961692619733 0 0.0052201884253827531 -0.0012645235276538328 0 0.0051532057290411062 -0.0012146483730883628 0 0.0052102693548405242 -0.0012631403205691674 0 0.0052309765762095497 -0.001255348806931268 0 0.0051870225965884821 -0.0012747041384483348 0 0.0052401547784335905 -0.0012863961692619733 0 0.0052102693548405242 -0.0012631403205691674 0 0.0052201884253827531 -0.0012645235276538328 0 0.0052201884253827531 -0.0012645235276538328 0 0.0052309765762095497 -0.001255348806931268 0 0.0051532057290411062 -0.0012146483730883628 0 0.0052309765762095497 -0.001255348806931268 0 0.0051870225965884821 -0.0012747041384483348 0 0.0052202654437040093 -0.0012579175313346233 0 0.0051720373709579414 -0.0012938972079856764 0 0.0051870225965884821 -0.0012747041384483348 0 0.0052202654437040093 -0.0012579175313346233 0 0.0051720373709579414 -0.0012938972079856764 0 0.00512604054726978 -0.0012661421583116735 0 0.0051870225965884821 -0.0012747041384483348 0 -0.00039052940582389183 0.0028143377096501725 0 0.0039945618802612395 0.0019337562623421276 0 0.0025094298448973375 0.0015898725466528642 0 0.0039945618802612395 0.0019337562623421276 0 0.0045965213909140998 0.0005826024781559314 0 0.0044579229635206092 0.00056943392694745255 0 0.0044030356479219301 0.00091649240873653169 0 0.0046345986518042696 -0.00043920219666068142 0 0.0067009619949982948 0.00062837439009015886 0 0.0052401547784335905 -0.0012863961692619733 0 0.0050332299870369246 -0.0011546922823609095 0 0.0051532057290411062 -0.0012146483730883628 0 5.3089195163597203e-05 0.002709734995622068 0 0.00086965466346933501 0.0024385457649255095 0 0.00068250086917510271 0.0034355256678972215 0 0.0025094298448973375 0.0015898725466528642 0 0.0028268497361167693 0.00080072457687410052 0 0.0045965213909140998 0.0005826024781559314 0 0.0044579229635206092 0.00056943392694745255 0 0.0045315348123872593 0.00023863993613200413 0 0.00086965466346933501 0.0024385457649255095 0 0.00029286637689454246 0.0020059523943327775 0 0.0010792295958996613 0.0014141929026737934 0 5.3089195163597203e-05 0.002709734995622068 0 0.00029286637689454246 0.0020059523943327775 0 -0.00058683137134308162 0.0019772220241910245 0 5.3089195163597203e-05 0.002709734995622068 0 0.00086965466346933501 0.0024385457649255095 0 0.00029286637689454246 0.0020059523943327775 0 0.00029286637689454246 0.0020059523943327775 0 6.1597478821465984e-05 0.0013270476377077649 0 -0.00058683137134308162 0.0019772220241910245 0 0.00029286637689454246 0.0020059523943327775 0 6.1597478821465984e-05 0.0013270476377077649 0 0.0010792295958996613 0.0014141929026737934 0 0.0010792295958996613 0.0014141929026737934 0 0.00051479591596295996 0.00065154570750420215 0 0.0012842798830706957 0.00037006799643566984 0 6.1597478821465984e-05 0.0013270476377077649 0 0.0010792295958996613 0.0014141929026737934 0 0.00051479591596295996 0.00065154570750420215 0 0.0028268497361167693 0.00080072457687410052 0 0.0029286486806483409 0.00020708456455998821 0 0.00051479591596295996 0.00065154570750420215 0 0.00011446657521617273 0.00026457314723841909 0 -0.00031416744830016762 0.00063582175431875 0 6.1597478821465984e-05 0.0013270476377077649 0 0.00051479591596295996 0.00065154570750420215 0 -0.00031416744830016762 0.00063582175431875 0 0.00051479591596295996 0.00065154570750420215 0 0.00011446657521617273 0.00026457314723841909 0 0.00039329719050733373 -0.00016009927217755767 0 0.00011446657521617273 0.00026457314723841909 0 -0.00028176928868894782 0.00016810204433353738 0 -0.00031416744830016762 0.00063582175431875 0 0.00011446657521617273 0.00026457314723841909 0 0.00039329719050733373 -0.00016009927217755767 0 -5.6061747235556225e-05 -0.00013525669893672866 0 0.00011446657521617273 0.00026457314723841909 0 -5.6061747235556225e-05 -0.00013525669893672866 0 -0.00028176928868894782 0.00016810204433353738 0 -0.00048970629114989317 -9.1584698178576797e-05 0 -0.0018780863140394222 0.00012742260266424005 0 0.00016449921181811147 -0.00081648922060853957 0 0.0003146896772106247 -0.0011081836323353809 0 -0.00048184921725790574 -0.00061352895711801051 0 -5.6061747235556225e-05 -0.00013525669893672866 0 4.7963725111491326e-05 -0.00052928334571223853 0 -0.00030655526560653765 -0.00036558433954223663 0 0.00039329719050733373 -0.00016009927217755767 0 -5.6061747235556225e-05 -0.00013525669893672866 0 4.7963725111491326e-05 -0.00052928334571223853 0 0.00039329719050733373 -0.00016009927217755767 0 4.7963725111491326e-05 -0.00052928334571223853 0 0.00048988166340555592 -0.00068740871129001205 0 4.7963725111491326e-05 -0.00052928334571223853 0 0.00016449921181811147 -0.00081648922060853957 0 0.00048988166340555592 -0.00068740871129001205 0 0.00016449921181811147 -0.00081648922060853957 0 0.00048988166340555592 -0.00068740871129001205 0 0.00039680564538204524 -0.00092931495365886432 0 4.7963725111491326e-05 -0.00052928334571223853 0 0.00016449921181811147 -0.00081648922060853957 0 -0.00048184921725790574 -0.00061352895711801051 0 0.00090733292731911273 -0.00073827242382778829 0 0.0014761733823849242 -0.00065792579008306599 0 0.0010230475402847109 -0.0009385626386310017 0 0.00090733292731911273 -0.00073827242382778829 0 0.00048988166340555592 -0.00068740871129001205 0 0.0007030630784537528 -0.00098113525999610879 0 0.00048988166340555592 -0.00068740871129001205 0 0.00039680564538204524 -0.00092931495365886432 0 0.0007030630784537528 -0.00098113525999610879 0 0.00090733292731911273 -0.00073827242382778829 0 0.00048988166340555592 -0.00068740871129001205 0 0.00097125562143980377 -0.000194621031844073 0 0.00039329719050733373 -0.00016009927217755767 0 0.00048988166340555592 -0.00068740871129001205 0 0.00097125562143980377 -0.000194621031844073 0 0.00090733292731911273 -0.00073827242382778829 0 0.00097125562143980377 -0.000194621031844073 0 0.0014761733823849242 -0.00065792579008306599 0 0.00051479591596295996 0.00065154570750420215 0 0.00097125562143980377 -0.000194621031844073 0 0.0012842798830706957 0.00037006799643566984 0 0.00051479591596295996 0.00065154570750420215 0 0.00039329719050733373 -0.00016009927217755767 0 0.00097125562143980377 -0.000194621031844073 0 0.004622629272576082 -2.9499289330096997e-05 0 0.0048116689322800924 -9.0577435878243137e-05 0 0.0047152639978961779 -0.00019728012151612521 0 0.00097125562143980377 -0.000194621031844073 0 0.0012842798830706957 0.00037006799643566984 0 0.0014761733823849242 -0.00065792579008306599 0 0.0029286486806483409 0.00020708456455998821 0 0.0032833328035945645 -0.00053166170793697879 0 0.0048254375036360661 -0.00024539122667395816 0 0.0048116689322800924 -9.0577435878243137e-05 0 0.0047821435393617887 -0.00022707210959135415 0 0.0048116689322800924 -9.0577435878243137e-05 0 0.0047152639978961779 -0.00019728012151612521 0 0.0047821435393617887 -0.00022707210959135415 0 0.0048426932246406597 -0.00025313539594196415 0 0.0049452811327705421 -0.00040007028339583933 0 0.0014761733823849242 -0.00065792579008306599 0 0.0016708296469226309 -0.0016468121232683379 0 0.0010029511358335226 -0.0013771765031718101 0 0.0014761733823849242 -0.00065792579008306599 0 0.0010230475402847109 -0.0009385626386310017 0 0.0010029511358335226 -0.0013771765031718101 0 0.0032833328035945645 -0.00053166170793697879 0 0.0014795222025060879 -0.00059621040264847664 0 0.0047152639978961779 -0.00019728012151612521 0 0.0047821435393617887 -0.00022707210959135415 0 0.0047778088645455945 -0.00021276632010367488 0 0.0014795222025060879 -0.00059621040264847664 0 0.00012765623294060018 -0.00053466964047636702 0 0.0047673187233730442 -0.00017294435056842012 0 0.0048254375036360661 -0.00024539122667395816 0 0.0047821435393617887 -0.00022707210959135415 0 0.0047673187233730442 -0.00017294435056842012 0 0.0047821435393617887 -0.00022707210959135415 0 0.0047824631279598179 -0.00015178022105334825 0 0.00033288999340623033 -0.00039036251688273442 0 5.0311695638548961e-05 -0.0005795331261812766 0 -7.6387243196871616e-05 0.00016188311095317385 0 0.0047821435393617887 -0.00022707210959135415 0 0.0047824631279598179 -0.00015178022105334825 0 0.0047778088645455945 -0.00021276632010367488 0 0.002746287672091782 -0.00015897588069125476 0 0.0014795222025060879 -0.00059621040264847664 0 0.00033288999340623033 -0.00039036251688273442 0 0.00050530636954404322 -7.6174542117766401e-05 0 -7.6387243196871616e-05 0.00016188311095317385 0 0.00033288999340623033 -0.00039036251688273442 0 0.00067336530158087278 -0.00031784598272763216 0 0.00050530636954404322 -7.6174542117766401e-05 0 -0.00011583177261767175 6.7965434207538377e-05 0 -0.00065625661128406896 3.8177615481225688e-05 0 -0.0006405304325637673 0.0002556599251683338 0 -0.00011583177261767175 6.7965434207538377e-05 0 -0.00038070225520976165 -0.00028415083907395094 0 -0.00065625661128406896 3.8177615481225688e-05 0 -0.00016492553872111338 -0.00018088623925127935 0 0.0014795222025060879 -0.00059621040264847664 0 5.0311695638548961e-05 -0.0005795331261812766 0 -0.00011583177261767175 6.7965434207538377e-05 0 -0.00038070225520976165 -0.00028415083907395094 0 -0.00038070225520976165 -0.00028415083907395094 0 -0.00069182194888576761 -0.00027688464163987174 0 -0.00065625661128406896 3.8177615481225688e-05 0 -0.00069182194888576761 -0.00027688464163987174 0 -0.00065625661128406896 3.8177615481225688e-05 0 -0.0009299596822560977 -0.00023940838736675248 0 -0.00065625661128406896 3.8177615481225688e-05 0 -0.0009299596822560977 -0.00023940838736675248 0 -0.0011110086670848103 5.0145673400880768e-05 0 -0.0008927453621835772 -0.00048926415962233943 0 -0.00069182194888576761 -0.00027688464163987174 0 -0.0009299596822560977 -0.00023940838736675248 0 -0.0026315588905380266 -0.00060342144362313685 0 -0.0031644402992307527 0.00023388761552595703 0 -0.0012594550952333605 -0.00050021040097545429 0 -0.0009299596822560977 -0.00023940838736675248 0 -0.0011110086670848103 5.0145673400880768e-05 0 -0.0043404345059558031 -0.00037811657798849643 0 -0.0044822742376374796 -6.0311717507767717e-05 0 -0.0046116984493826752 -0.00026470019365652954 0 -0.0012594550952333605 -0.00050021040097545429 0 -0.0011110086670848103 5.0145673400880768e-05 0 -0.0015224457880085467 0.00020089056536806631 0 -0.0011110086670848103 5.0145673400880768e-05 0 -0.0015224457880085467 0.00020089056536806631 0 -0.0011982621190860566 0.00050204704005369651 0 -0.0015224457880085467 0.00020089056536806631 0 -0.0011982621190860566 0.00050204704005369651 0 -0.0017840524160212699 0.00087211134287072136 0 0.00016449921181811147 -0.00081648922060853957 0 0.0003146896772106247 -0.0011081836323353809 0 0.00028485940198778479 -0.0010032067530356453 0 0.00016449921181811147 -0.00081648922060853957 0 0.00028485940198778479 -0.0010032067530356453 0 0.00039680564538204524 -0.00092931495365886432 0 0.0003146896772106247 -0.0011081836323353809 0 0.00028485940198778479 -0.0010032067530356453 0 0.00039680564538204524 -0.00092931495365886432 0 0.0003146896772106247 -0.0011081836323353809 0 0.00039680564538204524 -0.00092931495365886432 0 0.00060464362854661014 -0.0010994195114788947 0 -0.00048970629114989317 -9.1584698178576797e-05 0 0.00012765623294060018 -0.00053466964047636702 0 0.00060464362854661014 -0.0010994195114788947 0 0.0007030630784537528 -0.00098113525999610879 0 0.0010029511358335226 -0.0013771765031718101 0 -0.00065625661128406896 3.8177615481225688e-05 0 -0.001066942435205646 0.00043395124578503221 0 -0.0006405304325637673 0.0002556599251683338 0 0.0003146896772106247 -0.0011081836323353809 0 0.00060464362854661014 -0.0010994195114788947 0 0.0010029511358335226 -0.0013771765031718101 0 0.00039680564538204524 -0.00092931495365886432 0 0.00060464362854661014 -0.0010994195114788947 0 0.0007030630784537528 -0.00098113525999610879 0 0.0007030630784537528 -0.00098113525999610879 0 0.0010230475402847109 -0.0009385626386310017 0 0.0010029511358335226 -0.0013771765031718101 0 0.00090733292731911273 -0.00073827242382778829 0 0.0007030630784537528 -0.00098113525999610879 0 0.0010230475402847109 -0.0009385626386310017 0 -0.00065625661128406896 3.8177615481225688e-05 0 -0.0011110086670848103 5.0145673400880768e-05 0 -0.0011982621190860566 0.00050204704005369651 0 -0.00093415137798753237 0.00028713068969613096 0 -0.00048970629114989317 -9.1584698178576797e-05 0 -0.0048133067146136979 -0.00011585047654306553 0 -0.005046114866040537 2.4596555388401355e-05 0 -0.0048171043852753325 0.00013399979276757597 0 -0.0046554006669107155 4.1845796552394116e-05 0 -0.0048133067146136979 -0.00011585047654306553 0 -0.0048171043852753325 0.00013399979276757597 0 -0.0048133067146136979 -0.00011585047654306553 0 -0.0050221162559943196 -0.00013338168945289618 0 -0.005046114866040537 2.4596555388401355e-05 0 -0.0031644402992307527 0.00023388761552595703 0 -0.0018780863140394222 0.00012742260266424005 0 -0.0044822742376374796 -6.0311717507767717e-05 0 -0.0046554006669107155 4.1845796552394116e-05 0 -0.0046000728953696111 0.00021817785847383592 0 -0.0046554006669107155 4.1845796552394116e-05 0 -0.0046116984493826752 -0.00026470019365652954 0 -0.0048133067146136979 -0.00011585047654306553 0 -0.0044822742376374796 -6.0311717507767717e-05 0 -0.0046554006669107155 4.1845796552394116e-05 0 -0.0046116984493826752 -0.00026470019365652954 0 -0.0051075372305744516 -0.00029199709274794626 0 -0.0046116984493826752 -0.00026470019365652954 0 -0.0048133067146136979 -0.00011585047654306553 0 -0.0051075372305744516 -0.00029199709274794626 0 -0.0048133067146136979 -0.00011585047654306553 0 -0.0050221162559943196 -0.00013338168945289618 0 -0.0051075372305744516 -0.00029199709274794626 0 -0.0051123673065916154 -0.0001381396010366562 0 -0.0050221162559943196 -0.00013338168945289618 0 -0.0051384362822733468 -0.00030038568065516842 0 -0.0051075372305744516 -0.00029199709274794626 0 -0.0051123673065916154 -0.0001381396010366562 0 -0.0063603999985399349 -0.0004562244590989272 0 -0.0065241910536127023 0.00011561783410537235 0 -0.0051828681449497243 -0.00032066921422091579 0 -0.0052637847323314503 -0.00019479047502993804 0 -0.0054628875405716201 -0.00012011576436535432 0 -0.0052637847323314503 -0.00019479047502993804 0 -0.0052222405260398458 -7.5957209050909875e-05 0 -0.0054628875405716201 -0.00012011576436535432 0 -0.0051384362822733468 -0.00030038568065516842 0 -0.0051123673065916154 -0.0001381396010366562 0 -0.0052637847323314503 -0.00019479047502993804 0 -0.0063603999985399349 -0.0004562244590989272 0 -0.0054507510835759875 -0.00045522692710004006 0 -0.0051123673065916154 -0.0001381396010366562 0 -0.0052637847323314503 -0.00019479047502993804 0 -0.0052222405260398458 -7.5957209050909875e-05 0 -0.0052684384209885872 7.2654962570760023e-05 0 -0.0052222405260398458 -7.5957209050909875e-05 0 -0.0054628875405716201 -0.00012011576436535432 0 -0.0052684384209885872 7.2654962570760023e-05 0 -0.0052222405260398458 -7.5957209050909875e-05 0 -0.005046114866040537 2.4596555388401355e-05 0 -0.0052684384209885872 7.2654962570760023e-05 0 -0.005046114866040537 2.4596555388401355e-05 0 -0.0051292636184927303 0.00017590010694252303 0 -0.0051123673065916154 -0.0001381396010366562 0 -0.0050221162559943196 -0.00013338168945289618 0 -0.005046114866040537 2.4596555388401355e-05 0 -0.0051123673065916154 -0.0001381396010366562 0 -0.0052222405260398458 -7.5957209050909875e-05 0 -0.005046114866040537 2.4596555388401355e-05 0 -0.005046114866040537 2.4596555388401355e-05 0 -0.0049851343071149051 0.00026504808100331402 0 -0.0051292636184927303 0.00017590010694252303 0 -0.0049851343071149051 0.00026504808100331402 0 -0.0051292636184927303 0.00017590010694252303 0 -0.0052159494138269581 0.00034566278273255396 0 -0.0052684384209885872 7.2654962570760023e-05 0 -0.0052159494138269581 0.00034566278273255396 0 -0.0054770317204105518 0.00021516653510527534 0 -0.0052684384209885872 7.2654962570760023e-05 0 -0.0051292636184927303 0.00017590010694252303 0 -0.0052159494138269581 0.00034566278273255396 0 -0.0042305219012288208 5.950647487537311e-05 0 -0.0046281934146453155 -0.00019554261892610405 0 -0.002992843708231236 -0.00017273191045409655 0 -0.0028779752105011474 0.00099511934410343415 0 -0.0036413174453997113 0.00035272657064448819 0 -0.002992843708231236 -0.00017273191045409655 0 -0.0020422117793669793 0.00029276575940490192 0 -0.0028779752105011474 0.00099511934410343415 0 -0.0049851343071149051 0.00026504808100331402 0 -0.0052159494138269581 0.00034566278273255396 0 -0.0049459792677848139 0.00047858543594938614 0 -0.0042305219012288208 5.950647487537311e-05 0 -0.002891611662040001 0.00031418544129133884 0 -0.0017048785582925428 0.00023269470027608284 0 -0.0015127177196786758 0.00032736568335674671 0 -0.0010846156821429135 -0.00018839845867886271 0 -0.0049851343071149051 0.00026504808100331402 0 -0.0049459792677848139 0.00047858543594938614 0 -0.0047763848477929069 0.00034544156544808282 0 -0.002891611662040001 0.00031418544129133884 0 -0.0022579474517174483 0.00049825910189650689 0 -0.0015127177196786758 0.00032736568335674671 0 -0.0010866595064524935 0.0002744178774790187 0 -0.0010846156821429135 -0.00018839845867886271 0 -0.0015127177196786758 0.00032736568335674671 0 -0.0010866595064524935 0.0002744178774790187 0 -0.0012171297758187996 0.00051191843669912737 0 -0.0010866595064524935 0.0002744178774790187 0 -0.0010846156821429135 -0.00018839845867886271 0 -0.00067798742807602993 0.00021352409607643293 0 -0.002891611662040001 0.00031418544129133884 0 -0.003015438633480221 0.0001576620031244673 0 -0.005046114866040537 2.4596555388401355e-05 0 -0.0049851343071149051 0.00026504808100331402 0 -0.0048171043852753325 0.00013399979276757597 0 -0.0047763848477929069 0.00034544156544808282 0 -0.0048171043852753325 0.00013399979276757597 0 -0.0046000728953696111 0.00021817785847383592 0 -0.0049851343071149051 0.00026504808100331402 0 -0.0047763848477929069 0.00034544156544808282 0 -0.0048171043852753325 0.00013399979276757597 0 -0.0046554006669107155 4.1845796552394116e-05 0 -0.0048171043852753325 0.00013399979276757597 0 -0.0046000728953696111 0.00021817785847383592 0 -0.0010846156821429135 -0.00018839845867886271 0 -0.00056582623175127817 -0.00041538455081972184 0 -0.00047886041915238306 -0.00013192535714870871 0 -0.003015438633480221 0.0001576620031244673 0 -0.0018780863140394222 0.00012742260266424005 0 -0.0010846156821429135 -0.00018839845867886271 0 -0.00048482616206474292 -0.00061419531333756455 0 -0.00056582623175127817 -0.00041538455081972184 0 4.7963725111491326e-05 -0.00052928334571223853 0 -0.00048184921725790574 -0.00061352895711801051 0 -0.00030655526560653765 -0.00036558433954223663 0 -0.00056582623175127817 -0.00041538455081972184 0 -0.00030655526560653765 -0.00036558433954223663 0 -0.00047886041915238306 -0.00013192535714870871 0 -0.00048184921725790574 -0.00061352895711801051 0 -0.00056582623175127817 -0.00041538455081972184 0 -0.00030655526560653765 -0.00036558433954223663 0 -0.0018780863140394222 0.00012742260266424005 0 -0.0014458496083231819 -0.00038009477292582895 0 -5.6061747235556225e-05 -0.00013525669893672866 0 -0.00047886041915238306 -0.00013192535714870871 0 -0.00028176928868894782 0.00016810204433353738 0 -5.6061747235556225e-05 -0.00013525669893672866 0 -0.00030655526560653765 -0.00036558433954223663 0 -0.00047886041915238306 -0.00013192535714870871 0 -0.00047886041915238306 -0.00013192535714870871 0 -0.00067798742807602993 0.00021352409607643293 0 -0.00028176928868894782 0.00016810204433353738 0 -0.0010846156821429135 -0.00018839845867886271 0 -0.00047886041915238306 -0.00013192535714870871 0 -0.00067798742807602993 0.00021352409607643293 0 -0.0010866595064524935 0.0002744178774790187 0 -0.00067798742807602993 0.00021352409607643293 0 -0.00092542374846098978 0.0006615195600243811 0 -0.00067798742807602993 0.00021352409607643293 0 -0.00028176928868894782 0.00016810204433353738 0 -0.00031416744830016762 0.00063582175431875 0 -0.00067798742807602993 0.00021352409607643293 0 -0.00031416744830016762 0.00063582175431875 0 -0.00092542374846098978 0.0006615195600243811 0 -0.00031416744830016762 0.00063582175431875 0 -0.00059868118656830757 0.0011787865471100296 0 -0.00092542374846098978 0.0006615195600243811 0 6.1597478821465984e-05 0.0013270476377077649 0 -0.00031416744830016762 0.00063582175431875 0 -0.00059868118656830757 0.0011787865471100296 0 -0.0015127177196786758 0.00032736568335674671 0 -0.0013522072991184718 0.00078748639592630075 0 -0.0012171297758187996 0.00051191843669912737 0 -0.0015127177196786758 0.00032736568335674671 0 -0.0013522072991184718 0.00078748639592630075 0 -0.0018595142414182912 0.0009565941663273621 0 -0.0013522072991184718 0.00078748639592630075 0 -0.00092542374846098978 0.0006615195600243811 0 -0.0012171297758187996 0.00051191843669912737 0 -0.0010866595064524935 0.0002744178774790187 0 -0.00092542374846098978 0.0006615195600243811 0 -0.0012171297758187996 0.00051191843669912737 0 -0.0013522072991184718 0.00078748639592630075 0 -0.00092542374846098978 0.0006615195600243811 0 -0.0012484681633437435 0.0012541554646934687 0 -0.00059868118656830757 0.0011787865471100296 0 -0.00092542374846098978 0.0006615195600243811 0 -0.0012484681633437435 0.0012541554646934687 0 -0.0013522072991184718 0.00078748639592630075 0 -0.0012484681633437435 0.0012541554646934687 0 -0.0018595142414182912 0.0009565941663273621 0 -0.0012484681633437435 0.0012541554646934687 0 -0.0005317299527304813 0.0021853687924277788 0 -0.0011246576336901039 0.0024133121955475997 0 -0.0012079139721265523 0.0013003529691985895 0 -0.0005378393008338727 0.0020853741911538506 0 -0.0012484681633437435 0.0012541554646934687 0 -0.0011246576336901039 0.0024133121955475997 0 -0.0021019787251322646 0.0021694913599803996 0 6.1597478821465984e-05 0.0013270476377077649 0 -0.00059868118656830757 0.0011787865471100296 0 -0.00058683137134308162 0.0019772220241910245 0 -0.00059868118656830757 0.0011787865471100296 0 -0.0012484681633437435 0.0012541554646934687 0 -0.00058683137134308162 0.0019772220241910245 0 -0.0005317299527304813 0.0021853687924277788 0 -0.0011246576336901039 0.0024133121955475997 0 -0.00065312703730406423 0.0028862133923012725 0 -0.00039052940582389183 0.0028143377096501725 0 -0.0005378393008338727 0.0020853741911538506 0 -0.00011036369052224811 0.002919607361135512 0 -0.0005317299527304813 0.0021853687924277788 0 -0.00065312703730406423 0.0028862133923012725 0 -0.0011246576336901039 0.0024133121955475997 0 -0.0010954272234718963 0.0033611739444699396 0 -0.0021019787251322646 0.0021694913599803996 0 -0.0011246576336901039 0.0024133121955475997 0 -0.0010954272234718963 0.0033611739444699396 0 -0.00065312703730406423 0.0028862133923012725 0 -0.0010954272234718963 0.0033611739444699396 0 -0.00065312703730406423 0.0028862133923012725 0 -0.00041201266610850197 0.0035243422033968646 0 -0.00011036369052224811 0.002919607361135512 0 -0.00065312703730406423 0.0028862133923012725 0 -0.00041201266610850197 0.0035243422033968646 0 -0.0011821117457149317 0.0033748297248215454 0 -0.0020766035474882273 0.0032159470646007096 0 -0.0010954272234718963 0.0033611739444699396 0 -0.0028492201800332509 0.0032415694811374911 0 -0.0021019787251322646 0.0021694913599803996 0 -0.0028492201800332509 0.0032415694811374911 0 -0.0021019787251322646 0.0021694913599803996 0 -0.003542208090568363 0.0020115058129291474 0 -0.0021019787251322646 0.0021694913599803996 0 -0.0028779752105011474 0.00099511934410343415 0 -0.003542208090568363 0.0020115058129291474 0 -0.0021019787251322646 0.0021694913599803996 0 -0.0018595142414182912 0.0009565941663273621 0 -0.0028779752105011474 0.00099511934410343415 0 -0.0012484681633437435 0.0012541554646934687 0 -0.0021019787251322646 0.0021694913599803996 0 -0.0018595142414182912 0.0009565941663273621 0 -0.001744328665553093 0.00019424446390786223 0 -0.0018595142414182912 0.0009565941663273621 0 -0.0028779752105011474 0.00099511934410343415 0 -0.002891611662040001 0.00031418544129133884 0 -0.0024877313894494861 0.00083279412728569325 0 -0.001744328665553093 0.00019424446390786223 0 -0.0015127177196786758 0.00032736568335674671 0 -0.0018595142414182912 0.0009565941663273621 0 -0.0028779752105011474 0.00099511934410343415 0 -0.0042472654058442316 0.0010062226449783188 0 -0.0036413174453997113 0.00035272657064448819 0 -0.0042472654058442316 0.0010062226449783188 0 -0.0051252805111044472 0.00046558969524234924 0 -0.0044460648860053555 0.00023888081669879563 0 -0.0042472654058442316 0.0010062226449783188 0 -0.0053593778125805057 0.0010901843977504887 0 -0.0051252805111044472 0.00046558969524234924 0 -0.0042472654058442316 0.0010062226449783188 0 -0.0047380314954497214 0.0018102517840277174 0 -0.0053593778125805057 0.0010901843977504887 0 -0.0028779752105011474 0.00099511934410343415 0 -0.0042472654058442316 0.0010062226449783188 0 -0.003542208090568363 0.0020115058129291474 0 -0.0042472654058442316 0.0010062226449783188 0 -0.0047380314954497214 0.0018102517840277174 0 -0.003542208090568363 0.0020115058129291474 0 -0.0047380314954497214 0.0018102517840277174 0 -0.003542208090568363 0.0020115058129291474 0 -0.0044374593562113958 0.0028986557138655921 0 -0.0028492201800332509 0.0032415694811374911 0 -0.003542208090568363 0.0020115058129291474 0 -0.0044374593562113958 0.0028986557138655921 0 -0.0047380314954497214 0.0018102517840277174 0 -0.0044374593562113958 0.0028986557138655921 0 -0.0051325034808525584 0.0022363702507885394 0 -0.0018344253247255203 0.0030989369878133824 0 -0.0022679311993840565 0.0032120889723777318 0 -0.0019659222483697637 0.0034948084049330388 0 -0.0018344253247255203 0.0030989369878133824 0 -0.0016540536874032898 0.0034136636389161096 0 -0.0019659222483697637 0.0034948084049330388 0 -0.0013934805771635657 0.0032612137960523601 0 -0.0018344253247255203 0.0030989369878133824 0 -0.0016540536874032898 0.0034136636389161096 0 -0.0020766035474882273 0.0032159470646007096 0 -0.0033308612058991841 0.0031784377654375745 0 -0.00087809094145455417 -4.3631048839193315e-07 0 0.00014176658136010967 -1.2002870985539456e-05 0 -0.0011943914087957684 -3.8027663981463765e-05 0 -0.00087809094145455417 -4.3631048839193315e-07 0 0.00014176658136010967 -1.2002870985539456e-05 0 0.0010311234648075175 3.8064621752353285e-07 0 -0.0013607718201226395 -0.00018267343402871567 0 -0.0013571451116964743 3.4667234844787954e-06 0 -0.0011943914087957684 -3.8027663981463765e-05 0 8.5945566055348568e-05 0.0009334059215983907 0 -0.0012803580166039421 -0.00031085189180011841 0 -0.0018344253247255203 0.0030989369878133824 0 -0.0022679311993840565 0.0032120889723777318 0 -0.0023041969570362138 0.0029450107430041097 0 8.5945566055348568e-05 0.0009334059215983907 0 -0.0031022228909968201 0.00129973012139372 0 -0.0044374593562113958 0.0028986557138655921 0 -0.0051325034808525584 0.0022363702507885394 0 -0.0058990357975978345 0.0025039687432365136 0 -0.0033308612058991841 0.0031784377654375745 0 -0.0031022228909968201 0.00129973012139372 0 -0.0051325034808525584 0.0022363702507885394 0 -0.0058990357975978345 0.0025039687432365136 0 -0.0054589562840816055 0.0017381496554458456 0 -0.00087809094145455417 -4.3631048839193315e-07 0 -0.0017743974702780086 -4.9812868719866222e-05 0 -0.0027871539685205091 1.2490508849743706e-07 0 -0.0031022228909968201 0.00129973012139372 0 -0.0017229342911285754 0.00048219631676929504 0 -0.0013571451116964743 3.4667234844787954e-06 0 -0.0011943914087957684 -3.8027663981463765e-05 0 -0.0017743974702780086 -4.9812868719866222e-05 0 -0.00087809094145455417 -4.3631048839193315e-07 0 -0.0011943914087957684 -3.8027663981463765e-05 0 -0.0017743974702780086 -4.9812868719866222e-05 0 -0.0017743974702780086 -4.9812868719866222e-05 0 -0.0027871539685205091 1.2490508849743706e-07 0 -0.0033535885700087839 3.5004663114627816e-05 0 -0.0031022228909968201 0.00129973012139372 0 -0.0048414730642986669 0.0006191887119822633 0 -0.0020746368126995044 -0.00012162232614654598 0 -0.0017743974702780086 -4.9812868719866222e-05 0 -0.0033535885700087839 3.5004663114627816e-05 0 -0.0058990357975978345 0.0025039687432365136 0 -0.0054589562840816055 0.0017381496554458456 0 -0.0060217152317796219 0.0010672572256012983 0 -0.0047380314954497214 0.0018102517840277174 0 -0.0051325034808525584 0.0022363702507885394 0 -0.0054589562840816055 0.0017381496554458456 0 -0.0054589562840816055 0.0017381496554458456 0 -0.0053593778125805057 0.0010901843977504887 0 -0.0060217152317796219 0.0010672572256012983 0 -0.0047380314954497214 0.0018102517840277174 0 -0.0054589562840816055 0.0017381496554458456 0 -0.0053593778125805057 0.0010901843977504887 0 -0.0053593778125805057 0.0010901843977504887 0 -0.0060217152317796219 0.0010672572256012983 0 -0.0056543084303204054 0.00049882878260023222 0 -0.0053593778125805057 0.0010901843977504887 0 -0.0056543084303204054 0.00049882878260023222 0 -0.0051252805111044472 0.00046558969524234924 0 -0.0027871539685205091 1.2490508849743706e-07 0 -0.0033535885700087839 3.5004663114627816e-05 0 -0.0046970054233251542 -2.0358388782561894e-07 0 -0.0048414730642986669 0.0006191887119822633 0 -0.0054954775346585287 0.00016544739397673949 0 -0.0033535885700087839 3.5004663114627816e-05 0 -0.0046970054233251542 -2.0358388782561894e-07 0 -0.0057175700458627363 -3.8031300108303602e-06 0 -0.0060217152317796219 0.0010672572256012983 0 -0.0057175700458627363 -3.8031300108303602e-06 0 -0.0056543084303204054 0.00049882878260023222 0 -0.0057175700458627363 -3.8031300108303602e-06 0 -0.0063194407072221324 -0.00024993264890819879 0 -0.0066053849474743895 -2.7476472537129326e-09 0 -0.0046970054233251542 -2.0358388782561894e-07 0 -0.0057175700458627363 -3.8031300108303602e-06 0 -0.0066053849474743895 -2.7476472537129326e-09 0 -0.0063194407072221324 -0.00024993264890819879 0 -0.0051667561077758436 -0.00013047070404558899 0 -0.0053046767394994135 -0.0011425267166409693 0 -0.006376315862712722 -0.00034646399351823852 0 -0.0063576063650802031 -0.00010259802179533124 0 -0.0057175700458627363 -3.8031300108303602e-06 0 -0.0063194407072221324 -0.00024993264890819879 0 -0.0057423433169069733 0.00012569202591053292 0 -0.0063194407072221324 -0.00024993264890819879 0 -0.0057423433169069733 0.00012569202591053292 0 -0.0051667561077758436 -0.00013047070404558899 0 -0.0057423433169069733 0.00012569202591053292 0 -0.0051252805111044472 0.00046558969524234924 0 -0.0051667561077758436 -0.00013047070404558899 0 -0.0057175700458627363 -3.8031300108303602e-06 0 -0.0057423433169069733 0.00012569202591053292 0 -0.0056543084303204054 0.00049882878260023222 0 -0.0057423433169069733 0.00012569202591053292 0 -0.0056543084303204054 0.00049882878260023222 0 -0.0051252805111044472 0.00046558969524234924 0 -0.0051252805111044472 0.00046558969524234924 0 -0.0044460648860053555 0.00023888081669879563 0 -0.0051667561077758436 -0.00013047070404558899 0 -0.002992843708231236 -0.00017273191045409655 0 -0.0036413174453997113 0.00035272657064448819 0 -0.0040743687527356517 -0.00062804109509404654 0 -0.0042472654058442316 0.0010062226449783188 0 -0.0044460648860053555 0.00023888081669879563 0 -0.0036413174453997113 0.00035272657064448819 0 -0.0044460648860053555 0.00023888081669879563 0 -0.0036413174453997113 0.00035272657064448819 0 -0.0040743687527356517 -0.00062804109509404654 0 -0.0046281934146453155 -0.00019554261892610405 0 -0.0063576063650802031 -0.00010259802179533124 0 -0.0044460648860053555 0.00023888081669879563 0 -0.0040743687527356517 -0.00062804109509404654 0 -0.0051667561077758436 -0.00013047070404558899 0 -0.0040743687527356517 -0.00062804109509404654 0 -0.0051667561077758436 -0.00013047070404558899 0 -0.0053046767394994135 -0.0011425267166409693 0 -0.0075049688105598197 0.00013031496493459116 0 -0.0075119113177262581 0.00020488306611327135 0 -0.0076066729100221627 0.00022839493551442662 0 -0.0063576063650802031 -0.00010259802179533124 0 -0.0065241910536127023 0.00011561783410537235 0 -0.0075049688105598197 0.00013031496493459116 0 -0.0076066729100221627 0.00022839493551442662 0 -0.0073191370493047043 0.0001513969145141375 0 -0.0054770317204105518 0.00021516653510527534 0 -0.005744381713431999 8.6091185544582343e-05 0 -0.0054628875405716201 -0.00012011576436535432 0 -0.0052684384209885872 7.2654962570760023e-05 0 -0.0054770317204105518 0.00021516653510527534 0 -0.0054628875405716201 -0.00012011576436535432 0 -0.0075304406917219169 -5.3493091941127811e-05 0 -0.0075119113177262581 0.00020488306611327135 0 -0.0076066729100221627 0.00022839493551442662 0 -0.0075304406917219169 -5.3493091941127811e-05 0 -0.0072089460295079394 -3.2510698617248096e-05 0 -0.0075119113177262581 0.00020488306611327135 0 -0.0078732855607881042 0.00014954386057835321 0 -0.0075304406917219169 -5.3493091941127811e-05 0 -0.0076066729100221627 0.00022839493551442662 0 -0.0078732855607881042 0.00014954386057835321 0 -0.0075943814574201208 0.00022041944160689007 0 -0.0079099739126602033 0.00016304039501751269 0 -0.0078732855607881042 0.00014954386057835321 0 -0.0076066729100221627 0.00022839493551442662 0 -0.0075943814574201208 0.00022041944160689007 0 -0.0075943814574201208 0.00022041944160689007 0 -0.0079099739126602033 0.00016304039501751269 0 -0.0071755244946444877 0.00014481545872918158 0 -0.0086233425219420946 0.00011846988318787824 0 -0.0079099739126602033 0.00016304039501751269 0 -0.0085149531011661679 1.1267562646774984e-06 0 -0.0079099739126602033 0.00016304039501751269 0 -0.0085149531011661679 1.1267562646774984e-06 0 -0.0071755244946444877 0.00014481545872918158 0 -0.0085149531011661679 1.1267562646774984e-06 0 -0.0071755244946444877 0.00014481545872918158 0 -0.0066053849474743895 -2.7476472537129326e-09 0 -0.0063194407072221324 -0.00024993264890819879 0 -0.0071755244946444877 0.00014481545872918158 0 -0.0066053849474743895 -2.7476472537129326e-09 0 -0.0063194407072221324 -0.00024993264890819879 0 -0.0071755244946444877 0.00014481545872918158 0 -0.0073191370493047043 0.0001513969145141375 0 -0.0063194407072221324 -0.00024993264890819879 0 -0.0076628768779996859 -2.2407246093241502e-05 0 -0.0073191370493047043 0.0001513969145141375 0 -0.0063576063650802031 -0.00010259802179533124 0 -0.0070786947335959036 -0.00019800458276112367 0 -0.0076066729100221627 0.00022839493551442662 0 -0.0075943814574201208 0.00022041944160689007 0 -0.0073191370493047043 0.0001513969145141375 0 -0.0075943814574201208 0.00022041944160689007 0 -0.0071755244946444877 0.00014481545872918158 0 -0.0073191370493047043 0.0001513969145141375 0 -0.0012168241622414809 -0.00052914625187211158 0 -3.9304073347588801e-05 -8.0488714912392719e-05 0 -5.9958415242240662e-05 -0.0012754927523171626 0 -0.0012168241622414809 -0.00052914625187211158 0 -0.00096042765468060619 0.00041956062187996866 0 -0.0018232503949652886 0.00044778137035165962 0 -0.0012168241622414809 -0.00052914625187211158 0 -3.9304073347588801e-05 -8.0488714912392719e-05 0 -0.00096042765468060619 0.00041956062187996866 0 -3.9304073347588801e-05 -8.0488714912392719e-05 0 0.00018978604460627606 0.00046272298598509353 0 -0.00034913467709285349 0.00074869719085664341 0 -3.9304073347588801e-05 -8.0488714912392719e-05 0 -0.00096042765468060619 0.00041956062187996866 0 -0.00034913467709285349 0.00074869719085664341 0 0.00051439990847415562 0.00016854733025632095 0 -3.9304073347588801e-05 -8.0488714912392719e-05 0 0.00018978604460627606 0.00046272298598509353 0 0.00051439990847415562 0.00016854733025632095 0 0.0006003900116630913 0.00057755138481173829 0 0.00018978604460627606 0.00046272298598509353 0 0.00051439990847415562 0.00016854733025632095 0 0.00056194806946217629 -0.00014393363410228363 0 -3.9304073347588801e-05 -8.0488714912392719e-05 0 -1.426902433531473e-05 -0.00011521475001938189 0 7.9377622374568598e-05 -0.00075498849597870619 0 0.00056194806946217629 -0.00014393363410228363 0 -3.9304073347588801e-05 -8.0488714912392719e-05 0 0.00023173302105697921 -0.00031170318173096462 0 0.00056194806946217629 -0.00014393363410228363 0 0.00023173302105697921 -0.00031170318173096462 0 0.00069238691734622277 -0.00044238640075294126 0 -5.9958415242240662e-05 -0.0012754927523171626 0 -0.00087972339947638947 -0.0017972176358390609 0 -6.7399118030466446e-05 -0.0023290901617732118 0 7.9377622374568598e-05 -0.00075498849597870619 0 1.2162622049437056e-05 -0.0016892744378771598 0 0.00023173302105697921 -0.00031170318173096462 0 0.00069238691734622277 -0.00044238640075294126 0 0.00023532789400535677 -0.00083029879179312188 0 -0.0012168241622414809 -0.00052914625187211158 0 -5.9958415242240662e-05 -0.0012754927523171626 0 -0.00087972339947638947 -0.0017972176358390609 0 -0.0012168241622414809 -0.00052914625187211158 0 -0.00087972339947638947 -0.0017972176358390609 0 -0.0021828112803958864 -0.0013903152671091783 0 -0.00087972339947638947 -0.0017972176358390609 0 -0.0021828112803958864 -0.0013903152671091783 0 -0.0015256682905700415 -0.0025666919924608668 0 -0.0021828112803958864 -0.0013903152671091783 0 -0.003210568403587822 -0.0016009563961588761 0 -0.0027598957654842104 -0.0025133490385084991 0 -0.0021828112803958864 -0.0013903152671091783 0 -0.003210568403587822 -0.0016009563961588761 0 -0.0030341124483374651 -0.00079797640716343322 0 -0.0040728015585103109 -0.0017298555372076616 0 -0.003210568403587822 -0.0016009563961588761 0 -0.0039162360950624224 -0.0023909544631217582 0 -0.003210568403587822 -0.0016009563961588761 0 -0.0039094645344396745 -0.00093813709854837705 0 -0.0030341124483374651 -0.00079797640716343322 0 -0.0046714333125787121 -0.0015503375676130895 0 -0.0040728015585103109 -0.0017298555372076616 0 -0.0039094645344396745 -0.00093813709854837705 0 -0.0040728015585103109 -0.0017298555372076616 0 -0.003210568403587822 -0.0016009563961588761 0 -0.0039094645344396745 -0.00093813709854837705 0 -0.0039094645344396745 -0.00093813709854837705 0 -0.0034541941755037286 0.00013975875122773768 0 -0.0030341124483374651 -0.00079797640716343322 0 -0.004407418121328493 -0.00026841220689853985 0 -0.0044173784224507354 0.00065751345153226295 0 -0.0034541941755037286 0.00013975875122773768 0 -0.004407418121328493 -0.00026841220689853985 0 -0.0039094645344396745 -0.00093813709854837705 0 -0.0034541941755037286 0.00013975875122773768 0 -0.0021828112803958864 -0.0013903152671091783 0 -0.0030341124483374651 -0.00079797640716343322 0 -0.0024046251591849435 -0.00016302629793865973 0 -0.0012168241622414809 -0.00052914625187211158 0 -0.0021828112803958864 -0.0013903152671091783 0 -0.0024046251591849435 -0.00016302629793865973 0 -0.0034541941755037286 0.00013975875122773768 0 -0.0030341124483374651 -0.00079797640716343322 0 -0.0024046251591849435 -0.00016302629793865973 0 -0.0012168241622414809 -0.00052914625187211158 0 -0.0024046251591849435 -0.00016302629793865973 0 -0.0018232503949652886 0.00044778137035165962 0 -0.0034541941755037286 0.00013975875122773768 0 -0.0024046251591849435 -0.00016302629793865973 0 -0.0025021853513719407 0.0010224825657095193 0 -0.0024046251591849435 -0.00016302629793865973 0 -0.0025021853513719407 0.0010224825657095193 0 -0.0018232503949652886 0.00044778137035165962 0 -0.0044173784224507354 0.00065751345153226295 0 -0.0034541941755037286 0.00013975875122773768 0 -0.0037049124375201255 0.0013516586550375524 0 -0.0034541941755037286 0.00013975875122773768 0 -0.0025021853513719407 0.0010224825657095193 0 -0.0037049124375201255 0.0013516586550375524 0 -0.0045479752477650083 0.00052585249987725129 0 -0.0038148867305700979 0.0012378934909912961 0 -0.0051378426716238799 0.0017295972871997954 0 -0.0039430435994402026 0.0010985973702867919 0 -0.0042551657494743931 0.0021213499592115321 0 -0.0038148867305700979 0.0012378934909912961 0 -0.003167794635601716 0.0018793322498508952 0 -0.0039430435994402026 0.0010985973702867919 0 -0.0042551657494743931 0.0021213499592115321 0 -0.0031263326530373433 0.0019194590774168879 0 -0.0036171373040231785 0.0026971481258354019 0 -0.0042551657494743931 0.0021213499592115321 0 -0.0031263326530373433 0.0019194590774168879 0 -0.0025021853513719407 0.0010224825657095193 0 -0.0037049124375201255 0.0013516586550375524 0 -0.0031263326530373433 0.0019194590774168879 0 -0.0025021853513719407 0.0010224825657095193 0 -0.0022756652415109493 0.0017825388415866992 0 -0.0013714694156399629 0.0014726139797798701 0 -0.0025021853513719407 0.0010224825657095193 0 -0.0022756652415109493 0.0017825388415866992 0 -0.0031263326530373433 0.0019194590774168879 0 -0.0026763344783217505 0.0024986189118025421 0 -0.0022756652415109493 0.0017825388415866992 0 -0.0031263326530373433 0.0019194590774168879 0 -0.0026763344783217505 0.0024986189118025421 0 -0.0036171373040231785 0.0026971481258354019 0 -0.0031263326530373433 0.0019194590774168879 0 -0.0026763344783217505 0.0024986189118025421 0 -0.0022756652415109493 0.0017825388415866992 0 -0.0017316121703142273 0.0023676754585249325 0 -0.0017316121703142273 0.0023676754585249325 0 -0.0013714694156399629 0.0014726139797798701 0 -0.00099650539389582911 0.0020076600719541168 0 -0.0010197754502248458 0.002673062426995543 0 -0.0017316121703142273 0.0023676754585249325 0 -0.00099650539389582911 0.0020076600719541168 0 -0.0013714694156399629 0.0014726139797798701 0 -0.00085603505157461882 0.0015960189313123715 0 -0.00099650539389582911 0.0020076600719541168 0 -0.0022756652415109493 0.0017825388415866992 0 -0.0017316121703142273 0.0023676754585249325 0 -0.0013714694156399629 0.0014726139797798701 0 -0.0025021853513719407 0.0010224825657095193 0 -0.0013714694156399629 0.0014726139797798701 0 -0.0018232503949652886 0.00044778137035165962 0 -0.0013037914967001054 0.0014657615263628909 0 -0.0004814777680740505 0.0012758830167049044 0 -0.0013714694156399629 0.0014726139797798701 0 -0.00034913467709285349 0.00074869719085664341 0 -0.00014978632820874125 0.0013305869366824462 0 -0.0013714694156399629 0.0014726139797798701 0 -0.00096042765468060619 0.00041956062187996866 0 -0.00034913467709285349 0.00074869719085664341 0 -0.0013714694156399629 0.0014726139797798701 0 -0.00096042765468060619 0.00041956062187996866 0 -0.0018232503949652886 0.00044778137035165962 0 0.00022393490385589607 0.00081628784439530255 0 0.0006003900116630913 0.00057755138481173829 0 0.00072607499211088558 0.00099235434262199759 0 0.00022393490385589607 0.00081628784439530255 0 0.0006003900116630913 0.00057755138481173829 0 0.00018978604460627606 0.00046272298598509353 0 0.00022393490385589607 0.00081628784439530255 0 0.00018978604460627606 0.00046272298598509353 0 -0.00034913467709285349 0.00074869719085664341 0 -0.0013714694156399629 0.0014726139797798701 0 -0.00079879629588574077 0.0012503589541171289 0 -0.00085603505157461882 0.0015960189313123715 0 0.00022393490385589607 0.00081628784439530255 0 -0.00034913467709285349 0.00074869719085664341 0 -0.00014978632820874125 0.0013305869366824462 0 -0.00079879629588574077 0.0012503589541171289 0 -0.00050125478564675503 0.0013682035984796054 0 -0.00085603505157461882 0.0015960189313123715 0 -0.00079879629588574077 0.0012503589541171289 0 -0.00050125478564675503 0.0013682035984796054 0 0.00023012206779982354 0.00086857110805899963 0 0.00022393490385589607 0.00081628784439530255 0 -0.00014978632820874125 0.0013305869366824462 0 0.00072607499211088558 0.00099235434262199759 0 -0.00050125478564675503 0.0013682035984796054 0 0.0002916865787138231 0.0018837372232756509 0 0.00023012206779982354 0.00086857110805899963 0 -0.0004814777680740505 0.0012758830167049044 0 0.0004790853036657324 0.00092830078496249904 0 -0.00050125478564675503 0.0013682035984796054 0 -0.00047413864736534133 0.0018832306503602781 0 -4.3482717554110519e-05 0.0018024255677075165 0 -0.00047327213980052289 0.0013788907293716562 0 0.00011388343199625346 0.0019155212358277875 0 -0.00050125478564675503 0.0013682035984796054 0 -0.00047413864736534133 0.0018832306503602781 0 -0.00085603505157461882 0.0015960189313123715 0 -0.00047413864736534133 0.0018832306503602781 0 -0.00085603505157461882 0.0015960189313123715 0 -0.00099650539389582911 0.0020076600719541168 0 -0.0010197754502248458 0.002673062426995543 0 -0.00099650539389582911 0.0020076600719541168 0 -0.00055632246835019244 0.0023464185109827403 0 -0.00047413864736534133 0.0018832306503602781 0 -0.00099650539389582911 0.0020076600719541168 0 -0.00055632246835019244 0.0023464185109827403 0 -0.00018463757152516658 0.0025042621218181195 0 -0.00055632246835019244 0.0023464185109827403 0 -0.00010999108482084524 0.0022030846709445717 0 -0.00047413864736534133 0.0018832306503602781 0 -0.00010999108482084524 0.0022030846709445717 0 -4.3482717554110519e-05 0.0018024255677075165 0 -0.00047413864736534133 0.0018832306503602781 0 -0.00055632246835019244 0.0023464185109827403 0 -0.00010999108482084524 0.0022030846709445717 0 0.00011388343199625346 0.0019155212358277875 0 0.0010593835815407013 0.0015375502541276976 0 0.00014119401262706411 0.0025031526899139613 0 -0.00010999108482084524 0.0022030846709445717 0 0.00045603161060830505 0.0021841023123746924 0 -0.00010999108482084524 0.0022030846709445717 0 -4.3482717554110519e-05 0.0018024255677075165 0 0.00045603161060830505 0.0021841023123746924 0 0.0002916865787138231 0.0018837372232756509 0 0.0011353425857205471 0.0016174918930453315 0 0.00070352182613266328 0.001275407644714276 0 0.0002916865787138231 0.0018837372232756509 0 0.0011353425857205471 0.0016174918930453315 0 0.0010867540490810022 0.0024508619129602282 0 0.0013096469497585182 0.00062132176334587402 0 0.0013122932399599104 0.00062742148935315118 0 0.0013245951519868693 0.00061093104083862555 0 0.0012174643554876215 0.0011083877704520255 0 0.0010593835815407013 0.0015375502541276976 0 0.0017993114432895011 -0.0014577270284177283 0 0.0010593835815407013 0.0015375502541276976 0 0.0017993114432895011 -0.0014577270284177283 0 0.0020461515387239452 -0.00060546454781833258 0 0.0013302053264078553 0.00063352721045976316 0 0.0013122932399599104 0.00062742148935315118 0 0.0013245951519868693 0.00061093104083862555 0 0.0013302053264078553 0.00063352721045976316 0 0.0013740450550377 0.00061098404071568025 0 0.0013245951519868693 0.00061093104083862555 0 0.0013740450550377 0.00061098404071568025 0 0.0013833378213058912 0.0005510721919872269 0 0.0014205617121294785 0.00047601491788272396 0 0.0020461515387239452 -0.00060546454781833258 0 0.0016634457816056603 -0.00020729744511336682 0 0.0013740450550377 0.00061098404071568025 0 0.0013833378213058912 0.0005510721919872269 0 0.0013245951519868693 0.00061093104083862555 0 0.0013245951519868693 0.00061093104083862555 0 0.001291065112533652 0.00063432919025170024 0 0.0013466520751847153 0.00058807876909104737 0 0.0013833378213058912 0.0005510721919872269 0 0.0013245951519868693 0.00061093104083862555 0 0.0013466520751847153 0.00058807876909104737 0 0.0013096469497585182 0.00062132176334587402 0 0.0013245951519868693 0.00061093104083862555 0 0.001291065112533652 0.00063432919025170024 0 0.001291065112533652 0.00063432919025170024 0 0.0013466520751847153 0.00058807876909104737 0 0.0013054395023780168 0.00061819578895083661 0 0.0013466520751847153 0.00058807876909104737 0 0.0013054395023780168 0.00061819578895083661 0 0.0013680697921071509 0.00054881694546703933 0 0.001291065112533652 0.00063432919025170024 0 0.0013054395023780168 0.00061819578895083661 0 0.0011732392909345351 0.00072279909452121062 0 0.0013833378213058912 0.0005510721919872269 0 0.0014113207600902767 0.00052221609872271993 0 0.0014205617121294785 0.00047601491788272396 0 0.0013833378213058912 0.0005510721919872269 0 0.0013466520751847153 0.00058807876909104737 0 0.0014113207600902767 0.00052221609872271993 0 0.0013466520751847153 0.00058807876909104737 0 0.0014113207600902767 0.00052221609872271993 0 0.0013680697921071509 0.00054881694546703933 0 0.0014384639975552436 0.00050022209524293239 0 0.0014938911193202382 0.0004897372890377723 0 0.0013931196002352948 0.0004448219302222654 0 0.0014384639975552436 0.00050022209524293239 0 0.0013680697921071509 0.00054881694546703933 0 0.0013931196002352948 0.0004448219302222654 0 0.0014113207600902767 0.00052221609872271993 0 0.0014384639975552436 0.00050022209524293239 0 0.0014508952172897437 0.00046858825098472013 0 0.0014113207600902767 0.00052221609872271993 0 0.0014384639975552436 0.00050022209524293239 0 0.0013680697921071509 0.00054881694546703933 0 0.0013680697921071509 0.00054881694546703933 0 0.0013085568531353807 0.0005158760643403273 0 0.0013931196002352948 0.0004448219302222654 0 0.0013054395023780168 0.00061819578895083661 0 0.001310883477387883 0.00057140016939653023 0 0.0013680697921071509 0.00054881694546703933 0 0.001310883477387883 0.00057140016939653023 0 0.0013680697921071509 0.00054881694546703933 0 0.0013085568531353807 0.0005158760643403273 0 0.001310883477387883 0.00057140016939653023 0 0.0013085568531353807 0.0005158760643403273 0 0.0012662761656523659 0.00060146902865104582 0 0.0013054395023780168 0.00061819578895083661 0 0.001310883477387883 0.00057140016939653023 0 0.0012662761656523659 0.00060146902865104582 0 0.0013085568531353807 0.0005158760643403273 0 0.0011687183355141731 0.00044598744020054682 0 0.0012955748160860057 0.00040172430303704202 0 0.0011605280727699267 0.00056485450221010049 0 0.0012255547850036259 0.00054039293122552237 0 0.0011687183355141731 0.00044598744020054682 0 0.0013085568531353807 0.0005158760643403273 0 0.0012255547850036259 0.00054039293122552237 0 0.0011687183355141731 0.00044598744020054682 0 0.0013085568531353807 0.0005158760643403273 0 0.0012255547850036259 0.00054039293122552237 0 0.0012662761656523659 0.00060146902865104582 0 0.0011605280727699267 0.00056485450221010049 0 0.0012255547850036259 0.00054039293122552237 0 0.0012662761656523659 0.00060146902865104582 0 0.0011605280727699267 0.00056485450221010049 0 0.0012662761656523659 0.00060146902865104582 0 0.00097430366467603886 0.00065741529744812663 0 0.0011605280727699267 0.00056485450221010049 0 0.00097430366467603886 0.00065741529744812663 0 0.0011687183355141731 0.00044598744020054682 0 0.00097430366467603886 0.00065741529744812663 0 0.0009344036610504379 0.00036651525493610357 0 0.0011687183355141731 0.00044598744020054682 0 0.0012662761656523659 0.00060146902865104582 0 0.00097430366467603886 0.00065741529744812663 0 0.00072607499211088558 0.00099235434262199759 0 0.0006003900116630913 0.00057755138481173829 0 0.00097430366467603886 0.00065741529744812663 0 0.0009344036610504379 0.00036651525493610357 0 0.0006003900116630913 0.00057755138481173829 0 0.00097430366467603886 0.00065741529744812663 0 0.00072607499211088558 0.00099235434262199759 0 0.00070352182613266328 0.001275407644714276 0 0.00023012206779982354 0.00086857110805899963 0 0.0011732392909345351 0.00072279909452121062 0 0.0002916865787138231 0.0018837372232756509 0 0.00070352182613266328 0.001275407644714276 0 0.00023012206779982354 0.00086857110805899963 0 0.0012662761656523659 0.00060146902865104582 0 0.00023012206779982354 0.00086857110805899963 0 0.0011732392909345351 0.00072279909452121062 0 0.0012174643554876215 0.0011083877704520255 0 0.0011920119931953582 0.00075255773719427681 0 0.0011353425857205471 0.0016174918930453315 0 0.00070352182613266328 0.001275407644714276 0 0.0011732392909345351 0.00072279909452121062 0 0.0012109976113453724 0.00064182522021379051 0 0.0004790853036657324 0.00092830078496249904 0 0.0013096469497585182 0.00062132176334587402 0 0.001291065112533652 0.00063432919025170024 0 0.0011732392909345351 0.00072279909452121062 0 0.0013054395023780168 0.00061819578895083661 0 0.0012662761656523659 0.00060146902865104582 0 0.0011732392909345351 0.00072279909452121062 0 -0.00092654141746970303 -0.00090048259298142576 0 -0.0015848382702847797 -0.0016717599838018871 0 -0.0003660288063827407 -0.0020579206360295081 0 -0.0019870651994656 -0.0033855579866546239 0 -0.0015848382702847797 -0.0016717599838018871 0 -0.0003660288063827407 -0.0020579206360295081 0 -0.0003381664967369396 -0.0036195608953474047 0 -0.0003660288063827407 -0.0020579206360295081 0 0.00078894002085748676 -0.0026102901282048685 0 -0.0003660288063827407 -0.0020579206360295081 0 0.0010771733152890079 -0.0014148191317006067 0 0.00078894002085748676 -0.0026102901282048685 0 -0.00092654141746970303 -0.00090048259298142576 0 -0.0003660288063827407 -0.0020579206360295081 0 0.00021478825865912617 -0.00086016251712848634 0 -0.0003660288063827407 -0.0020579206360295081 0 0.00021478825865912617 -0.00086016251712848634 0 0.0010771733152890079 -0.0014148191317006067 0 -0.00092654141746970303 -0.00090048259298142576 0 0.00021478825865912617 -0.00086016251712848634 0 -8.3550107113382073e-05 -0.00010671053369807875 0 0.0010771733152890079 -0.0014148191317006067 0 0.0019846110641882145 -0.00093950068862592453 0 0.0012431712469161622 0.00028940055784902244 0 0.00021478825865912617 -0.00086016251712848634 0 0.0010771733152890079 -0.0014148191317006067 0 0.0012431712469161622 0.00028940055784902244 0 0.0010771733152890079 -0.0014148191317006067 0 0.00078894002085748676 -0.0026102901282048685 0 0.0017925388304257251 -0.002225294546007975 0 0.0022106808946196956 -0.002759587879144675 0 0.0026350698153804601 -0.001926336179466926 0 0.0017925388304257251 -0.002225294546007975 0 0.0026350698153804601 -0.001926336179466926 0 0.0017925388304257251 -0.002225294546007975 0 0.0019846110641882145 -0.00093950068862592453 0 0.0010771733152890079 -0.0014148191317006067 0 0.0017925388304257251 -0.002225294546007975 0 0.0019846110641882145 -0.00093950068862592453 0 0.0014113207600902767 0.00052221609872271993 0 0.0014205617121294785 0.00047601491788272396 0 0.0014508952172897437 0.00046858825098472013 0 0.0014205617121294785 0.00047601491788272396 0 0.0014508952172897437 0.00046858825098472013 0 0.0012431712469161622 0.00028940055784902244 0 0.0014508952172897437 0.00046858825098472013 0 0.0014592310416661767 0.00057176185841590992 0 0.0014938911193202382 0.0004897372890377723 0 0.0014384639975552436 0.00050022209524293239 0 0.0014508952172897437 0.00046858825098472013 0 0.0014938911193202382 0.0004897372890377723 0 0.0014508952172897437 0.00046858825098472013 0 0.0012431712469161622 0.00028940055784902244 0 0.0014592310416661767 0.00057176185841590992 0 0.0012479780827688619 0.00066731902478231638 0 0.0012431712469161622 0.00028940055784902244 0 0.0014592310416661767 0.00057176185841590992 0 0.0016634457816056603 -0.00020729744511336682 0 0.0012438769475700154 0.00027016278095417004 0 0.00021478825865912617 -0.00086016251712848634 0 0.0012431712469161622 0.00028940055784902244 0 -8.3550107113382073e-05 -0.00010671053369807875 0 0.0012431712469161622 0.00028940055784902244 0 -8.3550107113382073e-05 -0.00010671053369807875 0 0.00057563356027085422 0.00069822227480752284 0 0.0012479780827688619 0.00066731902478231638 0 0.0012431712469161622 0.00028940055784902244 0 0.00057563356027085422 0.00069822227480752284 0 0.0012479780827688619 0.00066731902478231638 0 0.00057563356027085422 0.00069822227480752284 0 0.0014324903150933421 0.00069485508178139088 0 0.0010193471152062158 0.00074365526735543518 0 0.00057563356027085422 0.00069822227480752284 0 0.00085790745574657935 0.00067838634436978779 0 -0.0016906353994226811 0.00082914195594737696 0 -0.0020604533599989446 0.002262409679423108 0 0.00057563356027085422 0.00069822227480752284 0 0.00027246822986965873 0.0010384343293790938 0 0.00018663488405530252 0.00095016590300333399 0 -0.0016906353994226811 0.00082914195594737696 0 0.00057563356027085422 0.00069822227480752284 0 -0.0012948504859226066 -5.440853268362783e-05 0 -8.3550107113382073e-05 -0.00010671053369807875 0 0.00057563356027085422 0.00069822227480752284 0 -0.0012948504859226066 -5.440853268362783e-05 0 -0.00092654141746970303 -0.00090048259298142576 0 -8.3550107113382073e-05 -0.00010671053369807875 0 -0.0012948504859226066 -5.440853268362783e-05 0 0.0021888888981226682 0.00058109075939676469 0 0.0020248332034795485 0.00037967696585920453 0 0.0019812856296969896 0.00080497164165131761 0 0.0021888888981226682 0.00058109075939676469 0 0.0022337329754885853 0.00038369298226798194 0 0.0020248332034795485 0.00037967696585920453 0 0.0020248332034795485 0.00037967696585920453 0 0.0019812856296969896 0.00080497164165131761 0 0.0014324903150933421 0.00069485508178139088 0 0.0022495008070596754 0.00082593645958817577 0 0.0021888888981226682 0.00058109075939676469 0 0.0019812856296969896 0.00080497164165131761 0 0.00027246822986965873 0.0010384343293790938 0 0.0016100781400090211 0.00080545338472356206 0 0.0016100781400090211 0.00080545338472356206 0 0.0013492373550553717 0.00068971528219174971 0 0.00057563356027085422 0.00069822227480752284 0 0.00085790745574657935 0.00067838634436978779 0 0.0014324903150933421 0.00069485508178139088 0 0.0020248332034795485 0.00037967696585920453 0 0.0014324903150933421 0.00069485508178139088 0 0.0018565051724186731 0.00034880925675399426 0 0.0014324903150933421 0.00069485508178139088 0 0.0018565051724186731 0.00034880925675399426 0 0.0015786772577267003 0.00054271019705718748 0 0.0018565051724186731 0.00034880925675399426 0 0.0015786772577267003 0.00054271019705718748 0 0.0018208945115681878 0.00023864610650251866 0 0.0012479780827688619 0.00066731902478231638 0 0.0015786772577267003 0.00054271019705718748 0 0.0014592310416661767 0.00057176185841590992 0 0.0012479780827688619 0.00066731902478231638 0 0.0014324903150933421 0.00069485508178139088 0 0.0015786772577267003 0.00054271019705718748 0 0.0015786772577267003 0.00054271019705718748 0 0.0014592310416661767 0.00057176185841590992 0 0.0015879610518767444 0.00040897680604559488 0 0.0014592310416661767 0.00057176185841590992 0 0.0014938911193202382 0.0004897372890377723 0 0.0015879610518767444 0.00040897680604559488 0 0.0015786772577267003 0.00054271019705718748 0 0.0015879610518767444 0.00040897680604559488 0 0.0018208945115681878 0.00023864610650251866 0 0.0018208945115681878 0.00023864610650251866 0 0.0014962301105223245 4.1539024168994561e-05 0 0.0015585486975473132 -0.00021310502487706018 0 0.0018837513909888048 0.00025814701064322829 0 0.0015954931700144677 -0.00015079464619348961 0 0.0015879610518767444 0.00040897680604559488 0 0.0018208945115681878 0.00023864610650251866 0 0.0014962301105223245 4.1539024168994561e-05 0 0.002142754910497183 0.00012258775081092058 0 0.0019307095596510853 3.4430694464038393e-05 0 0.0024205394306132189 -0.00023562647284720064 0 0.0018208945115681878 0.00023864610650251866 0 0.002142754910497183 0.00012258775081092058 0 0.0019307095596510853 3.4430694464038393e-05 0 0.002142754910497183 0.00012258775081092058 0 0.0025675098986809521 0.00011912194331290958 0 0.0024205394306132189 -0.00023562647284720064 0 0.0018565051724186731 0.00034880925675399426 0 0.0018208945115681878 0.00023864610650251866 0 0.002142754910497183 0.00012258775081092058 0 0.0018565051724186731 0.00034880925675399426 0 0.002142754910497183 0.00012258775081092058 0 0.0021880051906342378 0.00022023759277002013 0 0.0020248332034795485 0.00037967696585920453 0 0.0018565051724186731 0.00034880925675399426 0 0.0021880051906342378 0.00022023759277002013 0 0.002142754910497183 0.00012258775081092058 0 0.0021880051906342378 0.00022023759277002013 0 0.0025675098986809521 0.00011912194331290958 0 0.0035049086662411787 5.634902086740392e-05 0 0.0025675098986809521 0.00011912194331290958 0 0.0033543448941945032 0.00060215623644220692 0 0.0021880051906342378 0.00022023759277002013 0 0.0025675098986809521 0.00011912194331290958 0 0.0021939683557902789 0.00020075951285163549 0 0.0025794794073113166 0.00015934510629339184 0 0.0027114417476375714 0.00034821492117158276 0 0.0020248332034795485 0.00037967696585920453 0 0.0021880051906342378 0.00022023759277002013 0 0.0021939683557902789 0.00020075951285163549 0 0.0022337329754885853 0.00038369298226798194 0 0.0020248332034795485 0.00037967696585920453 0 0.0021939683557902789 0.00020075951285163549 0 0.0012547980135718668 9.1281605397694116e-05 0 0.00096931623747437102 0.00010003605716456623 0 0.001142454519522643 -0.0001609154339030881 0 0.0012547980135718668 9.1281605397694116e-05 0 0.00096931623747437102 0.00010003605716456623 0 0.0011766975219305762 0.00027722547462272982 0 0.00051439990847415562 0.00016854733025632095 0 0.00056194806946217629 -0.00014393363410228363 0 0.00096931623747437102 0.00010003605716456623 0 0.00056194806946217629 -0.00014393363410228363 0 0.00096931623747437102 0.00010003605716456623 0 0.001142454519522643 -0.0001609154339030881 0 0.00051439990847415562 0.00016854733025632095 0 0.00096931623747437102 0.00010003605716456623 0 0.0009344036610504379 0.00036651525493610357 0 0.00051439990847415562 0.00016854733025632095 0 0.0006003900116630913 0.00057755138481173829 0 0.0009344036610504379 0.00036651525493610357 0 0.00096931623747437102 0.00010003605716456623 0 0.0009344036610504379 0.00036651525493610357 0 0.0011766975219305762 0.00027722547462272982 0 0.0009344036610504379 0.00036651525493610357 0 0.0011766975219305762 0.00027722547462272982 0 0.0011687183355141731 0.00044598744020054682 0 0.0011766975219305762 0.00027722547462272982 0 0.0011687183355141731 0.00044598744020054682 0 0.0012955748160860057 0.00040172430303704202 0 0.0013085568531353807 0.0005158760643403273 0 0.0012955748160860057 0.00040172430303704202 0 0.0013931196002352948 0.0004448219302222654 0 0.0013931196002352948 0.0004448219302222654 0 0.0013312728620232192 0.00028727090120440896 0 0.0014329460067625331 0.00026445838964654292 0 0.0012955748160860057 0.00040172430303704202 0 0.0013931196002352948 0.0004448219302222654 0 0.0013312728620232192 0.00028727090120440896 0 0.0011766975219305762 0.00027722547462272982 0 0.0012955748160860057 0.00040172430303704202 0 0.0013312728620232192 0.00028727090120440896 0 0.0014938911193202382 0.0004897372890377723 0 0.0015879610518767444 0.00040897680604559488 0 0.0014329460067625331 0.00026445838964654292 0 0.0014938911193202382 0.0004897372890377723 0 0.0013931196002352948 0.0004448219302222654 0 0.0014329460067625331 0.00026445838964654292 0 0.0015879610518767444 0.00040897680604559488 0 0.0014329460067625331 0.00026445838964654292 0 0.0014962301105223245 4.1539024168994561e-05 0 0.0012547980135718668 9.1281605397694116e-05 0 0.0013312728620232192 0.00028727090120440896 0 0.0014329460067625331 0.00026445838964654292 0 0.0012547980135718668 9.1281605397694116e-05 0 0.0011766975219305762 0.00027722547462272982 0 0.0013312728620232192 0.00028727090120440896 0 0.0012547980135718668 9.1281605397694116e-05 0 0.0014329460067625331 0.00026445838964654292 0 0.0013439565254374545 -0.00015424201284241164 0 0.0014329460067625331 0.00026445838964654292 0 0.0013439565254374545 -0.00015424201284241164 0 0.0014962301105223245 4.1539024168994561e-05 0 0.0013439565254374545 -0.00015424201284241164 0 0.0014962301105223245 4.1539024168994561e-05 0 0.0014029761411257437 -0.00022261837302907405 0 0.0014962301105223245 4.1539024168994561e-05 0 0.0015585486975473132 -0.00021310502487706018 0 0.0014029761411257437 -0.00022261837302907405 0 0.0013439565254374545 -0.00015424201284241164 0 0.0014029761411257437 -0.00022261837302907405 0 0.0013397130990069593 -0.00030420368940539981 0 0.0013439565254374545 -0.00015424201284241164 0 0.0013074496802984029 -0.0004615475424328812 0 0.0013397130990069593 -0.00030420368940539981 0 0.0013439565254374545 -0.00015424201284241164 0 0.0013074496802984029 -0.0004615475424328812 0 0.001142454519522643 -0.0001609154339030881 0 0.0012547980135718668 9.1281605397694116e-05 0 0.0013439565254374545 -0.00015424201284241164 0 0.001142454519522643 -0.0001609154339030881 0 0.00056194806946217629 -0.00014393363410228363 0 0.00069238691734622277 -0.00044238640075294126 0 0.001142454519522643 -0.0001609154339030881 0 0.00069238691734622277 -0.00044238640075294126 0 0.0013074496802984029 -0.0004615475424328812 0 0.00070945122306246601 -0.0010240354126899087 0 0.00069238691734622277 -0.00044238640075294126 0 0.0013074496802984029 -0.0004615475424328812 0 0.001142454519522643 -0.0001609154339030881 0 0.0012952715665111207 -0.00052572418860822429 0 0.0015237933230660835 -0.00042169992622270068 0 0.0013074496802984029 -0.0004615475424328812 0 0.0016441818718965155 -0.00018991747959835149 0 0.0021513008556881285 -0.00011497852819354631 0 0.0016441818718965155 -0.00018991747959835149 0 0.0021619243893699737 0.00011669404744975431 0 0.0021513008556881285 -0.00011497852819354631 0 0.0016441818718965155 -0.00018991747959835149 0 0.0021619243893699737 0.00011669404744975431 0 0.0014150132232778356 -6.4247011135401205e-05 0 0.002144992857083671 0.00011575252902390576 0 0.0022437352421976987 0.00016564265859017249 0 0.0021619243893699737 0.00011669404744975431 0 0.0029832968854794487 0.00035824636027213179 0 0.0027356143645709602 -0.00011233810904221412 0 0.0013074496802984029 -0.0004615475424328812 0 0.0016441818718965155 -0.00018991747959835149 0 0.0013397130990069593 -0.00030420368940539981 0 0.0016441818718965155 -0.00018991747959835149 0 0.0014150132232778356 -6.4247011135401205e-05 0 0.0013397130990069593 -0.00030420368940539981 0 0.0014150132232778356 -6.4247011135401205e-05 0 0.0013397130990069593 -0.00030420368940539981 0 0.0013448947867818774 -0.00027588846255549202 0 0.0014029761411257437 -0.00022261837302907405 0 0.0013397130990069593 -0.00030420368940539981 0 0.0013448947867818774 -0.00027588846255549202 0 0.0023661441128892003 -0.00018807298894992305 0 0.0023759714686656208 -0.0003989060899790633 0 0.0015585486975473132 -0.00021310502487706018 0 0.0014029761411257437 -0.00022261837302907405 0 0.0013448947867818774 -0.00027588846255549202 0 0.0019307095596510853 3.4430694464038393e-05 0 0.0016325416247297293 -0.00046552135429034732 0 0.0019936923054617102 -0.00036552859733856988 0 0.0015954931700144677 -0.00015079464619348961 0 0.0023661441128892003 -0.00018807298894992305 0 0.0030123633382437842 -0.0005512536842735672 0 0.0029975853327336359 -0.00048327456310149822 0 0.0027711762101197434 -0.00047194397598419391 0 0.0023661441128892003 -0.00018807298894992305 0 0.0033642922994377147 -0.00019020047950469272 0 0.0022437352421976987 0.00016564265859017249 0 0.0023661441128892003 -0.00018807298894992305 0 0.0030123633382437842 -0.0005512536842735672 0 0.0032649721073143333 -0.00043045015515287961 0 0.0029975853327336359 -0.00048327456310149822 0 0.0029832968854794487 0.00035824636027213179 0 0.0035531347248879777 0.000504224218421174 0 0.0031842595978064394 -9.0475251090698205e-05 0 0.0032649721073143333 -0.00043045015515287961 0 0.0029975853327336359 -0.00048327456310149822 0 0.0033548055003955824 -0.00048521232482780214 0 0.0029975853327336359 -0.00048327456310149822 0 0.0033548055003955824 -0.00048521232482780214 0 0.0028116610725869586 -0.00047108672526066772 0 0.0033548055003955824 -0.00048521232482780214 0 0.0040522731173655091 -0.00069756620021609332 0 0.0037681873475738903 -0.00091351720112411983 0 0.0033514216226017339 -0.00049678447509798917 0 0.0034336684894032314 -0.00060052515045472266 0 0.0033548055003955824 -0.00048521232482780214 0 0.00334267155922408 -0.00067713344490363456 0 0.0037681873475738903 -0.00091351720112411983 0 0.0032649721073143333 -0.00043045015515287961 0 0.0033548055003955824 -0.00048521232482780214 0 0.00334267155922408 -0.00067713344490363456 0 0.0032649721073143333 -0.00043045015515287961 0 0.00334267155922408 -0.00067713344490363456 0 0.0030432125295033184 -0.00066406628004901235 0 0.0033642922994377147 -0.00019020047950469272 0 0.0029896626825223357 -0.00068999857592746462 0 0.0030432125295033184 -0.00066406628004901235 0 0.0024015407957959367 -0.00027588719073226006 0 0.0024630573264018017 -0.00075403289776917559 0 0.0030432125295033184 -0.00066406628004901235 0 0.0024015407957959367 -0.00027588719073226006 0 0.0027356143645709602 -0.00011233810904221412 0 0.0021619243893699737 0.00011669404744975431 0 0.0024015407957959367 -0.00027588719073226006 0 0.0027356143645709602 -0.00011233810904221412 0 0.0021619243893699737 0.00011669404744975431 0 0.0024015407957959367 -0.00027588719073226006 0 0.0021508946839556994 -8.0688957062378551e-05 0 0.0029832968854794487 0.00035824636027213179 0 0.0031842595978064394 -9.0475251090698205e-05 0 0.0027356143645709602 -0.00011233810904221412 0 0.0031842595978064394 -9.0475251090698205e-05 0 0.0030432125295033184 -0.00066406628004901235 0 0.0027356143645709602 -0.00011233810904221412 0 0.0038123057674078588 -0.00030109176901595836 0 0.0035049086662411787 5.634902086740392e-05 0 0.0031984362927607347 -0.00023104346914982078 0 0.0038123057674078588 -0.00030109176901595836 0 0.0031984362927607347 -0.00023104346914982078 0 0.0034282170509566104 -0.00052681871514112565 0 0.0035049086662411787 5.634902086740392e-05 0 0.0025675098986809521 0.00011912194331290958 0 0.0031984362927607347 -0.00023104346914982078 0 0.0025675098986809521 0.00011912194331290958 0 0.0031984362927607347 -0.00023104346914982078 0 0.0026755540225876255 -0.00019028800319237152 0 0.0031984362927607347 -0.00023104346914982078 0 0.0029656698319714086 -0.00036595452150753479 0 0.0034282170509566104 -0.00052681871514112565 0 0.0031984362927607347 -0.00023104346914982078 0 0.0026755540225876255 -0.00019028800319237152 0 0.0029656698319714086 -0.00036595452150753479 0 0.0026755540225876255 -0.00019028800319237152 0 0.0024205394306132189 -0.00023562647284720064 0 0.0027064797106419449 -0.00041951243567040235 0 0.0026755540225876255 -0.00019028800319237152 0 0.0029656698319714086 -0.00036595452150753479 0 0.0027064797106419449 -0.00041951243567040235 0 0.0025675098986809521 0.00011912194331290958 0 0.0026755540225876255 -0.00019028800319237152 0 0.0024205394306132189 -0.00023562647284720064 0 0.0024561899481973103 -0.00028629939780561674 0 0.0023759714686656208 -0.0003989060899790633 0 0.0019307095596510853 3.4430694464038393e-05 0 0.0024205394306132189 -0.00023562647284720064 0 0.0019936923054617102 -0.00036552859733856988 0 0.0029975853327336359 -0.00048327456310149822 0 0.0027711762101197434 -0.00047194397598419391 0 0.0027064797106419449 -0.00041951243567040235 0 0.0024205394306132189 -0.00023562647284720064 0 0.0027711762101197434 -0.00047194397598419391 0 0.0027064797106419449 -0.00041951243567040235 0 0.0029975853327336359 -0.00048327456310149822 0 0.0027064797106419449 -0.00041951243567040235 0 0.0028116610725869586 -0.00047108672526066772 0 0.0034336684894032314 -0.00060052515045472266 0 0.0036505900607134087 -0.00085108954198918169 0 0.0028116610725869586 -0.00047108672526066772 0 0.0028685505663012321 -0.00052942354767448259 0 0.003035613732854857 -0.00082273597489829599 0 0.0029656698319714086 -0.00036595452150753479 0 0.0027064797106419449 -0.00041951243567040235 0 0.0028685505663012321 -0.00052942354767448259 0 0.0027064797106419449 -0.00041951243567040235 0 0.0028116610725869586 -0.00047108672526066772 0 0.0028685505663012321 -0.00052942354767448259 0 0.0029656698319714086 -0.00036595452150753479 0 0.0028685505663012321 -0.00052942354767448259 0 0.0034282170509566104 -0.00052681871514112565 0 0.0028685505663012321 -0.00052942354767448259 0 0.003035613732854857 -0.00082273597489829599 0 0.0034282170509566104 -0.00052681871514112565 0 0.003978089537033512 -0.00065303541432654242 0 0.0040087352304285324 -0.00096163882578470734 0 0.0034282170509566104 -0.00052681871514112565 0 0.0036505900607134087 -0.00085108954198918169 0 0.0039817347164759469 -0.00095501635118386459 0 0.003035613732854857 -0.00082273597489829599 0 0.0040087352304285324 -0.00096163882578470734 0 0.0034282170509566104 -0.00052681871514112565 0 0.0042578206044012858 -0.0010580399317049439 0 0.0042451862105257728 -0.0010036018904382273 0 0.004336751687172566 -0.0011373153039770138 0 0.0042385847856795241 -0.00091679016018209568 0 0.0040087352304285324 -0.00096163882578470734 0 0.0042451862105257728 -0.0010036018904382273 0 0.0042578206044012858 -0.0010580399317049439 0 0.0040087352304285324 -0.00096163882578470734 0 0.0042451862105257728 -0.0010036018904382273 0 0.0042385847856795241 -0.00091679016018209568 0 0.0042451862105257728 -0.0010036018904382273 0 0.0041815178687887242 -0.00099826105363549867 0 0.0042451862105257728 -0.0010036018904382273 0 0.0041815178687887242 -0.00099826105363549867 0 0.0043365608878345278 -0.0011474931816503693 0 0.0042451862105257728 -0.0010036018904382273 0 0.0043365608878345278 -0.0011474931816503693 0 0.004336751687172566 -0.0011373153039770138 0 0.0040522731173655091 -0.00069756620021609332 0 0.0042385847856795241 -0.00091679016018209568 0 0.0041815178687887242 -0.00099826105363549867 0 0.0040522731173655091 -0.00069756620021609332 0 0.0041815178687887242 -0.00099826105363549867 0 0.0037681873475738903 -0.00091351720112411983 0 0.0041815178687887242 -0.00099826105363549867 0 0.0040105786609363385 -0.0010994067652663547 0 0.004226445939868706 -0.0011759940104679484 0 0.0041815178687887242 -0.00099826105363549867 0 0.0040105786609363385 -0.0010994067652663547 0 0.0037681873475738903 -0.00091351720112411983 0 0.0040105786609363385 -0.0010994067652663547 0 0.004226445939868706 -0.0011759940104679484 0 0.0040200729226497253 -0.0012315201808758534 0 0.004226445939868706 -0.0011759940104679484 0 0.0045291379466554336 -0.0012484850507283197 0 0.004280885904929959 -0.0012844833935982205 0 0.004226445939868706 -0.0011759940104679484 0 0.0040200729226497253 -0.0012315201808758534 0 0.004280885904929959 -0.0012844833935982205 0 0.004226445939868706 -0.0011759940104679484 0 0.0045291379466554336 -0.0012484850507283197 0 0.0043365608878345278 -0.0011474931816503693 0 0.0041815178687887242 -0.00099826105363549867 0 0.004226445939868706 -0.0011759940104679484 0 0.0043365608878345278 -0.0011474931816503693 0 0.0045291379466554336 -0.0012484850507283197 0 0.0043365608878345278 -0.0011474931816503693 0 0.0044180995783501594 -0.0012416141377119931 0 0.0045291379466554336 -0.0012484850507283197 0 0.0044180995783501594 -0.0012416141377119931 0 0.0044913129873194145 -0.0012742419522400166 0 0.0044399923655964813 -0.0012197597671630056 0 0.0044180995783501594 -0.0012416141377119931 0 0.004336751687172566 -0.0011373153039770138 0 0.0043365608878345278 -0.0011474931816503693 0 0.0044180995783501594 -0.0012416141377119931 0 0.004336751687172566 -0.0011373153039770138 0 0.0034781501732910449 -0.0011250076985810885 0 0.0034487762868905371 -0.0012322311525044117 0 0.0037085705594269176 -0.0012241132009795333 0 0.0034781501732910449 -0.0011250076985810885 0 0.0034487762868905371 -0.0012322311525044117 0 0.0031150369659283467 -0.0011544876384921997 0 0.0031602614006665287 -0.0011858976275510636 0 0.0031407724043618413 -0.0018192478611580422 0 0.0031150369659283467 -0.0011544876384921997 0 0.0023594421842452998 -0.0018215994013826191 0 0.0021984921493779083 -0.0013378877786927922 0 0.0034487762868905371 -0.0012322311525044117 0 0.0031150369659283467 -0.0011544876384921997 0 0.0036659891172339306 -0.0012928839362947931 0 0.0031150369659283467 -0.0011544876384921997 0 0.0025037749745487345 -0.0022868418697244031 0 0.0023594421842452998 -0.0018215994013826191 0 0.0031150369659283467 -0.0011544876384921997 0 0.0026218316441519746 -0.0024362602691280718 0 0.0025037749745487345 -0.0022868418697244031 0 0.0030432125295033184 -0.00066406628004901235 0 0.0031150369659283467 -0.0011544876384921997 0 0.0024630573264018017 -0.00075403289776917559 0 0.0031150369659283467 -0.0011544876384921997 0 0.0024630573264018017 -0.00075403289776917559 0 0.0021984921493779083 -0.0013378877786927922 0 0.00334267155922408 -0.00067713344490363456 0 0.0030432125295033184 -0.00066406628004901235 0 0.0033003338390937441 -0.00092360147631105464 0 0.0030432125295033184 -0.00066406628004901235 0 0.0031150369659283467 -0.0011544876384921997 0 0.0033003338390937441 -0.00092360147631105464 0 0.0034781501732910449 -0.0011250076985810885 0 0.0031150369659283467 -0.0011544876384921997 0 0.0033003338390937441 -0.00092360147631105464 0 0.0034781501732910449 -0.0011250076985810885 0 0.0033003338390937441 -0.00092360147631105464 0 0.0035348554636007159 -0.00097175536096617615 0 0.00334267155922408 -0.00067713344490363456 0 0.0035348554636007159 -0.00097175536096617615 0 0.0037681873475738903 -0.00091351720112411983 0 0.0035348554636007159 -0.00097175536096617615 0 0.0037681873475738903 -0.00091351720112411983 0 0.003757639322237178 -0.0011113445556157344 0 0.00334267155922408 -0.00067713344490363456 0 0.0033003338390937441 -0.00092360147631105464 0 0.0035348554636007159 -0.00097175536096617615 0 0.0040105786609363385 -0.0010994067652663547 0 0.0037681873475738903 -0.00091351720112411983 0 0.003757639322237178 -0.0011113445556157344 0 0.0034781501732910449 -0.0011250076985810885 0 0.0035348554636007159 -0.00097175536096617615 0 0.003757639322237178 -0.0011113445556157344 0 0.0034781501732910449 -0.0011250076985810885 0 0.003757639322237178 -0.0011113445556157344 0 0.0037085705594269176 -0.0012241132009795333 0 0.0037085705594269176 -0.0012241132009795333 0 0.0038656360157156952 -0.0012892292468965573 0 0.0036867016077408053 -0.0012903290551238759 0 0.003757639322237178 -0.0011113445556157344 0 0.0037085705594269176 -0.0012241132009795333 0 0.0040200729226497253 -0.0012315201808758534 0 0.0037085705594269176 -0.0012241132009795333 0 0.0040200729226497253 -0.0012315201808758534 0 0.0038656360157156952 -0.0012892292468965573 0 0.0040105786609363385 -0.0010994067652663547 0 0.003757639322237178 -0.0011113445556157344 0 0.0040200729226497253 -0.0012315201808758534 0 0.0040200729226497253 -0.0012315201808758534 0 0.0039586158473227367 -0.0013469451671891863 0 0.004280885904929959 -0.0012844833935982205 0 0.0038656360157156952 -0.0012892292468965573 0 0.0038650848999807253 -0.001346116190852267 0 0.0039586158473227367 -0.0013469451671891863 0 0.0040200729226497253 -0.0012315201808758534 0 0.0038656360157156952 -0.0012892292468965573 0 0.0039586158473227367 -0.0013469451671891863 0 0.0038650848999807253 -0.001346116190852267 0 0.0037981226678657182 -0.0013315307816309768 0 0.0036867016077408053 -0.0012903290551238759 0 0.0038650848999807253 -0.001346116190852267 0 0.0037981226678657182 -0.0013315307816309768 0 0.0039829313375919287 -0.0014000332711385393 0 0.0038656360157156952 -0.0012892292468965573 0 0.0038650848999807253 -0.001346116190852267 0 0.0036867016077408053 -0.0012903290551238759 0 0.0034487762868905371 -0.0012322311525044117 0 0.0037085705594269176 -0.0012241132009795333 0 0.0036867016077408053 -0.0012903290551238759 0 0.0037981226678657182 -0.0013315307816309768 0 0.0036867016077408053 -0.0012903290551238759 0 0.0037025563417082911 -0.0013023791623344946 0 0.0034487762868905371 -0.0012322311525044117 0 0.0036867016077408053 -0.0012903290551238759 0 0.0036109641458815112 -0.0012753328297996581 0 0.0036659891172339306 -0.0012928839362947931 0 0.0037025563417082911 -0.0013023791623344946 0 0.0038090312262362485 -0.0013424024855007153 0 0.0034487762868905371 -0.0012322311525044117 0 0.0036659891172339306 -0.0012928839362947931 0 0.0036109641458815112 -0.0012753328297996581 0 0.0036659891172339306 -0.0012928839362947931 0 0.0036109641458815112 -0.0012753328297996581 0 0.0037025563417082911 -0.0013023791623344946 0 0.0036867016077408053 -0.0012903290551238759 0 0.0036109641458815112 -0.0012753328297996581 0 0.0037025563417082911 -0.0013023791623344946 0 0.0036659891172339306 -0.0012928839362947931 0 0.0038090312262362485 -0.0013424024855007153 0 0.0039179754935503948 -0.0013995262647928607 0 0.0037981226678657182 -0.0013315307816309768 0 0.0038090312262362485 -0.0013424024855007153 0 0.0039829313375919287 -0.0014000332711385393 0 0.0037981226678657182 -0.0013315307816309768 0 0.0037025563417082911 -0.0013023791623344946 0 0.0038090312262362485 -0.0013424024855007153 0 0.0038090312262362485 -0.0013424024855007153 0 0.0038965792010000064 -0.0013801317699559769 0 0.0039829313375919287 -0.0014000332711385393 0 0.0038090312262362485 -0.0013424024855007153 0 0.0039179754935503948 -0.0013995262647928607 0 0.0038965792010000064 -0.0013801317699559769 0 0.0026218316441519746 -0.0024362602691280718 0 0.0023288295797621057 -0.0028182084001989235 0 0.0024097971495537517 -0.0029768829013265647 0 0.0031407724043618413 -0.0018192478611580422 0 0.0031614308101520329 -0.0021988347903684332 0 0.0019438246927263902 -0.0032299284253353979 0 0.0015849938506777527 -0.0030606896851487438 0 0.0018716446270591579 -0.002860458360674052 0 0.0015732822774436382 -0.0034647621884936765 0 0.0013794378408297802 -0.0033681893207733954 0 0.0015849938506777527 -0.0030606896851487438 0 0.0019438246927263902 -0.0032299284253353979 0 0.0015732822774436382 -0.0034647621884936765 0 0.0015849938506777527 -0.0030606896851487438 0 0.0013794378408297802 -0.0033681893207733954 0 0.0011640792987881103 -0.0032101784416074721 0 0.0011383738789603939 -0.0038669940984492899 0 0.0013794378408297802 -0.0033681893207733954 0 0.0011640792987881103 -0.0032101784416074721 0 0.0013373466955213969 -0.0031069122018423014 0 0.0011640792987881103 -0.0032101784416074721 0 0.0013373466955213969 -0.0031069122018423014 0 0.0011679752181488448 -0.0028203919637335962 0 0.0013373466955213969 -0.0031069122018423014 0 0.0015849938506777527 -0.0030606896851487438 0 0.0011679752181488448 -0.0028203919637335962 0 0.0013794378408297802 -0.0033681893207733954 0 0.0013373466955213969 -0.0031069122018423014 0 0.0015849938506777527 -0.0030606896851487438 0 0.0015849938506777527 -0.0030606896851487438 0 0.0015437774013784371 -0.0027574340124857091 0 0.0018716446270591579 -0.002860458360674052 0 0.0015437774013784371 -0.0027574340124857091 0 0.0012903594156806987 -0.0024461166451912359 0 0.0018962263934804299 -0.0025797040154676544 0 0.0015849938506777527 -0.0030606896851487438 0 0.0015437774013784371 -0.0027574340124857091 0 0.0011679752181488448 -0.0028203919637335962 0 0.0015437774013784371 -0.0027574340124857091 0 0.0011679752181488448 -0.0028203919637335962 0 0.0012903594156806987 -0.0024461166451912359 0 0.0012903594156806987 -0.0024461166451912359 0 0.0018962263934804299 -0.0025797040154676544 0 0.0018791261254670318 -0.0019951794113048401 0 0.0021577131662961157 -0.0021716234334625125 0 0.0018962263934804299 -0.0025797040154676544 0 0.0018791261254670318 -0.0019951794113048401 0 0.0026218316441519746 -0.0024362602691280718 0 0.0025037749745487345 -0.0022868418697244031 0 0.0023288295797621057 -0.0028182084001989235 0 0.0025037749745487345 -0.0022868418697244031 0 0.0019438246927263902 -0.0032299284253353979 0 0.0018716446270591579 -0.002860458360674052 0 0.00253381544178985 -0.0022612714852149607 0 0.0019863134862446409 -0.0031626092022138856 0 0.0025037749745487345 -0.0022868418697244031 0 0.0021577131662961157 -0.0021716234334625125 0 0.0018962263934804299 -0.0025797040154676544 0 0.0025037749745487345 -0.0022868418697244031 0 0.0018716446270591579 -0.002860458360674052 0 0.0018962263934804299 -0.0025797040154676544 0 0.0015437774013784371 -0.0027574340124857091 0 0.0018716446270591579 -0.002860458360674052 0 0.0018962263934804299 -0.0025797040154676544 0 0.00047011824736418952 -0.0025401770367857648 0 0.00030473778744850556 -0.0026233728457432 0 0.00048679888967365905 -0.0027193503201963301 0 0.00068441695880071404 -0.0026159346524363006 0 0.00047011824736418952 -0.0025401770367857648 0 0.00048679888967365905 -0.0027193503201963301 0 0.0011640792987881103 -0.0032101784416074721 0 0.00083114000596263117 -0.0030627393970087294 0 0.0011383738789603939 -0.0038669940984492899 0 0.0014552883089261404 -0.0029504817273542788 0 0.0032541562979968757 -0.0030625372174216863 0 0.0014552883089261404 -0.0029504817273542788 0 0.0043749819830658128 -0.0035921611008477962 0 0.0011640792987881103 -0.0032101784416074721 0 0.0011679752181488448 -0.0028203919637335962 0 0.00083114000596263117 -0.0030627393970087294 0 0.0011679752181488448 -0.0028203919637335962 0 0.00083114000596263117 -0.0030627393970087294 0 0.00065395958392697748 -0.0023733129467654892 0 0.00068441695880071404 -0.0026159346524363006 0 0.00047011824736418952 -0.0025401770367857648 0 0.00065395958392697748 -0.0023733129467654892 0 0.0011679752181488448 -0.0028203919637335962 0 0.0012903594156806987 -0.0024461166451912359 0 0.00065395958392697748 -0.0023733129467654892 0 0.0014552883089261404 -0.0029504817273542788 0 0.00052603837822578353 -0.0023184167183125425 0 0.00047011824736418952 -0.0025401770367857648 0 0.00065395958392697748 -0.0023733129467654892 0 0.00017280767262164014 -0.0024109237207263724 0 0.00025290086263531075 -0.0023113651557003238 0 0.00023662355960667159 -0.0023415521592400831 0 0.00065395958392697748 -0.0023733129467654892 0 0.00059893191526708687 -0.0019667123140950592 0 0.00017280767262164014 -0.0024109237207263724 0 0.00065395958392697748 -0.0023733129467654892 0 0.00059893191526708687 -0.0019667123140950592 0 0.0012073146306777092 -0.0020502968003288822 0 0.00025290086263531075 -0.0023113651557003238 0 0.0011566364235753072 -0.0013684889905029468 0 0.00011644360942695273 -0.0024179414491503205 0 0.00027160192030826672 -0.0023672176961265596 0 0.00017447881923218222 -0.0023420135721966663 0 0.00059893191526708687 -0.0019667123140950592 0 0.0012073146306777092 -0.0020502968003288822 0 0.0012043555945338248 -0.0016196786237011435 0 0.0018791261254670318 -0.0019951794113048401 0 0.0013373042797881253 -0.0014523916481732314 0 0.0021984921493779083 -0.0013378877786927922 0 0.0023594421842452998 -0.0018215994013826191 0 0.0018791261254670318 -0.0019951794113048401 0 0.0021984921493779083 -0.0013378877786927922 0 0.0025037749745487345 -0.0022868418697244031 0 0.0021577131662961157 -0.0021716234334625125 0 0.0023594421842452998 -0.0018215994013826191 0 0.0021577131662961157 -0.0021716234334625125 0 0.0023594421842452998 -0.0018215994013826191 0 0.0018791261254670318 -0.0019951794113048401 0 0.0012838413123358345 -0.0023985782374607461 0 0.0012836357362112172 -0.0017303939778977766 0 0.0012903594156806987 -0.0024461166451912359 0 0.0018791261254670318 -0.0019951794113048401 0 0.0013373042797881253 -0.0014523916481732314 0 0.0012903594156806987 -0.0024461166451912359 0 0.00065395958392697748 -0.0023733129467654892 0 0.0012073146306777092 -0.0020502968003288822 0 0.0013373042797881253 -0.0014523916481732314 0 0.001890713912708264 -0.00090840291129912318 0 0.0014002586420792671 -0.00064867141305243511 0 0.0012836357362112172 -0.0017303939778977766 0 0.0011566364235753072 -0.0013684889905029468 0 0.0013373042797881253 -0.0014523916481732314 0 0.001890713912708264 -0.00090840291129912318 0 0.0021984921493779083 -0.0013378877786927922 0 0.0024630573264018017 -0.00075403289776917559 0 0.001890713912708264 -0.00090840291129912318 0 0.0021984921493779083 -0.0013378877786927922 0 0.0024630573264018017 -0.00075403289776917559 0 0.001890713912708264 -0.00090840291129912318 0 0.0020019575596148466 -0.00041562977337941838 0 0.0024015407957959367 -0.00027588719073226006 0 0.0024630573264018017 -0.00075403289776917559 0 0.0020019575596148466 -0.00041562977337941838 0 0.001890713912708264 -0.00090840291129912318 0 0.0020019575596148466 -0.00041562977337941838 0 0.0014002586420792671 -0.00064867141305243511 0 0.0023182861839449375 -0.00029374035722643969 0 0.0021877309214623788 -0.00034533495588790088 0 0.0021233617576156792 -0.00033562284072423463 0 0.0021508946839556994 -8.0688957062378551e-05 0 0.0020033976887027585 -9.5862725695722537e-06 0 0.0021508946839556994 -8.0688957062378551e-05 0 0.0021265441065143513 -1.2119831367008348e-05 0 0.0020033976887027585 -9.5862725695722537e-06 0 0.0024015407957959367 -0.00027588719073226006 0 0.0021233617576156792 -0.00033562284072423463 0 0.0021508946839556994 -8.0688957062378551e-05 0 0.00027160192030826672 -0.0023672176961265596 0 0.0001904613432797286 -0.0022300067092621504 0 0.00028791224759952268 -0.0021406268607778748 0 0.0011566364235753072 -0.0013684889905029468 0 0.00067106025048374032 -0.0013705070039523753 0 -4.7901225720265281e-05 -0.0023920461110157202 0 0.00067106025048374032 -0.0013705070039523753 0 0.0021233617576156792 -0.00033562284072423463 0 0.0019351320860325214 -0.00043277818372353469 0 0.0020033976887027585 -9.5862725695722537e-06 0 0.0021877309214623788 -0.00034533495588790088 0 0.0011566364235753072 -0.0013684889905029468 0 0.00011644360942695273 -0.0024179414491503205 0 0.00017447881923218222 -0.0023420135721966663 0 0.00010382165623052762 -0.0023331557669203935 0 0.00027160192030826672 -0.0023672176961265596 0 0.00017447881923218222 -0.0023420135721966663 0 0.0001904613432797286 -0.0022300067092621504 0 0.00017447881923218222 -0.0023420135721966663 0 0.00010382165623052762 -0.0023331557669203935 0 0.0001904613432797286 -0.0022300067092621504 0 0.00011644360942695273 -0.0024179414491503205 0 0.00010382165623052762 -0.0023331557669203935 0 0.00012386157467081529 -0.0024274958719060534 0 0.00010382165623052762 -0.0023331557669203935 0 0.00011041264805224625 -0.0023559372954501169 0 0.00012386157467081529 -0.0024274958719060534 0 6.1480193324173782e-05 -0.0023282849364545969 0 8.3516261037708909e-05 -0.0023227584448012712 0 0.00011041264805224625 -0.0023559372954501169 0 6.1480193324173782e-05 -0.0023282849364545969 0 -4.208827086897297e-05 -0.0023660226072300915 0 8.3516261037708909e-05 -0.0023227584448012712 0 0.00010382165623052762 -0.0023331557669203935 0 6.1480193324173782e-05 -0.0023282849364545969 0 0.00011041264805224625 -0.0023559372954501169 0 6.1480193324173782e-05 -0.0023282849364545969 0 -2.4648477746530818e-05 -0.0023152737228581207 0 -4.208827086897297e-05 -0.0023660226072300915 0 -2.4648477746530818e-05 -0.0023152737228581207 0 -4.208827086897297e-05 -0.0023660226072300915 0 -0.00014433776752506255 -0.0024106206191449185 0 0.00010382165623052762 -0.0023331557669203935 0 6.1480193324173782e-05 -0.0023282849364545969 0 -2.4648477746530818e-05 -0.0023152737228581207 0 0.0001268883967660851 -0.0022838192853119606 0 -4.7901225720265281e-05 -0.0023920461110157202 0 -4.208827086897297e-05 -0.0023660226072300915 0 9.1476958365107803e-05 -0.0023366793300642328 0 -0.00019019930656607203 -0.0024513842542831172 0 -4.208827086897297e-05 -0.0023660226072300915 0 -0.00019019930656607203 -0.0024513842542831172 0 -0.00015125506657002701 -0.0024184552408665579 0 -4.208827086897297e-05 -0.0023660226072300915 0 8.3516261037708909e-05 -0.0023227584448012712 0 9.1476958365107803e-05 -0.0023366793300642328 0 -0.0007253279370986296 -0.0024391982930800334 0 -0.00022884032989221431 -0.0024565037253404028 0 -0.00087972339947638947 -0.0017972176358390609 0 -6.7399118030466446e-05 -0.0023290901617732118 0 -0.00019019930656607203 -0.0024513842542831172 0 -0.00087972339947638947 -0.0017972176358390609 0 -0.0015256682905700415 -0.0025666919924608668 0 -0.00019019930656607203 -0.0024513842542831172 0 -6.7399118030466446e-05 -0.0023290901617732118 0 -0.00019019930656607203 -0.0024513842542831172 0 -0.00015125506657002701 -0.0024184552408665579 0 0.00069238691734622277 -0.00044238640075294126 0 0.00023532789400535677 -0.00083029879179312188 0 0.00070945122306246601 -0.0010240354126899087 0 0.0021513008556881285 -0.00011497852819354631 0 0.0021265441065143513 -1.2119831367008348e-05 0 0.0020033976887027585 -9.5862725695722537e-06 0 0.0015237933230660835 -0.00042169992622270068 0 0.00067106025048374032 -0.0013705070039523753 0 0.0021619243893699737 0.00011669404744975431 0 0.0021513008556881285 -0.00011497852819354631 0 0.0021265441065143513 -1.2119831367008348e-05 0 0.0021619243893699737 0.00011669404744975431 0 0.0021508946839556994 -8.0688957062378551e-05 0 0.0021265441065143513 -1.2119831367008348e-05 0 1.2162622049437056e-05 -0.0016892744378771598 0 0.00067106025048374032 -0.0013705070039523753 0 0.00023532789400535677 -0.00083029879179312188 0 0.00070945122306246601 -0.0010240354126899087 0 0.00024014200331051741 -0.0014407277837123859 0 -6.7399118030466446e-05 -0.0023290901617732118 0 -0.00014433776752506255 -0.0024106206191449185 0 -0.00015125506657002701 -0.0024184552408665579 0 -4.208827086897297e-05 -0.0023660226072300915 0 -0.00014433776752506255 -0.0024106206191449185 0 -0.00015125506657002701 -0.0024184552408665579 0 -7.208074265112777e-05 -0.0022406527188604023 0 -0.00033260107702077525 -0.0017974319576491073 0 3.9218639364813483e-05 -0.0020875733493378808 0 -0.0006262398317635079 -0.0021212354490476237 0 -7.208074265112777e-05 -0.0022406527188604023 0 -0.00033260107702077525 -0.0017974319576491073 0 -0.003210568403587822 -0.0016009563961588761 0 -0.0039162360950624224 -0.0023909544631217582 0 -0.0027598957654842104 -0.0025133490385084991 0 -0.0021335238050426762 -0.0020904736445746573 0 -0.0013731522208570563 -0.0022980543742038774 0 -0.0021828112803958864 -0.0013903152671091783 0 -0.0015256682905700415 -0.0025666919924608668 0 -0.0027598957654842104 -0.0025133490385084991 0 -0.0007253279370986296 -0.0024391982930800334 0 -0.0013731522208570563 -0.0022980543742038774 0 9.1476958365107803e-05 -0.0023366793300642328 0 3.9218639364813483e-05 -0.0020875733493378808 0 9.2480614750960012e-05 -0.0022786599271420907 0 8.3516261037708909e-05 -0.0023227584448012712 0 9.1476958365107803e-05 -0.0023366793300642328 0 9.2480614750960012e-05 -0.0022786599271420907 0 -7.208074265112777e-05 -0.0022406527188604023 0 3.9218639364813483e-05 -0.0020875733493378808 0 9.2480614750960012e-05 -0.0022786599271420907 0 -7.208074265112777e-05 -0.0022406527188604023 0 9.2480614750960012e-05 -0.0022786599271420907 0 9.4494912440737597e-05 -0.0024057528177617252 0 9.2480614750960012e-05 -0.0022786599271420907 0 0.00011041264805224625 -0.0023559372954501169 0 9.4494912440737597e-05 -0.0024057528177617252 0 8.3516261037708909e-05 -0.0023227584448012712 0 9.2480614750960012e-05 -0.0022786599271420907 0 0.00011041264805224625 -0.0023559372954501169 0 0.00011041264805224625 -0.0023559372954501169 0 0.00012386157467081529 -0.0024274958719060534 0 9.4494912440737597e-05 -0.0024057528177617252 0 9.4494912440737597e-05 -0.0024057528177617252 0 1.1403064339970501e-05 -0.0025019603677676919 0 0.00012357564246390332 -0.0025297329108125875 0 0.00012386157467081529 -0.0024274958719060534 0 9.4494912440737597e-05 -0.0024057528177617252 0 0.00012357564246390332 -0.0025297329108125875 0 -0.00059835347870811507 -0.0028537590031486857 0 1.1403064339970501e-05 -0.0025019603677676919 0 -0.00030412699978813867 -0.0023883766003919503 0 -7.208074265112777e-05 -0.0022406527188604023 0 9.4494912440737597e-05 -0.0024057528177617252 0 1.1403064339970501e-05 -0.0025019603677676919 0 -7.208074265112777e-05 -0.0022406527188604023 0 1.1403064339970501e-05 -0.0025019603677676919 0 -0.00030412699978813867 -0.0023883766003919503 0 -0.0006262398317635079 -0.0021212354490476237 0 -7.208074265112777e-05 -0.0022406527188604023 0 -0.00030412699978813867 -0.0023883766003919503 0 -6.353136562750852e-05 -0.0029090569221272718 0 5.6513493347832468e-05 -0.002798765253507386 0 0.0005763317909945585 -0.0030214661582360792 0 0.0005251069368541959 -0.0026984194813256838 0 6.4749412363205065e-05 -0.0027613257495640135 0 -0.00059835347870811507 -0.0028537590031486857 0 1.1403064339970501e-05 -0.0025019603677676919 0 6.4749412363205065e-05 -0.0027613257495640135 0 1.1403064339970501e-05 -0.0025019603677676919 0 6.4749412363205065e-05 -0.0027613257495640135 0 0.00012357564246390332 -0.0025297329108125875 0 6.4749412363205065e-05 -0.0027613257495640135 0 0.00012357564246390332 -0.0025297329108125875 0 0.00014922483120150584 -0.0025411993537798319 0 6.4749412363205065e-05 -0.0027613257495640135 0 0.00037237202658989044 -0.0025287683147054382 0 0.00021590613022454933 -0.0025345783215441316 0 6.4749412363205065e-05 -0.0027613257495640135 0 0.00014922483120150584 -0.0025411993537798319 0 0.00021590613022454933 -0.0025345783215441316 0 0.0005251069368541959 -0.0026984194813256838 0 6.4749412363205065e-05 -0.0027613257495640135 0 0.00037237202658989044 -0.0025287683147054382 0 0.00011644360942695273 -0.0024179414491503205 0 0.00012386157467081529 -0.0024274958719060534 0 0.00017280767262164014 -0.0024109237207263724 0 0.00012386157467081529 -0.0024274958719060534 0 0.00012357564246390332 -0.0025297329108125875 0 0.00017280767262164014 -0.0024109237207263724 0 0.00014922483120150584 -0.0025411993537798319 0 0.00017280767262164014 -0.0024109237207263724 0 0.00018865086584554723 -0.0025050223101325919 0 0.00012357564246390332 -0.0025297329108125875 0 0.00014922483120150584 -0.0025411993537798319 0 0.00017280767262164014 -0.0024109237207263724 0 0.00047011824736418952 -0.0025401770367857648 0 0.00017280767262164014 -0.0024109237207263724 0 0.00025231357540086654 -0.0025092170515068073 0 0.00025231357540086654 -0.0025092170515068073 0 0.00018865086584554723 -0.0025050223101325919 0 0.00022423141830355008 -0.0024561180612797688 0 0.00017280767262164014 -0.0024109237207263724 0 0.00025231357540086654 -0.0025092170515068073 0 0.00018865086584554723 -0.0025050223101325919 0 0.00014922483120150584 -0.0025411993537798319 0 0.00018865086584554723 -0.0025050223101325919 0 0.00021590613022454933 -0.0025345783215441316 0 0.00018865086584554723 -0.0025050223101325919 0 0.00022423141830355008 -0.0024561180612797688 0 0.00030257521117965663 -0.002429485528096392 0 0.00022423141830355008 -0.0024561180612797688 0 0.00014317973289804754 -0.0023715144957100437 0 0.00027284664775114329 -0.0022886723434654404 0 0.00022423141830355008 -0.0024561180612797688 0 0.00030257521117965663 -0.002429485528096392 0 0.00027284664775114329 -0.0022886723434654404 0 0.00047011824736418952 -0.0025401770367857648 0 0.00025231357540086654 -0.0025092170515068073 0 0.00030473778744850556 -0.0026233728457432 0 0.00025231357540086654 -0.0025092170515068073 0 0.00022423141830355008 -0.0024561180612797688 0 0.00030473778744850556 -0.0026233728457432 0 0.00036765722615944937 -0.0025201023083857954 0 -0.00019642226232917661 -0.0023272667195488078 0 -0.00019642226232917661 -0.0023272667195488078 0 0.0032541562979968757 -0.0030625372174216863 0 0.00037237202658989044 -0.0025287683147054382 0 0.00030257521117965663 -0.002429485528096392 0 0.00051428382800487542 -0.0023776366340621628 0 0.00018865086584554723 -0.0025050223101325919 0 0.00021590613022454933 -0.0025345783215441316 0 0.00030257521117965663 -0.002429485528096392 0 0.00037237202658989044 -0.0025287683147054382 0 0.00021590613022454933 -0.0025345783215441316 0 0.00030257521117965663 -0.002429485528096392 0 0.00030257521117965663 -0.002429485528096392 0 0.00042048303853487872 -0.0022535838783517897 0 0.00027284664775114329 -0.0022886723434654404 0 0.00030257521117965663 -0.002429485528096392 0 0.00051428382800487542 -0.0023776366340621628 0 0.00042048303853487872 -0.0022535838783517897 0 0.00042048303853487872 -0.0022535838783517897 0 0.00053379577136761171 -0.0020960137208089046 0 0.00061424723641121401 -0.0022151398780763023 0 0.00051428382800487542 -0.0023776366340621628 0 0.00042048303853487872 -0.0022535838783517897 0 0.00061424723641121401 -0.0022151398780763023 0 0.00042048303853487872 -0.0022535838783517897 0 0.00027284664775114329 -0.0022886723434654404 0 0.00032144780018447753 -0.0020826201683007309 0 0.00053379577136761171 -0.0020960137208089046 0 0.00032144780018447753 -0.0020826201683007309 0 0.00052072962025466875 -0.0019419953246496797 0 0.00042048303853487872 -0.0022535838783517897 0 0.00053379577136761171 -0.0020960137208089046 0 0.00032144780018447753 -0.0020826201683007309 0 0.00053379577136761171 -0.0020960137208089046 0 0.00074212438258360904 -0.0020178355257286654 0 0.00061424723641121401 -0.0022151398780763023 0 0.00053379577136761171 -0.0020960137208089046 0 0.00052072962025466875 -0.0019419953246496797 0 0.00074212438258360904 -0.0020178355257286654 0 0.0091546367738413893 -0.0014047507267231849 0 0.0062108974022691216 -0.0010479807136074312 0 0.00014317973289804754 -0.0023715144957100437 0 0.00016893859228493284 -0.0022337657354045094 0 0.00027284664775114329 -0.0022886723434654404 0 0.00014317973289804754 -0.0023715144957100437 0 0.00016893859228493284 -0.0022337657354045094 0 8.6182983057764027e-05 -0.0023381485274933792 0 0.0042638555282559429 -0.0027565127225370753 0 0.0032541562979968757 -0.0030625372174216863 0 0.00016893859228493284 -0.0022337657354045094 0 0.00027284664775114329 -0.0022886723434654404 0 0.00032144780018447753 -0.0020826201683007309 0 0.0042638555282559429 -0.0027565127225370753 0 0.0037010393902717803 -0.0029882899995724043 0 0.0079580648541001595 -0.0035064051523939271 0 0.0079352265771713924 -0.0027955746781961823 0 0.0073859115351697438 -0.0030876709750003975 0 0.0079580648541001595 -0.0035064051523939271 0 0.0085261450919356888 -0.0031102545258800685 0 0.0079352265771713924 -0.0027955746781961823 0 0.0079352265771713924 -0.0027955746781961823 0 0.0084693220776016383 -0.0024259960346843523 0 0.007852602466587635 -0.0021334433797673127 0 0.0079352265771713924 -0.0027955746781961823 0 0.007852602466587635 -0.0021334433797673127 0 0.0074308519833408042 -0.0024932433944266051 0 0.0085261450919356888 -0.0031102545258800685 0 0.0084693220776016383 -0.0024259960346843523 0 0.0090884796371413397 -0.0027095407764722241 0 0.0085261450919356888 -0.0031102545258800685 0 0.0079352265771713924 -0.0027955746781961823 0 0.0084693220776016383 -0.0024259960346843523 0 0.01670620787819501 -0.00056342536870115532 0 0.017577305271175573 -0.0013496934843734581 0 0.015350148597136362 -0.0012833957014041671 0 0.017577305271175573 -0.0013496934843734581 0 0.015350148597136362 -0.0012833957014041671 0 0.015746668464787734 -0.0026286334497143196 0 0.01670620787819501 -0.00056342536870115532 0 0.017577305271175573 -0.0013496934843734581 0 0.018044731546144627 -0.0013981483297498779 0 0.017577305271175573 -0.0013496934843734581 0 0.018044731546144627 -0.0013981483297498779 0 0.017900941027727098 -0.0016779022173277554 0 0.013103548962908178 -0.0016467627076466426 0 0.012731232696721493 -0.0016687820640800385 0 0.013601584432416691 -0.00076843020037289217 0 0.012966114050523553 -0.0012752120440279659 0 0.012585177310214701 -0.00023969458731114813 0 0.0091546367738413893 -0.0014047507267231849 0 0.014220033747585958 -0.00061062277847506513 0 0.01670620787819501 -0.00056342536870115532 0 0.014991237088775483 0.00018440477685585077 0 0.015350148597136362 -0.0012833957014041671 0 0.013103548962908178 -0.0016467627076466426 0 0.0091546367738413893 -0.0014047507267231849 0 0.0037010393902717803 -0.0029882899995724043 0 0.0091546367738413893 -0.0014047507267231849 0 0.014991237088775483 0.00018440477685585077 0 0.015350148597136362 -0.0012833957014041671 0 0.013630982986564861 -0.00085251676146306935 0 0.015350148597136362 -0.0012833957014041671 0 0.013630982986564861 -0.00085251676146306935 0 0.013908007942725798 -0.0022907845581511439 0 0.018281379112691513 -0.0017850966763802208 0 0.017994277863406679 -0.0017693951799487237 0 0.018049951671251754 -0.0017456063336954528 0 0.013908007942725798 -0.0022907845581511439 0 0.014125724575142176 -0.0036542291021006037 0 0.015746668464787734 -0.0026286334497143196 0 0.016235572175336534 -0.0026891864106770463 0 0.01688898267599007 -0.0021527803146930966 0 0.015350148597136362 -0.0012833957014041671 0 0.013908007942725798 -0.0022907845581511439 0 0.015746668464787734 -0.0026286334497143196 0 0.017577305271175573 -0.0013496934843734581 0 0.017994277863406679 -0.0017693951799487237 0 0.017900941027727098 -0.0016779022173277554 0 0.017587609797781498 -0.0013843552114112365 0 0.01688898267599007 -0.0021527803146930966 0 0.017900941027727098 -0.0016779022173277554 0 0.018036284493215825 -0.0017515566173906066 0 0.018038673007728784 -0.0016179787727105691 0 0.018044731546144627 -0.0013981483297498779 0 0.017900941027727098 -0.0016779022173277554 0 0.018038673007728784 -0.0016179787727105691 0 0.017900941027727098 -0.0016779022173277554 0 0.018049951671251754 -0.0017456063336954528 0 0.018036284493215825 -0.0017515566173906066 0 0.017994277863406679 -0.0017693951799487237 0 0.017900941027727098 -0.0016779022173277554 0 0.018049951671251754 -0.0017456063336954528 0 0.018049951671251754 -0.0017456063336954528 0 0.018099739496925948 -0.0017045218247886225 0 0.018279873920051547 -0.0017018166359920282 0 0.019504850650789309 -0.0019716645721978582 0 0.020156907860951728 -0.0026504299779175058 0 0.018049951671251754 -0.0017456063336954528 0 0.018099739496925948 -0.0017045218247886225 0 0.018036284493215825 -0.0017515566173906066 0 0.021198499756712362 -0.0021625009750373125 0 0.020394849939152315 -0.0018203780946149226 0 0.02094218164467361 -0.0013890838007323324 0 0.018099739496925948 -0.0017045218247886225 0 0.018279873920051547 -0.0017018166359920282 0 0.018287652140596845 -0.0015992873006648023 0 0.018281379112691513 -0.0017850966763802208 0 0.018049951671251754 -0.0017456063336954528 0 0.018279873920051547 -0.0017018166359920282 0 0.018279873920051547 -0.0017018166359920282 0 0.018380348291209148 -0.0017259083900013144 0 0.018468244597861446 -0.0016561567260165748 0 0.018380348291209148 -0.0017259083900013144 0 0.018468244597861446 -0.0016561567260165748 0 0.018501895890044053 -0.0017337036447499659 0 0.018281379112691513 -0.0017850966763802208 0 0.018279873920051547 -0.0017018166359920282 0 0.018380348291209148 -0.0017259083900013144 0 0.018281379112691513 -0.0017850966763802208 0 0.018380348291209148 -0.0017259083900013144 0 0.018412569694829416 -0.0016990944626728839 0 0.019147934163335562 -0.002749568512959696 0 0.018840185624655385 -0.0033557735427875144 0 0.019549046165950299 -0.0035926507109410658 0 0.019147934163335562 -0.002749568512959696 0 0.018565598846816987 -0.0041830046378252082 0 0.017312101559224739 -0.0029301277822620683 0 0.019074556191316563 -0.0029064070612025623 0 0.018668871910075137 -0.0036354335180011602 0 0.018565598846816987 -0.0041830046378252082 0 0.017199358890360814 -0.0041289993036006641 0 0.017312101559224739 -0.0029301277822620683 0 0.017199358890360814 -0.0041289993036006641 0 0.017312101559224739 -0.0029301277822620683 0 0.016026438651938139 -0.0033859439409480831 0 0.017312101559224739 -0.0029301277822620683 0 0.016072999643184628 -0.0013165101398497801 0 0.01733515585059309 -0.0010422866829005416 0 0.017312101559224739 -0.0029301277822620683 0 0.018290140316373289 -0.0020392735916908889 0 0.01733515585059309 -0.0010422866829005416 0 0.019147934163335562 -0.002749568512959696 0 0.018290140316373289 -0.0020392735916908889 0 0.019083997236227754 -0.001715671932529842 0 0.019147934163335562 -0.002749568512959696 0 0.017312101559224739 -0.0029301277822620683 0 0.018290140316373289 -0.0020392735916908889 0 0.019147934163335562 -0.002749568512959696 0 0.019767651466510206 -0.0020867618772148341 0 0.019083997236227754 -0.001715671932529842 0 0.019147934163335562 -0.002749568512959696 0 0.019767651466510206 -0.0020867618772148341 0 0.020101664284591578 -0.0026616983721986604 0 0.019767651466510206 -0.0020867618772148341 0 0.020394849939152315 -0.0018203780946149226 0 0.019907120738954755 -0.001431258719151266 0 0.021198499756712362 -0.0021625009750373125 0 0.020394849939152315 -0.0018203780946149226 0 0.020101664284591578 -0.0026616983721986604 0 0.019767651466510206 -0.0020867618772148341 0 0.020394849939152315 -0.0018203780946149226 0 0.020101664284591578 -0.0026616983721986604 0 0.020101664284591578 -0.0026616983721986604 0 0.019549046165950299 -0.0035926507109410658 0 0.020576723332637475 -0.0034951935944297586 0 0.021198499756712362 -0.0021625009750373125 0 0.020101664284591578 -0.0026616983721986604 0 0.020576723332637475 -0.0034951935944297586 0 0.019147934163335562 -0.002749568512959696 0 0.020101664284591578 -0.0026616983721986604 0 0.019549046165950299 -0.0035926507109410658 0 0.019549046165950299 -0.0035926507109410658 0 0.019168513735364597 -0.0043457571652270321 0 0.019008360116570006 -0.0038271462961022009 0 0.019549046165950299 -0.0035926507109410658 0 0.020576723332637475 -0.0034951935944297586 0 0.019856096169484989 -0.0046690329401339152 0 0.020156907860951728 -0.0026504299779175058 0 0.013142847485860408 -0.0018652155264182256 0 0.018044731546144627 -0.0013981483297498779 0 0.018038673007728784 -0.0016179787727105691 0 0.018135731151607 -0.0015691587082301806 0 0.018036284493215825 -0.0017515566173906066 0 0.018038673007728784 -0.0016179787727105691 0 0.018135731151607 -0.0015691587082301806 0 0.0071836871796964663 -0.00049400786600750863 0 0.0060095821017691221 1.4141907531777086e-05 0 0.0057240888621304005 -0.00097390860417353141 0 0.019549046165950299 -0.0035926507109410658 0 0.019856096169484989 -0.0046690329401339152 0 0.019168513735364597 -0.0043457571652270321 0 0.013142847485860408 -0.0018652155264182256 0 0.012694102964447241 -0.0022271115894922466 0 0.0052906602562694085 -0.00031509013724695276 0 0.0048968477298092627 0.00039214650463991846 0 0.0045765721927017748 -0.00074161958719479257 0 0.0060095821017691221 1.4141907531777086e-05 0 0.0052906602562694085 -0.00031509013724695276 0 0.0057240888621304005 -0.00097390860417353141 0 0.012694102964447241 -0.0022271115894922466 0 0.011356011064923335 -0.0024278954521969008 0 0.019168513735364597 -0.0043457571652270321 0 0.019008360116570006 -0.0038271462961022009 0 0.018479180950794878 -0.0040262323077809936 0 0.0060095821017691221 1.4141907531777086e-05 0 0.0052906602562694085 -0.00031509013724695276 0 0.0048968477298092627 0.00039214650463991846 0 0.018840185624655385 -0.0033557735427875144 0 0.019549046165950299 -0.0035926507109410658 0 0.019008360116570006 -0.0038271462961022009 0 0.018565598846816987 -0.0041830046378252082 0 0.017199358890360814 -0.0041289993036006641 0 0.01797634861890653 -0.0054699727535525017 0 0.018840185624655385 -0.0033557735427875144 0 0.019008360116570006 -0.0038271462961022009 0 0.018479180950794878 -0.0040262323077809936 0 0.018668871910075137 -0.0036354335180011602 0 0.011356011064923335 -0.0024278954521969008 0 0.017199358890360814 -0.0041289993036006641 0 0.01797634861890653 -0.0054699727535525017 0 0.016106977499045324 -0.0046664055104010367 0 0.011356011064923335 -0.0024278954521969008 0 0.010999644198852087 -0.0029810224921015989 0 0.0051607472398029954 -0.00070250807752860237 0 0.0051836349779252272 -0.00065434661256409037 0 0.0057479253933021149 -0.0011376855158920826 0 0.011356011064923335 -0.0024278954521969008 0 0.0038600527829417658 -0.00065014628456082401 0 0.0048968477298092627 0.00039214650463991846 0 0.0041728844965337117 -0.0010269353573020652 0 0.0045765721927017748 -0.00074161958719479257 0 0.0051607472398029954 -0.00070250807752860237 0 0.0051836349779252272 -0.00065434661256409037 0 0.0050227498499422736 -0.00075037644229063204 0 0.0051836349779252272 -0.00065434661256409037 0 0.0050227498499422736 -0.00075037644229063204 0 0.0047208499818286037 -0.00076303773247540134 0 0.0045765721927017748 -0.00074161958719479257 0 0.0043490472032573155 -0.0012639777473727478 0 0.0042292157105706159 -0.001194667174851289 0 0.0041728844965337117 -0.0010269353573020652 0 0.0045765721927017748 -0.00074161958719479257 0 0.0042292157105706159 -0.001194667174851289 0 0.0052906602562694085 -0.00031509013724695276 0 0.0045765721927017748 -0.00074161958719479257 0 0.0057240888621304005 -0.00097390860417353141 0 0.0045765721927017748 -0.00074161958719479257 0 0.0057240888621304005 -0.00097390860417353141 0 0.0050697987844461143 -0.0021847249062533413 0 0.0045489518139125327 -0.00083616613097093999 0 0.0047037070806326374 -0.0016533549111367044 0 0.0057240888621304005 -0.00097390860417353141 0 0.0050697987844461143 -0.0021847249062533413 0 0.0063465798021265125 -0.002026262187533314 0 0.0047037070806326374 -0.0016533549111367044 0 0.0051566711203564035 -0.002592160842832265 0 0.0060350590190585435 -0.0025146872774317922 0 0.0051566711203564035 -0.002592160842832265 0 0.0050697987844461143 -0.0021847249062533413 0 0.0063465798021265125 -0.002026262187533314 0 0.0055399843868452325 -0.0035494878042396411 0 0.0041728844965337117 -0.0010269353573020652 0 0.0042292157105706159 -0.001194667174851289 0 0.0040011913603045183 -0.0014031783909140465 0 0.0038600527829417658 -0.00065014628456082401 0 0.0043427164777332886 -0.0012987854012472214 0 0.0043490472032573155 -0.0012639777473727478 0 0.0041654624907088815 -0.001347779430146071 0 0.0041892601077003835 -0.0014389922590369679 0 0.0041654624907088815 -0.001347779430146071 0 0.0042292157105706159 -0.001194667174851289 0 0.0040011913603045183 -0.0014031783909140465 0 0.0043490472032573155 -0.0012639777473727478 0 0.0041654624907088815 -0.001347779430146071 0 0.0042292157105706159 -0.001194667174851289 0 0.007852602466587635 -0.0021334433797673127 0 0.007229503880692296 -0.0018301809699177659 0 0.0074308519833408042 -0.0024932433944266051 0 0.012731232696721493 -0.0016687820640800385 0 0.013142847485860408 -0.0018652155264182256 0 0.007229503880692296 -0.0018301809699177659 0 0.0068281591873164621 -0.0024949207273699445 0 0.0074308519833408042 -0.0024932433944266051 0 0.0071836871796964663 -0.00049400786600750863 0 0.0057240888621304005 -0.00097390860417353141 0 0.0063465798021265125 -0.002026262187533314 0 0.013142847485860408 -0.0018652155264182256 0 0.0060350590190585435 -0.0025146872774317922 0 0.0068281591873164621 -0.0024949207273699445 0 0.0074308519833408042 -0.0024932433944266051 0 0.0073859115351697438 -0.0030876709750003975 0 0.0079352265771713924 -0.0027955746781961823 0 0.0074308519833408042 -0.0024932433944266051 0 0.0073859115351697438 -0.0030876709750003975 0 0.0073859115351697438 -0.0030876709750003975 0 0.0069293208701628767 -0.0032520114324659805 0 0.0073856007922169561 -0.0038957809987615554 0 0.0068281591873164621 -0.0024949207273699445 0 0.0069293208701628767 -0.0032520114324659805 0 0.0064466453616828312 -0.0031598705604683058 0 0.0068281591873164621 -0.0024949207273699445 0 0.0073859115351697438 -0.0030876709750003975 0 0.0069293208701628767 -0.0032520114324659805 0 0.0069293208701628767 -0.0032520114324659805 0 0.0064466453616828312 -0.0031598705604683058 0 0.0065941687472764812 -0.0036156888997693265 0 0.0032541562979968757 -0.0030625372174216863 0 0.0043749819830658128 -0.0035921611008477962 0 0.0031522888383418895 -0.0029660349713267909 0 0.0027611023757826087 -0.0032468953354697423 0 0.0033513776778805776 -0.0034540343939617104 0 0.0069293208701628767 -0.0032520114324659805 0 0.0073856007922169561 -0.0038957809987615554 0 0.0065941687472764812 -0.0036156888997693265 0 0.0079580648541001595 -0.0035064051523939271 0 0.0073859115351697438 -0.0030876709750003975 0 0.0073856007922169561 -0.0038957809987615554 0 0.0040707061382353671 -0.0014408639321325631 0 0.003995329436449313 -0.0014272823953715165 0 0.0041892601077003835 -0.0014389922590369679 0 0.0041146308093378903 -0.001597188527926126 0 0.0041892601077003835 -0.0014389922590369679 0 0.0042158202455328678 -0.0015423337198071719 0 0.0032047666659535561 -0.0021846930937205952 0 0.0039785976908793767 -0.0012668001869006172 0 0.003995329436449313 -0.0014272823953715165 0 0.0040843905279598974 -0.0014104893181269473 0 0.0041892601077003835 -0.0014389922590369679 0 0.003995329436449313 -0.0014272823953715165 0 0.0040843905279598974 -0.0014104893181269473 0 0.0040011913603045183 -0.0014031783909140465 0 0.0041654624907088815 -0.001347779430146071 0 0.0040843905279598974 -0.0014104893181269473 0 0.0040011913603045183 -0.0014031783909140465 0 0.0041654624907088815 -0.001347779430146071 0 0.0040843905279598974 -0.0014104893181269473 0 0.0041892601077003835 -0.0014389922590369679 0 0.0043490472032573155 -0.0012639777473727478 0 0.0041892601077003835 -0.0014389922590369679 0 0.0043321963420617027 -0.0014756460485868246 0 0.0051566711203564035 -0.002592160842832265 0 0.0043749819830658128 -0.0035921611008477962 0 0.0042713568022539391 -0.0027095027770683015 0 0.0040487545383391344 -0.0031330617274022668 0 0.0044624815013492207 -0.0032773797937473712 0 0.0041146308093378903 -0.001597188527926126 0 0.0042158202455328678 -0.0015423337198071719 0 0.0042529897884362325 -0.0016446382980747831 0 0.0043321963420617027 -0.0014756460485868246 0 0.0042158202455328678 -0.0015423337198071719 0 0.0042529897884362325 -0.0016446382980747831 0 0.0041892601077003835 -0.0014389922590369679 0 0.0043321963420617027 -0.0014756460485868246 0 0.0042158202455328678 -0.0015423337198071719 0 0.0051566711203564035 -0.002592160842832265 0 0.0029624577123662753 -0.0030709689997480841 0 0.0032047666659535561 -0.0021846930937205952 0 0.0029624577123662753 -0.0030709689997480841 0 0.0019438246927263902 -0.0032299284253353979 0 0.0015732822774436382 -0.0034647621884936765 0 0.0015211469502730002 -0.0039957894084986867 0 0.0029624577123662753 -0.0030709689997480841 0 0.0043749819830658128 -0.0035921611008477962 0 0.0015211469502730002 -0.0039957894084986867 0 0.0011383738789603939 -0.0038669940984492899 0 0.0014277263175401257 -0.0036500983399904434 0 0.0013794378408297802 -0.0033681893207733954 0 0.0011383738789603939 -0.0038669940984492899 0 0.0014277263175401257 -0.0036500983399904434 0 0.0015732822774436382 -0.0034647621884936765 0 0.0015211469502730002 -0.0039957894084986867 0 0.0014277263175401257 -0.0036500983399904434 0 0.0015732822774436382 -0.0034647621884936765 0 0.0013794378408297802 -0.0033681893207733954 0 0.0014277263175401257 -0.0036500983399904434 0 0.0019863134862446409 -0.0031626092022138856 0 0.0029624577123662753 -0.0030709689997480841 0 0.0023288295797621057 -0.0028182084001989235 0 0.0021653339362649269 -0.0031952896431077979 0 0.0024097971495537517 -0.0029768829013265647 0 0.0032047666659535561 -0.0021846930937205952 0 0.0031614308101520329 -0.0021988347903684332 0 0.0023107800788009364 -0.0032409253512628512 0 0.0021653339362649269 -0.0031952896431077979 0 0.0024097971495537517 -0.0029768829013265647 0 0.0040707061382353671 -0.0014408639321325631 0 0.003995329436449313 -0.0014272823953715165 0 0.0039179754935503948 -0.0013995262647928607 0 0.003995329436449313 -0.0014272823953715165 0 0.0039179754935503948 -0.0013995262647928607 0 0.0039417518400998754 -0.0013998591950298959 0 0.0039179754935503948 -0.0013995262647928607 0 0.0039417518400998754 -0.0013998591950298959 0 0.0038965792010000064 -0.0013801317699559769 0 0.0039417518400998754 -0.0013998591950298959 0 0.0038965792010000064 -0.0013801317699559769 0 0.0039829313375919287 -0.0014000332711385393 0 0.003995329436449313 -0.0014272823953715165 0 0.0039417518400998754 -0.0013998591950298959 0 0.0039829313375919287 -0.0014000332711385393 0 0.0040094316869031888 -0.0013903909156958659 0 0.0043427164777332886 -0.0012987854012472214 0 0.003995329436449313 -0.0014272823953715165 0 0.0039829313375919287 -0.0014000332711385393 0 0.0040011913603045183 -0.0014031783909140465 0 0.0039829313375919287 -0.0014000332711385393 0 0.0045045585009760615 -0.0012093527016804407 0 0.0040772912633742038 -0.0012529841014032254 0 0.0045045585009760615 -0.0012093527016804407 0 0.0040772912633742038 -0.0012529841014032254 0 0.0043167993550349507 -0.001102895818638095 0 0.0040772912633742038 -0.0012529841014032254 0 0.0039538853936856308 -0.0013472244439765007 0 0.0039463210867376457 -0.0012879434266232412 0 0.0039829313375919287 -0.0014000332711385393 0 0.0040772912633742038 -0.0012529841014032254 0 0.0039538853936856308 -0.0013472244439765007 0 0.0038650848999807253 -0.001346116190852267 0 0.0039829313375919287 -0.0014000332711385393 0 0.0039538853936856308 -0.0013472244439765007 0 0.0038650848999807253 -0.001346116190852267 0 0.0039538853936856308 -0.0013472244439765007 0 0.0039586158473227367 -0.0013469451671891863 0 0.0039586158473227367 -0.0013469451671891863 0 0.0038140312326464913 -0.0012557891116141146 0 0.0039463210867376457 -0.0012879434266232412 0 0.0039538853936856308 -0.0013472244439765007 0 0.0039586158473227367 -0.0013469451671891863 0 0.0039463210867376457 -0.0012879434266232412 0 0.0039783298671390308 -0.0013404401783618058 0 0.0039697008438809162 -0.0012780565988991278 0 0.0039586158473227367 -0.0013469451671891863 0 0.0042386460904028827 -0.0013948493456141767 0 0.004280885904929959 -0.0012844833935982205 0 0.0039697008438809162 -0.0012780565988991278 0 0.0045380837455712463 -0.0013058217235310573 0 0.0042386460904028827 -0.0013948493456141767 0 0.004280885904929959 -0.0012844833935982205 0 0.0044414724274061948 -0.0013678260113991999 0 0.0042386460904028827 -0.0013948493456141767 0 0.0044414724274061948 -0.0013678260113991999 0 0.0044940610342863244 -0.0014907979235798828 0 0.0038140312326464913 -0.0012557891116141146 0 0.0039401840129341826 -0.0011426473691565271 0 0.0038477357323944664 -0.001107949895267213 0 0.0038140312326464913 -0.0012557891116141146 0 0.0039463210867376457 -0.0012879434266232412 0 0.0039401840129341826 -0.0011426473691565271 0 0.0040772912633742038 -0.0012529841014032254 0 0.0039463210867376457 -0.0012879434266232412 0 0.0039401840129341826 -0.0011426473691565271 0 0.0039401840129341826 -0.0011426473691565271 0 0.0039574675343847232 -0.00092834297386461652 0 0.0041403543456138229 -0.00093814846828154665 0 0.0039401840129341826 -0.0011426473691565271 0 0.0038477357323944664 -0.001107949895267213 0 0.0039574675343847232 -0.00092834297386461652 0 0.0038140312326464913 -0.0012557891116141146 0 0.0038477357323944664 -0.001107949895267213 0 0.0036833465628004596 -0.0010834950547253346 0 0.0049976293560215551 -0.00082216803022181764 0 0.0045380837455712463 -0.0013058217235310573 0 0.0038477357323944664 -0.001107949895267213 0 0.0039574675343847232 -0.00092834297386461652 0 0.0036833465628004596 -0.0010834950547253346 0 0.006411967807374434 -0.00087068816581867671 0 0.0049976293560215551 -0.00082216803022181764 0 0.0069664175940097849 -0.00051496689011368616 0 0.0066026831069965399 -0.00030394744266717407 0 0.0068875024831886794 -0.00075766202301593886 0 0.0054288770235782343 -0.0012277999131876296 0 0.0050860671142234099 -0.0011386815246077068 0 0.0055223400651481652 -0.00095611505242628424 0 0.0040366578104586376 -0.00083229508422161637 0 0.004333889880623212 -0.00090825109835336603 0 0.0045122278545438209 -0.00063098977191914036 0 0.0049976293560215551 -0.00082216803022181764 0 0.005348945322261313 -0.00048657742423167483 0 0.0066026831069965399 -0.00030394744266717407 0 0.0060501047557662922 -0.00038820080811926893 0 0.0065577219242499343 -0.00076921226019313843 0 0.0049976293560215551 -0.00082216803022181764 0 0.0041064176282050151 -0.00087865440449109359 0 0.0051836349779252272 -0.00065434661256409037 0 0.0045122278545438209 -0.00063098977191914036 0 0.0047208499818286037 -0.00076303773247540134 0 0.004333889880623212 -0.00090825109835336603 0 0.0047208499818286037 -0.00076303773247540134 0 0.004544009487419883 -0.00096734448185053644 0 0.004333889880623212 -0.00090825109835336603 0 0.0045122278545438209 -0.00063098977191914036 0 0.0047208499818286037 -0.00076303773247540134 0 0.0050227498499422736 -0.00075037644229063204 0 0.0047208499818286037 -0.00076303773247540134 0 0.004544009487419883 -0.00096734448185053644 0 0.0050227498499422736 -0.00075037644229063204 0 0.0045045585009760615 -0.0012093527016804407 0 0.004544009487419883 -0.00096734448185053644 0 0.0041403543456138229 -0.00093814846828154665 0 0.004544009487419883 -0.00096734448185053644 0 0.0043167993550349507 -0.001102895818638095 0 0.0045045585009760615 -0.0012093527016804407 0 0.004544009487419883 -0.00096734448185053644 0 0.0043167993550349507 -0.001102895818638095 0 0.0040772912633742038 -0.0012529841014032254 0 0.0041403543456138229 -0.00093814846828154665 0 0.0043167993550349507 -0.001102895818638095 0 0.0040772912633742038 -0.0012529841014032254 0 0.0039401840129341826 -0.0011426473691565271 0 0.0041403543456138229 -0.00093814846828154665 0 0.0041064176282050151 -0.00087865440449109359 0 0.0045508737878894295 -0.00098056201263874089 0 0.0055041462271380702 -0.0011406561254484855 0 0.0048957079056588266 -0.0012397355420489535 0 0.0055928798132087124 -0.0013309660770104202 0 0.0045291379466554336 -0.0012484850507283197 0 0.0044913129873194145 -0.0012742419522400166 0 0.0048957079056588266 -0.0012397355420489535 0 0.0049883504803060761 -0.0012232739716991185 0 0.0048854309880755533 -0.0012465709624602233 0 0.0048957079056588266 -0.0012397355420489535 0 0.0046734169263852529 -0.0013348089575291938 0 0.0045611338692523734 -0.0012808996707379626 0 0.0045291379466554336 -0.0012484850507283197 0 0.0048957079056588266 -0.0012397355420489535 0 0.0045611338692523734 -0.0012808996707379626 0 0.0045291379466554336 -0.0012484850507283197 0 0.0045611338692523734 -0.0012808996707379626 0 0.004280885904929959 -0.0012844833935982205 0 0.0045611338692523734 -0.0012808996707379626 0 0.004280885904929959 -0.0012844833935982205 0 0.0044414724274061948 -0.0013678260113991999 0 0.0046734169263852529 -0.0013348089575291938 0 0.0045611338692523734 -0.0012808996707379626 0 0.0044414724274061948 -0.0013678260113991999 0 0.0046734169263852529 -0.0013348089575291938 0 0.0044414724274061948 -0.0013678260113991999 0 0.0045964156470140391 -0.0014436170498242098 0 0.0045964156470140391 -0.0014436170498242098 0 0.00450638887355759 -0.0014820292234563994 0 0.0049563985123500685 -0.001773543756265158 0 0.0044414724274061948 -0.0013678260113991999 0 0.0045964156470140391 -0.0014436170498242098 0 0.0044940610342863244 -0.0014907979235798828 0 0.00453076384556385 -0.0013576270486764174 0 0.0045380837455712463 -0.0013058217235310573 0 0.006411967807374434 -0.00087068816581867671 0 0.0060455065576389879 -0.0013882465581279773 0 0.0045380837455712463 -0.0013058217235310573 0 0.0060455065576389879 -0.0013882465581279773 0 0.0054288770235782343 -0.0012277999131876296 0 0.0055223400651481652 -0.00095611505242628424 0 0.0057731460077823076 -0.0013159949115919218 0 0.0049563985123500685 -0.001773543756265158 0 0.0050617800393634432 -0.0014671326410701027 0 0.0058343434400258453 -0.0016463192213244855 0 0.0045964156470140391 -0.0014436170498242098 0 0.0049563985123500685 -0.001773543756265158 0 0.0050617800393634432 -0.0014671326410701027 0 0.0048957079056588266 -0.0012397355420489535 0 0.0046734169263852529 -0.0013348089575291938 0 0.0050617800393634432 -0.0014671326410701027 0 0.0046734169263852529 -0.0013348089575291938 0 0.0045964156470140391 -0.0014436170498242098 0 0.0050617800393634432 -0.0014671326410701027 0 0.0048957079056588266 -0.0012397355420489535 0 0.0050617800393634432 -0.0014671326410701027 0 0.0055493905015649757 -0.0014964577594930586 0 0.0048957079056588266 -0.0012397355420489535 0 0.0055493905015649757 -0.0014964577594930586 0 0.0055928798132087124 -0.0013309660770104202 0 0.0050617800393634432 -0.0014671326410701027 0 0.0055493905015649757 -0.0014964577594930586 0 0.0058343434400258453 -0.0016463192213244855 0 0.0055493905015649757 -0.0014964577594930586 0 0.0058543529595345041 -0.001544143304851292 0 0.0058343434400258453 -0.0016463192213244855 0 0.0055493905015649757 -0.0014964577594930586 0 0.0058543529595345041 -0.001544143304851292 0 0.0057609816414618637 -0.0014514493584979334 0 0.0055493905015649757 -0.0014964577594930586 0 0.0055928798132087124 -0.0013309660770104202 0 0.0057609816414618637 -0.0014514493584979334 0 0.0061700334198927717 -0.0013861838138934004 0 0.0059392618112847177 -0.0014649955544274512 0 0.0061923391348010859 -0.0012416066426881977 0 0.0061700334198927717 -0.0013861838138934004 0 0.0061294128518172572 -0.0014315961455932944 0 0.0067997630383741445 -0.0010839671385792957 0 0.0061700334198927717 -0.0013861838138934004 0 0.0067997630383741445 -0.0010839671385792957 0 0.0061923391348010859 -0.0012416066426881977 0 0.0061700334198927717 -0.0013861838138934004 0 0.0058543529595345041 -0.001544143304851292 0 0.0061294128518172572 -0.0014315961455932944 0 0.0058543529595345041 -0.001544143304851292 0 0.0057609816414618637 -0.0014514493584979334 0 0.0059392618112847177 -0.0014649955544274512 0 0.0061700334198927717 -0.0013861838138934004 0 0.0058543529595345041 -0.001544143304851292 0 0.0059392618112847177 -0.0014649955544274512 0 0.0058543529595345041 -0.001544143304851292 0 0.0058343434400258453 -0.0016463192213244855 0 0.0061294128518172572 -0.0014315961455932944 0 0.0058343434400258453 -0.0016463192213244855 0 0.0061812411367854168 -0.0013708306377325657 0 0.0061294128518172572 -0.0014315961455932944 0 0.0067721576518512214 -0.0011711180922857332 0 0.0067059745670303705 -0.0010381332747019442 0 0.0061812411367854168 -0.0013708306377325657 0 0.0061294128518172572 -0.0014315961455932944 0 0.0067997630383741445 -0.0010839671385792957 0 0.0071656715351811973 -0.0010119073663025443 0 0.0072195901077030892 -0.0010083735590845336 0 0.0067997630383741445 -0.0010839671385792957 0 0.0071656715351811973 -0.0010119073663025443 0 0.0071369388429609239 -0.00087291563268079018 0 0.0072195901077030892 -0.0010083735590845336 0 0.0060455065576389879 -0.0013882465581279773 0 0.0067721576518512214 -0.0011711180922857332 0 0.0060455065576389879 -0.0013882465581279773 0 0.0056799291624698442 -0.0017219041111977611 0 0.0071923863990446405 -0.00070556498284517417 0 0.0071656715351811973 -0.0010119073663025443 0 0.0071369388429609239 -0.00087291563268079018 0 0.0064196287742239299 -0.0018036869285096126 0 0.0058343434400258453 -0.0016463192213244855 0 0.0061812411367854168 -0.0013708306377325657 0 0.0069664175940097849 -0.00051496689011368616 0 0.0071923863990446405 -0.00070556498284517417 0 0.0071369388429609239 -0.00087291563268079018 0 0.0071369388429609239 -0.00087291563268079018 0 0.0070792553483737279 -0.00095584714002788611 0 0.0068875024831886794 -0.00075766202301593886 0 0.0071369388429609239 -0.00087291563268079018 0 0.0070792553483737279 -0.00095584714002788611 0 0.0072195901077030892 -0.0010083735590845336 0 0.0070792553483737279 -0.00095584714002788611 0 0.0071284514900345234 -0.0010556588109796059 0 0.0072195901077030892 -0.0010083735590845336 0 0.0071284514900345234 -0.0010556588109796059 0 0.0072621640124918077 -0.00099867503112759104 0 0.0072195901077030892 -0.0010083735590845336 0 0.0084259378209739187 -0.0014599380116407559 0 0.0094305007796028212 -0.0021335335249776446 0 0.0071284514900345234 -0.0010556588109796059 0 0.0072621640124918077 -0.00099867503112759104 0 0.0069559866854665437 -0.0012147225878229562 0 0.0072621640124918077 -0.00099867503112759104 0 0.0072368243662281218 -0.00087736280720153849 0 0.007580406949304788 -0.00063820947962519756 0 0.0072621640124918077 -0.00099867503112759104 0 0.0072195901077030892 -0.0010083735590845336 0 0.0072368243662281218 -0.00087736280720153849 0 0.0072195901077030892 -0.0010083735590845336 0 0.0067997630383741445 -0.0010839671385792957 0 0.0072368243662281218 -0.00087736280720153849 0 0.0067997630383741445 -0.0010839671385792957 0 0.0072368243662281218 -0.00087736280720153849 0 0.0067541063799832395 -0.00080173342971922245 0 0.0072368243662281218 -0.00087736280720153849 0 0.0067541063799832395 -0.00080173342971922245 0 0.007580406949304788 -0.00063820947962519756 0 0.0067997630383741445 -0.0010839671385792957 0 0.0067541063799832395 -0.00080173342971922245 0 0.0061923391348010859 -0.0012416066426881977 0 0.0061940225392424515 -0.00091787088689323018 0 0.0057479253933021149 -0.0011376855158920826 0 0.0064701445333601466 -0.0012587463048955964 0 0.0061940225392424515 -0.00091787088689323018 0 0.0065577219242499343 -0.00076921226019313843 0 0.0064701445333601466 -0.0012587463048955964 0 0.0051836349779252272 -0.00065434661256409037 0 0.0057479253933021149 -0.0011376855158920826 0 0.0057879347056537236 -0.00076251295680953776 0 0.0061940225392424515 -0.00091787088689323018 0 0.0057479253933021149 -0.0011376855158920826 0 0.0057879347056537236 -0.00076251295680953776 0 0.005131760993869864 -0.00065603594703690887 0 0.005348945322261313 -0.00048657742423167483 0 0.0051836349779252272 -0.00065434661256409037 0 0.0060501047557662922 -0.00038820080811926893 0 0.0057879347056537236 -0.00076251295680953776 0 0.0060501047557662922 -0.00038820080811926893 0 0.0061940225392424515 -0.00091787088689323018 0 0.0057879347056537236 -0.00076251295680953776 0 0.0060501047557662922 -0.00038820080811926893 0 0.0061940225392424515 -0.00091787088689323018 0 0.0065577219242499343 -0.00076921226019313843 0 0.0066026831069965399 -0.00030394744266717407 0 0.0065577219242499343 -0.00076921226019313843 0 0.0068875024831886794 -0.00075766202301593886 0 0.0069664175940097849 -0.00051496689011368616 0 0.0071369388429609239 -0.00087291563268079018 0 0.0068875024831886794 -0.00075766202301593886 0 0.0070792553483737279 -0.00095584714002788611 0 0.0068875024831886794 -0.00075766202301593886 0 0.0068829663189381805 -0.0010171315030663276 0 0.0065577219242499343 -0.00076921226019313843 0 0.0068829663189381805 -0.0010171315030663276 0 0.0064701445333601466 -0.0012587463048955964 0 0.0065577219242499343 -0.00076921226019313843 0 0.0068875024831886794 -0.00075766202301593886 0 0.0068829663189381805 -0.0010171315030663276 0 0.0068829663189381805 -0.0010171315030663276 0 0.0069559866854665437 -0.0012147225878229562 0 0.0064701445333601466 -0.0012587463048955964 0 0.011927719761230339 -0.0030814511398533574 0 0.013777979526893157 -0.0023442575714118083 0 0.014149745470240737 -0.0039196976232929318 0 0.0094305007796028212 -0.0021335335249776446 0 0.010265188846418485 -0.002563544233211903 0 0.0071284514900345234 -0.0010556588109796059 0 0.0068829663189381805 -0.0010171315030663276 0 0.0069559866854665437 -0.0012147225878229562 0 0.0070792553483737279 -0.00095584714002788611 0 0.0071284514900345234 -0.0010556588109796059 0 0.0068829663189381805 -0.0010171315030663276 0 0.0096033940379587276 -0.0020016575007359341 0 0.011927719761230339 -0.0030814511398533574 0 0.011794063352593448 -0.0012184623050937498 0 0.011927719761230339 -0.0030814511398533574 0 0.013777979526893157 -0.0023442575714118083 0 0.011794063352593448 -0.0012184623050937498 0 0.013777979526893157 -0.0023442575714118083 0 0.014149745470240737 -0.0039196976232929318 0 0.015375102737229572 -0.0023272942896146146 0 0.013777979526893157 -0.0023442575714118083 0 0.015375102737229572 -0.0023272942896146146 0 0.013952978171544232 -0.00074067819302511546 0 0.010999644198852087 -0.0029810224921015989 0 0.010265188846418485 -0.002563544233211903 0 0.014149745470240737 -0.0039196976232929318 0 0.016026438651938139 -0.0033859439409480831 0 0.015375102737229572 -0.0023272942896146146 0 0.017199358890360814 -0.0041289993036006641 0 0.016106977499045324 -0.0046664055104010367 0 0.016026438651938139 -0.0033859439409480831 0 0.016106977499045324 -0.0046664055104010367 0 0.014149745470240737 -0.0039196976232929318 0 0.016026438651938139 -0.0033859439409480831 0 0.017312101559224739 -0.0029301277822620683 0 0.016026438651938139 -0.0033859439409480831 0 0.015375102737229572 -0.0023272942896146146 0 0.017312101559224739 -0.0029301277822620683 0 0.015375102737229572 -0.0023272942896146146 0 0.016072999643184628 -0.0013165101398497801 0 0.016072999643184628 -0.0013165101398497801 0 0.015702111316669019 -0.00014475808926625147 0 0.01733515585059309 -0.0010422866829005416 0 0.015702111316669019 -0.00014475808926625147 0 0.01733515585059309 -0.0010422866829005416 0 0.016798374347658532 0.00025098501722213958 0 0.015702111316669019 -0.00014475808926625147 0 0.016009893920105517 0.00075607368404383352 0 0.015120749937584369 0.00066894076243922723 0 0.015702111316669019 -0.00014475808926625147 0 0.016009893920105517 0.00075607368404383352 0 0.016798374347658532 0.00025098501722213958 0 0.016009893920105517 0.00075607368404383352 0 0.016798374347658532 0.00025098501722213958 0 0.016844995351505434 0.0011041201406054477 0 0.015702111316669019 -0.00014475808926625147 0 0.015120749937584369 0.00066894076243922723 0 0.01431929497141401 0.00019759091773329082 0 0.015702111316669019 -0.00014475808926625147 0 0.01431929497141401 0.00019759091773329082 0 0.013952978171544232 -0.00074067819302511546 0 0.015120749937584369 0.00066894076243922723 0 0.01431929497141401 0.00019759091773329082 0 0.014165583654061996 0.0011968683539789545 0 0.015375102737229572 -0.0023272942896146146 0 0.016072999643184628 -0.0013165101398497801 0 0.013952978171544232 -0.00074067819302511546 0 0.016072999643184628 -0.0013165101398497801 0 0.015702111316669019 -0.00014475808926625147 0 0.013952978171544232 -0.00074067819302511546 0 0.013951540874953153 -0.00072592217173355223 0 0.012065395183642995 0.00039764455938466674 0 0.013952978171544232 -0.00074067819302511546 0 0.011794063352593448 -0.0012184623050937498 0 0.012078075435031893 0.00040167561950709774 0 0.013777979526893157 -0.0023442575714118083 0 0.013952978171544232 -0.00074067819302511546 0 0.011794063352593448 -0.0012184623050937498 0 0.011794063352593448 -0.0012184623050937498 0 0.012078075435031893 0.00040167561950709774 0 0.010847464957228903 0.00013474049951823003 0 0.011794063352593448 -0.0012184623050937498 0 0.010847464957228903 0.00013474049951823003 0 0.010248505758180579 -0.00075923904081514346 0 0.012065395183642995 0.00039764455938466674 0 0.012923943968652183 0.00083764718486448425 0 0.012700612470374566 6.1571200742868939e-05 0 0.012426228114908988 0.0010569744573982838 0 0.011410612657216993 0.000937800627810308 0 0.012078075435031893 0.00040167561950709774 0 0.010847464957228903 0.00013474049951823003 0 0.010283200562897993 0.0015389100462175824 0 0.01431929497141401 0.00019759091773329082 0 0.012700612470374566 6.1571200742868939e-05 0 0.014165583654061996 0.0011968683539789545 0 0.01431929497141401 0.00019759091773329082 0 0.013952978171544232 -0.00074067819302511546 0 0.012700612470374566 6.1571200742868939e-05 0 0.012700612470374566 6.1571200742868939e-05 0 0.012426228114908988 0.0010569744573982838 0 0.014165583654061996 0.0011968683539789545 0 0.01275698458064905 0.0020459809290927574 0 0.013985855718776485 0.0021770535670082997 0 0.014165583654061996 0.0011968683539789545 0 0.01275698458064905 0.0020459809290927574 0 0.012426228114908988 0.0010569744573982838 0 0.014165583654061996 0.0011968683539789545 0 0.014606674384587582 0.0013676890265667174 0 0.012923943968652183 0.00083764718486448425 0 0.016767274331870793 0.00073420508155788873 0 0.016112074100227483 0.0010686125820832957 0 0.015133083475777446 -0.00054304184827485733 0 0.01715919671951013 0.00081052779959441185 0 0.012923943968652183 0.00083764718486448425 0 0.01275698458064905 0.0020459809290927574 0 0.012426228114908988 0.0010569744573982838 0 0.011410612657216993 0.000937800627810308 0 0.016767274331870793 0.00073420508155788873 0 0.016112074100227483 0.0010686125820832957 0 0.017072632330241339 0.0026756211825439027 0 0.01715919671951013 0.00081052779959441185 0 0.0210821099308767 0.0014847823308894953 0 0.018216884758720079 0.00069236982247104523 0 0.018109474349457894 0.00083664816963138343 0 0.018370162385576285 0.00089554824996169406 0 0.01275698458064905 0.0020459809290927574 0 0.013985855718776485 0.0021770535670082997 0 0.014149243854845627 0.0031872025678081149 0 0.016767274331870793 0.00073420508155788873 0 0.01836495240784973 0.0020121744737784998 0 0.017072632330241339 0.0026756211825439027 0 0.014606674384587582 0.0013676890265667174 0 0.017749193259046017 0.0016475086079976531 0 0.019179117327730328 0.0015856236956423146 0 0.017854821117494035 0.0022629693375816875 0 0.018771583383256549 0.0012540513483121718 0 0.017749193259046017 0.0016475086079976531 0 0.019811037851615039 0.0012809882750776332 0 0.013985855718776485 0.0021770535670082997 0 0.014149243854845627 0.0031872025678081149 0 0.014726705649091357 0.0029018708060739424 0 0.017749193259046017 0.0016475086079976531 0 0.017383049998309575 0.0020502514967416148 0 0.017383049998309575 0.0020502514967416148 0 0.019811037851615039 0.0012809882750776332 0 0.013985855718776485 0.0021770535670082997 0 0.014726705649091357 0.0029018708060739424 0 0.014923712032234684 0.0018935231282007406 0 0.021617704326071876 0.000435453711828663 0 0.021413085167557629 0.00036987648781355869 0 0.021318385496053669 0.00060418449755974353 0 0.015040805811505405 0.0027264636487162241 0 0.016293600485931883 0.0020786063405655456 0 0.016070840814333132 0.0014835240916941355 0 0.017383049998309575 0.0020502514967416148 0 0.019015339230881324 0.001238198488166901 0 0.017383049998309575 0.0020502514967416148 0 0.01519314122629737 0.0020644483890836628 0 0.021413085167557629 0.00036987648781355869 0 0.021318385496053669 0.00060418449755974353 0 0.021243214416223347 0.0004353267625591959 0 0.021413085167557629 0.00036987648781355869 0 0.021264662897869303 0.00021630030392599879 0 0.021243214416223347 0.0004353267625591959 0 0.016070840814333132 0.0014835240916941355 0 0.01531163932329376 0.0013022858317074683 0 0.014923712032234684 0.0018935231282007406 0 0.016293600485931883 0.0020786063405655456 0 0.016070840814333132 0.0014835240916941355 0 0.016844995351505434 0.0011041201406054477 0 0.016009893920105517 0.00075607368404383352 0 0.016070840814333132 0.0014835240916941355 0 0.016844995351505434 0.0011041201406054477 0 0.016009893920105517 0.00075607368404383352 0 0.016070840814333132 0.0014835240916941355 0 0.01531163932329376 0.0013022858317074683 0 0.016009893920105517 0.00075607368404383352 0 0.015120749937584369 0.00066894076243922723 0 0.01531163932329376 0.0013022858317074683 0 0.015120749937584369 0.00066894076243922723 0 0.01531163932329376 0.0013022858317074683 0 0.014165583654061996 0.0011968683539789545 0 0.014726705649091357 0.0029018708060739424 0 0.016070840814333132 0.0014835240916941355 0 0.014923712032234684 0.0018935231282007406 0 0.01531163932329376 0.0013022858317074683 0 0.014165583654061996 0.0011968683539789545 0 0.014923712032234684 0.0018935231282007406 0 0.013985855718776485 0.0021770535670082997 0 0.014165583654061996 0.0011968683539789545 0 0.014923712032234684 0.0018935231282007406 0 0.0071556468371786319 0.00015351354611350726 0 0.0068183299580951914 -0.00029848303685176279 0 0.0067707893014620022 0.0002808707428818994 0 0.0071556468371786319 0.00015351354611350726 0 0.0071799610846089218 0.00066422594613118105 0 0.0067707893014620022 0.0002808707428818994 0 0.0071556468371786319 0.00015351354611350726 0 0.0075629225798786153 0.00068224425011634325 0 0.0071799610846089218 0.00066422594613118105 0 0.0067541063799832395 -0.00080173342971922245 0 0.0068183299580951914 -0.00029848303685176279 0 0.007580406949304788 -0.00063820947962519756 0 0.0071556468371786319 0.00015351354611350726 0 0.0068183299580951914 -0.00029848303685176279 0 0.007580406949304788 -0.00063820947962519756 0 0.0075629225798786153 0.00068224425011634325 0 0.0086795668157811923 0.00078017627423215743 0 0.0083025245371676441 0.00017525527608100002 0 0.0071556468371786319 0.00015351354611350726 0 0.007580406949304788 -0.00063820947962519756 0 0.0075629225798786153 0.00068224425011634325 0 0.007580406949304788 -0.00063820947962519756 0 0.0075629225798786153 0.00068224425011634325 0 0.0083025245371676441 0.00017525527608100002 0 0.0086795668157811923 0.00078017627423215743 0 0.0090254846861225636 0.00030870516983139362 0 0.0094562466002792965 0.00061750810041287865 0 0.0086795668157811923 0.00078017627423215743 0 0.0090254846861225636 0.00030870516983139362 0 0.0083025245371676441 0.00017525527608100002 0 0.0090254846861225636 0.00030870516983139362 0 0.0083025245371676441 0.00017525527608100002 0 0.0090279193721429264 -0.00036652062086483058 0 0.0084259378209739187 -0.0014599380116407559 0 0.0076055697077594799 -0.00074845301855457969 0 0.007580406949304788 -0.00063820947962519756 0 0.0083025245371676441 0.00017525527608100002 0 0.0090279193721429264 -0.00036652062086483058 0 0.0096033940379587276 -0.0020016575007359341 0 0.007580406949304788 -0.00063820947962519756 0 0.0090279193721429264 -0.00036652062086483058 0 0.0096033940379587276 -0.0020016575007359341 0 0.011794063352593448 -0.0012184623050937498 0 0.010248505758180579 -0.00075923904081514346 0 0.0090279193721429264 -0.00036652062086483058 0 0.010248505758180579 -0.00075923904081514346 0 0.0096292066837527588 0.00040929110930926151 0 0.0096033940379587276 -0.0020016575007359341 0 0.0090279193721429264 -0.00036652062086483058 0 0.010248505758180579 -0.00075923904081514346 0 0.0086795668157811923 0.00078017627423215743 0 0.0094562466002792965 0.00061750810041287865 0 0.0098922097373885329 0.00096939745426917402 0 0.010847464957228903 0.00013474049951823003 0 0.010248505758180579 -0.00075923904081514346 0 0.0096292066837527588 0.00040929110930926151 0 0.0090254846861225636 0.00030870516983139362 0 0.0096292066837527588 0.00040929110930926151 0 0.0094562466002792965 0.00061750810041287865 0 0.0090254846861225636 0.00030870516983139362 0 0.0090279193721429264 -0.00036652062086483058 0 0.0096292066837527588 0.00040929110930926151 0 0.0096292066837527588 0.00040929110930926151 0 0.0094562466002792965 0.00061750810041287865 0 0.009921966443604803 0.0009817777067097674 0 0.0099402619988052509 -4.1063316269913473e-05 0 0.012923943968652183 0.00083764718486448425 0 0.010251541662648125 5.8710640861576113e-05 0 0.012923943968652183 0.00083764718486448425 0 0.010847464957228903 0.00013474049951823003 0 0.0096292066837527588 0.00040929110930926151 0 0.010283200562897993 0.0015389100462175824 0 0.018216884758720079 0.00069236982247104523 0 0.018055522842854953 0.00049895027077257511 0 0.018009406591744083 0.00067380400416584981 0 0.018055522842854953 0.00049895027077257511 0 0.018009406591744083 0.00067380400416584981 0 0.017813303682416768 0.00064972185366146912 0 0.018216884758720079 0.00069236982247104523 0 0.018009406591744083 0.00067380400416584981 0 0.018109474349457894 0.00083664816963138343 0 0.018009406591744083 0.00067380400416584981 0 0.017857002987556436 0.00087847876916980589 0 0.018109474349457894 0.00083664816963138343 0 0.018009406591744083 0.00067380400416584981 0 0.017813303682416768 0.00064972185366146912 0 0.017857002987556436 0.00087847876916980589 0 0.0086795668157811923 0.00078017627423215743 0 0.0098922097373885329 0.00096939745426917402 0 0.0084580666418133665 0.0015078354324727264 0 0.012923943968652183 0.00083764718486448425 0 0.013650748572406789 0.0010013655156487519 0 0.0075629225798786153 0.00068224425011634325 0 0.0084580666418133665 0.0015078354324727264 0 0.0073007713344343033 0.0021696662907639843 0 0.0075629225798786153 0.00068224425011634325 0 0.0086795668157811923 0.00078017627423215743 0 0.0084580666418133665 0.0015078354324727264 0 0.017813303682416768 0.00064972185366146912 0 0.017580174104781937 0.0007985374249027588 0 0.017857002987556436 0.00087847876916980589 0 0.013650748572406789 0.0010013655156487519 0 0.010846829231510324 0.0010495722022106442 0 0.0076173568273102017 0.0017203101962883769 0 0.0077046780117252991 0.0017314927803827199 0 0.007622599078580654 0.0015284398976183238 0 0.007833694090189568 0.0016976516663937309 0 0.0077046780117252991 0.0017314927803827199 0 0.007622599078580654 0.0015284398976183238 0 0.007622599078580654 0.0015284398976183238 0 0.0074735862548632364 0.001251797624811303 0 0.0073383278092101056 0.0014613665548402486 0 0.007833694090189568 0.0016976516663937309 0 0.007622599078580654 0.0015284398976183238 0 0.0074735862548632364 0.001251797624811303 0 0.0075629225798786153 0.00068224425011634325 0 0.007833694090189568 0.0016976516663937309 0 0.0074735862548632364 0.001251797624811303 0 0.0075629225798786153 0.00068224425011634325 0 0.0074735862548632364 0.001251797624811303 0 0.0071799610846089218 0.00066422594613118105 0 0.0066378364391922809 0.0012593618550864201 0 0.010846829231510324 0.0010495722022106442 0 0.012665896438171101 0.0015326522447351707 0 0.014385404520841718 0.00073367505508821625 0 0.017578183012809556 0.0010000381627883355 0 0.017835117788647031 0.0011301407300098132 0 0.017575614130321174 0.0011799550146817201 0 0.0080365624528580936 0.0014424511586042794 0 0.0077112272753004762 0.0019657998075725425 0 0.0080185576710746047 0.00080422272916583226 0 0.007833694090189568 0.0016976516663937309 0 0.0077112272753004762 0.0019657998075725425 0 0.0077585526525839697 0.0019155113396370348 0 0.0077112272753004762 0.0019657998075725425 0 0.0077585526525839697 0.0019155113396370348 0 0.0078991127949027823 0.0022136907729586579 0 0.010846829231510324 0.0010495722022106442 0 0.012665896438171101 0.0015326522447351707 0 0.0076173568273102017 0.0017203101962883769 0 0.0077046780117252991 0.0017314927803827199 0 0.0077585526525839697 0.0019155113396370348 0 0.007833694090189568 0.0016976516663937309 0 0.0077046780117252991 0.0017314927803827199 0 0.0077585526525839697 0.0019155113396370348 0 0.017580174104781937 0.0007985374249027588 0 0.017578183012809556 0.0010000381627883355 0 0.017857002987556436 0.00087847876916980589 0 0.017578183012809556 0.0010000381627883355 0 0.017857002987556436 0.00087847876916980589 0 0.017835117788647031 0.0011301407300098132 0 0.028611882533380442 0.0013790857536793313 0 0.029263659267867597 0.00025124837120500638 0 0.030265194041299102 0.00013999018986216328 0 0.023485262698868806 0.0011797083921583895 0 0.024581838305202448 0.00077730415425599625 0 0.017857002987556436 0.00087847876916980589 0 0.0180915208885623 0.001020179864059171 0 0.017835117788647031 0.0011301407300098132 0 0.017857002987556436 0.00087847876916980589 0 0.018109474349457894 0.00083664816963138343 0 0.0180915208885623 0.001020179864059171 0 0.028611882533380442 0.0013790857536793313 0 0.028584176607776447 0.00015171010150390857 0 0.027469841564858089 0.00037918471771520955 0 0.028611882533380442 0.0013790857536793313 0 0.028584176607776447 0.00015171010150390857 0 0.029263659267867597 0.00025124837120500638 0 0.028584176607776447 0.00015171010150390857 0 0.028773949074954432 -0.00078982414107826794 0 0.027469841564858089 0.00037918471771520955 0 0.028069169895290597 -0.0012540624292255525 0 0.025089664240618308 0.00037323465483700592 0 0.028584176607776447 0.00015171010150390857 0 0.029141155468815481 -0.00022531453837773194 0 0.029263659267867597 0.00025124837120500638 0 0.029141155468815481 -0.00022531453837773194 0 0.028773949074954432 -0.00078982414107826794 0 0.029477303159876789 -0.00053994604696856903 0 0.028584176607776447 0.00015171010150390857 0 0.029141155468815481 -0.00022531453837773194 0 0.028773949074954432 -0.00078982414107826794 0 0.031145164445186026 -0.002009986809566401 0 0.031066328936566023 -0.002196416097615686 0 0.03139405423066309 -0.0019638629170384506 0 0.031024514665455194 -0.001943069508828705 0 0.0310363133745593 -0.0020911011517409641 0 0.03086254732386921 -0.0018358620518320488 0 0.031066328936566023 -0.002196416097615686 0 0.0310363133745593 -0.0020911011517409641 0 0.03086254732386921 -0.0018358620518320488 0 0.031145164445186026 -0.002009986809566401 0 0.031024514665455194 -0.001943069508828705 0 0.031063042045546881 -0.0018491418392743736 0 0.031145164445186026 -0.002009986809566401 0 0.031024514665455194 -0.001943069508828705 0 0.0310363133745593 -0.0020911011517409641 0 0.031145164445186026 -0.002009986809566401 0 0.031066328936566023 -0.002196416097615686 0 0.0310363133745593 -0.0020911011517409641 0 0.031066328936566023 -0.002196416097615686 0 0.03059973993134411 -0.0016877630756472217 0 0.03086254732386921 -0.0018358620518320488 0 0.028773949074954432 -0.00078982414107826794 0 0.029847906628141893 -0.00098059913734274717 0 0.03059973993134411 -0.0016877630756472217 0 0.029989463891746272 -0.0010478703457026453 0 0.03055521247270513 -0.0016794005123591509 0 0.029847906628141893 -0.00098059913734274717 0 0.029918321978175785 -0.00051455079351483339 0 0.029477303159876789 -0.00053994604696856903 0 0.028773949074954432 -0.00078982414107826794 0 0.029847906628141893 -0.00098059913734274717 0 0.029477303159876789 -0.00053994604696856903 0 0.029847906628141893 -0.00098059913734274717 0 0.030172462691224273 -0.0011139728625811955 0 0.030183046344637695 -0.0014732067739796333 0 0.028069169895290597 -0.0012540624292255525 0 0.031066480969412068 -0.0019468084906279707 0 0.029847906628141893 -0.00098059913734274717 0 0.030221514720204144 -0.00074128325338946612 0 0.030172462691224273 -0.0011139728625811955 0 0.029847906628141893 -0.00098059913734274717 0 0.029918321978175785 -0.00051455079351483339 0 0.030221514720204144 -0.00074128325338946612 0 0.029601207496684077 -0.00016721678485031891 0 0.029263659267867597 0.00025124837120500638 0 0.030265194041299102 0.00013999018986216328 0 0.029918321978175785 -0.00051455079351483339 0 0.030091837976330041 -0.00022073580702494831 0 0.03014609385179769 -0.00040166363338048968 0 0.029918321978175785 -0.00051455079351483339 0 0.029601207496684077 -0.00016721678485031891 0 0.030091837976330041 -0.00022073580702494831 0 0.029918321978175785 -0.00051455079351483339 0 0.029477303159876789 -0.00053994604696856903 0 0.029601207496684077 -0.00016721678485031891 0 0.029141155468815481 -0.00022531453837773194 0 0.029477303159876789 -0.00053994604696856903 0 0.029601207496684077 -0.00016721678485031891 0 0.029141155468815481 -0.00022531453837773194 0 0.029601207496684077 -0.00016721678485031891 0 0.029263659267867597 0.00025124837120500638 0 0.029601207496684077 -0.00016721678485031891 0 0.030265194041299102 0.00013999018986216328 0 0.030091837976330041 -0.00022073580702494831 0 0.030265194041299102 0.00013999018986216328 0 0.030323753969330961 -0.00014188271152288751 0 0.030539083770110036 -0.00030983462723147611 0 0.030265194041299102 0.00013999018986216328 0 0.030323753969330961 -0.00014188271152288751 0 0.030091837976330041 -0.00022073580702494831 0 0.030323753969330961 -0.00014188271152288751 0 0.030091837976330041 -0.00022073580702494831 0 0.03014609385179769 -0.00040166363338048968 0 0.030323753969330961 -0.00014188271152288751 0 0.03014609385179769 -0.00040166363338048968 0 0.030221514720204144 -0.00074128325338946612 0 0.029918321978175785 -0.00051455079351483339 0 0.03014609385179769 -0.00040166363338048968 0 0.030221514720204144 -0.00074128325338946612 0 0.030323753969330961 -0.00014188271152288751 0 0.030221514720204144 -0.00074128325338946612 0 0.030506330271850783 -0.0012428316207384049 0 0.030323753969330961 -0.00014188271152288751 0 0.030388884116207777 -0.00035248718543985782 0 0.030256098109824634 -0.0005437969611217611 0 0.030340926434615886 -0.00021283083461961437 0 0.030323526535036602 -0.00087690796937131793 0 0.030221514720204144 -0.00074128325338946612 0 0.030172462691224273 -0.0011139728625811955 0 0.030506330271850783 -0.0012428316207384049 0 0.030388884116207777 -0.00035248718543985782 0 0.030395414187060786 -0.0004946753679237084 0 0.030256098109824634 -0.0005437969611217611 0 0.020884727886883368 -0.0010002867358979402 0 0.026677585094911898 -0.0010301751163975274 0 0.030395414187060786 -0.0004946753679237084 0 0.030539083770110036 -0.00030983462723147611 0 0.030482769801433187 -0.00056592517794254145 0 0.022242438727594706 -0.0017159342850319923 0 0.022247217808343125 -0.0017173748868387663 0 0.0222706604061358 -0.0016732012070348318 0 0.030388884116207777 -0.00035248718543985782 0 0.030395414187060786 -0.0004946753679237084 0 0.030539083770110036 -0.00030983462723147611 0 0.024581838305202448 0.00077730415425599625 0 0.020884727886883368 -0.0010002867358979402 0 0.017924525454241922 -0.00072553742432381594 0 0.020884727886883368 -0.0010002867358979402 0 0.017236440302958674 -0.0021813703670521072 0 0.016305235592489555 -0.001706635084071359 0 0.016549007085417271 0.00089183436537311142 0 0.030323753969330961 -0.00014188271152288751 0 0.030388884116207777 -0.00035248718543985782 0 0.030539083770110036 -0.00030983462723147611 0 0.017835117788647031 0.0011301407300098132 0 0.017591242034148771 0.001229516505996257 0 0.017575614130321174 0.0011799550146817201 0 0.020884727886883368 -0.0010002867358979402 0 0.014385404520841718 0.00073367505508821625 0 0.017924525454241922 -0.00072553742432381594 0 0.014385404520841718 0.00073367505508821625 0 0.0098141301162644329 0.0010231558820358736 0 0.014385404520841718 0.00073367505508821625 0 0.021895348524759866 9.3306091107002778e-05 0 0.021622715378794833 -0.00016513290132633298 0 0.02198373829656897 -0.00021006556549471437 0 0.021895348524759866 9.3306091107002778e-05 0 0.021622715378794833 -0.00016513290132633298 0 0.021653294483946272 0.00020219188369145554 0 0.021622715378794833 -0.00016513290132633298 0 0.021653294483946272 0.00020219188369145554 0 0.021319143304019645 -0.00011992308316234067 0 0.021622715378794833 -0.00016513290132633298 0 0.021342526803598782 -0.00038942088870287558 0 0.021319143304019645 -0.00011992308316234067 0 0.021758498923533629 0.00023116634310497096 0 0.021279348926323879 -0.00012336429451864005 0 0.021500044614382742 0.00013747100692975946 0 0.021319143304019645 -0.00011992308316234067 0 0.021264662897869303 0.00021630030392599879 0 0.021413085167557629 0.00036987648781355869 0 0.021500044614382742 0.00013747100692975946 0 0.021264662897869303 0.00021630030392599879 0 0.021617704326071876 0.000435453711828663 0 0.021413085167557629 0.00036987648781355869 0 0.021500044614382742 0.00013747100692975946 0 0.021895348524759866 9.3306091107002778e-05 0 0.021653294483946272 0.00020219188369145554 0 0.021944865092588868 0.00044385447620513878 0 0.021617704326071876 0.000435453711828663 0 0.021500044614382742 0.00013747100692975946 0 0.021693627290338184 0.00034789464759916485 0 0.021758498923533629 0.00023116634310497096 0 0.019811037851615039 0.0012809882750776332 0 0.017749193259046017 0.0016475086079976531 0 0.0210821099308767 0.0014847823308894953 0 0.021895348524759866 9.3306091107002778e-05 0 0.021944865092588868 0.00044385447620513878 0 0.022185245970946909 0.00017456152119504394 0 0.019656719313676133 0.0020169908252119675 0 0.019399394526337582 0.0018070876016187281 0 0.020801853136525435 0.00027981979044977172 0 0.019811037851615039 0.0012809882750776332 0 0.022492646033770172 0.00067655883674882882 0 0.019656719313676133 0.0020169908252119675 0 0.021313829202803069 0.0011787598461632113 0 0.020801853136525435 0.00027981979044977172 0 0.0210821099308767 0.0014847823308894953 0 0.022492646033770172 0.00067655883674882882 0 0.018109474349457894 0.00083664816963138343 0 0.0180915208885623 0.001020179864059171 0 0.018370162385576285 0.00089554824996169406 0 0.023485262698868806 0.0011797083921583895 0 0.0210821099308767 0.0014847823308894953 0 0.028611882533380442 0.0013790857536793313 0 0.026404275297196182 0.0025069686220941367 0 0.027469841564858089 0.00037918471771520955 0 0.026404275297196182 0.0025069686220941367 0 0.026020676848202962 0.0018375513621524094 0 0.027469841564858089 0.00037918471771520955 0 0.022362776892159136 0.00049568524825341841 0 0.022408015287752093 2.2319038974516652e-05 0 0.022870278085784543 -4.6558650492980922e-05 0 0.022492646033770172 0.00067655883674882882 0 0.025089664240618308 0.00037323465483700592 0 0.021895348524759866 9.3306091107002778e-05 0 0.022185245970946909 0.00017456152119504394 0 0.02198373829656897 -0.00021006556549471437 0 0.022362776892159136 0.00049568524825341841 0 0.022408015287752093 2.2319038974516652e-05 0 0.02198373829656897 -0.00021006556549471437 0 0.022492646033770172 0.00067655883674882882 0 0.021912906276537907 -0.00031758762701121181 0 0.022408015287752093 2.2319038974516652e-05 0 0.022399708166513377 -0.0003908528994096099 0 0.02198373829656897 -0.00021006556549471437 0 0.022399708166513377 -0.0003908528994096099 0 0.021900840503594921 -0.00060722020220717538 0 0.02198373829656897 -0.00021006556549471437 0 0.023387151648880035 -0.00058890020124076174 0 0.022870278085784543 -4.6558650492980922e-05 0 0.022800191729901602 -0.00048386013886675557 0 0.022408015287752093 2.2319038974516652e-05 0 0.022399708166513377 -0.0003908528994096099 0 0.022870278085784543 -4.6558650492980922e-05 0 0.022399708166513377 -0.0003908528994096099 0 0.022870278085784543 -4.6558650492980922e-05 0 0.022800191729901602 -0.00048386013886675557 0 0.028069169895290597 -0.0012540624292255525 0 0.02681897286708091 -0.0014599020052307146 0 0.031145164445186026 -0.002009986809566401 0 0.03139405423066309 -0.0019638629170384506 0 0.031248899606912382 -0.0018634263247000653 0 0.022399708166513377 -0.0003908528994096099 0 0.022800191729901602 -0.00048386013886675557 0 0.022589809187639771 -0.00085404860503616033 0 0.023387151648880035 -0.00058890020124076174 0 0.022800191729901602 -0.00048386013886675557 0 0.022589809187639771 -0.00085404860503616033 0 0.022589809187639771 -0.00085404860503616033 0 0.021900840503594921 -0.00060722020220717538 0 0.021899869659980451 -0.00096138976169725225 0 0.022399708166513377 -0.0003908528994096099 0 0.022589809187639771 -0.00085404860503616033 0 0.021900840503594921 -0.00060722020220717538 0 0.021900840503594921 -0.00060722020220717538 0 0.021443968673757759 -0.00074047544391263721 0 0.021899869659980451 -0.00096138976169725225 0 0.021900840503594921 -0.00060722020220717538 0 0.02198373829656897 -0.00021006556549471437 0 0.021513955275296502 -0.00052425547181864324 0 0.021622715378794833 -0.00016513290132633298 0 0.02198373829656897 -0.00021006556549471437 0 0.021513955275296502 -0.00052425547181864324 0 0.021622715378794833 -0.00016513290132633298 0 0.021513955275296502 -0.00052425547181864324 0 0.021342526803598782 -0.00038942088870287558 0 0.021900840503594921 -0.00060722020220717538 0 0.021513955275296502 -0.00052425547181864324 0 0.021443968673757759 -0.00074047544391263721 0 0.021513955275296502 -0.00052425547181864324 0 0.021212431665741809 -0.00060237824367815598 0 0.021443968673757759 -0.00074047544391263721 0 0.021212431665741809 -0.00060237824367815598 0 0.0211893653830128 -0.00073217371941115893 0 0.021443968673757759 -0.00074047544391263721 0 0.021212431665741809 -0.00060237824367815598 0 0.021091961750701365 -0.00064877168761836245 0 0.021052840467192673 -0.00055636179412342978 0 0.021212431665741809 -0.00060237824367815598 0 0.021091961750701365 -0.00064877168761836245 0 0.0211893653830128 -0.00073217371941115893 0 0.021212431665741809 -0.00060237824367815598 0 0.021052840467192673 -0.00055636179412342978 0 0.021090084283725243 -0.0004181069686987349 0 0.021052840467192673 -0.00055636179412342978 0 0.021090084283725243 -0.0004181069686987349 0 0.021000827011615448 -0.00053007890241380147 0 0.021052840467192673 -0.00055636179412342978 0 0.021000827011615448 -0.00053007890241380147 0 0.02100306701539326 -0.00059090267480082007 0 0.021513955275296502 -0.00052425547181864324 0 0.021212431665741809 -0.00060237824367815598 0 0.021342526803598782 -0.00038942088870287558 0 0.021212431665741809 -0.00060237824367815598 0 0.021090084283725243 -0.0004181069686987349 0 0.021342526803598782 -0.00038942088870287558 0 0.021090084283725243 -0.0004181069686987349 0 0.021342526803598782 -0.00038942088870287558 0 0.021319143304019645 -0.00011992308316234067 0 0.021090084283725243 -0.0004181069686987349 0 0.021319143304019645 -0.00011992308316234067 0 0.020900641570510567 0.00014086583157394225 0 0.021000827011615448 -0.00053007890241380147 0 0.02089781498934223 -0.00058725958412611968 0 0.020934623793544278 -0.00059480193479275888 0 0.021090084283725243 -0.0004181069686987349 0 0.021000827011615448 -0.00053007890241380147 0 0.02089781498934223 -0.00058725958412611968 0 0.021063687026710246 -0.00042322096366424186 0 0.020905320655667699 -0.00023124918768739755 0 0.02089781498934223 -0.00058725958412611968 0 0.020813886381149126 -0.0006171046164163464 0 0.020701222518309401 -0.00063099910341974568 0 0.021319143304019645 -0.00011992308316234067 0 0.020900641570510567 0.00014086583157394225 0 0.021264662897869303 0.00021630030392599879 0 0.020900641570510567 0.00014086583157394225 0 0.021264662897869303 0.00021630030392599879 0 0.021065391522099654 0.00038609022068897617 0 0.020905573324333709 -0.00062924716448924697 0 0.020813886381149126 -0.0006171046164163464 0 0.020852790188986451 -0.00063115145109859743 0 0.020905573324333709 -0.00062924716448924697 0 0.020937081040647756 -0.00066773071406807979 0 0.020852790188986451 -0.00063115145109859743 0 0.020905573324333709 -0.00062924716448924697 0 0.020966798893770209 -0.00065920227648595773 0 0.020937081040647756 -0.00066773071406807979 0 0.020905573324333709 -0.00062924716448924697 0 0.020813886381149126 -0.0006171046164163464 0 0.020934623793544278 -0.00059480193479275888 0 0.02089781498934223 -0.00058725958412611968 0 0.020813886381149126 -0.0006171046164163464 0 0.020934623793544278 -0.00059480193479275888 0 0.021000827011615448 -0.00053007890241380147 0 0.020934623793544278 -0.00059480193479275888 0 0.02100306701539326 -0.00059090267480082007 0 0.020905573324333709 -0.00062924716448924697 0 0.020934623793544278 -0.00059480193479275888 0 0.020966798893770209 -0.00065920227648595773 0 0.020934623793544278 -0.00059480193479275888 0 0.020966798893770209 -0.00065920227648595773 0 0.02100306701539326 -0.00059090267480082007 0 0.020966798893770209 -0.00065920227648595773 0 0.02101162659721742 -0.00066869228232440206 0 0.020997591397460682 -0.00074328945336124769 0 0.020966798893770209 -0.00065920227648595773 0 0.02101162659721742 -0.00066869228232440206 0 0.02100306701539326 -0.00059090267480082007 0 0.02101162659721742 -0.00066869228232440206 0 0.02100306701539326 -0.00059090267480082007 0 0.02104166184845474 -0.00063978908406586666 0 0.021052840467192673 -0.00055636179412342978 0 0.02100306701539326 -0.00059090267480082007 0 0.02104166184845474 -0.00063978908406586666 0 0.021091961750701365 -0.00064877168761836245 0 0.02104166184845474 -0.00063978908406586666 0 0.021081106697363513 -0.00068246790812980548 0 0.021091961750701365 -0.00064877168761836245 0 0.021081106697363513 -0.00068246790812980548 0 0.021137758146602358 -0.00069358115554061866 0 0.021091961750701365 -0.00064877168761836245 0 0.021052840467192673 -0.00055636179412342978 0 0.02104166184845474 -0.00063978908406586666 0 0.021081106697363513 -0.00068246790812980548 0 0.02102258505509114 -0.0007410878514238742 0 0.021035994999431932 -0.00072778153927022986 0 0.02101162659721742 -0.00066869228232440206 0 0.021081106697363513 -0.00068246790812980548 0 0.02102258505509114 -0.0007410878514238742 0 0.02101162659721742 -0.00066869228232440206 0 0.02104166184845474 -0.00063978908406586666 0 0.021081106697363513 -0.00068246790812980548 0 0.02102258505509114 -0.0007410878514238742 0 0.021029746865107942 -0.00075484781876089893 0 0.021063521096322674 -0.0008639374535353028 0 0.021029746865107942 -0.00075484781876089893 0 0.021092315563080867 -0.00084136117350377352 0 0.021063521096322674 -0.0008639374535353028 0 0.021092315563080867 -0.00084136117350377352 0 0.021063521096322674 -0.0008639374535353028 0 0.02117648055581603 -0.0010043609688252886 0 0.021063521096322674 -0.0008639374535353028 0 0.02117648055581603 -0.0010043609688252886 0 0.02104434892651583 -0.00086277336974430034 0 0.02101162659721742 -0.00066869228232440206 0 0.02102258505509114 -0.0007410878514238742 0 0.020997591397460682 -0.00074328945336124769 0 0.02102258505509114 -0.0007410878514238742 0 0.021063521096322674 -0.0008639374535353028 0 0.020997591397460682 -0.00074328945336124769 0 0.021434629981625299 -0.0015548383020386842 0 0.021737901762748885 -0.0010365893569607156 0 0.022907549694510712 -0.0011553982229975052 0 0.021737901762748885 -0.0010365893569607156 0 0.021376050312684202 -0.0011780187580420277 0 0.02127039026668652 -0.00086115741000011489 0 0.021434629981625299 -0.0015548383020386842 0 0.021737901762748885 -0.0010365893569607156 0 0.021376050312684202 -0.0011780187580420277 0 0.021434629981625299 -0.0015548383020386842 0 0.021376050312684202 -0.0011780187580420277 0 0.021391504301104796 -0.0011858675408529965 0 0.021376050312684202 -0.0011780187580420277 0 0.02117648055581603 -0.0010043609688252886 0 0.021391504301104796 -0.0011858675408529965 0 0.021376050312684202 -0.0011780187580420277 0 0.02127039026668652 -0.00086115741000011489 0 0.02117648055581603 -0.0010043609688252886 0 0.021092315563080867 -0.00084136117350377352 0 0.02127039026668652 -0.00086115741000011489 0 0.02117648055581603 -0.0010043609688252886 0 0.021391504301104796 -0.0011858675408529965 0 0.021305350605973584 -0.00065612000922890036 0 0.021444061463130153 -0.00051595679528376715 0 0.021347068049736424 -0.0011232705374621473 0 0.021262250791989661 -0.00070965100822717507 0 0.02117648055581603 -0.0010043609688252886 0 0.021391504301104796 -0.0011858675408529965 0 0.02104434892651583 -0.00086277336974430034 0 0.021391504301104796 -0.0011858675408529965 0 0.021142068315968456 -0.0010125036164199612 0 0.021305350605973584 -0.00065612000922890036 0 0.021434629981625299 -0.0015548383020386842 0 0.021391504301104796 -0.0011858675408529965 0 0.021142068315968456 -0.0010125036164199612 0 0.021142068315968456 -0.0010125036164199612 0 0.02104098101953351 -0.00057819108879089568 0 0.021305350605973584 -0.00065612000922890036 0 0.02104098101953351 -0.00057819108879089568 0 0.021305350605973584 -0.00065612000922890036 0 0.02138739030520162 -0.00043133760518247819 0 0.021305350605973584 -0.00065612000922890036 0 0.021444061463130153 -0.00051595679528376715 0 0.02138739030520162 -0.00043133760518247819 0 0.021444061463130153 -0.00051595679528376715 0 0.02138739030520162 -0.00043133760518247819 0 0.021257836474867956 -0.00043438409267987583 0 0.020052696767512587 -0.0010182017415536462 0 0.02007846803274373 -0.00094646837223767689 0 0.019109934523693129 -0.0013464241758772378 0 0.018786900192919259 -0.0014402370078001163 0 0.018973217831523545 -0.0014686612260914034 0 0.020966798893770209 -0.00065920227648595773 0 0.020997591397460682 -0.00074328945336124769 0 0.020937081040647756 -0.00066773071406807979 0 0.021063521096322674 -0.0008639374535353028 0 0.02104434892651583 -0.00086277336974430034 0 0.020997591397460682 -0.00074328945336124769 0 0.02104434892651583 -0.00086277336974430034 0 0.020997591397460682 -0.00074328945336124769 0 0.020955898429068073 -0.00068198316577941639 0 0.021262250791989661 -0.00070965100822717507 0 0.021101000736954385 -0.00056635642336244141 0 0.020997591397460682 -0.00074328945336124769 0 0.020937081040647756 -0.00066773071406807979 0 0.020955898429068073 -0.00068198316577941639 0 0.020937081040647756 -0.00066773071406807979 0 0.020955898429068073 -0.00068198316577941639 0 0.020852790188986451 -0.00063115145109859743 0 0.021101000736954385 -0.00056635642336244141 0 0.020914860092871385 -0.00066773396476553244 0 0.020955898429068073 -0.00068198316577941639 0 0.020894781605809092 -0.00066205440106655705 0 0.020852790188986451 -0.00063115145109859743 0 0.021257836474867956 -0.00043438409267987583 0 0.020894781605809092 -0.00066205440106655705 0 0.021438215136311833 -0.00066080219141087038 0 0.018786900192919259 -0.0014402370078001163 0 0.018526144193900137 -0.0014909004173392366 0 0.01875901176905731 -0.0014994902505769936 0 0.018786900192919259 -0.0014402370078001163 0 0.01875901176905731 -0.0014994902505769936 0 0.018973217831523545 -0.0014686612260914034 0 0.02138739030520162 -0.00043133760518247819 0 0.021257836474867956 -0.00043438409267987583 0 0.021438215136311833 -0.00066080219141087038 0 0.02007846803274373 -0.00094646837223767689 0 0.019971648629965515 -0.0010953203949248234 0 0.01875901176905731 -0.0014994902505769936 0 0.018578404882215124 -0.0015508153620573898 0 0.018763666466491746 -0.001519253351760539 0 0.018526144193900137 -0.0014909004173392366 0 0.01875901176905731 -0.0014994902505769936 0 0.018578404882215124 -0.0015508153620573898 0 0.018578404882215124 -0.0015508153620573898 0 0.018468244597861446 -0.0016561567260165748 0 0.018661312814371483 -0.0015638723302708788 0 0.018578404882215124 -0.0015508153620573898 0 0.018661312814371483 -0.0015638723302708788 0 0.018763666466491746 -0.001519253351760539 0 0.018578404882215124 -0.0015508153620573898 0 0.018468244597861446 -0.0016561567260165748 0 0.018287652140596845 -0.0015992873006648023 0 0.018526144193900137 -0.0014909004173392366 0 0.018578404882215124 -0.0015508153620573898 0 0.018287652140596845 -0.0015992873006648023 0 0.018279873920051547 -0.0017018166359920282 0 0.018468244597861446 -0.0016561567260165748 0 0.018287652140596845 -0.0015992873006648023 0 0.020894781605809092 -0.00066205440106655705 0 0.021438215136311833 -0.00066080219141087038 0 0.021352154591470572 -0.0011739303065729486 0 0.020894781605809092 -0.00066205440106655705 0 0.021352154591470572 -0.0011739303065729486 0 0.02094218164467361 -0.0013890838007323324 0 0.020894781605809092 -0.00066205440106655705 0 0.02094218164467361 -0.0013890838007323324 0 0.020622074966877412 -0.00093675631182136296 0 0.019971648629965515 -0.0010953203949248234 0 0.019838873079428023 -0.0013990503208934125 0 0.019504850650789309 -0.0019716645721978582 0 0.019838873079428023 -0.0013990503208934125 0 0.021198499756712362 -0.0021625009750373125 0 0.021352154591470572 -0.0011739303065729486 0 0.02094218164467361 -0.0013890838007323324 0 0.02094218164467361 -0.0013890838007323324 0 0.020420687122534739 -0.0012060624115671861 0 0.020622074966877412 -0.00093675631182136296 0 0.020394849939152315 -0.0018203780946149226 0 0.02094218164467361 -0.0013890838007323324 0 0.020420687122534739 -0.0012060624115671861 0 0.020394849939152315 -0.0018203780946149226 0 0.020420687122534739 -0.0012060624115671861 0 0.019907120738954755 -0.001431258719151266 0 0.020894781605809092 -0.00066205440106655705 0 0.020622074966877412 -0.00093675631182136296 0 0.020559529904580241 -0.00072977670902387901 0 0.020420687122534739 -0.0012060624115671861 0 0.020622074966877412 -0.00093675631182136296 0 0.020341847185136007 -0.00081727236571999765 0 0.020622074966877412 -0.00093675631182136296 0 0.020341847185136007 -0.00081727236571999765 0 0.020559529904580241 -0.00072977670902387901 0 0.020284219681117186 -0.00071777001092734904 0 0.020339727585372766 -0.00071370018811611692 0 0.019956998750513065 -0.00073504116460911472 0 0.020284219681117186 -0.00071777001092734904 0 0.020377491827151064 -0.00071812248168474024 0 0.020488163913122047 -0.00069533159164971272 0 0.020359169406714953 -1.1593016388485276e-05 0 0.020264145766113333 0.00012021536318696408 0 0.020284219681117186 -0.00071777001092734904 0 0.020415636466397855 -0.00073493069116312788 0 0.020341847185136007 -0.00081727236571999765 0 0.020284219681117186 -0.00071777001092734904 0 0.020415636466397855 -0.00073493069116312788 0 0.020488163913122047 -0.00069533159164971272 0 0.020415636466397855 -0.00073493069116312788 0 0.020341847185136007 -0.00081727236571999765 0 0.020559529904580241 -0.00072977670902387901 0 0.020420687122534739 -0.0012060624115671861 0 0.020341847185136007 -0.00081727236571999765 0 0.019956998750513065 -0.00073504116460911472 0 0.020284219681117186 -0.00071777001092734904 0 0.020341847185136007 -0.00081727236571999765 0 0.019956998750513065 -0.00073504116460911472 0 0.020264145766113333 0.00012021536318696408 0 0.020158668604157649 -0.00059591628777587978 0 0.019956998750513065 -0.00073504116460911472 0 0.019246988857342859 -0.0010432954614748632 0 0.019114345715810069 -0.00025873494888171088 0 0.019641284495150724 0.00044956079413716624 0 0.019956998750513065 -0.00073504116460911472 0 0.019114345715810069 -0.00025873494888171088 0 0.019956998750513065 -0.00073504116460911472 0 0.019907120738954755 -0.001431258719151266 0 0.019246988857342859 -0.0010432954614748632 0 0.020420687122534739 -0.0012060624115671861 0 0.019956998750513065 -0.00073504116460911472 0 0.019907120738954755 -0.001431258719151266 0 0.019767651466510206 -0.0020867618772148341 0 0.019907120738954755 -0.001431258719151266 0 0.019083997236227754 -0.001715671932529842 0 0.019907120738954755 -0.001431258719151266 0 0.019083997236227754 -0.001715671932529842 0 0.019246988857342859 -0.0010432954614748632 0 0.019083997236227754 -0.001715671932529842 0 0.018468266360609255 -0.0012335711256466456 0 0.019246988857342859 -0.0010432954614748632 0 0.018290140316373289 -0.0020392735916908889 0 0.019083997236227754 -0.001715671932529842 0 0.018468266360609255 -0.0012335711256466456 0 0.018290140316373289 -0.0020392735916908889 0 0.018468266360609255 -0.0012335711256466456 0 0.01733515585059309 -0.0010422866829005416 0 0.018468266360609255 -0.0012335711256466456 0 0.01733515585059309 -0.0010422866829005416 0 0.018368995448293145 -0.00041934398046083153 0 0.018468266360609255 -0.0012335711256466456 0 0.019246988857342859 -0.0010432954614748632 0 0.018368995448293145 -0.00041934398046083153 0 0.01733515585059309 -0.0010422866829005416 0 0.017713702912704785 0.00020137362072966843 0 0.016798374347658532 0.00025098501722213958 0 0.01733515585059309 -0.0010422866829005416 0 0.017713702912704785 0.00020137362072966843 0 0.018368995448293145 -0.00041934398046083153 0 0.017713702912704785 0.00020137362072966843 0 0.016798374347658532 0.00025098501722213958 0 0.016844995351505434 0.0011041201406054477 0 0.019641284495150724 0.00044956079413716624 0 0.018531586044221809 0.00025940532053635623 0 0.017886476003711901 0.0013455105515820058 0 0.019246988857342859 -0.0010432954614748632 0 0.019114345715810069 -0.00025873494888171088 0 0.018368995448293145 -0.00041934398046083153 0 0.017713702912704785 0.00020137362072966843 0 0.018368995448293145 -0.00041934398046083153 0 0.018531586044221809 0.00025940532053635623 0 0.019114345715810069 -0.00025873494888171088 0 0.018368995448293145 -0.00041934398046083153 0 0.018531586044221809 0.00025940532053635623 0 0.017713702912704785 0.00020137362072966843 0 0.018531586044221809 0.00025940532053635623 0 0.017886476003711901 0.0013455105515820058 0 0.019641284495150724 0.00044956079413716624 0 0.019114345715810069 -0.00025873494888171088 0 0.018531586044221809 0.00025940532053635623 0 0.020264145766113333 0.00012021536318696408 0 0.020758984412586758 -7.0277760671776224e-05 0 0.020639683854176555 0.00094019636918623944 0 0.020977961438922634 0.00077861140689280885 0 0.020769721401111489 0.00054702338021469208 0 0.020264145766113333 0.00012021536318696408 0 0.019345750996634218 0.0011341391834780857 0 0.020977961438922634 0.00077861140689280885 0 0.021093949751077316 0.00057637764202849795 0 0.020769721401111489 0.00054702338021469208 0 0.019015339230881324 0.001238198488166901 0 0.019345750996634218 0.0011341391834780857 0 0.016293600485931883 0.0020786063405655456 0 0.016844995351505434 0.0011041201406054477 0 0.017886476003711901 0.0013455105515820058 0 0.021318385496053669 0.00060418449755974353 0 0.020977961438922634 0.00077861140689280885 0 0.021093949751077316 0.00057637764202849795 0 0.017713702912704785 0.00020137362072966843 0 0.016844995351505434 0.0011041201406054477 0 0.017886476003711901 0.0013455105515820058 0 0.021093949751077316 0.00057637764202849795 0 0.021065391522099654 0.00038609022068897617 0 0.020769721401111489 0.00054702338021469208 0 0.021318385496053669 0.00060418449755974353 0 0.021093949751077316 0.00057637764202849795 0 0.021243214416223347 0.0004353267625591959 0 0.021264662897869303 0.00021630030392599879 0 0.021065391522099654 0.00038609022068897617 0 0.021243214416223347 0.0004353267625591959 0 0.021093949751077316 0.00057637764202849795 0 0.021065391522099654 0.00038609022068897617 0 0.021243214416223347 0.0004353267625591959 0 0.020900641570510567 0.00014086583157394225 0 0.021065391522099654 0.00038609022068897617 0 0.020769721401111489 0.00054702338021469208 0 0.020905320655667699 -0.00023124918768739755 0 0.020758984412586758 -7.0277760671776224e-05 0 0.020813886381149126 -0.0006171046164163464 0 0.020701222518309401 -0.00063099910341974568 0 0.02067240561310377 -0.00064354154730394519 0 0.020813886381149126 -0.0006171046164163464 0 0.020852790188986451 -0.00063115145109859743 0 0.02067240561310377 -0.00064354154730394519 0 0.020894781605809092 -0.00066205440106655705 0 0.020852790188986451 -0.00063115145109859743 0 0.02067240561310377 -0.00064354154730394519 0 0.020894781605809092 -0.00066205440106655705 0 0.020559529904580241 -0.00072977670902387901 0 0.02067240561310377 -0.00064354154730394519 0 0.020377491827151064 -0.00071812248168474024 0 0.020701222518309401 -0.00063099910341974568 0 0.020488163913122047 -0.00069533159164971272 0 0.020559529904580241 -0.00072977670902387901 0 0.020488163913122047 -0.00069533159164971272 0 0.02067240561310377 -0.00064354154730394519 0 0.020701222518309401 -0.00063099910341974568 0 0.020488163913122047 -0.00069533159164971272 0 0.02067240561310377 -0.00064354154730394519 0 0.020415636466397855 -0.00073493069116312788 0 0.020559529904580241 -0.00072977670902387901 0 0.020488163913122047 -0.00069533159164971272 0 0.0074272648092977289 0.00022369207180643943 0 0.0078063448099505136 0.00025688870453180728 0 0.0076818641306928342 0.0003029067373964335 0 0.0074272648092977289 0.00022369207180643943 0 0.0068650662760222714 1.1567349879805089e-06 0 0.0078063448099505136 0.00025688870453180728 0 0.0068650662760222714 1.1567349879805089e-06 0 0.0078063448099505136 0.00025688870453180728 0 0.0088811664697586393 6.5599689569762619e-07 0 0.0078063448099505136 0.00025688870453180728 0 0.0081415372383609064 0.00018342971447285681 0 0.0088811664697586393 6.5599689569762619e-07 0 0.0078063448099505136 0.00025688870453180728 0 0.0076818641306928342 0.0003029067373964335 0 0.0081415372383609064 0.00018342971447285681 0 0.0076818641306928342 0.0003029067373964335 0 0.0076722611060690031 0.00021572786750445792 0 0.0081415372383609064 0.00018342971447285681 0 0.0085084029630672804 0.00027973545278661525 0 0.0085376711373328033 0.00025307008187347516 0 0.0086352469592902194 0.00027406197734157348 0 0.0082593382730479711 0.00024549015087226575 0 0.0078298424589166131 0.00040258252108573534 0 0.0076818641306928342 0.0003029067373964335 0 0.0078424850242783048 0.00035049577982760954 0 0.0076722611060690031 0.00021572786750445792 0 0.0076587665261383837 0.00021195538867899741 0 0.0078510816612509596 7.8762651728287659e-05 0 0.0078424850242783048 0.00035049577982760954 0 0.0076818641306928342 0.0003029067373964335 0 0.0076587665261383837 0.00021195538867899741 0 0.0078424850242783048 0.00035049577982760954 0 0.0074272648092977289 0.00022369207180643943 0 0.0076818641306928342 0.0003029067373964335 0 0.0076587665261383837 0.00021195538867899741 0 0.0074272648092977289 0.00022369207180643943 0 0.0076587665261383837 0.00021195538867899741 0 0.0075035819012522027 -7.1693557773148924e-06 0 0.0075035819012522027 -7.1693557773148924e-06 0 0.0071831831870274917 -0.000269226511829841 0 0.0068985043735611332 6.1478183681705083e-05 0 0.0075035819012522027 -7.1693557773148924e-06 0 0.0078510816612509596 7.8762651728287659e-05 0 0.007784783297683129 -0.00023102317756887894 0 0.0076587665261383837 0.00021195538867899741 0 0.0075035819012522027 -7.1693557773148924e-06 0 0.0078510816612509596 7.8762651728287659e-05 0 0.007784783297683129 -0.00023102317756887894 0 0.0075111413459075585 -0.00040442549941638881 0 0.0078584349976023038 -0.00059902601287662653 0 0.0075035819012522027 -7.1693557773148924e-06 0 0.007784783297683129 -0.00023102317756887894 0 0.0075111413459075585 -0.00040442549941638881 0 0.0075035819012522027 -7.1693557773148924e-06 0 0.0071831831870274917 -0.000269226511829841 0 0.0075111413459075585 -0.00040442549941638881 0 0.0071831831870274917 -0.000269226511829841 0 0.0075111413459075585 -0.00040442549941638881 0 0.0071877447201142862 -0.00058986961387392622 0 0.0071877447201142862 -0.00058986961387392622 0 0.0067912207479522415 -0.00038107159502488827 0 0.0068564460031249035 -0.00081405551434938822 0 0.0071831831870274917 -0.000269226511829841 0 0.0071877447201142862 -0.00058986961387392622 0 0.0067912207479522415 -0.00038107159502488827 0 0.0067912207479522415 -0.00038107159502488827 0 0.0068985043735611332 6.1478183681705083e-05 0 0.0061799118120340942 2.4669030188007554e-05 0 0.0071831831870274917 -0.000269226511829841 0 0.0067912207479522415 -0.00038107159502488827 0 0.0068985043735611332 6.1478183681705083e-05 0 0.0074272648092977289 0.00022369207180643943 0 0.0075035819012522027 -7.1693557773148924e-06 0 0.0068985043735611332 6.1478183681705083e-05 0 0.0074272648092977289 0.00022369207180643943 0 0.0068650662760222714 1.1567349879805089e-06 0 0.0068985043735611332 6.1478183681705083e-05 0 0.0068650662760222714 1.1567349879805089e-06 0 0.0068985043735611332 6.1478183681705083e-05 0 0.0061799118120340942 2.4669030188007554e-05 0 0.0068650662760222714 1.1567349879805089e-06 0 0.0061799118120340942 2.4669030188007554e-05 0 0.0048523673859281573 -1.8767974237252523e-06 0 0.0061799118120340942 2.4669030188007554e-05 0 0.0048523673859281573 -1.8767974237252523e-06 0 0.0061413042589442092 -0.00087282089013530613 0 0.0067912207479522415 -0.00038107159502488827 0 0.0061799118120340942 2.4669030188007554e-05 0 0.0061413042589442092 -0.00087282089013530613 0 0.0048486874117022417 -9.3631701413356394e-08 0 0.0047304801301183471 -0.00040360798555033839 0 0.0033394572398811849 -0.00010610468200946335 0 0.0026732696960071562 -8.6168442866485677e-05 0 0.0029396540407737302 5.1206873087439116e-07 0 0.0048470214943198125 -1.1084263493087645e-06 0 0.0033394572398811849 -0.00010610468200946335 0 0.0029396540407737302 5.1206873087439116e-07 0 0.0071877447201142862 -0.00058986961387392622 0 0.0068564460031249035 -0.00081405551434938822 0 0.0071351903296917795 -0.00082450051591067164 0 0.0061413042589442092 -0.00087282089013530613 0 0.0068564460031249035 -0.00081405551434938822 0 0.0067969422938580519 -0.0012812806352450405 0 0.0067912207479522415 -0.00038107159502488827 0 0.0061413042589442092 -0.00087282089013530613 0 0.0068564460031249035 -0.00081405551434938822 0 0.0047304801301183471 -0.00040360798555033839 0 0.0045571656010133512 -0.00048730839459398465 0 0.0068564460031249035 -0.00081405551434938822 0 0.00687335188458624 -0.00093444925249018887 0 0.0071351903296917795 -0.00082450051591067164 0 0.0056712170621860836 -0.00077881362349293659 0 0.0045571656010133512 -0.00048730839459398465 0 0.0025083699981575274 8.8084058362276023e-05 0 0.0025044414642841702 0.0004399088755113742 0 0.0023397384474334888 0.00035763618827605652 0 0.0045571656010133512 -0.00048730839459398465 0 0.0019474105253400938 0.00033401357788637973 0 0.0026732696960071562 -8.6168442866485677e-05 0 0.0029396540407737302 5.1206873087439116e-07 0 0.0015997031371890349 0.00012768094971229145 0 0.0029396540407737302 5.1206873087439116e-07 0 0.0015997031371890349 0.00012768094971229145 0 0.0010311234648075175 3.8064621752353285e-07 0 0.0025044414642841702 0.0004399088755113742 0 0.0023311229728816205 0.00058124434943745713 0 0.0023397384474334888 0.00035763618827605652 0 8.5945566055348568e-05 0.0009334059215983907 0 0.00012026176884456099 0.002180406148672806 0 8.5945566055348568e-05 0.0009334059215983907 0 0.0019474105253400938 0.00033401357788637973 0 0.0024899084959069135 0.00074995659696378838 0 0.0025044414642841702 0.0004399088755113742 0 0.0023311229728816205 0.00058124434943745713 0 0.00014176658136010967 -1.2002870985539456e-05 0 0.0015997031371890349 0.00012768094971229145 0 0.0010311234648075175 3.8064621752353285e-07 0 -0.0016540536874032898 0.0034136636389161096 0 -0.0019659222483697637 0.0034948084049330388 0 -0.0016829824103811455 0.00375987134190797 0 -0.0016540536874032898 0.0034136636389161096 0 -0.0016829824103811455 0.00375987134190797 0 -0.0014849995455790826 0.0035450481316600217 0 0.0023311229728816205 0.00058124434943745713 0 0.0023397384474334888 0.00035763618827605652 0 0.0021412623430122784 0.0004064291406830739 0 0.0023397384474334888 0.00035763618827605652 0 0.0021412623430122784 0.0004064291406830739 0 0.0022454197546022741 0.00031654642542014645 0 0.00012026176884456099 0.002180406148672806 0 0.001161639279050453 0.0017669826319274831 0 0.0024665907525581229 -0.00013563285358864164 0 0.0043049549828530374 8.0964811279485654e-05 0 0.001161639279050453 0.0017669826319274831 0 0.0043049549828530374 8.0964811279485654e-05 0 -0.0016829824103811455 0.00375987134190797 0 -0.0014461243549455519 0.0037517643831774033 0 -0.0014849995455790826 0.0035450481316600217 0 0.001161639279050453 0.0017669826319274831 0 0.00070864695623728006 0.0026127872339529947 0 -0.0016829824103811455 0.00375987134190797 0 -0.0014788011104888445 0.0039791606770763002 0 -0.0014461243549455519 0.0037517643831774033 0 0.005893758539093426 0.00029970677818581159 0 0.0043049549828530374 8.0964811279485654e-05 0 0.0077744146609684556 -0.0010528798082491842 0 0.0073684764144224613 -0.0012680614259330683 0 0.0073308719558273557 -0.0009776907075903236 0 0.0077744146609684556 -0.0010528798082491842 0 0.0073308719558273557 -0.0009776907075903236 0 0.0074501480952209884 -0.00073540402022763895 0 0.0030438625043466816 0.0013719604173932161 0 0.0030738485322463686 0.0014241929111917064 0 0.0030830609596640694 0.0014155415794897281 0 0.0030438625043466816 0.0013719604173932161 0 0.0030738485322463686 0.0014241929111917064 0 0.0030287712368379559 0.0013867256740477194 0 0.00687335188458624 -0.00093444925249018887 0 0.0073684764144224613 -0.0012680614259330683 0 0.0073308719558273557 -0.0009776907075903236 0 0.0025083699981575274 8.8084058362276023e-05 0 0.0023397384474334888 0.00035763618827605652 0 0.0022460657979072869 0.00030865388625647867 0 0.0045571656010133512 -0.00048730839459398465 0 0.0043049549828530374 8.0964811279485654e-05 0 0.00687335188458624 -0.00093444925249018887 0 0.0073308719558273557 -0.0009776907075903236 0 0.0071351903296917795 -0.00082450051591067164 0 0.0073308719558273557 -0.0009776907075903236 0 0.0071351903296917795 -0.00082450051591067164 0 0.0074501480952209884 -0.00073540402022763895 0 0.0075111413459075585 -0.00040442549941638881 0 0.0071877447201142862 -0.00058986961387392622 0 0.0074501480952209884 -0.00073540402022763895 0 0.0071877447201142862 -0.00058986961387392622 0 0.0071351903296917795 -0.00082450051591067164 0 0.0074501480952209884 -0.00073540402022763895 0 0.0077744146609684556 -0.0010528798082491842 0 0.0074501480952209884 -0.00073540402022763895 0 0.0078584349976023038 -0.00059902601287662653 0 0.0075111413459075585 -0.00040442549941638881 0 0.0074501480952209884 -0.00073540402022763895 0 0.0078584349976023038 -0.00059902601287662653 0 0.0077744146609684556 -0.0010528798082491842 0 0.0078584349976023038 -0.00059902601287662653 0 0.0081388558775436597 -0.00081327272276967731 0 0.0078584349976023038 -0.00059902601287662653 0 0.0081388558775436597 -0.00081327272276967731 0 0.008173004432554783 -0.00049739742802419108 0 0.0025830905837343817 0.0024513403885325098 0 0.0042903578647044008 0.0019293292543304519 0 -0.0012352460728573956 0.0042279225675600522 0 -0.00088550513446113903 0.0044016420071536196 0 -0.00088144486309734251 0.0040751747211881066 0 0.0081388558775436597 -0.00081327272276967731 0 0.008173004432554783 -0.00049739742802419108 0 0.0085020979607397067 -0.00036316922550110384 0 -5.9897145110023768e-05 0.0045882156617050324 0 -0.00028997158142650534 0.0045727244271225502 0 -0.00036527681355336036 0.0044952526463290388 0 0.0025830905837343817 0.0024513403885325098 0 -0.00092810747721882854 0.0043287689168774518 0 -0.0012352460728573956 0.0042279225675600522 0 -0.0011942299777487342 0.0038812994440810887 0 -0.00088144486309734251 0.0040751747211881066 0 0.005893758539093426 0.00029970677818581159 0 0.0025830905837343817 0.0024513403885325098 0 -0.0012352460728573956 0.0042279225675600522 0 -0.0014788011104888445 0.0039791606770763002 0 -0.0011942299777487342 0.0038812994440810887 0 0.0030738485322463686 0.0014241929111917064 0 0.0031168617904341377 0.0014784289037165469 0 0.0030830609596640694 0.0014155415794897281 0 0.0025830905837343817 0.0024513403885325098 0 0.00070864695623728006 0.0026127872339529947 0 -0.0014788011104888445 0.0039791606770763002 0 -0.0014461243549455519 0.0037517643831774033 0 -0.0011942299777487342 0.0038812994440810887 0 -0.0014461243549455519 0.0037517643831774033 0 -0.0011942299777487342 0.0038812994440810887 0 -0.0012785684245061129 0.0035822058743648429 0 -0.0014461243549455519 0.0037517643831774033 0 -0.0012785684245061129 0.0035822058743648429 0 -0.0014849995455790826 0.0035450481316600217 0 -0.0011942299777487342 0.0038812994440810887 0 -0.00092613578376311758 0.0037309610004899142 0 -0.00088144486309734251 0.0040751747211881066 0 -0.0011942299777487342 0.0038812994440810887 0 -0.0012785684245061129 0.0035822058743648429 0 -0.00092613578376311758 0.0037309610004899142 0 -0.0010954272234718963 0.0033611739444699396 0 -0.0013934805771635657 0.0032612137960523601 0 -0.0012785684245061129 0.0035822058743648429 0 -0.0010954272234718963 0.0033611739444699396 0 -0.0012785684245061129 0.0035822058743648429 0 -0.00092613578376311758 0.0037309610004899142 0 -0.0013934805771635657 0.0032612137960523601 0 -0.0012785684245061129 0.0035822058743648429 0 -0.0014849995455790826 0.0035450481316600217 0 -0.0013934805771635657 0.0032612137960523601 0 -0.0016540536874032898 0.0034136636389161096 0 -0.0014849995455790826 0.0035450481316600217 0 -0.0010954272234718963 0.0033611739444699396 0 -0.00041201266610850197 0.0035243422033968646 0 -0.00092613578376311758 0.0037309610004899142 0 -0.00041201266610850197 0.0035243422033968646 0 -0.00092613578376311758 0.0037309610004899142 0 -0.00048599578285657137 0.0039861404673004535 0 -0.00041201266610850197 0.0035243422033968646 0 -0.00048599578285657137 0.0039861404673004535 0 4.2734955542680464e-05 0.0040227476529091028 0 -0.00048599578285657137 0.0039861404673004535 0 -0.00051463890640622459 0.004272857050983723 0 -0.0002391321425800596 0.0042506360510649243 0 -0.00092613578376311758 0.0037309610004899142 0 -0.00048599578285657137 0.0039861404673004535 0 -0.00088144486309734251 0.0040751747211881066 0 -0.00048599578285657137 0.0039861404673004535 0 -0.00088144486309734251 0.0040751747211881066 0 -0.00051463890640622459 0.004272857050983723 0 -0.00092810747721882854 0.0043287689168774518 0 -0.0003285020285051532 0.0045739721807662309 0 -0.00028997158142650534 0.0045727244271225502 0 -0.00041193736221906005 0.0045188742616407455 0 -0.00036527681355336036 0.0044952526463290388 0 -0.00088550513446113903 0.0044016420071536196 0 -0.00051463890640622459 0.004272857050983723 0 -0.00041193736221906005 0.0045188742616407455 0 -0.00088550513446113903 0.0044016420071536196 0 -0.00088144486309734251 0.0040751747211881066 0 -0.00051463890640622459 0.004272857050983723 0 -0.00051463890640622459 0.004272857050983723 0 -0.0002391321425800596 0.0042506360510649243 0 -0.00027318772916567932 0.0044316777585707715 0 -0.00051463890640622459 0.004272857050983723 0 -0.00027318772916567932 0.0044316777585707715 0 -0.00041193736221906005 0.0045188742616407455 0 -0.00027318772916567932 0.0044316777585707715 0 -0.00029260781267558054 0.0045026439643897492 0 -0.00041193736221906005 0.0045188742616407455 0 -0.00029260781267558054 0.0045026439643897492 0 -0.00031579573327410263 0.0045582302644276646 0 -0.00015275667483946205 0.0045032297478273427 0 0.0041743372663374193 0.0029656770564374202 0 -0.001003273430477716 0.0054314608425119724 0 -0.00027318772916567932 0.0044316777585707715 0 -0.00029260781267558054 0.0045026439643897492 0 -0.00015275667483946205 0.0045032297478273427 0 -0.00031579573327410263 0.0045582302644276646 0 -0.0002790339459763935 0.0046643746609145833 0 -0.00015275667483946205 0.0045032297478273427 0 -0.00031579573327410263 0.0045582302644276646 0 -0.0002790339459763935 0.0046643746609145833 0 -0.00036527681355336036 0.0044952526463290388 0 -0.00029260781267558054 0.0045026439643897492 0 -0.00041193736221906005 0.0045188742616407455 0 -0.00031579573327410263 0.0045582302644276646 0 0.0087519251925887477 -1.7716741197460017e-05 0 0.0085234831117787461 9.0804420810297484e-07 0 0.0086669802865573624 0.00017799340002017434 0 0.0093733925731006185 0.0037539962863933777 0 0.0091688041850260527 0.0045083524767131075 0 0.0096803793133557314 0.0041085149718480636 0 -6.5179753257944877e-05 0.0045681817674789174 0 -2.7198310087796816e-05 0.0045906206825521755 0 -0.00015275667483946205 0.0045032297478273427 0 0.0041743372663374193 0.0029656770564374202 0 0.0090040699622417984 0.0020903345932052233 0 0.0093733925731006185 0.0037539962863933777 0 0.0096924693697604952 0.0040331791007711965 0 0.0096803793133557314 0.0041085149718480636 0 0.0041743372663374193 0.0029656770564374202 0 0.0055165306488764426 0.0046418408967231119 0 0.0087519251925887477 -1.7716741197460017e-05 0 0.0085234831117787461 9.0804420810297484e-07 0 0.0085020979607397067 -0.00036316922550110384 0 -0.00041193736221906005 0.0045188742616407455 0 -0.00031579573327410263 0.0045582302644276646 0 -0.00036527681355336036 0.0044952526463290388 0 0.0041743372663374193 0.0029656770564374202 0 0.0042903578647044008 0.0019293292543304519 0 0.0085234831117787461 9.0804420810297484e-07 0 0.0085020979607397067 -0.00036316922550110384 0 0.0081639864773365434 -0.0002199547490277906 0 0.008173004432554783 -0.00049739742802419108 0 0.0085020979607397067 -0.00036316922550110384 0 0.0081639864773365434 -0.0002199547490277906 0 0.0078584349976023038 -0.00059902601287662653 0 0.008173004432554783 -0.00049739742802419108 0 0.0081639864773365434 -0.0002199547490277906 0 0.007784783297683129 -0.00023102317756887894 0 0.0078584349976023038 -0.00059902601287662653 0 0.0081639864773365434 -0.0002199547490277906 0 0.0078510816612509596 7.8762651728287659e-05 0 0.0081639864773365434 -0.0002199547490277906 0 0.0083273219308078912 0.00016829927530085577 0 0.0078510816612509596 7.8762651728287659e-05 0 0.007784783297683129 -0.00023102317756887894 0 0.0081639864773365434 -0.0002199547490277906 0 0.0085234831117787461 9.0804420810297484e-07 0 0.0081639864773365434 -0.0002199547490277906 0 0.0083273219308078912 0.00016829927530085577 0 0.0083273219308078912 0.00016829927530085577 0 0.0084839924286970059 0.00024860268351966101 0 0.0085286029664410953 0.00017887178225471268 0 0.0078510816612509596 7.8762651728287659e-05 0 0.0083273219308078912 0.00016829927530085577 0 0.0078424850242783048 0.00035049577982760954 0 0.0083060169736731398 0.00019138326165731801 0 0.0082593382730479711 0.00024549015087226575 0 0.0085084029630672804 0.00027973545278661525 0 0.0084777950030079843 0.00026390317109982215 0 0.0085376711373328033 0.00025307008187347516 0 0.0083273219308078912 0.00016829927530085577 0 0.0085084029630672804 0.00027973545278661525 0 0.0084777950030079843 0.00026390317109982215 0 0.0083273219308078912 0.00016829927530085577 0 0.0084839924286970059 0.00024860268351966101 0 0.0084777950030079843 0.00026390317109982215 0 0.0084839924286970059 0.00024860268351966101 0 0.0084777950030079843 0.00026390317109982215 0 0.0085212572881942505 0.00027347498804149276 0 0.010143409483811705 0.0020259971312127211 0 0.0082770496109987254 0.00012778362216330123 0 0.0084839924286970059 0.00024860268351966101 0 0.0085826203806765016 0.00028984815522045893 0 0.0085212572881942505 0.00027347498804149276 0 0.0084839924286970059 0.00024860268351966101 0 0.0085826203806765016 0.00028984815522045893 0 0.0085286029664410953 0.00017887178225471268 0 0.010143409483811705 0.0020259971312127211 0 0.011936381572668325 0.0042084654733744245 0 0.010143409483811705 0.0020259971312127211 0 0.0090040699622417984 0.0020903345932052233 0 0.014262203399121352 0.0031626294506266342 0 0.014035232417287701 0.0030524320213212827 0 0.013891919288937389 0.0033827728464789946 0 0.0089734591148360448 0.0051250658639654927 0 0.0091688041850260527 0.0045083524767131075 0 0.0097124106056461976 0.0047556239822953558 0 0.0091688041850260527 0.0045083524767131075 0 0.0097124106056461976 0.0047556239822953558 0 0.0096803793133557314 0.0041085149718480636 0 0.0085826203806765016 0.00028984815522045893 0 0.0086669802865573624 0.00017799340002017434 0 0.0085286029664410953 0.00017887178225471268 0 0.0085234831117787461 9.0804420810297484e-07 0 0.0083273219308078912 0.00016829927530085577 0 0.0085286029664410953 0.00017887178225471268 0 0.0085234831117787461 9.0804420810297484e-07 0 0.0086669802865573624 0.00017799340002017434 0 0.0085286029664410953 0.00017887178225471268 0 0.01357498114908136 0.0033377580520187267 0 0.013335917422935309 0.0033616150595254832 0 0.013435749175236005 0.0035599976181995706 0 0.013335917422935309 0.0033616150595254832 0 0.013435749175236005 0.0035599976181995706 0 0.013085909714709451 0.0034384480610141015 0 0.012162313090158057 0.0039267647986306062 0 0.011936381572668325 0.0042084654733744245 0 0.010832493092068551 0.004404639235593112 0 0.0097124106056461976 0.0047556239822953558 0 0.010209264665852291 0.0041414468440734552 0 0.01357498114908136 0.0033377580520187267 0 0.013435749175236005 0.0035599976181995706 0 0.013891919288937389 0.0033827728464789946 0 0.009864157244829171 0.0041673477185371925 0 0.0097124106056461976 0.0047556239822953558 0 0.010209264665852291 0.0041414468440734552 0 0.009864157244829171 0.0041673477185371925 0 0.0097124106056461976 0.0047556239822953558 0 0.0096803793133557314 0.0041085149718480636 0 0.014035232417287701 0.0030524320213212827 0 0.013891919288937389 0.0033827728464789946 0 0.013734921783906302 0.0031583075715099608 0 0.01357498114908136 0.0033377580520187267 0 0.013891919288937389 0.0033827728464789946 0 0.013734921783906302 0.0031583075715099608 0 0.013440321153091784 0.0032102356541613775 0 0.01320044076829416 0.0031173695228065498 0 0.013533985678504662 0.0030068698359096363 0 0.013734921783906302 0.0031583075715099608 0 0.013440321153091784 0.0032102356541613775 0 0.013533985678504662 0.0030068698359096363 0 0.01357498114908136 0.0033377580520187267 0 0.013734921783906302 0.0031583075715099608 0 0.013440321153091784 0.0032102356541613775 0 0.01357498114908136 0.0033377580520187267 0 0.013335917422935309 0.0033616150595254832 0 0.013440321153091784 0.0032102356541613775 0 0.013335917422935309 0.0033616150595254832 0 0.013440321153091784 0.0032102356541613775 0 0.01318459884178314 0.0032961132765082055 0 0.01320044076829416 0.0031173695228065498 0 0.013048721375668751 0.0032703000756788164 0 0.012955395522333598 0.0031820994389513513 0 0.01320044076829416 0.0031173695228065498 0 0.013048721375668751 0.0032703000756788164 0 0.01318459884178314 0.0032961132765082055 0 0.013440321153091784 0.0032102356541613775 0 0.01320044076829416 0.0031173695228065498 0 0.01318459884178314 0.0032961132765082055 0 0.01320044076829416 0.0031173695228065498 0 0.012955395522333598 0.0031820994389513513 0 0.012973779447861676 0.002981506740430977 0 0.012955395522333598 0.0031820994389513513 0 0.01269529314224814 0.0032000286483899148 0 0.012973779447861676 0.002981506740430977 0 0.012955395522333598 0.0031820994389513513 0 0.012932799834984705 0.0033415223285479961 0 0.01269529314224814 0.0032000286483899148 0 0.013048721375668751 0.0032703000756788164 0 0.012955395522333598 0.0031820994389513513 0 0.012932799834984705 0.0033415223285479961 0 0.013048721375668751 0.0032703000756788164 0 0.012932799834984705 0.0033415223285479961 0 0.012995301717730745 0.0033902631250145462 0 0.012932799834984705 0.0033415223285479961 0 0.012932179076613192 0.0034269373307663736 0 0.012995301717730745 0.0033902631250145462 0 0.012932799834984705 0.0033415223285479961 0 0.012932179076613192 0.0034269373307663736 0 0.012933835533931855 0.0034417142606989891 0 0.013335917422935309 0.0033616150595254832 0 0.01318459884178314 0.0032961132765082055 0 0.013085909714709451 0.0034384480610141015 0 0.01318459884178314 0.0032961132765082055 0 0.012995301717730745 0.0033902631250145462 0 0.013085909714709451 0.0034384480610141015 0 0.013048721375668751 0.0032703000756788164 0 0.01318459884178314 0.0032961132765082055 0 0.012995301717730745 0.0033902631250145462 0 0.012932179076613192 0.0034269373307663736 0 0.012995301717730745 0.0033902631250145462 0 0.012909977222041086 0.0034651637268285204 0 0.012995301717730745 0.0033902631250145462 0 0.013085909714709451 0.0034384480610141015 0 0.012909977222041086 0.0034651637268285204 0 0.013085909714709451 0.0034384480610141015 0 0.012909977222041086 0.0034651637268285204 0 0.012750642307772661 0.0035423631717235271 0 0.012909977222041086 0.0034651637268285204 0 0.012750642307772661 0.0035423631717235271 0 0.012895149848228928 0.0034239326171122634 0 0.012856916785582073 0.0032669379747897621 0 0.012750642307772661 0.0035423631717235271 0 0.012496636433867718 0.0029191016075224472 0 0.012856916785582073 0.0032669379747897621 0 0.012750642307772661 0.0035423631717235271 0 0.012895149848228928 0.0034239326171122634 0 0.0096852282297250399 0.001901188217318633 0 0.009742793758876862 0.0020272431062859936 0 0.012954421864140435 0.0032662152170463681 0 0.013067129370355396 0.0030019305202316237 0 0.012933835533931855 0.0034417142606989891 0 0.012932179076613192 0.0034269373307663736 0 0.012930664616100668 0.0033974135404055417 0 0.012933835533931855 0.0034417142606989891 0 0.012930664616100668 0.0033974135404055417 0 0.012954421864140435 0.0032662152170463681 0 0.012933835533931855 0.0034417142606989891 0 0.012932179076613192 0.0034269373307663736 0 0.012909977222041086 0.0034651637268285204 0 0.012895149848228928 0.0034239326171122634 0 0.012932179076613192 0.0034269373307663736 0 0.012930664616100668 0.0033974135404055417 0 0.012895149848228928 0.0034239326171122634 0 0.012856916785582073 0.0032669379747897621 0 0.012895149848228928 0.0034239326171122634 0 0.012954421864140435 0.0032662152170463681 0 0.012856916785582073 0.0032669379747897621 0 0.012954421864140435 0.0032662152170463681 0 0.012873912658174207 0.0031298933685282729 0 0.012930664616100668 0.0033974135404055417 0 0.012895149848228928 0.0034239326171122634 0 0.012954421864140435 0.0032662152170463681 0 0.0066650512110125295 0.00098794110551493142 0 0.00653475404011181 0.0010433597513323338 0 0.0065033055488737798 0.00059646255552462573 0 0.012954421864140435 0.0032662152170463681 0 0.012873912658174207 0.0031298933685282729 0 0.013067129370355396 0.0030019305202316237 0 0.011437308314229393 0.0028251366673141191 0 0.011056685053837507 0.0028421726645731647 0 0.011159343396305839 0.0026938267792157339 0 0.0096852282297250399 0.001901188217318633 0 0.0060531899207353912 -2.124475955359028e-05 0 0.011437308314229393 0.0028251366673141191 0 0.010900080572529388 0.0031234136051198681 0 0.011056685053837507 0.0028421726645731647 0 0.012873912658174207 0.0031298933685282729 0 0.013067129370355396 0.0030019305202316237 0 0.012496636433867718 0.0029191016075224472 0 0.0096852282297250399 0.001901188217318633 0 0.012045368136040189 0.0030224651568709474 0 0.012856916785582073 0.0032669379747897621 0 0.012873912658174207 0.0031298933685282729 0 0.012496636433867718 0.0029191016075224472 0 0.011056685053837507 0.0028421726645731647 0 0.010784744075405006 0.0028447264872138523 0 0.010980147963903548 0.0026223061259420329 0 0.010900080572529388 0.0031234136051198681 0 0.011056685053837507 0.0028421726645731647 0 0.010784744075405006 0.0028447264872138523 0 0.010900080572529388 0.0031234136051198681 0 0.010586166062588793 0.0030925949415268133 0 0.010483865475264488 0.0035630287658971562 0 0.010784744075405006 0.0028447264872138523 0 0.010441683103699487 0.0027847204575398845 0 0.010586166062588793 0.0030925949415268133 0 0.010441683103699487 0.0027847204575398845 0 0.010586166062588793 0.0030925949415268133 0 0.010287583770849243 0.0031973658991858328 0 0.010586166062588793 0.0030925949415268133 0 0.010483865475264488 0.0035630287658971562 0 0.010287583770849243 0.0031973658991858328 0 0.010900080572529388 0.0031234136051198681 0 0.010784744075405006 0.0028447264872138523 0 0.010586166062588793 0.0030925949415268133 0 0.010832493092068551 0.004404639235593112 0 0.012750642307772661 0.0035423631717235271 0 0.010483865475264488 0.0035630287658971562 0 0.012750642307772661 0.0035423631717235271 0 0.012496636433867718 0.0029191016075224472 0 0.010483865475264488 0.0035630287658971562 0 0.012045368136040189 0.0030224651568709474 0 0.010421209731669056 0.0035830800008548199 0 0.012162313090158057 0.0039267647986306062 0 0.012738374462906809 0.0035699985832756929 0 0.013435749175236005 0.0035599976181995706 0 0.013085909714709451 0.0034384480610141015 0 0.012750642307772661 0.0035423631717235271 0 0.010483865475264488 0.0035630287658971562 0 0.009689364895305785 0.0039705753349170998 0 0.010287583770849243 0.0031973658991858328 0 0.009864157244829171 0.0041673477185371925 0 0.009689364895305785 0.0039705753349170998 0 0.010209264665852291 0.0041414468440734552 0 0.009864157244829171 0.0041673477185371925 0 0.009693765588679043 0.0040281676519735576 0 0.0096803793133557314 0.0041085149718480636 0 0.0055165306488764426 0.0046418408967231119 0 0.0056517163622942573 0.0045225332127817666 0 0.0069524645235396849 0.0051934939519542719 0 0.0055165306488764426 0.0046418408967231119 0 0.010483865475264488 0.0035630287658971562 0 0.009689364895305785 0.0039705753349170998 0 0.010209264665852291 0.0041414468440734552 0 0.010832493092068551 0.004404639235593112 0 0.010483865475264488 0.0035630287658971562 0 0.010209264665852291 0.0041414468440734552 0 -2.7198310087796816e-05 0.0045906206825521755 0 -9.7599122616159331e-05 0.0044963583311395713 0 -0.00015275667483946205 0.0045032297478273427 0 0.009689364895305785 0.0039705753349170998 0 0.010287583770849243 0.0031973658991858328 0 0.0099760670815294342 0.0027389902016228588 0 0.0055165306488764426 0.0046418408967231119 0 0.0048266989988684323 0.0035466553978401962 0 0.010441683103699487 0.0027847204575398845 0 0.010287583770849243 0.0031973658991858328 0 0.0099760670815294342 0.0027389902016228588 0 -0.0002391321425800596 0.0042506360510649243 0 -0.00027318772916567932 0.0044316777585707715 0 -9.7599122616159331e-05 0.0044963583311395713 0 -0.0002391321425800596 0.0042506360510649243 0 -9.7599122616159331e-05 0.0044963583311395713 0 4.2734955542680464e-05 0.0040227476529091028 0 0.0048266989988684323 0.0035466553978401962 0 0.0052273569084316414 0.0029872001727107847 0 0.0099760670815294342 0.0027389902016228588 0 0.010385161329500889 0.0023188443762185806 0 0.010064696612067364 0.0018830136676349261 0 -0.00027318772916567932 0.0044316777585707715 0 -9.7599122616159331e-05 0.0044963583311395713 0 -0.00015275667483946205 0.0045032297478273427 0 0.010441683103699487 0.0027847204575398845 0 0.01070454872774072 0.0025213687672061501 0 0.010385161329500889 0.0023188443762185806 0 0.010784744075405006 0.0028447264872138523 0 0.010441683103699487 0.0027847204575398845 0 0.01070454872774072 0.0025213687672061501 0 0.010441683103699487 0.0027847204575398845 0 0.0099760670815294342 0.0027389902016228588 0 0.010385161329500889 0.0023188443762185806 0 0.01070454872774072 0.0025213687672061501 0 0.010385161329500889 0.0023188443762185806 0 0.010699237160382073 0.0021669368863840772 0 0.010385161329500889 0.0023188443762185806 0 0.010469957544273011 0.0018511459026759186 0 0.010699237160382073 0.0021669368863840772 0 0.010385161329500889 0.0023188443762185806 0 0.010469957544273011 0.0018511459026759186 0 0.010064696612067364 0.0018830136676349261 0 0.010469957544273011 0.0018511459026759186 0 0.010803384421585228 0.0016346762974953168 0 0.010732901023295924 0.0019435033087908259 0 0.010469957544273011 0.0018511459026759186 0 0.010732901023295924 0.0019435033087908259 0 0.010699237160382073 0.0021669368863840772 0 -0.00048599578285657137 0.0039861404673004535 0 -0.0002391321425800596 0.0042506360510649243 0 4.2734955542680464e-05 0.0040227476529091028 0 -0.00041201266610850197 0.0035243422033968646 0 4.2734955542680464e-05 0.0040227476529091028 0 0.00022326032611808913 0.0033941713201318079 0 0.010469957544273011 0.0018511459026759186 0 0.010064696612067364 0.0018830136676349261 0 0.010170075819750875 0.0015072406157745214 0 0.0067009619949982948 0.00062837439009015886 0 0.0082464243930868066 0.00056571455768982838 0 0.010469957544273011 0.0018511459026759186 0 0.010441950407461006 0.0015183039461780497 0 0.010170075819750875 0.0015072406157745214 0 0.0052273569084316414 0.0029872001727107847 0 0.0039945618802612395 0.0019337562623421276 0 0.0050332299870369246 -0.0011546922823609095 0 0.0051713672242244416 -0.0011130043131454459 0 0.0052487697792492098 -0.00067637232144649557 0 0.010064696612067364 0.0018830136676349261 0 0.010170075819750875 0.0015072406157745214 0 0.010103651366519924 0.00096466394445610896 0 0.010441950407461006 0.0015183039461780497 0 0.010324696562133036 0.0010616751778157289 0 0.010803384421585228 0.0016346762974953168 0 0.010469957544273011 0.0018511459026759186 0 0.010441950407461006 0.0015183039461780497 0 0.010803384421585228 0.0016346762974953168 0 0.010441950407461006 0.0015183039461780497 0 0.010170075819750875 0.0015072406157745214 0 0.010324696562133036 0.0010616751778157289 0 0.0095497886190744809 0.00097970854332478396 0 0.0067009619949982948 0.00062837439009015886 0 0.0045965213909140998 0.0005826024781559314 0 0.004464335845113401 0.00098598254093947989 0 0.0044030356479219301 0.00091649240873653169 0 0.010170075819750875 0.0015072406157745214 0 0.010245884714277065 0.0011202462213508572 0 0.010103651366519924 0.00096466394445610896 0 0.0067009619949982948 0.00062837439009015886 0 0.0039945618802612395 0.0019337562623421276 0 0.0050332299870369246 -0.0011546922823609095 0 0.0051532057290411062 -0.0012146483730883628 0 0.0051713672242244416 -0.0011130043131454459 0 -0.00011036369052224811 0.002919607361135512 0 -0.00041201266610850197 0.0035243422033968646 0 0.00022326032611808913 0.0033941713201318079 0 0.0052202654437040093 -0.0012579175313346233 0 0.0052408472078926717 -0.0012275250752932149 0 0.0052543302128076627 -0.0012652600994743912 0 0.0052202654437040093 -0.0012579175313346233 0 0.0052734957355348357 -0.0012049912945751571 0 0.0052408472078926717 -0.0012275250752932149 0 0.0052309765762095497 -0.001255348806931268 0 0.0052202654437040093 -0.0012579175313346233 0 0.0052734957355348357 -0.0012049912945751571 0 0.0052309765762095497 -0.001255348806931268 0 0.0051532057290411062 -0.0012146483730883628 0 0.0052734957355348357 -0.0012049912945751571 0 0.0051532057290411062 -0.0012146483730883628 0 0.0051713672242244416 -0.0011130043131454459 0 0.0052734957355348357 -0.0012049912945751571 0 0.0052734957355348357 -0.0012049912945751571 0 0.0052487697792492098 -0.00067637232144649557 0 0.0056212329906490726 -0.00043291043944066474 0 0.0052734957355348357 -0.0012049912945751571 0 0.0058801769122592343 -0.00038271403564511819 0 0.0056212329906490726 -0.00043291043944066474 0 0.0053058287858800506 -0.0011775887806400149 0 0.0055378867450640553 -0.00079401956780228715 0 0.0051713672242244416 -0.0011130043131454459 0 0.0052734957355348357 -0.0012049912945751571 0 0.0052487697792492098 -0.00067637232144649557 0 0.0052408472078926717 -0.0012275250752932149 0 0.0052511869951645147 -0.0012205213845069864 0 0.0052297337688908072 -0.0012137086126924196 0 0.0052734957355348357 -0.0012049912945751571 0 0.0052408472078926717 -0.0012275250752932149 0 0.0052297337688908072 -0.0012137086126924196 0 0.0052511869951645147 -0.0012205213845069864 0 0.0052761074095837241 -0.0012058243785306501 0 0.0052706090290322635 -0.0012294924175157355 0 0.0052408472078926717 -0.0012275250752932149 0 0.0052511869951645147 -0.0012205213845069864 0 0.0052706090290322635 -0.0012294924175157355 0 0.0058801769122592343 -0.00038271403564511819 0 0.0057425276359582547 3.4838574763612905e-05 0 0.0062633910397492682 0.00062831836935527336 0 0.0052297337688908072 -0.0012137086126924196 0 0.005305061342167277 -0.0011606369415639607 0 0.0052761074095837241 -0.0012058243785306501 0 0.0052297337688908072 -0.0012137086126924196 0 0.0052845933714764102 -0.001052512572680731 0 0.005305061342167277 -0.0011606369415639607 0 0.0052511869951645147 -0.0012205213845069864 0 0.0052297337688908072 -0.0012137086126924196 0 0.0052761074095837241 -0.0012058243785306501 0 0.0058801769122592343 -0.00038271403564511819 0 0.0057425276359582547 3.4838574763612905e-05 0 0.0056212329906490726 -0.00043291043944066474 0 0.0082464243930868066 0.00056571455768982838 0 0.0072571304033801831 0.00081937485950152062 0 0.0052487697792492098 -0.00067637232144649557 0 0.0057452424954793323 -6.5147121912854762e-05 0 0.0056212329906490726 -0.00043291043944066474 0 0.010803384421585228 0.0016346762974953168 0 0.011228239080016467 0.0021602479542094303 0 0.010955983617580517 0.0021146000739281131 0 0.010803384421585228 0.0016346762974953168 0 0.010732901023295924 0.0019435033087908259 0 0.010955983617580517 0.0021146000739281131 0 0.0072571304033801831 0.00081937485950152062 0 0.006062791124374022 -0.00057106570023997066 0 0.011228239080016467 0.0021602479542094303 0 0.010955983617580517 0.0021146000739281131 0 0.01114925420019851 0.0024333729944879144 0 0.010732901023295924 0.0019435033087908259 0 0.010955983617580517 0.0021146000739281131 0 0.010699237160382073 0.0021669368863840772 0 0.010955983617580517 0.0021146000739281131 0 0.010699237160382073 0.0021669368863840772 0 0.010901833780915282 0.0023706677043986287 0 0.01070454872774072 0.0025213687672061501 0 0.010901833780915282 0.0023706677043986287 0 0.010980147963903548 0.0026223061259420329 0 0.01070454872774072 0.0025213687672061501 0 0.010699237160382073 0.0021669368863840772 0 0.010901833780915282 0.0023706677043986287 0 0.010955983617580517 0.0021146000739281131 0 0.010901833780915282 0.0023706677043986287 0 0.01114925420019851 0.0024333729944879144 0 0.010901833780915282 0.0023706677043986287 0 0.01114925420019851 0.0024333729944879144 0 0.010980147963903548 0.0026223061259420329 0 0.01114925420019851 0.0024333729944879144 0 0.011159343396305839 0.0026938267792157339 0 0.010980147963903548 0.0026223061259420329 0 0.011056685053837507 0.0028421726645731647 0 0.011159343396305839 0.0026938267792157339 0 0.010980147963903548 0.0026223061259420329 0 0.010784744075405006 0.0028447264872138523 0 0.01070454872774072 0.0025213687672061501 0 0.010980147963903548 0.0026223061259420329 0 0.0058801769122592343 -0.00038271403564511819 0 0.0062633910397492682 0.00062831836935527336 0 0.0066100003608466715 0.00096255675228146449 0 0.0061754597986974497 0.0011528710855483091 0 0.0058428850970619131 8.0489363865276798e-05 0 0.0062633910397492682 0.00062831836935527336 0 0.011437308314229393 0.0028251366673141191 0 0.011228239080016467 0.0021602479542094303 0 0.01114925420019851 0.0024333729944879144 0 0.0096852282297250399 0.001901188217318633 0 0.0072571304033801831 0.00081937485950152062 0 0.0055378867450640553 -0.00079401956780228715 0 0.0060531899207353912 -2.124475955359028e-05 0 0.0072571304033801831 0.00081937485950152062 0 0.0060030686069190778 0.0001658197345958434 0 0.011437308314229393 0.0028251366673141191 0 0.01114925420019851 0.0024333729944879144 0 0.011159343396305839 0.0026938267792157339 0 0.0061754597986974497 0.0011528710855483091 0 0.0062633910397492682 0.00062831836935527336 0 0.0066100003608466715 0.00096255675228146449 0 0.0060531899207353912 -2.124475955359028e-05 0 0.005535141816903664 -0.0013662579079974303 0 0.0052845933714764102 -0.001052512572680731 0 0.0054134504428066275 -0.0011248763258689353 0 0.005305061342167277 -0.0011606369415639607 0 0.0056616084607113227 -0.0013903469240549794 0 0.0057655869068736253 -0.0013997504338943451 0 0.0057520204379466339 -0.0013840883455326926 0 0.0057655869068736253 -0.0013997504338943451 0 0.0057983196147410295 -0.0014221822733309951 0 0.0057520204379466339 -0.0013840883455326926 0 0.0054134504428066275 -0.0011248763258689353 0 0.0053469406737568833 -0.0012035372561401876 0 0.0054184269512676624 -0.0012624653394410893 0 0.0054134504428066275 -0.0011248763258689353 0 0.0054184269512676624 -0.0012624653394410893 0 0.0056559980481605508 -0.0012965005188169648 0 0.0054134504428066275 -0.0011248763258689353 0 0.005305061342167277 -0.0011606369415639607 0 0.0053469406737568833 -0.0012035372561401876 0 0.005305061342167277 -0.0011606369415639607 0 0.0053469406737568833 -0.0012035372561401876 0 0.0052761074095837241 -0.0012058243785306501 0 0.0053469406737568833 -0.0012035372561401876 0 0.0052761074095837241 -0.0012058243785306501 0 0.0052706090290322635 -0.0012294924175157355 0 0.0053469406737568833 -0.0012035372561401876 0 0.0052706090290322635 -0.0012294924175157355 0 0.0054184269512676624 -0.0012624653394410893 0 0.0052706090290322635 -0.0012294924175157355 0 0.0054184269512676624 -0.0012624653394410893 0 0.0052543302128076627 -0.0012652600994743912 0 0.0052408472078926717 -0.0012275250752932149 0 0.0052706090290322635 -0.0012294924175157355 0 0.0052543302128076627 -0.0012652600994743912 0 0.0054184269512676624 -0.0012624653394410893 0 0.0052932428337388801 -0.0012746059939626076 0 0.0052543302128076627 -0.0012652600994743912 0 0.0051720373709579414 -0.0012938972079856764 0 0.0052932428337388801 -0.0012746059939626076 0 0.0052543302128076627 -0.0012652600994743912 0 0.0051720373709579414 -0.0012938972079856764 0 0.0052202654437040093 -0.0012579175313346233 0 0.0052543302128076627 -0.0012652600994743912 0 0.0050047786401564397 -0.0013261882525637263 0 0.0049883504803060761 -0.0012232739716991185 0 0.005445959375782264 -0.0013165872573076556 0 0.0055041462271380702 -0.0011406561254484855 0 0.0055326002114518148 -0.0012478614112588517 0 0.005445959375782264 -0.0013165872573076556 0 0.0052932428337388801 -0.0012746059939626076 0 0.0055326002114518148 -0.0012478614112588517 0 0.0054184269512676624 -0.0012624653394410893 0 0.0052932428337388801 -0.0012746059939626076 0 0.0055326002114518148 -0.0012478614112588517 0 0.0054184269512676624 -0.0012624653394410893 0 0.0055326002114518148 -0.0012478614112588517 0 0.0056559980481605508 -0.0012965005188169648 0 0.0055928798132087124 -0.0013309660770104202 0 0.0055326002114518148 -0.0012478614112588517 0 0.0056559980481605508 -0.0012965005188169648 0 0.0055041462271380702 -0.0011406561254484855 0 0.0055928798132087124 -0.0013309660770104202 0 0.0055326002114518148 -0.0012478614112588517 0 0.0055928798132087124 -0.0013309660770104202 0 0.0056559980481605508 -0.0012965005188169648 0 0.0057609816414618637 -0.0014514493584979334 0 0.005535141816903664 -0.0013662579079974303 0 0.0056553948189685078 -0.0012735616834987299 0 0.0057655869068736253 -0.0013997504338943451 0 0.0056559980481605508 -0.0012965005188169648 0 0.0057983196147410295 -0.0014221822733309951 0 0.0057983196147410295 -0.0014221822733309951 0 0.0057609816414618637 -0.0014514493584979334 0 0.0059392618112847177 -0.0014649955544274512 0 0.0056559980481605508 -0.0012965005188169648 0 0.0057983196147410295 -0.0014221822733309951 0 0.0057609816414618637 -0.0014514493584979334 0 0.0057983196147410295 -0.0014221822733309951 0 0.0059392618112847177 -0.0014649955544274512 0 0.0059486652857299134 -0.0013720837126830743 0 0.0059392618112847177 -0.0014649955544274512 0 0.0059486652857299134 -0.0013720837126830743 0 0.0061923391348010859 -0.0012416066426881977 0 0.0059486652857299134 -0.0013720837126830743 0 0.0061923391348010859 -0.0012416066426881977 0 0.0060269363617679985 -0.0011915004003492881 0 0.0058862249583010512 -0.0011560287799011193 0 0.0060269363617679985 -0.0011915004003492881 0 0.0058737037179744976 -0.0013226849731341331 0 0.0058862249583010512 -0.0011560287799011193 0 0.0058737037179744976 -0.0013226849731341331 0 0.0057775205075166819 -0.0012571566849108413 0 0.0059486652857299134 -0.0013720837126830743 0 0.0060269363617679985 -0.0011915004003492881 0 0.0058737037179744976 -0.0013226849731341331 0 0.0057983196147410295 -0.0014221822733309951 0 0.0058737037179744976 -0.0013226849731341331 0 0.0057853658960613924 -0.0013575547425008713 0 0.0057983196147410295 -0.0014221822733309951 0 0.0059486652857299134 -0.0013720837126830743 0 0.0058737037179744976 -0.0013226849731341331 0 0.0057983196147410295 -0.0014221822733309951 0 0.0057520204379466339 -0.0013840883455326926 0 0.0057853658960613924 -0.0013575547425008713 0 0.0057520204379466339 -0.0013840883455326926 0 0.0057159253930935648 -0.0013344821820053445 0 0.0057853658960613924 -0.0013575547425008713 0 0.0057159253930935648 -0.0013344821820053445 0 0.0057853658960613924 -0.0013575547425008713 0 0.0057775205075166819 -0.0012571566849108413 0 0.0056616084607113227 -0.0013903469240549794 0 0.0057159253930935648 -0.0013344821820053445 0 0.0056465512282692651 -0.0012416335038067327 0 0.0056616084607113227 -0.0013903469240549794 0 0.0057520204379466339 -0.0013840883455326926 0 0.0057159253930935648 -0.0013344821820053445 0 0.0060531899207353912 -2.124475955359028e-05 0 0.0059868222973992989 -0.00032822805013852871 0 0.00653475404011181 0.0010433597513323338 0 0.0063241362823538887 0.00063220249251473451 0 0.0065033055488737798 0.00059646255552462573 0 0.0058737037179744976 -0.0013226849731341331 0 0.0057853658960613924 -0.0013575547425008713 0 0.0057775205075166819 -0.0012571566849108413 0 0.0057159253930935648 -0.0013344821820053445 0 0.0056465512282692651 -0.0012416335038067327 0 0.0057775205075166819 -0.0012571566849108413 0 0.0056465512282692651 -0.0012416335038067327 0 0.0057775205075166819 -0.0012571566849108413 0 0.005791947083787977 -0.0010798002432478274 0 0.0058862249583010512 -0.0011560287799011193 0 0.0057775205075166819 -0.0012571566849108413 0 0.005791947083787977 -0.0010798002432478274 0 0.005791947083787977 -0.0010798002432478274 0 0.0057086088645981262 -0.00074892000519801165 0 0.0060008144007827327 -0.00092206130400142782 0 0.0056465512282692651 -0.0012416335038067327 0 0.005791947083787977 -0.0010798002432478274 0 0.0057086088645981262 -0.00074892000519801165 0 0.0059868222973992989 -0.00032822805013852871 0 0.0059673967468064134 -0.0002153957148157281 0 0.0063241362823538887 0.00063220249251473451 0 0.0063102146915545373 0.00028447860596636054 0 0.0061785675311098031 0.00028136024821301435 0 0.012932799834984705 0.0033415223285479961 0 0.012933835533931855 0.0034417142606989891 0 0.01269529314224814 0.0032000286483899148 0 0.0063241362823538887 0.00063220249251473451 0 0.0065033055488737798 0.00059646255552462573 0 0.0063102146915545373 0.00028447860596636054 0 0.009742793758876862 0.0020272431062859936 0 0.0094992740733159473 0.0017388966313601252 0 0.006299368264766592 -0.00048295113825642716 0 0.0062431779177839208 -0.00096336650121626826 0 0.0060008144007827327 -0.00092206130400142782 0 0.0057086088645981262 -0.00074892000519801165 0 0.006299368264766592 -0.00048295113825642716 0 0.0060008144007827327 -0.00092206130400142782 0 0.0067541063799832395 -0.00080173342971922245 0 0.0068183299580951914 -0.00029848303685176279 0 0.006299368264766592 -0.00048295113825642716 0 0.0067541063799832395 -0.00080173342971922245 0 0.006299368264766592 -0.00048295113825642716 0 0.0062431779177839208 -0.00096336650121626826 0 0.0067541063799832395 -0.00080173342971922245 0 0.0061923391348010859 -0.0012416066426881977 0 0.0062431779177839208 -0.00096336650121626826 0 0.0061923391348010859 -0.0012416066426881977 0 0.0060269363617679985 -0.0011915004003492881 0 0.0062431779177839208 -0.00096336650121626826 0 0.0058862249583010512 -0.0011560287799011193 0 0.0060269363617679985 -0.0011915004003492881 0 0.0060008144007827327 -0.00092206130400142782 0 0.0058862249583010512 -0.0011560287799011193 0 0.005791947083787977 -0.0010798002432478274 0 0.0060008144007827327 -0.00092206130400142782 0 0.0060269363617679985 -0.0011915004003492881 0 0.0062431779177839208 -0.00096336650121626826 0 0.0060008144007827327 -0.00092206130400142782 0 0.0062580005221686552 0.00019196329988999296 0 0.0061038755760506776 0.00024152452302060283 0 0.0064200259388844166 0.00058064672138988607 0 0.0062580005221686552 0.00019196329988999296 0 0.0067707893014620022 0.0002808707428818994 0 0.0064200259388844166 0.00058064672138988607 0 0.0067707893014620022 0.0002808707428818994 0 0.0064200259388844166 0.00058064672138988607 0 0.006989342965177771 0.00089749771609906582 0 0.0071799610846089218 0.00066422594613118105 0 0.0067707893014620022 0.0002808707428818994 0 0.006989342965177771 0.00089749771609906582 0 0.0068183299580951914 -0.00029848303685176279 0 0.006299368264766592 -0.00048295113825642716 0 0.0067707893014620022 0.0002808707428818994 0 0.0057086088645981262 -0.00074892000519801165 0 0.006299368264766592 -0.00048295113825642716 0 0.0062580005221686552 0.00019196329988999296 0 0.006299368264766592 -0.00048295113825642716 0 0.0062580005221686552 0.00019196329988999296 0 0.0067707893014620022 0.0002808707428818994 0 0.0059673967468064134 -0.0002153957148157281 0 0.0062267191474465935 0.00017060152446197582 0 0.0061785675311098031 0.00028136024821301435 0 0.0062580005221686552 0.00019196329988999296 0 0.0061038755760506776 0.00024152452302060283 0 0.0063102146915545373 0.00028447860596636054 0 0.0061785675311098031 0.00028136024821301435 0 0.0061038755760506776 0.00024152452302060283 0 0.01269529314224814 0.0032000286483899148 0 0.012834974735728819 0.0027318805467161384 0 0.012512922217896533 0.0027750704244517534 0 0.01269529314224814 0.0032000286483899148 0 0.012834974735728819 0.0027318805467161384 0 0.012973779447861676 0.002981506740430977 0 0.0094992740733159473 0.0017388966313601252 0 0.0093172244973447043 0.0015277809687251215 0 0.012834974735728819 0.0027318805467161384 0 0.012512922217896533 0.0027750704244517534 0 0.012709369488688182 0.0025036010765931353 0 0.0093172244973447043 0.0015277809687251215 0 0.0091792230684736766 0.001639610041100031 0 0.0061038755760506776 0.00024152452302060283 0 0.0061132447990489905 0.00097105279701139636 0 0.0064200259388844166 0.00058064672138988607 0 0.012512922217896533 0.0027750704244517534 0 0.012307148199425003 0.0023044824766644623 0 0.012709369488688182 0.0025036010765931353 0 0.012307148199425003 0.0023044824766644623 0 0.012709369488688182 0.0025036010765931353 0 0.012795817492596256 0.0021922762415897885 0 0.012307148199425003 0.0023044824766644623 0 0.012795817492596256 0.0021922762415897885 0 0.012549922776792878 0.0017934935612796815 0 0.0091792230684736766 0.001639610041100031 0 0.009569510697978947 0.0019432180955175726 0 0.012307148199425003 0.0023044824766644623 0 0.012093837523772123 0.0017530385932423649 0 0.012549922776792878 0.0017934935612796815 0 0.0067058960079178533 0.0012075842743861224 0 0.0064427000409970148 0.0021821441724723619 0 0.0071119877302783857 0.0017949225381293731 0 0.0061132447990489905 0.00097105279701139636 0 0.0067058960079178533 0.0012075842743861224 0 0.0064427000409970148 0.0021821441724723619 0 0.0067058960079178533 0.0012075842743861224 0 0.0064200259388844166 0.00058064672138988607 0 0.006989342965177771 0.00089749771609906582 0 0.0061132447990489905 0.00097105279701139636 0 0.0067058960079178533 0.0012075842743861224 0 0.0064200259388844166 0.00058064672138988607 0 0.0074735862548632364 0.001251797624811303 0 0.0071799610846089218 0.00066422594613118105 0 0.006989342965177771 0.00089749771609906582 0 0.0074735862548632364 0.001251797624811303 0 0.006989342965177771 0.00089749771609906582 0 0.0073383278092101056 0.0014613665548402486 0 0.0067058960079178533 0.0012075842743861224 0 0.006989342965177771 0.00089749771609906582 0 0.0073383278092101056 0.0014613665548402486 0 0.0073383278092101056 0.0014613665548402486 0 0.0076040874554363534 0.0018547023747890437 0 0.0071119877302783857 0.0017949225381293731 0 0.0067058960079178533 0.0012075842743861224 0 0.0073383278092101056 0.0014613665548402486 0 0.0071119877302783857 0.0017949225381293731 0 0.0076173568273102017 0.0017203101962883769 0 0.0073383278092101056 0.0014613665548402486 0 0.0076040874554363534 0.0018547023747890437 0 0.0076173568273102017 0.0017203101962883769 0 0.007622599078580654 0.0015284398976183238 0 0.0073383278092101056 0.0014613665548402486 0 0.0078991127949027823 0.0022136907729586579 0 0.0096248192445442336 0.002553186071534647 0 0.0085099763355137407 0.0016918834066676166 0 0.0077585526525839697 0.0019155113396370348 0 0.0076040874554363534 0.0018547023747890437 0 0.0078991127949027823 0.0022136907729586579 0 0.0076173568273102017 0.0017203101962883769 0 0.0077585526525839697 0.0019155113396370348 0 0.0076040874554363534 0.0018547023747890437 0 0.0076040874554363534 0.0018547023747890437 0 0.0078991127949027823 0.0022136907729586579 0 0.0071119877302783857 0.0017949225381293731 0 0.0078991127949027823 0.0022136907729586579 0 0.0064427000409970148 0.0021821441724723619 0 0.0071119877302783857 0.0017949225381293731 0 0.007338245590491713 0.0022757881793868148 0 0.009569510697978947 0.0019432180955175726 0 0.009569510697978947 0.0019432180955175726 0 0.0095840935683976052 0.0016355557708174122 0 0.010119406854430572 0.0026674463130471871 0 0.0094703815275257296 0.0013053258130603974 0 0.010920266321162761 0.0015918136823871983 0 0.0096248192445442336 0.002553186071534647 0 0.0094703815275257296 0.0013053258130603974 0 0.0085099763355137407 0.0016918834066676166 0 0.0080365624528580936 0.0014424511586042794 0 0.0077112272753004762 0.0019657998075725425 0 0.0085099763355137407 0.0016918834066676166 0 0.0077112272753004762 0.0019657998075725425 0 0.0078991127949027823 0.0022136907729586579 0 0.0085099763355137407 0.0016918834066676166 0 0.0094703815275257296 0.0013053258130603974 0 0.0085099763355137407 0.0016918834066676166 0 0.0084819053032692722 0.0011325248795457593 0 0.0080365624528580936 0.0014424511586042794 0 0.0085099763355137407 0.0016918834066676166 0 0.0084819053032692722 0.0011325248795457593 0 0.0080217446832851706 0.00072996527794327837 0 0.0084819053032692722 0.0011325248795457593 0 0.0084400418771910339 0.0006692795204420503 0 0.0080365624528580936 0.0014424511586042794 0 0.0080217446832851706 0.00072996527794327837 0 0.0084819053032692722 0.0011325248795457593 0 0.0081409695626726702 0.00022705110906839934 0 0.0080217446832851706 0.00072996527794327837 0 0.0084400418771910339 0.0006692795204420503 0 0.0081409695626726702 0.00022705110906839934 0 0.0084400418771910339 0.0006692795204420503 0 0.0091332149369346121 0.00054821731533777037 0 0.0094703815275257296 0.0013053258130603974 0 0.0084819053032692722 0.0011325248795457593 0 0.0091332149369346121 0.00054821731533777037 0 0.0084819053032692722 0.0011325248795457593 0 0.0084400418771910339 0.0006692795204420503 0 0.0091332149369346121 0.00054821731533777037 0 0.0094703815275257296 0.0013053258130603974 0 0.010453376159320802 0.00063471707715883393 0 0.010920266321162761 0.0015918136823871983 0 0.0094703815275257296 0.0013053258130603974 0 0.0091332149369346121 0.00054821731533777037 0 0.010453376159320802 0.00063471707715883393 0 0.0091332149369346121 0.00054821731533777037 0 0.010098684114080107 -0.00045365943188521918 0 0.010453376159320802 0.00063471707715883393 0 0.021882073627477107 -0.002477036804544034 0 0.021886914676995259 -0.00203836742268055 0 0.021739090107056384 -0.0022315130263847352 0 0.021882073627477107 -0.002477036804544034 0 0.021493705629781163 -0.0023254297356027315 0 0.021739090107056384 -0.0022315130263847352 0 0.0081409695626726702 0.00022705110906839934 0 0.0091332149369346121 0.00054821731533777037 0 0.010098684114080107 -0.00045365943188521918 0 0.017924525454241922 -0.00072553742432381594 0 0.022713549528532734 -0.0022301126420996333 0 0.022242438727594706 -0.0017159342850319923 0 0.022216594015903403 -0.0016441316540429963 0 0.0222706604061358 -0.0016732012070348318 0 0.017924525454241922 -0.00072553742432381594 0 0.015174728752375348 -0.0013250344394464735 0 0.011362711667307776 7.7304696245237656e-05 0 0.01176716545559542 0.00081182680109549157 0 0.012440649241740199 0.00018837836931282108 0 0.011362711667307776 7.7304696245237656e-05 0 0.012440649241740199 0.00018837836931282108 0 0.011874400033322699 -0.00072684351756254796 0 0.010098684114080107 -0.00045365943188521918 0 0.011362711667307776 7.7304696245237656e-05 0 0.010453376159320802 0.00063471707715883393 0 0.010098684114080107 -0.00045365943188521918 0 0.011362711667307776 7.7304696245237656e-05 0 0.011874400033322699 -0.00072684351756254796 0 0.010453376159320802 0.00063471707715883393 0 0.01176716545559542 0.00081182680109549157 0 0.010920266321162761 0.0015918136823871983 0 0.011362711667307776 7.7304696245237656e-05 0 0.010453376159320802 0.00063471707715883393 0 0.01176716545559542 0.00081182680109549157 0 0.01176716545559542 0.00081182680109549157 0 0.012282688186731909 0.0016072715421621333 0 0.010920266321162761 0.0015918136823871983 0 0.012282688186731909 0.0016072715421621333 0 0.010920266321162761 0.0015918136823871983 0 0.01149974015606184 0.0025871984346415369 0 0.009569510697978947 0.0019432180955175726 0 0.012302287419294126 0.0022107350387748242 0 0.010119406854430572 0.0026674463130471871 0 0.010920266321162761 0.0015918136823871983 0 0.01149974015606184 0.0025871984346415369 0 0.012282688186731909 0.0016072715421621333 0 0.01149974015606184 0.0025871984346415369 0 0.01265869831547152 0.0023584889162427854 0 0.012302287419294126 0.0022107350387748242 0 0.012745197260096822 0.0020930282150366832 0 0.012795817492596256 0.0021922762415897885 0 0.012549922776792878 0.0017934935612796815 0 0.012998585633886041 0.0018519473335436691 0 0.012745197260096822 0.0020930282150366832 0 0.013388105593471785 0.0020208569607367164 0 0.013457146889194934 0.001978917698710698 0 0.01313115854525705 0.0016828582145880047 0 0.013821687878108427 0.0015418246667760383 0 0.01265869831547152 0.0023584889162427854 0 0.013457146889194934 0.001978917698710698 0 0.01313115854525705 0.0016828582145880047 0 0.012998585633886041 0.0018519473335436691 0 0.013457146889194934 0.001978917698710698 0 0.013249429940337582 0.0021718316744425603 0 0.01313115854525705 0.0016828582145880047 0 0.013279670242848448 0.00081341921665625317 0 0.013821687878108427 0.0015418246667760383 0 0.012282688186731909 0.0016072715421621333 0 0.01265869831547152 0.0023584889162427854 0 0.01313115854525705 0.0016828582145880047 0 0.012282688186731909 0.0016072715421621333 0 0.01313115854525705 0.0016828582145880047 0 0.013279670242848448 0.00081341921665625317 0 0.01176716545559542 0.00081182680109549157 0 0.013279670242848448 0.00081341921665625317 0 0.012440649241740199 0.00018837836931282108 0 0.01176716545559542 0.00081182680109549157 0 0.012282688186731909 0.0016072715421621333 0 0.013279670242848448 0.00081341921665625317 0 0.013279670242848448 0.00081341921665625317 0 0.014030675588363625 0.00036015185429185922 0 0.01428588418640927 0.00079156797333937478 0 0.013279670242848448 0.00081341921665625317 0 0.014030675588363625 0.00036015185429185922 0 0.013306347391041718 -4.6280864923240353e-05 0 0.013279670242848448 0.00081341921665625317 0 0.012440649241740199 0.00018837836931282108 0 0.013306347391041718 -4.6280864923240353e-05 0 0.01428588418640927 0.00079156797333937478 0 0.014799835548209371 0.00075048935187122532 0 0.014952029006952274 0.00045208108246507726 0 0.014030675588363625 0.00036015185429185922 0 0.01428588418640927 0.00079156797333937478 0 0.014952029006952274 0.00045208108246507726 0 0.013279670242848448 0.00081341921665625317 0 0.01428588418640927 0.00079156797333937478 0 0.013821687878108427 0.0015418246667760383 0 0.01428588418640927 0.00079156797333937478 0 0.014341035591714813 0.0012391580353676181 0 0.014799835548209371 0.00075048935187122532 0 0.014341035591714813 0.0012391580353676181 0 0.013821687878108427 0.0015418246667760383 0 0.014184674156336069 0.0017790675155281959 0 0.014341035591714813 0.0012391580353676181 0 0.014184674156336069 0.0017790675155281959 0 0.014644895865391479 0.0013770159559355129 0 0.01428588418640927 0.00079156797333937478 0 0.014341035591714813 0.0012391580353676181 0 0.013821687878108427 0.0015418246667760383 0 0.013457146889194934 0.001978917698710698 0 0.013821687878108427 0.0015418246667760383 0 0.013733968040047159 0.0020809087950797367 0 0.013821687878108427 0.0015418246667760383 0 0.014184674156336069 0.0017790675155281959 0 0.013733968040047159 0.0020809087950797367 0 0.014184674156336069 0.0017790675155281959 0 0.013989559621907573 0.0022460450592668101 0 0.013733968040047159 0.0020809087950797367 0 0.014184674156336069 0.0017790675155281959 0 0.013989559621907573 0.0022460450592668101 0 0.014613210605578368 0.001982778514518526 0 0.013989559621907573 0.0022460450592668101 0 0.013743125102866615 0.002683897900852389 0 0.014217440385504718 0.0025024713247444636 0 0.013989559621907573 0.0022460450592668101 0 0.01353267883444772 0.0023915803158016829 0 0.013743125102866615 0.002683897900852389 0 0.013989559621907573 0.0022460450592668101 0 0.01353267883444772 0.0023915803158016829 0 0.013733968040047159 0.0020809087950797367 0 0.013457146889194934 0.001978917698710698 0 0.013733968040047159 0.0020809087950797367 0 0.013249429940337582 0.0021718316744425603 0 0.01353267883444772 0.0023915803158016829 0 0.013733968040047159 0.0020809087950797367 0 0.013249429940337582 0.0021718316744425603 0 0.012795817492596256 0.0021922762415897885 0 0.012998585633886041 0.0018519473335436691 0 0.013249429940337582 0.0021718316744425603 0 0.012795817492596256 0.0021922762415897885 0 0.013249429940337582 0.0021718316744425603 0 0.013093774283395955 0.0024877455974458181 0 0.012709369488688182 0.0025036010765931353 0 0.012795817492596256 0.0021922762415897885 0 0.013093774283395955 0.0024877455974458181 0 0.01353267883444772 0.0023915803158016829 0 0.013249429940337582 0.0021718316744425603 0 0.013093774283395955 0.0024877455974458181 0 0.01353267883444772 0.0023915803158016829 0 0.013093774283395955 0.0024877455974458181 0 0.013395289959152436 0.0026368812773613268 0 0.013093774283395955 0.0024877455974458181 0 0.013395289959152436 0.0026368812773613268 0 0.013140860208214408 0.0027442617996657043 0 0.013395289959152436 0.0026368812773613268 0 0.013140860208214408 0.0027442617996657043 0 0.013342483036652884 0.0028644135002487839 0 0.012834974735728819 0.0027318805467161384 0 0.013093774283395955 0.0024877455974458181 0 0.013140860208214408 0.0027442617996657043 0 0.012834974735728819 0.0027318805467161384 0 0.012709369488688182 0.0025036010765931353 0 0.013093774283395955 0.0024877455974458181 0 0.012834974735728819 0.0027318805467161384 0 0.013140860208214408 0.0027442617996657043 0 0.012973779447861676 0.002981506740430977 0 0.013140860208214408 0.0027442617996657043 0 0.012973779447861676 0.002981506740430977 0 0.013342483036652884 0.0028644135002487839 0 0.01320044076829416 0.0031173695228065498 0 0.013342483036652884 0.0028644135002487839 0 0.013533985678504662 0.0030068698359096363 0 0.01320044076829416 0.0031173695228065498 0 0.012973779447861676 0.002981506740430977 0 0.013342483036652884 0.0028644135002487839 0 0.013342483036652884 0.0028644135002487839 0 0.013533985678504662 0.0030068698359096363 0 0.013743125102866615 0.002683897900852389 0 0.013734921783906302 0.0031583075715099608 0 0.013533985678504662 0.0030068698359096363 0 0.013844662733816911 0.0029446149480772251 0 0.013533985678504662 0.0030068698359096363 0 0.013844662733816911 0.0029446149480772251 0 0.013743125102866615 0.002683897900852389 0 0.014035232417287701 0.0030524320213212827 0 0.013844662733816911 0.0029446149480772251 0 0.014057457450211544 0.0028930256748103994 0 0.014035232417287701 0.0030524320213212827 0 0.013734921783906302 0.0031583075715099608 0 0.013844662733816911 0.0029446149480772251 0 0.013844662733816911 0.0029446149480772251 0 0.014060837593926328 0.0027549974641233191 0 0.014057457450211544 0.0028930256748103994 0 0.013743125102866615 0.002683897900852389 0 0.014060837593926328 0.0027549974641233191 0 0.014217440385504718 0.0025024713247444636 0 0.013844662733816911 0.0029446149480772251 0 0.013743125102866615 0.002683897900852389 0 0.014060837593926328 0.0027549974641233191 0 0.013395289959152436 0.0026368812773613268 0 0.013342483036652884 0.0028644135002487839 0 0.013743125102866615 0.002683897900852389 0 0.01353267883444772 0.0023915803158016829 0 0.013395289959152436 0.0026368812773613268 0 0.013743125102866615 0.002683897900852389 0 0.01414747081668522 0.0022491061814340304 0 0.014281270715567059 0.0029060978818993646 0 0.0086076433949781473 0.00041464747201533044 0 0.0086051676906662208 0.00030454215942611899 0 0.0085432225985308096 0.00029431746178021562 0 0.014408793806884531 0.0025247273516812775 0 0.014229722349185889 0.0028500117867980555 0 0.014374243168230131 0.0028313973155580916 0 0.014424157319969284 0.0025841013229399349 0 0.014256749710119504 0.0026569230917482985 0 0.014229722349185889 0.0028500117867980555 0 0.014449689837908218 0.0025323419056480349 0 0.014408793806884531 0.0025247273516812775 0 0.014374243168230131 0.0028313973155580916 0 0.012359578364236882 0.0020128602328198385 0 0.01155586188530365 0.0014023914788990498 0 0.012359578364236882 0.0020128602328198385 0 0.01414747081668522 0.0022491061814340304 0 0.014256749710119504 0.0026569230917482985 0 0.014060837593926328 0.0027549974641233191 0 0.014217440385504718 0.0025024713247444636 0 0.014424157319969284 0.0025841013229399349 0 0.014256749710119504 0.0026569230917482985 0 0.014217440385504718 0.0025024713247444636 0 0.014256749710119504 0.0026569230917482985 0 0.014060837593926328 0.0027549974641233191 0 0.014229722349185889 0.0028500117867980555 0 0.014262203399121352 0.0031626294506266342 0 0.014035232417287701 0.0030524320213212827 0 0.014229722349185889 0.0028500117867980555 0 0.014060837593926328 0.0027549974641233191 0 0.014229722349185889 0.0028500117867980555 0 0.014057457450211544 0.0028930256748103994 0 0.014035232417287701 0.0030524320213212827 0 0.014229722349185889 0.0028500117867980555 0 0.014057457450211544 0.0028930256748103994 0 0.008654894859494236 0.00021734442292280427 0 0.0085657313590329701 0.00028569885301735584 0 0.0085212572881942505 0.00027347498804149276 0 0.014262203399121352 0.0031626294506266342 0 0.014229722349185889 0.0028500117867980555 0 0.014374243168230131 0.0028313973155580916 0 0.010143409483811705 0.0020259971312127211 0 0.01155586188530365 0.0014023914788990498 0 0.008654894859494236 0.00021734442292280427 0 0.0086051676906662208 0.00030454215942611899 0 0.0085657313590329701 0.00028569885301735584 0 0.0086051676906662208 0.00030454215942611899 0 0.0085657313590329701 0.00028569885301735584 0 0.0085432225985308096 0.00029431746178021562 0 0.0084777950030079843 0.00026390317109982215 0 0.0085212572881942505 0.00027347498804149276 0 0.008519312796079679 0.000267622832544484 0 0.008519312796079679 0.000267622832544484 0 0.0085432225985308096 0.00029431746178021562 0 0.008542709141973864 0.0002543308915732294 0 0.0085212572881942505 0.00027347498804149276 0 0.008519312796079679 0.000267622832544484 0 0.0085432225985308096 0.00029431746178021562 0 0.0085657313590329701 0.00028569885301735584 0 0.0085212572881942505 0.00027347498804149276 0 0.0085432225985308096 0.00029431746178021562 0 0.0084777950030079843 0.00026390317109982215 0 0.008519312796079679 0.000267622832544484 0 0.0085376711373328033 0.00025307008187347516 0 0.008519312796079679 0.000267622832544484 0 0.0085376711373328033 0.00025307008187347516 0 0.008542709141973864 0.0002543308915732294 0 0.012025448494612194 0.00027143190902831989 0 0.01256527377496755 -0.0008465226354945572 0 0.0085376711373328033 0.00025307008187347516 0 0.008542709141973864 0.0002543308915732294 0 0.0086071556888110481 0.0001994666000338953 0 0.016870630489512314 -0.0012195913017127029 0 0.016129322411792699 -0.00089118995198705204 0 0.015791425711897285 -0.0015551754602014607 0 0.008542709141973864 0.0002543308915732294 0 0.008547231502934018 0.00024156878365886054 0 0.0086071556888110481 0.0001994666000338953 0 0.0086076433949781473 0.00041464747201533044 0 0.0085432225985308096 0.00029431746178021562 0 0.0085509481747201334 0.00039996523901895324 0 0.0084854594624710865 0.00069840795394663074 0 0.012025448494612194 0.00027143190902831989 0 0.0085432225985308096 0.00029431746178021562 0 0.008542709141973864 0.0002543308915732294 0 0.008547231502934018 0.00024156878365886054 0 0.012359578364236882 0.0020128602328198385 0 0.012025448494612194 0.00027143190902831989 0 0.01414747081668522 0.0022491061814340304 0 0.014946508095027393 0.0013409226314375587 0 0.012025448494612194 0.00027143190902831989 0 0.016046937562357064 -2.3324514420825496e-05 0 0.013934151263905778 0.0016448553429758684 0 0.013817401072072738 0.0016224215714449341 0 0.014446520300801603 0.0007327604357614387 0 0.014326077642396927 0.0017181566647827408 0 0.014697706582540387 0.00078165503869965505 0 0.014446520300801603 0.0007327604357614387 0 0.013934151263905778 0.0016448553429758684 0 0.014326077642396927 0.0017181566647827408 0 0.014446520300801603 0.0007327604357614387 0 0.016129322411792699 -0.00089118995198705204 0 0.016568599869033748 -0.0003533492909403561 0 0.015731174568778088 -0.000407540058009265 0 0.016870630489512314 -0.0012195913017127029 0 0.016129322411792699 -0.00089118995198705204 0 0.016568599869033748 -0.0003533492909403561 0 0.016568599869033748 -0.0003533492909403561 0 0.015917228635715257 0.00011991918672812592 0 0.015731174568778088 -0.000407540058009265 0 0.014697706582540387 0.00078165503869965505 0 0.014446520300801603 0.0007327604357614387 0 0.015066413358702164 -0.00010387789281465713 0 0.015424111276806568 0.0020121111598560911 0 0.014613210605578368 0.001982778514518526 0 0.015053253348826194 0.001491637257235496 0 0.015000968649889916 0.0026469368069524509 0 0.015424111276806568 0.0020121111598560911 0 0.014613210605578368 0.001982778514518526 0 0.01414747081668522 0.0022491061814340304 0 0.014485895965518135 0.0026109852215272658 0 0.015000968649889916 0.0026469368069524509 0 0.014217440385504718 0.0025024713247444636 0 0.014613210605578368 0.001982778514518526 0 0.013989559621907573 0.0022460450592668101 0 0.014217440385504718 0.0025024713247444636 0 0.014613210605578368 0.001982778514518526 0 0.014613210605578368 0.001982778514518526 0 0.015053253348826194 0.001491637257235496 0 0.014644895865391479 0.0013770159559355129 0 0.014184674156336069 0.0017790675155281959 0 0.014613210605578368 0.001982778514518526 0 0.014644895865391479 0.0013770159559355129 0 0.015053253348826194 0.001491637257235496 0 0.015050702032677927 0.0010519150052287418 0 0.015393776360488522 0.0010703924952243282 0 0.015053253348826194 0.001491637257235496 0 0.015050702032677927 0.0010519150052287418 0 0.014644895865391479 0.0013770159559355129 0 0.014341035591714813 0.0012391580353676181 0 0.014644895865391479 0.0013770159559355129 0 0.014799835548209371 0.00075048935187122532 0 0.015050702032677927 0.0010519150052287418 0 0.014644895865391479 0.0013770159559355129 0 0.014799835548209371 0.00075048935187122532 0 0.015050702032677927 0.0010519150052287418 0 0.014799835548209371 0.00075048935187122532 0 0.015292393142041864 0.00068134134323208633 0 0.014799835548209371 0.00075048935187122532 0 0.015292393142041864 0.00068134134323208633 0 0.014990132383337396 0.00040096326405493629 0 0.014799835548209371 0.00075048935187122532 0 0.014990132383337396 0.00040096326405493629 0 0.014952029006952274 0.00045208108246507726 0 0.017604606931418326 0.00014075388251768548 0 0.017153957171571463 0.00048321988313322053 0 0.015692979515401696 0.00053342312014455196 0 0.015989869602073086 2.8690250299192522e-08 0 0.015448440496222147 0.00024512901678156688 0 0.015292393142041864 0.00068134134323208633 0 0.015692979515401696 0.00053342312014455196 0 0.015448440496222147 0.00024512901678156688 0 0.015292393142041864 0.00068134134323208633 0 0.015448440496222147 0.00024512901678156688 0 0.014990132383337396 0.00040096326405493629 0 0.015292393142041864 0.00068134134323208633 0 0.015640182794010301 0.00084405539771973781 0 0.015393776360488522 0.0010703924952243282 0 0.015292393142041864 0.00068134134323208633 0 0.015692979515401696 0.00053342312014455196 0 0.015640182794010301 0.00084405539771973781 0 0.015692979515401696 0.00053342312014455196 0 0.015775003888346434 0.00070169257120377435 0 0.015640182794010301 0.00084405539771973781 0 0.015692979515401696 0.00053342312014455196 0 0.015775003888346434 0.00070169257120377435 0 0.015916086393244242 0.00067844119758021467 0 0.015775003888346434 0.00070169257120377435 0 0.01583203160785111 0.00077142264566083384 0 0.015640182794010301 0.00084405539771973781 0 0.01583203160785111 0.00077142264566083384 0 0.015833919609675444 0.00089367884150708707 0 0.015640182794010301 0.00084405539771973781 0 0.01583203160785111 0.00077142264566083384 0 0.015833919609675444 0.00089367884150708707 0 0.015933944323596638 0.00076979469979323787 0 0.015640182794010301 0.00084405539771973781 0 0.015611971951970643 0.0011165649720671549 0 0.015393776360488522 0.0010703924952243282 0 0.015833919609675444 0.00089367884150708707 0 0.015640182794010301 0.00084405539771973781 0 0.015611971951970643 0.0011165649720671549 0 0.015635103998826654 0.00069600814696511718 0 0.01597866600884798 0.00078515163890268932 0 0.015833919609675444 0.00089367884150708707 0 0.015611971951970643 0.0011165649720671549 0 0.015786253074476956 0.0013596851460048523 0 0.015833919609675444 0.00089367884150708707 0 0.015764790371984208 0.0012964318781378016 0 0.015933944323596638 0.00076979469979323787 0 0.015745294185163565 0.0010870127987587103 0 0.015635103998826654 0.00069600814696511718 0 0.015050702032677927 0.0010519150052287418 0 0.015292393142041864 0.00068134134323208633 0 0.015393776360488522 0.0010703924952243282 0 0.015611971951970643 0.0011165649720671549 0 0.015393776360488522 0.0010703924952243282 0 0.015414086297728955 0.0014514427443498095 0 0.015424111276806568 0.0020121111598560911 0 0.015414086297728955 0.0014514427443498095 0 0.015786253074476956 0.0013596851460048523 0 0.015424111276806568 0.0020121111598560911 0 0.015053253348826194 0.001491637257235496 0 0.015414086297728955 0.0014514427443498095 0 0.015053253348826194 0.001491637257235496 0 0.015393776360488522 0.0010703924952243282 0 0.015414086297728955 0.0014514427443498095 0 0.016046937562357064 -2.3324514420825496e-05 0 0.015635103998826654 0.00069600814696511718 0 0.016568599869033748 -0.0003533492909403561 0 0.016239829924266855 0.00041884246352784707 0 0.015917228635715257 0.00011991918672812592 0 0.014946508095027393 0.0013409226314375587 0 0.015635103998826654 0.00069600814696511718 0 0.015611971951970643 0.0011165649720671549 0 0.015414086297728955 0.0014514427443498095 0 0.015786253074476956 0.0013596851460048523 0 0.015917228635715257 0.00011991918672812592 0 0.015644740006504267 0.00037850175321143918 0 0.015519720588976643 3.9428734979110995e-05 0 0.015644740006504267 0.00037850175321143918 0 0.015920016845905459 0.00046705178280012318 0 0.015825804309800587 0.00059385379352421702 0 0.016239829924266855 0.00041884246352784707 0 0.015917228635715257 0.00011991918672812592 0 0.015920016845905459 0.00046705178280012318 0 0.015917228635715257 0.00011991918672812592 0 0.015644740006504267 0.00037850175321143918 0 0.015920016845905459 0.00046705178280012318 0 0.015644740006504267 0.00037850175321143918 0 0.01509154720051715 9.8460502011514799e-05 0 0.015519720588976643 3.9428734979110995e-05 0 0.015644740006504267 0.00037850175321143918 0 0.015296077690049491 0.00036890772426179124 0 0.015761788810167147 0.00056282585080641759 0 0.015644740006504267 0.00037850175321143918 0 0.015296077690049491 0.00036890772426179124 0 0.01509154720051715 9.8460502011514799e-05 0 0.015296077690049491 0.00036890772426179124 0 0.015761788810167147 0.00056282585080641759 0 0.015691720339522729 0.00041218249122048896 0 0.015644740006504267 0.00037850175321143918 0 0.015761788810167147 0.00056282585080641759 0 0.015825804309800587 0.00059385379352421702 0 0.015761788810167147 0.00056282585080641759 0 0.015918004316136793 0.00066404031665759182 0 0.016239401550650318 0.00050812306640311583 0 0.015761788810167147 0.00056282585080641759 0 0.016239401550650318 0.00050812306640311583 0 0.015691720339522729 0.00041218249122048896 0 0.016239829924266855 0.00041884246352784707 0 0.015920016845905459 0.00046705178280012318 0 0.015933944323596638 0.00076979469979323787 0 0.015920016845905459 0.00046705178280012318 0 0.015825804309800587 0.00059385379352421702 0 0.015933944323596638 0.00076979469979323787 0 0.015825804309800587 0.00059385379352421702 0 0.015918004316136793 0.00066404031665759182 0 0.015933944323596638 0.00076979469979323787 0 0.015761788810167147 0.00056282585080641759 0 0.015825804309800587 0.00059385379352421702 0 0.015918004316136793 0.00066404031665759182 0 0.01583203160785111 0.00077142264566083384 0 0.015933944323596638 0.00076979469979323787 0 0.015916086393244242 0.00067844119758021467 0 0.015918004316136793 0.00066404031665759182 0 0.015933944323596638 0.00076979469979323787 0 0.015916086393244242 0.00067844119758021467 0 0.015775003888346434 0.00070169257120377435 0 0.01583203160785111 0.00077142264566083384 0 0.015916086393244242 0.00067844119758021467 0 0.015692979515401696 0.00053342312014455196 0 0.015916086393244242 0.00067844119758021467 0 0.016059341277391847 0.00052489387942996821 0 0.015918004316136793 0.00066404031665759182 0 0.015916086393244242 0.00067844119758021467 0 0.016059341277391847 0.00052489387942996821 0 0.015918004316136793 0.00066404031665759182 0 0.016059341277391847 0.00052489387942996821 0 0.016239401550650318 0.00050812306640311583 0 0.016059341277391847 0.00052489387942996821 0 0.016239401550650318 0.00050812306640311583 0 0.017571695651033673 4.2036090319859626e-05 0 0.017604606931418326 0.00014075388251768548 0 0.017583662630810942 4.6577661361631609e-05 0 0.016059341277391847 0.00052489387942996821 0 0.015989869602073086 2.8690250299192522e-08 0 0.017571695651033673 4.2036090319859626e-05 0 0.015692979515401696 0.00053342312014455196 0 0.016059341277391847 0.00052489387942996821 0 0.015989869602073086 2.8690250299192522e-08 0 0.016947134699249064 8.0942025310692131e-08 0 0.017571695651033673 4.2036090319859626e-05 0 0.016408107332289281 0.00022185950549629327 0 0.016239401550650318 0.00050812306640311583 0 0.016408107332289281 0.00022185950549629327 0 0.015691720339522729 0.00041218249122048896 0 0.016239401550650318 0.00050812306640311583 0 0.017571695651033673 4.2036090319859626e-05 0 0.016408107332289281 0.00022185950549629327 0 0.016947134699249064 8.0942025310692131e-08 0 0.016408107332289281 0.00022185950549629327 0 0.014930705881154242 6.8299193046030959e-07 0 0.016408107332289281 0.00022185950549629327 0 0.014930705881154242 6.8299193046030959e-07 0 0.015691720339522729 0.00041218249122048896 0 0.014930705881154242 6.8299193046030959e-07 0 0.015691720339522729 0.00041218249122048896 0 0.014683600718229949 0.00024484787317364908 0 0.015296077690049491 0.00036890772426179124 0 0.015691720339522729 0.00041218249122048896 0 0.014683600718229949 0.00024484787317364908 0 0.015296077690049491 0.00036890772426179124 0 0.014281710166883595 7.3253165353019402e-05 0 0.01509154720051715 9.8460502011514799e-05 0 0.015296077690049491 0.00036890772426179124 0 0.014683600718229949 0.00024484787317364908 0 0.014281710166883595 7.3253165353019402e-05 0 0.014683600718229949 0.00024484787317364908 0 0.012915515770700587 2.5640656002902821e-07 0 0.014281710166883595 7.3253165353019402e-05 0 0.014930705881154242 6.8299193046030959e-07 0 0.014683600718229949 0.00024484787317364908 0 0.012915515770700587 2.5640656002902821e-07 0 0.012915515770700587 2.5640656002902821e-07 0 0.013085796167206884 -7.1864371113797762e-05 0 0.011449523074024325 -7.2048681917545257e-05 0 0.012915515770700587 2.5640656002902821e-07 0 0.013085796167206884 -7.1864371113797762e-05 0 0.014281710166883595 7.3253165353019402e-05 0 0.012915515770700587 2.5640656002902821e-07 0 0.011449523074024325 -7.2048681917545257e-05 0 0.0108974980862846 -1.6866702325609699e-06 0 0.013085796167206884 -7.1864371113797762e-05 0 0.013215841511764673 -0.00051089464047108244 0 0.013894434439144282 -0.00030338641198450586 0 0.013085796167206884 -7.1864371113797762e-05 0 0.013215841511764673 -0.00051089464047108244 0 0.011449523074024325 -7.2048681917545257e-05 0 0.013215841511764673 -0.00051089464047108244 0 0.011449523074024325 -7.2048681917545257e-05 0 0.013279261588254368 -0.0016165179122581243 0 0.011449523074024325 -7.2048681917545257e-05 0 0.0108974980862846 -1.6866702325609699e-06 0 0.0095236899810831992 -0.00022579623345623419 0 0.011210083660368932 -0.00019173744239483608 0 0.011596618936810446 -0.00092362523319523479 0 0.014178318258394905 -0.0010249309124864907 0 0.013894434439144282 -0.00030338641198450586 0 0.014888996635625287 -0.00029429377560252784 0 0.013215841511764673 -0.00051089464047108244 0 0.014178318258394905 -0.0010249309124864907 0 0.013279261588254368 -0.0016165179122581243 0 0.013215841511764673 -0.00051089464047108244 0 0.014178318258394905 -0.0010249309124864907 0 0.013894434439144282 -0.00030338641198450586 0 0.013894434439144282 -0.00030338641198450586 0 0.014281710166883595 7.3253165353019402e-05 0 0.014888996635625287 -0.00029429377560252784 0 0.013085796167206884 -7.1864371113797762e-05 0 0.013894434439144282 -0.00030338641198450586 0 0.014281710166883595 7.3253165353019402e-05 0 0.014281710166883595 7.3253165353019402e-05 0 0.01509154720051715 9.8460502011514799e-05 0 0.014888996635625287 -0.00029429377560252784 0 0.014888996635625287 -0.00029429377560252784 0 0.015519720588976643 3.9428734979110995e-05 0 0.015731174568778088 -0.000407540058009265 0 0.01509154720051715 9.8460502011514799e-05 0 0.014888996635625287 -0.00029429377560252784 0 0.015519720588976643 3.9428734979110995e-05 0 0.015917228635715257 0.00011991918672812592 0 0.015519720588976643 3.9428734979110995e-05 0 0.015731174568778088 -0.000407540058009265 0 0.016129322411792699 -0.00089118995198705204 0 0.015731174568778088 -0.000407540058009265 0 0.015695043724190363 -0.00094794875002834498 0 0.015731174568778088 -0.000407540058009265 0 0.015695043724190363 -0.00094794875002834498 0 0.01510052481807073 -0.00095366781373176378 0 0.015695043724190363 -0.00094794875002834498 0 0.01510052481807073 -0.00095366781373176378 0 0.015791425711897285 -0.0015551754602014607 0 0.016129322411792699 -0.00089118995198705204 0 0.015695043724190363 -0.00094794875002834498 0 0.015791425711897285 -0.0015551754602014607 0 0.014178318258394905 -0.0010249309124864907 0 0.01510052481807073 -0.00095366781373176378 0 0.014856439777402237 -0.0014276200160274607 0 0.014888996635625287 -0.00029429377560252784 0 0.015731174568778088 -0.000407540058009265 0 0.01510052481807073 -0.00095366781373176378 0 0.014178318258394905 -0.0010249309124864907 0 0.014888996635625287 -0.00029429377560252784 0 0.01510052481807073 -0.00095366781373176378 0 0.01510052481807073 -0.00095366781373176378 0 0.014856439777402237 -0.0014276200160274607 0 0.015791425711897285 -0.0015551754602014607 0 0.01256527377496755 -0.0008465226354945572 0 0.010371915270792217 -0.00042875848676475682 0 0.014856439777402237 -0.0014276200160274607 0 0.015791425711897285 -0.0015551754602014607 0 0.014261334485676878 -0.0021182469293407041 0 0.0085376711373328033 0.00025307008187347516 0 0.0086071556888110481 0.0001994666000338953 0 0.0086352469592902194 0.00027406197734157348 0 0.0078298424589166131 0.00040258252108573534 0 0.010371915270792217 -0.00042875848676475682 0 0.0076722611060690031 0.00021572786750445792 0 0.0081415372383609064 0.00018342971447285681 0 0.0081525470655179674 -0.00025958536880612567 0 0.0086071556888110481 0.0001994666000338953 0 0.0086352469592902194 0.00027406197734157348 0 0.0087644842942622061 0.00019654620604008048 0 0.0081415372383609064 0.00018342971447285681 0 0.0090915397689847917 -3.2262631489482583e-05 0 0.0081525470655179674 -0.00025958536880612567 0 0.0081415372383609064 0.00018342971447285681 0 0.0088811664697586393 6.5599689569762619e-07 0 0.0090915397689847917 -3.2262631489482583e-05 0 0.0088811664697586393 6.5599689569762619e-07 0 0.0090915397689847917 -3.2262631489482583e-05 0 0.0108974980862846 -1.6866702325609699e-06 0 0.0090915397689847917 -3.2262631489482583e-05 0 0.0108974980862846 -1.6866702325609699e-06 0 0.0095236899810831992 -0.00022579623345623419 0 0.014178318258394905 -0.0010249309124864907 0 0.014856439777402237 -0.0014276200160274607 0 0.014261334485676878 -0.0021182469293407041 0 0.014178318258394905 -0.0010249309124864907 0 0.013279261588254368 -0.0016165179122581243 0 0.014261334485676878 -0.0021182469293407041 0 0.0090915397689847917 -3.2262631489482583e-05 0 0.0095236899810831992 -0.00022579623345623419 0 0.0090561806249630054 -7.7298522886707136e-05 0 0.0086061392845648028 -0.00023840884531760962 0 0.010371915270792217 -0.00042875848676475682 0 0.011596618936810446 -0.00092362523319523479 0 0.010371915270792217 -0.00042875848676475682 0 0.024362272668558557 -5.7870322866273505e-05 0 0.023772641108750013 -0.00025813843996316924 0 0.02460893832846997 5.2983896832925636e-05 0 0.024362272668558557 -5.7870322866273505e-05 0 0.023772641108750013 -0.00025813843996316924 0 0.02347863750934721 -0.00022878299434255693 0 0.024362272668558557 -5.7870322866273505e-05 0 0.02501130920377247 -6.7804828857879881e-08 0 0.02347863750934721 -0.00022878299434255693 0 0.024362272668558557 -5.7870322866273505e-05 0 0.02501130920377247 -6.7804828857879881e-08 0 0.02542841736430148 0.00010843664872609144 0 0.02501130920377247 -6.7804828857879881e-08 0 0.02542841736430148 0.00010843664872609144 0 0.027027471214291603 3.069205002858748e-07 0 0.024362272668558557 -5.7870322866273505e-05 0 0.02542841736430148 0.00010843664872609144 0 0.02460893832846997 5.2983896832925636e-05 0 0.024911566214007419 0.00012980881694165856 0 0.02460893832846997 5.2983896832925636e-05 0 0.024563611731871628 -0.00010834201654570669 0 0.02505284712587651 -0.0015854686957592575 0 0.024995425902867876 -0.0016069803654934832 0 0.025032089188152563 -0.0014899876239048886 0 0.02542841736430148 0.00010843664872609144 0 0.024911566214007419 0.00012980881694165856 0 0.02460893832846997 5.2983896832925636e-05 0 0.025029276436282742 -0.00046118006030870882 0 0.02296269356408483 -0.0016233060362109831 0 0.020641770171067636 -0.0031599837626431998 0 0.021041766448171587 -0.0023930332196372191 0 0.020060950842786807 -0.0023777493273774834 0 0.023804061674163966 -0.0022052422931907096 0 0.02004596067179687 -0.0022738829246765888 0 0.023804061674163966 -0.0022052422931907096 0 0.02296269356408483 -0.0016233060362109831 0 0.021041766448171587 -0.0023930332196372191 0 0.02035265380111689 -0.00176930741188501 0 0.020060950842786807 -0.0023777493273774834 0 0.023772641108750013 -0.00025813843996316924 0 0.024563611731871628 -0.00010834201654570669 0 0.022497452489954186 -0.00078951302572242217 0 0.02296269356408483 -0.0016233060362109831 0 0.022782244354766071 -0.00064688963020699173 0 0.023772641108750013 -0.00025813843996316924 0 0.02460893832846997 5.2983896832925636e-05 0 0.024563611731871628 -0.00010834201654570669 0 0.02296269356408483 -0.0016233060362109831 0 0.020854721997387037 -0.00099897317691813943 0 0.021715694576500289 -0.0024845652133314135 0 0.022497452489954186 -0.00078951302572242217 0 0.021202848739900571 -0.00060832453570955998 0 0.02035265380111689 -0.00176930741188501 0 0.020092154313040209 -0.00086194270016828455 0 0.021202848739900571 -0.00060832453570955998 0 0.021041766448171587 -0.0023930332196372191 0 0.02035265380111689 -0.00176930741188501 0 0.021202848739900571 -0.00060832453570955998 0 0.020092154313040209 -0.00086194270016828455 0 0.020110570066087279 -0.00038708169729190662 0 0.021202848739900571 -0.00060832453570955998 0 0.020110570066087279 -0.00038708169729190662 0 0.021202848739900571 -0.00060832453570955998 0 0.020777377131441732 -0.00017636632316024367 0 0.020092154313040209 -0.00086194270016828455 0 0.020110570066087279 -0.00038708169729190662 0 0.019457382616361509 -0.0005184016692369375 0 0.022497452489954186 -0.00078951302572242217 0 0.021202848739900571 -0.00060832453570955998 0 0.021718246671086388 -0.00023020331225968898 0 0.021202848739900571 -0.00060832453570955998 0 0.020777377131441732 -0.00017636632316024367 0 0.021718246671086388 -0.00023020331225968898 0 0.021718246671086388 -0.00023020331225968898 0 0.022477199353073345 -0.00026448479923792492 0 0.021765807144491816 -4.1839923841751468e-05 0 0.022497452489954186 -0.00078951302572242217 0 0.021718246671086388 -0.00023020331225968898 0 0.022477199353073345 -0.00026448479923792492 0 0.022497452489954186 -0.00078951302572242217 0 0.022477199353073345 -0.00026448479923792492 0 0.02347863750934721 -0.00022878299434255693 0 0.023772641108750013 -0.00025813843996316924 0 0.022497452489954186 -0.00078951302572242217 0 0.02347863750934721 -0.00022878299434255693 0 0.02501130920377247 -6.7804828857879881e-08 0 0.02347863750934721 -0.00022878299434255693 0 0.022995290502043842 -4.1152778584632635e-07 0 0.022477199353073345 -0.00026448479923792492 0 0.02347863750934721 -0.00022878299434255693 0 0.022995290502043842 -4.1152778584632635e-07 0 0.022995290502043842 -4.1152778584632635e-07 0 0.021765807144491816 -4.1839923841751468e-05 0 0.020979269063936566 2.0949606923316686e-07 0 0.022477199353073345 -0.00026448479923792492 0 0.022995290502043842 -4.1152778584632635e-07 0 0.021765807144491816 -4.1839923841751468e-05 0 0.021765807144491816 -4.1839923841751468e-05 0 0.020979269063936566 2.0949606923316686e-07 0 0.02076014395611572 7.0779269287268477e-05 0 0.021718246671086388 -0.00023020331225968898 0 0.021765807144491816 -4.1839923841751468e-05 0 0.02076014395611572 7.0779269287268477e-05 0 0.02076014395611572 7.0779269287268477e-05 0 0.019610558569661825 0.00021534259379182437 0 0.019904545475393731 0.00020565598052722043 0 0.020979269063936566 2.0949606923316686e-07 0 0.02076014395611572 7.0779269287268477e-05 0 0.019610558569661825 0.00021534259379182437 0 0.020979269063936566 2.0949606923316686e-07 0 0.018962822736898439 3.7828372617381872e-07 0 0.019610558569661825 0.00021534259379182437 0 0.017571695651033673 4.2036090319859626e-05 0 0.018962822736898439 3.7828372617381872e-07 0 0.019610558569661825 0.00021534259379182437 0 0.017571695651033673 4.2036090319859626e-05 0 0.019610558569661825 0.00021534259379182437 0 0.019316813483717308 0.00037881152525518288 0 0.016947134699249064 8.0942025310692131e-08 0 0.017571695651033673 4.2036090319859626e-05 0 0.018962822736898439 3.7828372617381872e-07 0 0.019258341150501766 0.00022449945939932993 0 0.019316813483717308 0.00037881152525518288 0 0.019219890796234346 0.0002845862478670752 0 0.019258341150501766 0.00022449945939932993 0 0.017571695651033673 4.2036090319859626e-05 0 0.019316813483717308 0.00037881152525518288 0 0.019610558569661825 0.00021534259379182437 0 0.019316813483717308 0.00037881152525518288 0 0.019904545475393731 0.00020565598052722043 0 0.019316813483717308 0.00037881152525518288 0 0.019552637099398414 0.00011829982203203184 0 0.019219890796234346 0.0002845862478670752 0 0.019316813483717308 0.00037881152525518288 0 0.019552637099398414 0.00011829982203203184 0 0.019904545475393731 0.00020565598052722043 0 0.019552637099398414 0.00011829982203203184 0 0.019904545475393731 0.00020565598052722043 0 0.019978456398362668 -3.3930022782243745e-05 0 0.02076014395611572 7.0779269287268477e-05 0 0.019904545475393731 0.00020565598052722043 0 0.019978456398362668 -3.3930022782243745e-05 0 0.020777377131441732 -0.00017636632316024367 0 0.021718246671086388 -0.00023020331225968898 0 0.02076014395611572 7.0779269287268477e-05 0 0.020777377131441732 -0.00017636632316024367 0 0.02076014395611572 7.0779269287268477e-05 0 0.019978456398362668 -3.3930022782243745e-05 0 0.019552637099398414 0.00011829982203203184 0 0.019978456398362668 -3.3930022782243745e-05 0 0.019645633768406751 -0.00022945596709430171 0 0.020110570066087279 -0.00038708169729190662 0 0.020777377131441732 -0.00017636632316024367 0 0.019978456398362668 -3.3930022782243745e-05 0 0.020110570066087279 -0.00038708169729190662 0 0.019978456398362668 -3.3930022782243745e-05 0 0.019645633768406751 -0.00022945596709430171 0 0.019552637099398414 0.00011829982203203184 0 0.019234733390238842 -0.00027453121870657472 0 0.019645633768406751 -0.00022945596709430171 0 0.020110570066087279 -0.00038708169729190662 0 0.019645633768406751 -0.00022945596709430171 0 0.019457382616361509 -0.0005184016692369375 0 0.019234733390238842 -0.00027453121870657472 0 0.019645633768406751 -0.00022945596709430171 0 0.019457382616361509 -0.0005184016692369375 0 0.019234733390238842 -0.00027453121870657472 0 0.018923190387255571 -0.00055289553951087811 0 0.019457382616361509 -0.0005184016692369375 0 0.018923190387255571 -0.00055289553951087811 0 0.01849299721559677 -0.00073273658314159979 0 0.019223338637658332 -0.0008629622916667102 0 0.019234733390238842 -0.00027453121870657472 0 0.018923190387255571 -0.00055289553951087811 0 0.018755530209208119 -0.00036077947506737485 0 0.018923190387255571 -0.00055289553951087811 0 0.018589785563892208 -0.00055428487292879451 0 0.018755530209208119 -0.00036077947506737485 0 0.018923190387255571 -0.00055289553951087811 0 0.018589785563892208 -0.00055428487292879451 0 0.01849299721559677 -0.00073273658314159979 0 0.018589785563892208 -0.00055428487292879451 0 0.018755530209208119 -0.00036077947506737485 0 0.018160260702096895 -0.00054737339479569774 0 0.018755530209208119 -0.00036077947506737485 0 0.019108504303612363 -4.9573550747834966e-05 0 0.018635120094016942 -5.3423710971999942e-05 0 0.018755530209208119 -0.00036077947506737485 0 0.018635120094016942 -5.3423710971999942e-05 0 0.018160260702096895 -0.00054737339479569774 0 0.019552637099398414 0.00011829982203203184 0 0.019234733390238842 -0.00027453121870657472 0 0.019108504303612363 -4.9573550747834966e-05 0 0.019234733390238842 -0.00027453121870657472 0 0.018755530209208119 -0.00036077947506737485 0 0.019108504303612363 -4.9573550747834966e-05 0 0.019552637099398414 0.00011829982203203184 0 0.019108504303612363 -4.9573550747834966e-05 0 0.019219890796234346 0.0002845862478670752 0 0.019108504303612363 -4.9573550747834966e-05 0 0.019219890796234346 0.0002845862478670752 0 0.018635120094016942 -5.3423710971999942e-05 0 0.019219890796234346 0.0002845862478670752 0 0.018635120094016942 -5.3423710971999942e-05 0 0.018504087594097822 0.00033939926652365514 0 0.018897220501037957 0.00074201656077052395 0 0.018504087594097822 0.00033939926652365514 0 0.017462652629657158 0.0010247410601922056 0 0.019219890796234346 0.0002845862478670752 0 0.018897220501037957 0.00074201656077052395 0 0.018504087594097822 0.00033939926652365514 0 0.019258341150501766 0.00022449945939932993 0 0.019219890796234346 0.0002845862478670752 0 0.018897220501037957 0.00074201656077052395 0 0.017462652629657158 0.0010247410601922056 0 0.016450972147478624 -0.00019121968356210309 0 0.014952029006952274 0.00045208108246507726 0 0.016211638225013977 0.00067013336877578004 0 0.015046314133996987 0.00049670329401879556 0 0.018504087594097822 0.00033939926652365514 0 0.017462652629657158 0.0010247410601922056 0 0.017803975232689295 -0.00011756740410295503 0 0.017153957171571463 0.00048321988313322053 0 0.016211638225013977 0.00067013336877578004 0 0.018635120094016942 -5.3423710971999942e-05 0 0.017803975232689295 -0.00011756740410295503 0 0.018160260702096895 -0.00054737339479569774 0 0.018635120094016942 -5.3423710971999942e-05 0 0.018504087594097822 0.00033939926652365514 0 0.017803975232689295 -0.00011756740410295503 0 0.016450972147478624 -0.00019121968356210309 0 0.017282935116007488 -0.00085472103858349482 0 0.016059288968006437 -0.00089940481721258159 0 0.017803975232689295 -0.00011756740410295503 0 0.016450972147478624 -0.00019121968356210309 0 0.017282935116007488 -0.00085472103858349482 0 0.017462652629657158 0.0010247410601922056 0 0.017803975232689295 -0.00011756740410295503 0 0.016450972147478624 -0.00019121968356210309 0 0.017282935116007488 -0.00085472103858349482 0 0.01678513545132912 -0.0018258373926060369 0 0.016059288968006437 -0.00089940481721258159 0 0.017803975232689295 -0.00011756740410295503 0 0.017282935116007488 -0.00085472103858349482 0 0.018160260702096895 -0.00054737339479569774 0 0.017464779817746287 -0.00079636056034240201 0 0.018870794220893321 -0.0012465684628363038 0 0.017282935116007488 -0.00085472103858349482 0 0.018160260702096895 -0.00054737339479569774 0 0.01849299721559677 -0.00073273658314159979 0 0.01981400727575592 -0.0018519421090950206 0 0.019635329874948194 -0.0018695042994062001 0 0.019501096012349724 -0.001959452361470165 0 0.018286872700885894 -0.0017984920156162469 0 0.019361492268939049 -0.0019719631348098683 0 0.019428981291850094 -0.0017444625128893833 0 0.01678513545132912 -0.0018258373926060369 0 0.019501096012349724 -0.001959452361470165 0 0.018589785563892208 -0.00055428487292879451 0 0.018160260702096895 -0.00054737339479569774 0 0.01849299721559677 -0.00073273658314159979 0 0.017282935116007488 -0.00085472103858349482 0 0.019428981291850094 -0.0017444625128893833 0 0.01678513545132912 -0.0018258373926060369 0 0.01981400727575592 -0.0018519421090950206 0 0.019635329874948194 -0.0018695042994062001 0 0.019854607001333922 -0.0017417524810179772 0 0.019596000756699841 -0.0019593106577861711 0 0.01948028586341485 -0.0020090190723913732 0 0.019513357146885325 -0.0018578808114156499 0 0.019596000756699841 -0.0019593106577861711 0 0.019635329874948194 -0.0018695042994062001 0 0.019513357146885325 -0.0018578808114156499 0 0.019159762990732316 -0.0017793482576982406 0 0.020958487606800857 -0.0022005174762020382 0 0.019615449115503131 -0.002152650076594455 0 0.019452303244781071 -0.002238751744273744 0 0.01948028586341485 -0.0020090190723913732 0 0.019596000756699841 -0.0019593106577861711 0 0.019615449115503131 -0.002152650076594455 0 0.01948028586341485 -0.0020090190723913732 0 0.019596000756699841 -0.0019593106577861711 0 0.019678828987837699 -0.0020444427074303067 0 0.019615449115503131 -0.002152650076594455 0 0.019678828987837699 -0.0020444427074303067 0 0.019849766227972066 -0.0020588530018764636 0 0.019809710373193234 -0.0022553039114732746 0 0.019678828987837699 -0.0020444427074303067 0 0.019615449115503131 -0.002152650076594455 0 0.019809710373193234 -0.0022553039114732746 0 0.019596000756699841 -0.0019593106577861711 0 0.019678828987837699 -0.0020444427074303067 0 0.019669589829564842 -0.0019323823096472278 0 0.019678828987837699 -0.0020444427074303067 0 0.019669589829564842 -0.0019323823096472278 0 0.019849766227972066 -0.0020588530018764636 0 0.019669589829564842 -0.0019323823096472278 0 0.019711381108070185 -0.0018941196732509835 0 0.019849766227972066 -0.0020588530018764636 0 0.019669589829564842 -0.0019323823096472278 0 0.019622236261385349 -0.0018989289685178844 0 0.019711381108070185 -0.0018941196732509835 0 0.019596000756699841 -0.0019593106577861711 0 0.019669589829564842 -0.0019323823096472278 0 0.019635329874948194 -0.0018695042994062001 0 0.019501096012349724 -0.001959452361470165 0 0.019622236261385349 -0.0018989289685178844 0 0.019711381108070185 -0.0018941196732509835 0 0.019669589829564842 -0.0019323823096472278 0 0.019635329874948194 -0.0018695042994062001 0 0.019622236261385349 -0.0018989289685178844 0 0.019635329874948194 -0.0018695042994062001 0 0.019501096012349724 -0.001959452361470165 0 0.019622236261385349 -0.0018989289685178844 0 0.019428981291850094 -0.0017444625128893833 0 0.019501096012349724 -0.001959452361470165 0 0.019888242545218943 -0.0018330424783359418 0 0.018870794220893321 -0.0012465684628363038 0 0.019584280395611699 -0.0013678335726929355 0 0.019501096012349724 -0.001959452361470165 0 0.019711381108070185 -0.0018941196732509835 0 0.019888242545218943 -0.0018330424783359418 0 0.020092154313040209 -0.00086194270016828455 0 0.019223338637658332 -0.0008629622916667102 0 0.019457382616361509 -0.0005184016692369375 0 0.018923190387255571 -0.00055289553951087811 0 0.019223338637658332 -0.0008629622916667102 0 0.019457382616361509 -0.0005184016692369375 0 0.020294219556692167 -0.0017720676851012628 0 0.019584280395611699 -0.0013678335726929355 0 0.02035265380111689 -0.00176930741188501 0 0.019888242545218943 -0.0018330424783359418 0 0.019856786320404825 -0.0019213450179609208 0 0.02035265380111689 -0.00176930741188501 0 0.020092154313040209 -0.00086194270016828455 0 0.019223338637658332 -0.0008629622916667102 0 0.019758710468025232 -0.0018720705996451217 0 0.020044014719877219 -0.0020534243753230342 0 0.019711381108070185 -0.0018941196732509835 0 0.019888242545218943 -0.0018330424783359418 0 0.019856786320404825 -0.0019213450179609208 0 0.019711381108070185 -0.0018941196732509835 0 0.020180510890326915 -0.0020576020126232865 0 0.019849766227972066 -0.0020588530018764636 0 0.019849766227972066 -0.0020588530018764636 0 0.020097900227390782 -0.0024023354576431003 0 0.019809710373193234 -0.0022553039114732746 0 0.020180510890326915 -0.0020576020126232865 0 0.019849766227972066 -0.0020588530018764636 0 0.020097900227390782 -0.0024023354576431003 0 0.020044014719877219 -0.0020534243753230342 0 0.02004596067179687 -0.0022738829246765888 0 0.02035265380111689 -0.00176930741188501 0 0.019856786320404825 -0.0019213450179609208 0 0.020060950842786807 -0.0023777493273774834 0 0.020180510890326915 -0.0020576020126232865 0 0.020097900227390782 -0.0024023354576431003 0 0.020550108992580883 -0.0023473368868684474 0 0.020097900227390782 -0.0024023354576431003 0 0.020550108992580883 -0.0023473368868684474 0 0.02048420348796234 -0.0026755558739521511 0 0.020877590466789886 -0.0026817656030554498 0 0.020550108992580883 -0.0023473368868684474 0 0.02048420348796234 -0.0026755558739521511 0 0.020097900227390782 -0.0024023354576431003 0 0.02048420348796234 -0.0026755558739521511 0 0.020155638032798337 -0.0029426674262009243 0 0.020097900227390782 -0.0024023354576431003 0 0.019723778948556401 -0.0025558078356548164 0 0.020155638032798337 -0.0029426674262009243 0 0.03278300531605547 0.00060260781329898937 0 0.031831014331807038 0.00068357359419549092 0 0.031191044394028294 0.0019178221084550408 0 0.03278300531605547 0.00060260781329898937 0 0.0323042774297677 0.00016562867567246746 0 0.031831014331807038 0.00068357359419549092 0 0.026257185228111851 -0.00094356313164872915 0 0.025496680892085757 -0.00042877792389218913 0 0.032049484592584845 0.0002398675249018891 0 0.032857612292887625 -0.00038891452265119904 0 0.0323042774297677 0.00016562867567246746 0 0.031831014331807038 0.00068357359419549092 0 0.031451144992918324 -4.3430923364517675e-05 0 0.031831014331807038 0.00068357359419549092 0 0.03140515071861652 0.00054582674620870574 0 0.031332219438177787 0.00028211321515007724 0 0.019723778948556401 -0.0025558078356548164 0 0.019615449115503131 -0.002152650076594455 0 0.019452303244781071 -0.002238751744273744 0 0.019723778948556401 -0.0025558078356548164 0 0.019615449115503131 -0.002152650076594455 0 0.019809710373193234 -0.0022553039114732746 0 0.020097900227390782 -0.0024023354576431003 0 0.019723778948556401 -0.0025558078356548164 0 0.019809710373193234 -0.0022553039114732746 0 0.027151363949053542 -0.0010408071982492843 0 0.02863671406192023 -0.0003465098150045692 0 0.024913701787692668 -0.0012107980436930977 0 0.024695839946417213 -0.0011893263261625918 0 0.024702275980517305 -0.0013772817030275651 0 0.024571880058281582 -0.0012008218929558676 0 0.024695839946417213 -0.0011893263261625918 0 0.024702275980517305 -0.0013772817030275651 0 0.025496680892085757 -0.00042877792389218913 0 0.024667578109711499 -0.0012263444432561762 0 0.024913701787692668 -0.0012107980436930977 0 0.024695839946417213 -0.0011893263261625918 0 0.024601664194519597 -0.00097554834642290882 0 0.024571880058281582 -0.0012008218929558676 0 0.024695839946417213 -0.0011893263261625918 0 0.024601664194519597 -0.00097554834642290882 0 0.025496680892085757 -0.00042877792389218913 0 0.02863671406192023 -0.0003465098150045692 0 0.02983015402569553 -0.00077366782610695782 0 0.029923715002223444 -0.00077305085496365614 0 0.029842316726829462 -0.00073675159023884739 0 0.031831014331807038 0.00068357359419549092 0 0.031191044394028294 0.0019178221084550408 0 0.031117479752285102 0.00075610131609713221 0 0.031831014331807038 0.00068357359419549092 0 0.031117479752285102 0.00075610131609713221 0 0.03140515071861652 0.00054582674620870574 0 0.031101965116883769 0.00076654974327618501 0 0.031332219438177787 0.00028211321515007724 0 0.031046647101742108 -3.7418767804030953e-05 0 0.031831014331807038 0.00068357359419549092 0 0.031332219438177787 0.00028211321515007724 0 0.031361513442041362 -0.00015545540305927821 0 0.02863671406192023 -0.0003465098150045692 0 0.031982192359870605 -0.00049782587746236972 0 0.031101965116883769 0.00076654974327618501 0 0.03140515071861652 0.00054582674620870574 0 0.031332219438177787 0.00028211321515007724 0 0.02863671406192023 -0.0003465098150045692 0 0.029555208551638082 -0.00049967941260328373 0 0.031332219438177787 0.00028211321515007724 0 0.031361513442041362 -0.00015545540305927821 0 0.031046647101742108 -3.7418767804030953e-05 0 0.032242408872992047 -0.00066918996638845032 0 0.031982192359870605 -0.00049782587746236972 0 0.034480823182838134 -0.00052376002734106871 0 0.034436323977275578 -0.00045489137049827948 0 0.034354171469918697 -0.0004838641878884725 0 0.029897062123474476 -0.0008470618705452293 0 0.02983015402569553 -0.00077366782610695782 0 0.029923715002223444 -0.00077305085496365614 0 0.034480823182838134 -0.00052376002734106871 0 0.034591271480229668 -0.00055482607198548963 0 0.034577980015730383 -0.00047589728787089794 0 0.032242408872992047 -0.00066918996638845032 0 0.032236450292797654 -0.00066313543204050756 0 0.03463976006553296 -0.00048533600311596365 0 0.034591271480229668 -0.00055482607198548963 0 0.034577980015730383 -0.00047589728787089794 0 0.029897062123474476 -0.0008470618705452293 0 0.029923715002223444 -0.00077305085496365614 0 0.030025163966231536 -0.00081133280599038988 0 0.029897062123474476 -0.0008470618705452293 0 0.030025163966231536 -0.00081133280599038988 0 0.029985435139425212 -0.00093745281530939917 0 0.025355997556710641 -0.0015357643675348778 0 0.025083957129787327 -0.0017401156873861744 0 0.02495353825151831 -0.0015232914062190506 0 0.024913701787692668 -0.0012107980436930977 0 0.025355997556710641 -0.0015357643675348778 0 0.02495353825151831 -0.0015232914062190506 0 0.027151363949053542 -0.0010408071982492843 0 0.027810816956359636 -0.0012477165730632232 0 0.029985435139425212 -0.00093745281530939917 0 0.03008627099863102 -0.001039412805684729 0 0.030073834437310619 -0.00093654709929789318 0 0.030025163966231536 -0.00081133280599038988 0 0.029985435139425212 -0.00093745281530939917 0 0.030073834437310619 -0.00093654709929789318 0 0.025355997556710641 -0.0015357643675348778 0 0.025315772586483706 -0.001865582034343585 0 0.025801416739377706 -0.0018746930961449262 0 0.027810816956359636 -0.0012477165730632232 0 0.027385495201204573 -0.0016102425654532292 0 0.025315772586483706 -0.001865582034343585 0 0.025572330030416181 -0.0020622033250819881 0 0.025801416739377706 -0.0018746930961449262 0 0.025315772586483706 -0.001865582034343585 0 0.025018117492981398 -0.0020260185456230906 0 0.025572330030416181 -0.0020622033250819881 0 0.025355997556710641 -0.0015357643675348778 0 0.025083957129787327 -0.0017401156873861744 0 0.025315772586483706 -0.001865582034343585 0 0.025083957129787327 -0.0017401156873861744 0 0.025315772586483706 -0.001865582034343585 0 0.025018117492981398 -0.0020260185456230906 0 0.025083957129787327 -0.0017401156873861744 0 0.024768808971408776 -0.0017524488369271287 0 0.025018117492981398 -0.0020260185456230906 0 0.024768808971408776 -0.0017524488369271287 0 0.024435257402231965 -0.002001201398099449 0 0.025018117492981398 -0.0020260185456230906 0 0.025083957129787327 -0.0017401156873861744 0 0.024768808971408776 -0.0017524488369271287 0 0.02495353825151831 -0.0015232914062190506 0 0.024768808971408776 -0.0017524488369271287 0 0.02495353825151831 -0.0015232914062190506 0 0.024702275980517305 -0.0013772817030275651 0 0.024913701787692668 -0.0012107980436930977 0 0.02495353825151831 -0.0015232914062190506 0 0.024702275980517305 -0.0013772817030275651 0 0.024404650146180429 -0.0011135367832491633 0 0.024702275980517305 -0.0013772817030275651 0 0.024357498755636343 -0.0015681108550201954 0 0.024702275980517305 -0.0013772817030275651 0 0.024357498755636343 -0.0015681108550201954 0 0.024513715368969864 -0.0017611878249371904 0 0.024768808971408776 -0.0017524488369271287 0 0.024702275980517305 -0.0013772817030275651 0 0.024513715368969864 -0.0017611878249371904 0 0.025496680892085757 -0.00042877792389218913 0 0.021855877420072774 -0.0019905574037109275 0 0.021855877420072774 -0.0019905574037109275 0 0.020958487606800857 -0.0022005174762020382 0 0.024357498755636343 -0.0015681108550201954 0 0.024513715368969864 -0.0017611878249371904 0 0.024303569616765858 -0.0019931879888004608 0 0.024768808971408776 -0.0017524488369271287 0 0.024513715368969864 -0.0017611878249371904 0 0.024435257402231965 -0.002001201398099449 0 0.024513715368969864 -0.0017611878249371904 0 0.024435257402231965 -0.002001201398099449 0 0.024303569616765858 -0.0019931879888004608 0 0.02202857726787482 -0.0020120064400249303 0 0.020958487606800857 -0.0022005174762020382 0 0.01981400727575592 -0.0018519421090950206 0 0.019901601006360566 -0.001721279459632023 0 0.019938226308555261 -0.0017904297201422397 0 0.019901601006360566 -0.001721279459632023 0 0.019938226308555261 -0.0017904297201422397 0 0.020032004544511494 -0.0017469467705419068 0 0.01981400727575592 -0.0018519421090950206 0 0.019901601006360566 -0.001721279459632023 0 0.019854607001333922 -0.0017417524810179772 0 0.019901601006360566 -0.001721279459632023 0 0.020032004544511494 -0.0017469467705419068 0 0.02012518036197887 -0.0016442757717395589 0 0.02202857726787482 -0.0020120064400249303 0 0.022651226780173585 -0.0018085815469567003 0 0.020032004544511494 -0.0017469467705419068 0 0.020143225991254635 -0.0017332138637879573 0 0.02012518036197887 -0.0016442757717395589 0 0.020032004544511494 -0.0017469467705419068 0 0.020079929739688824 -0.0017653273384745157 0 0.020143225991254635 -0.0017332138637879573 0 0.020032004544511494 -0.0017469467705419068 0 0.020079929739688824 -0.0017653273384745157 0 0.020001059169452332 -0.001816438598848094 0 0.020079929739688824 -0.0017653273384745157 0 0.020001059169452332 -0.001816438598848094 0 0.020136814709519193 -0.0017689336026010048 0 0.019938226308555261 -0.0017904297201422397 0 0.020032004544511494 -0.0017469467705419068 0 0.020001059169452332 -0.001816438598848094 0 0.020001059169452332 -0.001816438598848094 0 0.020144485664768598 -0.0018185095082117757 0 0.020136814709519193 -0.0017689336026010048 0 0.018286872700885894 -0.0017984920156162469 0 0.017325634557377546 -0.0015281426260263823 0 0.01678513545132912 -0.0018258373926060369 0 0.014658164986216839 -0.0012499686894182778 0 0.016059288968006437 -0.00089940481721258159 0 0.01981400727575592 -0.0018519421090950206 0 0.019938226308555261 -0.0017904297201422397 0 0.020001059169452332 -0.001816438598848094 0 0.016450972147478624 -0.00019121968356210309 0 0.015163735668315807 -0.00044238142654648004 0 0.014952029006952274 0.00045208108246507726 0 0.014658164986216839 -0.0012499686894182778 0 0.016059288968006437 -0.00089940481721258159 0 0.015163735668315807 -0.00044238142654648004 0 0.016450972147478624 -0.00019121968356210309 0 0.016059288968006437 -0.00089940481721258159 0 0.015163735668315807 -0.00044238142654648004 0 0.014658164986216839 -0.0012499686894182778 0 0.015163735668315807 -0.00044238142654648004 0 0.014233074122433225 -0.00030094022038854181 0 0.015163735668315807 -0.00044238142654648004 0 0.014233074122433225 -0.00030094022038854181 0 0.014952029006952274 0.00045208108246507726 0 0.014030675588363625 0.00036015185429185922 0 0.014233074122433225 -0.00030094022038854181 0 0.014952029006952274 0.00045208108246507726 0 0.012440649241740199 0.00018837836931282108 0 0.013306347391041718 -4.6280864923240353e-05 0 0.011874400033322699 -0.00072684351756254796 0 0.013306347391041718 -4.6280864923240353e-05 0 0.013239202657537273 -0.00086951579033005678 0 0.011874400033322699 -0.00072684351756254796 0 0.014233074122433225 -0.00030094022038854181 0 0.013306347391041718 -4.6280864923240353e-05 0 0.013239202657537273 -0.00086951579033005678 0 0.014030675588363625 0.00036015185429185922 0 0.014233074122433225 -0.00030094022038854181 0 0.013306347391041718 -4.6280864923240353e-05 0 0.014658164986216839 -0.0012499686894182778 0 0.014233074122433225 -0.00030094022038854181 0 0.013239202657537273 -0.00086951579033005678 0 0.017325634557377546 -0.0015281426260263823 0 0.016707657917851594 -0.001347875994552133 0 0.020001059169452332 -0.001816438598848094 0 0.020144485664768598 -0.0018185095082117757 0 0.020263488601175689 -0.0018390473309514727 0 0.020144485664768598 -0.0018185095082117757 0 0.020263488601175689 -0.0018390473309514727 0 0.020308370968407586 -0.0016542063332269665 0 0.020263488601175689 -0.0018390473309514727 0 0.02047012795101192 -0.0015986100919721433 0 0.020308370968407586 -0.0016542063332269665 0 0.016707657917851594 -0.001347875994552133 0 0.016482600956475121 -0.0014368705175710429 0 0.020263488601175689 -0.0018390473309514727 0 0.020671833486998015 -0.0016877153692367339 0 0.020893403411469311 -0.0021177726079716665 0 0.020263488601175689 -0.0018390473309514727 0 0.02047012795101192 -0.0015986100919721433 0 0.020671833486998015 -0.0016877153692367339 0 0.02047012795101192 -0.0015986100919721433 0 0.020736638146418646 -0.0013921689256925964 0 0.020671833486998015 -0.0016877153692367339 0 0.02047012795101192 -0.0015986100919721433 0 0.020308370968407586 -0.0016542063332269665 0 0.020386668939037421 -0.0013590168596145724 0 0.02047012795101192 -0.0015986100919721433 0 0.020386668939037421 -0.0013590168596145724 0 0.020736638146418646 -0.0013921689256925964 0 0.020144485664768598 -0.0018185095082117757 0 0.020308370968407586 -0.0016542063332269665 0 0.020386668939037421 -0.0013590168596145724 0 0.020144485664768598 -0.0018185095082117757 0 0.020437195851406076 -0.0016997235215178703 0 0.020136814709519193 -0.0017689336026010048 0 0.020437195851406076 -0.0016997235215178703 0 0.020136814709519193 -0.0017689336026010048 0 0.020328313857578103 -0.0016066779436453612 0 0.020237008365807829 -0.0017361968437509825 0 0.020231110711018283 -0.0015989067458894136 0 0.020217742360446669 -0.0017189652671400419 0 0.020165433909993064 -0.0018552454798278621 0 0.020136814709519193 -0.0017689336026010048 0 0.020143225991254635 -0.0017332138637879573 0 0.020255538278658509 -0.001744132009467496 0 0.020079929739688824 -0.0017653273384745157 0 0.020136814709519193 -0.0017689336026010048 0 0.020143225991254635 -0.0017332138637879573 0 0.022651226780173585 -0.0018085815469567003 0 0.02275331211978137 -0.0019820595431874325 0 0.02012518036197887 -0.0016442757717395589 0 0.020255538278658509 -0.001744132009467496 0 0.020397125455564706 -0.0016412461024951934 0 0.020143225991254635 -0.0017332138637879573 0 0.02012518036197887 -0.0016442757717395589 0 0.020255538278658509 -0.001744132009467496 0 0.020231110711018283 -0.0015989067458894136 0 0.022233430535429428 -0.0013462929510801662 0 0.020437195851406076 -0.0016997235215178703 0 0.020621651690831459 -0.001341938393121313 0 0.02089706326959654 -0.0013640381995478207 0 0.020437195851406076 -0.0016997235215178703 0 0.020328313857578103 -0.0016066779436453612 0 0.020621651690831459 -0.001341938393121313 0 0.020165433909993064 -0.0018552454798278621 0 0.02275331211978137 -0.0019820595431874325 0 0.020816069691303465 -0.00095017199204506218 0 0.021078606903720921 -0.0012630280790508425 0 0.020736638146418646 -0.0013921689256925964 0 0.020386668939037421 -0.0013590168596145724 0 0.020816069691303465 -0.00095017199204506218 0 0.020736638146418646 -0.0013921689256925964 0 0.02275331211978137 -0.0019820595431874325 0 0.022233430535429428 -0.0013462929510801662 0 0.023919431577526289 -0.0027285449862751083 0 0.024924975908509346 -0.0028054143994736998 0 0.024944760112390819 -0.0018657187404346721 0 0.022233430535429428 -0.0013462929510801662 0 0.02166927632871915 -0.00096510179941873076 0 0.020816069691303465 -0.00095017199204506218 0 0.021373779800140678 -0.00096144663932121025 0 0.021078606903720921 -0.0012630280790508425 0 0.021373779800140678 -0.00096144663932121025 0 0.02143461700416267 -0.001414323446251458 0 0.021078606903720921 -0.0012630280790508425 0 0.02143461700416267 -0.001414323446251458 0 0.021047095645343381 -0.0015855689151829718 0 0.021444052273173444 -0.0018766175861143696 0 0.02143461700416267 -0.001414323446251458 0 0.021078606903720921 -0.0012630280790508425 0 0.021047095645343381 -0.0015855689151829718 0 0.021078606903720921 -0.0012630280790508425 0 0.021047095645343381 -0.0015855689151829718 0 0.020736638146418646 -0.0013921689256925964 0 0.021047095645343381 -0.0015855689151829718 0 0.020736638146418646 -0.0013921689256925964 0 0.020671833486998015 -0.0016877153692367339 0 0.021047095645343381 -0.0015855689151829718 0 0.020671833486998015 -0.0016877153692367339 0 0.020893403411469311 -0.0021177726079716665 0 0.021047095645343381 -0.0015855689151829718 0 0.020893403411469311 -0.0021177726079716665 0 0.021444052273173444 -0.0018766175861143696 0 0.021493705629781163 -0.0023254297356027315 0 0.020893403411469311 -0.0021177726079716665 0 0.021444052273173444 -0.0018766175861143696 0 0.015174728752375348 -0.0013250344394464735 0 0.016482600956475121 -0.0014368705175710429 0 0.021886914676995259 -0.00203836742268055 0 0.021681314408621224 -0.002075944991061643 0 0.021726025291683881 -0.0018004527097752476 0 0.021886914676995259 -0.00203836742268055 0 0.021739090107056384 -0.0022315130263847352 0 0.021681314408621224 -0.002075944991061643 0 0.021493705629781163 -0.0023254297356027315 0 0.021681314408621224 -0.002075944991061643 0 0.021444052273173444 -0.0018766175861143696 0 0.021493705629781163 -0.0023254297356027315 0 0.021739090107056384 -0.0022315130263847352 0 0.021681314408621224 -0.002075944991061643 0 0.021681314408621224 -0.002075944991061643 0 0.021444052273173444 -0.0018766175861143696 0 0.021726025291683881 -0.0018004527097752476 0 0.021444052273173444 -0.0018766175861143696 0 0.021726025291683881 -0.0018004527097752476 0 0.021672453171890711 -0.001559781901227746 0 0.022216594015903403 -0.0016441316540429963 0 0.022219149413755624 -0.001412689788570275 0 0.022008428392786866 -0.0013364456221572616 0 0.022216594015903403 -0.0016441316540429963 0 0.022219149413755624 -0.001412689788570275 0 0.022331536016934751 -0.0015534612737492679 0 0.021886914676995259 -0.00203836742268055 0 0.021726025291683881 -0.0018004527097752476 0 0.022008428392786866 -0.0013364456221572616 0 0.022713549528532734 -0.0022301126420996333 0 0.021791230244482068 -0.0011443486985323558 0 0.022219149413755624 -0.001412689788570275 0 0.022148979688803135 -0.00128908438950025 0 0.02225415806025206 -0.0012988077783120959 0 0.022219149413755624 -0.001412689788570275 0 0.022008428392786866 -0.0013364456221572616 0 0.022148979688803135 -0.00128908438950025 0 0.022148979688803135 -0.00128908438950025 0 0.02225415806025206 -0.0012988077783120959 0 0.022204443792761694 -0.0012034016813741119 0 0.02143461700416267 -0.001414323446251458 0 0.021444052273173444 -0.0018766175861143696 0 0.021672453171890711 -0.001559781901227746 0 0.021726025291683881 -0.0018004527097752476 0 0.022008428392786866 -0.0013364456221572616 0 0.021672453171890711 -0.001559781901227746 0 0.022008428392786866 -0.0013364456221572616 0 0.021672453171890711 -0.001559781901227746 0 0.021733680083063728 -0.0012770195665708685 0 0.02143461700416267 -0.001414323446251458 0 0.021672453171890711 -0.001559781901227746 0 0.021733680083063728 -0.0012770195665708685 0 0.021373779800140678 -0.00096144663932121025 0 0.021733680083063728 -0.0012770195665708685 0 0.022074343819643485 -0.0010378767784811717 0 0.022234244868589277 -0.0010135973919972172 0 0.022074343819643485 -0.0010378767784811717 0 0.022202185378126491 -0.0010622019971690136 0 0.021373779800140678 -0.00096144663932121025 0 0.02143461700416267 -0.001414323446251458 0 0.021733680083063728 -0.0012770195665708685 0 0.02166927632871915 -0.00096510179941873076 0 0.022106374562557023 -0.0010341690703952547 0 0.022008428392786866 -0.0013364456221572616 0 0.021733680083063728 -0.0012770195665708685 0 0.022074343819643485 -0.0010378767784811717 0 0.02219310292915682 -0.0011194604297189504 0 0.022156294332192298 -0.0010124545445668841 0 0.022386656729018118 -0.001265827589761832 0 0.02219310292915682 -0.0011194604297189504 0 0.022204443792761694 -0.0012034016813741119 0 0.022074343819643485 -0.0010378767784811717 0 0.022148979688803135 -0.00128908438950025 0 0.022204443792761694 -0.0012034016813741119 0 0.022074343819643485 -0.0010378767784811717 0 0.022008428392786866 -0.0013364456221572616 0 0.022148979688803135 -0.00128908438950025 0 0.022074343819643485 -0.0010378767784811717 0 0.02219310292915682 -0.0011194604297189504 0 0.022074343819643485 -0.0010378767784811717 0 0.022156294332192298 -0.0010124545445668841 0 0.022074343819643485 -0.0010378767784811717 0 0.022156294332192298 -0.0010124545445668841 0 0.022202185378126491 -0.0010622019971690136 0 0.031618011448066127 -0.0013353488761914051 0 0.031645916389520828 -0.0014299663162180606 0 0.031611264002798525 -0.0014047082274127711 0 0.026510813026512481 -0.0011815643342397589 0 0.028058971974015873 -0.00082587180117642169 0 0.022156294332192298 -0.0010124545445668841 0 0.022238549383096013 -0.0011213398561170725 0 0.022202185378126491 -0.0010622019971690136 0 0.031618011448066127 -0.0013353488761914051 0 0.031644714489179535 -0.0014294160650811362 0 0.031641150019362546 -0.001425733280917279 0 0.031618011448066127 -0.0013353488761914051 0 0.031645916389520828 -0.0014299663162180606 0 0.031641150019362546 -0.001425733280917279 0 0.031645916389520828 -0.0014299663162180606 0 0.031638107998577344 -0.0014261052377470853 0 0.031646182344272251 -0.0014225479206981478 0 0.031645916389520828 -0.0014299663162180606 0 0.031638107998577344 -0.0014261052377470853 0 0.031641150019362546 -0.001425733280917279 0 0.031645916389520828 -0.0014299663162180606 0 0.031659636743432404 -0.0014597803864461437 0 0.031611264002798525 -0.0014047082274127711 0 0.022239845934866918 -0.0010903966063158888 0 0.022202185378126491 -0.0010622019971690136 0 0.022255092725595543 -0.0010642243174937788 0 0.028058971974015873 -0.00082587180117642169 0 0.024247769729753434 -0.0013140488810147468 0 0.027664560804521499 0.00041766456264270444 0 0.028513492683672176 9.4626476529797865e-05 0 0.026696295094640221 -0.0013459804919434145 0 0.03089886498482668 -0.0009053649686027801 0 0.028058971974015873 -0.00082587180117642169 0 0.031020295700459086 -0.0010286959079352359 0 0.029569875609025499 -0.00048346262972369782 0 0.030345095688488415 -0.0016076986334319224 0 0.03089886498482668 -0.0009053649686027801 0 0.031926076283364156 -0.00084751674131989922 0 0.028058971974015873 -0.00082587180117642169 0 0.031926076283364156 -0.00084751674131989922 0 0.028058971974015873 -0.00082587180117642169 0 0.028749346618058249 -0.0010437653506257831 0 0.028058971974015873 -0.00082587180117642169 0 0.022750008416741151 -0.0013938460251910272 0 0.022234244868589277 -0.0010135973919972172 0 0.022202185378126491 -0.0010622019971690136 0 0.022255092725595543 -0.0010642243174937788 0 0.022233430535429428 -0.0013462929510801662 0 0.024247769729753434 -0.0013140488810147468 0 0.022310131038943068 -0.0010212402301265052 0 0.022234244868589277 -0.0010135973919972172 0 0.022255092725595543 -0.0010642243174937788 0 0.024924975908509346 -0.0028054143994736998 0 0.026696295094640221 -0.0013459804919434145 0 0.025794871837227479 -0.0011524010330080268 0 0.03008627099863102 -0.001039412805684729 0 0.030145437158546808 -0.00099817315503754572 0 0.030073834437310619 -0.00093654709929789318 0 0.024924975908509346 -0.0028054143994736998 0 0.024944760112390819 -0.0018657187404346721 0 0.025794871837227479 -0.0011524010330080268 0 0.02275331211978137 -0.0019820595431874325 0 0.027385495201204573 -0.0016102425654532292 0 0.027385495201204573 -0.0016102425654532292 0 0.027638562241131655 -0.0010960405267554994 0 0.030145437158546808 -0.00099817315503754572 0 0.030073834437310619 -0.00093654709929789318 0 0.030144222755583511 -0.00085512627571770734 0 0.03089886498482668 -0.0009053649686027801 0 0.027638562241131655 -0.0010960405267554994 0 0.030274784601687331 -0.00090378311897661525 0 0.030145437158546808 -0.00099817315503754572 0 0.030144222755583511 -0.00085512627571770734 0 0.027664560804521499 0.00041766456264270444 0 0.026696295094640221 -0.0013459804919434145 0 0.025794871837227479 -0.0011524010330080268 0 0.03089886498482668 -0.0009053649686027801 0 0.032733130606919396 -0.00076639652783894576 0 0.034739255594392532 -0.0005698277885143369 0 0.034684419909007037 -0.00058658116494867871 0 0.034715969926132698 -0.0005226565197083596 0 0.034747955543392196 -0.00061457097648923576 0 0.034739255594392532 -0.0005698277885143369 0 0.034684419909007037 -0.00058658116494867871 0 0.034739255594392532 -0.0005698277885143369 0 0.034763274242614363 -0.00058583824055563562 0 0.034765177999825286 -0.00055954184039938494 0 0.034739255594392532 -0.0005698277885143369 0 0.034759770574631824 -0.00053172660509056744 0 0.034765177999825286 -0.00055954184039938494 0 0.032236450292797654 -0.00066313543204050756 0 0.032733130606919396 -0.00076639652783894576 0 0.034591271480229668 -0.00055482607198548963 0 0.034684419909007037 -0.00058658116494867871 0 0.034715969926132698 -0.0005226565197083596 0 0.030025163966231536 -0.00081133280599038988 0 0.030073834437310619 -0.00093654709929789318 0 0.030144222755583511 -0.00085512627571770734 0 0.03463976006553296 -0.00048533600311596365 0 0.034715969926132698 -0.0005226565197083596 0 0.034705926883971228 -0.00046457122430392347 0 0.03463976006553296 -0.00048533600311596365 0 0.034591271480229668 -0.00055482607198548963 0 0.034715969926132698 -0.0005226565197083596 0 0.034715969926132698 -0.0005226565197083596 0 0.034737912392051908 -0.0004829793843349074 0 0.034705926883971228 -0.00046457122430392347 0 0.034759770574631824 -0.00053172660509056744 0 0.034784186813192293 -0.00053537271004694918 0 0.034765177999825286 -0.00055954184039938494 0 0.034739255594392532 -0.0005698277885143369 0 0.034759770574631824 -0.00053172660509056744 0 0.034715969926132698 -0.0005226565197083596 0 0.034759770574631824 -0.00053172660509056744 0 0.034715969926132698 -0.0005226565197083596 0 0.034763088310459961 -0.0004965416325757281 0 0.034715969926132698 -0.0005226565197083596 0 0.034737912392051908 -0.0004829793843349074 0 0.034763088310459961 -0.0004965416325757281 0 0.034759770574631824 -0.00053172660509056744 0 0.034763088310459961 -0.0004965416325757281 0 0.034792948589870892 -0.00050361413752885375 0 0.034763088310459961 -0.0004965416325757281 0 0.034792948589870892 -0.00050361413752885375 0 0.034802718491119676 -0.00046517994246491901 0 0.034792948589870892 -0.00050361413752885375 0 0.0348107489176629 -0.0005293326674845947 0 0.034831504569048433 -0.00048027168851603482 0 0.034792948589870892 -0.00050361413752885375 0 0.034831504569048433 -0.00048027168851603482 0 0.034802718491119676 -0.00046517994246491901 0 0.034759770574631824 -0.00053172660509056744 0 0.034792948589870892 -0.00050361413752885375 0 0.034784186813192293 -0.00053537271004694918 0 0.034792948589870892 -0.00050361413752885375 0 0.034784186813192293 -0.00053537271004694918 0 0.0348107489176629 -0.0005293326674845947 0 0.034784186813192293 -0.00053537271004694918 0 0.0348107489176629 -0.0005293326674845947 0 0.034792411829337115 -0.00056038010981652856 0 0.034838791728567506 -0.0005392644396967944 0 0.0348107489176629 -0.0005293326674845947 0 0.034831504569048433 -0.00048027168851603482 0 0.034838791728567506 -0.0005392644396967944 0 0.0348107489176629 -0.0005293326674845947 0 0.034825485916739403 -0.00055534508233786792 0 0.034342486559921274 -0.00066643456860266369 0 0.034427897731128698 -0.00058120667704239948 0 0.0348107489176629 -0.0005293326674845947 0 0.034792411829337115 -0.00056038010981652856 0 0.034825485916739403 -0.00055534508233786792 0 0.033617079291510574 -0.00087735373123221745 0 0.033602746457533902 -0.00057744651513729351 0 0.033759783689707536 -0.00076109578941185884 0 0.0334933333835832 -0.00086710112639470981 0 0.033617079291510574 -0.00087735373123221745 0 0.033602746457533902 -0.00057744651513729351 0 0.031645916389520828 -0.0014299663162180606 0 0.031696884319887007 -0.0015065461627151321 0 0.031659636743432404 -0.0014597803864461437 0 0.028058971974015873 -0.00082587180117642169 0 0.032036825780923421 -0.0011754143066875439 0 0.031583364811157491 -0.0015717596821840125 0 0.032036825780923421 -0.0011754143066875439 0 0.03143751282843129 -0.00049347560787694794 0 0.031609000109918142 -0.00080271040431334842 0 0.030836661380381897 -0.00098612192903112933 0 0.030765736619502975 -0.0015115833576943287 0 0.031609000109918142 -0.00080271040431334842 0 0.030836661380381897 -0.00098612192903112933 0 0.0334933333835832 -0.00086710112639470981 0 0.033617079291510574 -0.00087735373123221745 0 0.033471254315405763 -0.00099421166900901621 0 0.03258490312553991 -0.00063586119632347597 0 0.032144779759669749 -0.00074057755356177549 0 0.030442176811357378 -0.0009189768054023833 0 0.030483530721761531 -0.00066194912128068309 0 0.030350571066105354 -0.00077269539574088895 0 0.028058971974015873 -0.00082587180117642169 0 0.032144779759669749 -0.00074057755356177549 0 0.034813638979617451 -0.00059567924957305406 0 0.03478805854350768 -0.00059574905376387683 0 0.034804966055242893 -0.00057659818924900665 0 0.034813638979617451 -0.00059567924957305406 0 0.03478805854350768 -0.00059574905376387683 0 0.034776901134720879 -0.00062442900923923191 0 0.032144779759669749 -0.00074057755356177549 0 0.031926076283364156 -0.00084751674131989922 0 0.034747955543392196 -0.00061457097648923576 0 0.034739255594392532 -0.0005698277885143369 0 0.034763274242614363 -0.00058583824055563562 0 0.034747955543392196 -0.00061457097648923576 0 0.034757787664687519 -0.00060438536586431902 0 0.034763274242614363 -0.00058583824055563562 0 0.031926076283364156 -0.00084751674131989922 0 0.033410474581574742 -0.0012803896469580831 0 0.03478805854350768 -0.00059574905376387683 0 0.034776901134720879 -0.00062442900923923191 0 0.034763274242614363 -0.00058583824055563562 0 0.03478805854350768 -0.00059574905376387683 0 0.034763274242614363 -0.00058583824055563562 0 0.034792411829337115 -0.00056038010981652856 0 0.034763274242614363 -0.00058583824055563562 0 0.034765177999825286 -0.00055954184039938494 0 0.034792411829337115 -0.00056038010981652856 0 0.034784186813192293 -0.00053537271004694918 0 0.034765177999825286 -0.00055954184039938494 0 0.034792411829337115 -0.00056038010981652856 0 0.034792411829337115 -0.00056038010981652856 0 0.034825485916739403 -0.00055534508233786792 0 0.034804966055242893 -0.00057659818924900665 0 0.034834475115930512 -0.00053893335242435577 0 0.034813638979617451 -0.00059567924957305406 0 0.034825485916739403 -0.00055534508233786792 0 0.034813638979617451 -0.00059567924957305406 0 0.034825485916739403 -0.00055534508233786792 0 0.034804966055242893 -0.00057659818924900665 0 0.034342486559921274 -0.00066643456860266369 0 0.032144779759669749 -0.00074057755356177549 0 0.03478805854350768 -0.00059574905376387683 0 0.034792411829337115 -0.00056038010981652856 0 0.034804966055242893 -0.00057659818924900665 0 0.03485904331168882 -0.00038774188172308342 0 0.034883192761431023 -0.00034380462671301798 0 0.034896651407454939 -0.00041650033566447998 0 0.03485904331168882 -0.00038774188172308342 0 0.034843448675368906 -0.00033707045839630829 0 0.03480072742341711 -0.00038331207229578857 0 0.03485904331168882 -0.00038774188172308342 0 0.034822112785989595 -0.00042302876200352038 0 0.03480072742341711 -0.00038331207229578857 0 0.03485904331168882 -0.00038774188172308342 0 0.034843448675368906 -0.00033707045839630829 0 0.034883192761431023 -0.00034380462671301798 0 0.034883192761431023 -0.00034380462671301798 0 0.034896651407454939 -0.00041650033566447998 0 0.034940018119304896 -0.00028850700590845197 0 0.034919194689032422 -0.00047810498680986573 0 0.034870362034484362 -0.00049187320655200606 0 0.034913553963909494 -0.00030835874174738108 0 0.034229553044544177 -0.0005580566326219028 0 0.034362781499045182 -0.00027984983011703819 0 0.034942412756197833 -0.00043695532282222424 0 0.034919534286576501 -0.00030269007509338154 0 0.034342486559921274 -0.00066643456860266369 0 0.034942412756197833 -0.00043695532282222424 0 0.034342486559921274 -0.00066643456860266369 0 0.034229553044544177 -0.0005580566326219028 0 0.034828458051433954 -0.00069591870607697175 0 0.034919194689032422 -0.00047810498680986573 0 0.034870362034484362 -0.00049187320655200606 0 0.034831504569048433 -0.00048027168851603482 0 0.034896651407454939 -0.00041650033566447998 0 0.034841544798196247 -0.00043947121877810407 0 0.034838791728567506 -0.0005392644396967944 0 0.034831504569048433 -0.00048027168851603482 0 0.034896651407454939 -0.00041650033566447998 0 0.034896651407454939 -0.00041650033566447998 0 0.034862888382239547 -0.00041413828509782608 0 0.034841544798196247 -0.00043947121877810407 0 0.03485904331168882 -0.00038774188172308342 0 0.034896651407454939 -0.00041650033566447998 0 0.034862888382239547 -0.00041413828509782608 0 0.034862888382239547 -0.00041413828509782608 0 0.034841544798196247 -0.00043947121877810407 0 0.034822112785989595 -0.00042302876200352038 0 0.03485904331168882 -0.00038774188172308342 0 0.034862888382239547 -0.00041413828509782608 0 0.034822112785989595 -0.00042302876200352038 0 0.034841544798196247 -0.00043947121877810407 0 0.034822112785989595 -0.00042302876200352038 0 0.034802718491119676 -0.00046517994246491901 0 0.034831504569048433 -0.00048027168851603482 0 0.034841544798196247 -0.00043947121877810407 0 0.034802718491119676 -0.00046517994246491901 0 0.034822112785989595 -0.00042302876200352038 0 0.034802718491119676 -0.00046517994246491901 0 0.034766485920041904 -0.00044688414469873871 0 0.034763088310459961 -0.0004965416325757281 0 0.034802718491119676 -0.00046517994246491901 0 0.034766485920041904 -0.00044688414469873871 0 0.034737912392051908 -0.0004829793843349074 0 0.034763088310459961 -0.0004965416325757281 0 0.034766485920041904 -0.00044688414469873871 0 0.034737912392051908 -0.0004829793843349074 0 0.034766485920041904 -0.00044688414469873871 0 0.034705926883971228 -0.00046457122430392347 0 0.034766485920041904 -0.00044688414469873871 0 0.03480072742341711 -0.00038331207229578857 0 0.034751003307529997 -0.00040473844984860598 0 0.034766485920041904 -0.00044688414469873871 0 0.034705926883971228 -0.00046457122430392347 0 0.034751003307529997 -0.00040473844984860598 0 0.034822112785989595 -0.00042302876200352038 0 0.034766485920041904 -0.00044688414469873871 0 0.03480072742341711 -0.00038331207229578857 0 0.034705926883971228 -0.00046457122430392347 0 0.034708681139228342 -0.00038950996810397276 0 0.034751003307529997 -0.00040473844984860598 0 0.034705926883971228 -0.00046457122430392347 0 0.034708681139228342 -0.00038950996810397276 0 0.03465339379990201 -0.00043060204275285831 0 0.03463976006553296 -0.00048533600311596365 0 0.034705926883971228 -0.00046457122430392347 0 0.03465339379990201 -0.00043060204275285831 0 0.034708681139228342 -0.00038950996810397276 0 0.034755427063618102 -0.0003563091684798494 0 0.034751003307529997 -0.00040473844984860598 0 0.034708681139228342 -0.00038950996810397276 0 0.034755427063618102 -0.0003563091684798494 0 0.034718737739035797 -0.00033476800218764448 0 0.034708681139228342 -0.00038950996810397276 0 0.034718737739035797 -0.00033476800218764448 0 0.034665190731850197 -0.00037006788294769995 0 0.034755427063618102 -0.0003563091684798494 0 0.03480072742341711 -0.00038331207229578857 0 0.034751003307529997 -0.00040473844984860598 0 0.034755427063618102 -0.0003563091684798494 0 0.03480072742341711 -0.00038331207229578857 0 0.034796399106926147 -0.0003170586412822396 0 0.034843448675368906 -0.00033707045839630829 0 0.03480072742341711 -0.00038331207229578857 0 0.034796399106926147 -0.0003170586412822396 0 0.034843448675368906 -0.00033707045839630829 0 0.034796399106926147 -0.0003170586412822396 0 0.034838416029448462 -0.00029102665633030873 0 0.034755427063618102 -0.0003563091684798494 0 0.034796399106926147 -0.0003170586412822396 0 0.034765480309042744 -0.00029457220205983349 0 0.034796399106926147 -0.0003170586412822396 0 0.034810542117275571 -0.00026562499203607097 0 0.034765480309042744 -0.00029457220205983349 0 0.034796399106926147 -0.0003170586412822396 0 0.034810542117275571 -0.00026562499203607097 0 0.034838416029448462 -0.00029102665633030873 0 0.034810542117275571 -0.00026562499203607097 0 0.034838416029448462 -0.00029102665633030873 0 0.034862450552391608 -0.00024591927511700187 0 0.034718737739035797 -0.00033476800218764448 0 0.03472935446195792 -0.00029129759859196092 0 0.034685240132103556 -0.00031411532028636602 0 0.034755427063618102 -0.0003563091684798494 0 0.034718737739035797 -0.00033476800218764448 0 0.034765480309042744 -0.00029457220205983349 0 0.034718737739035797 -0.00033476800218764448 0 0.034765480309042744 -0.00029457220205983349 0 0.03472935446195792 -0.00029129759859196092 0 0.034765480309042744 -0.00029457220205983349 0 0.03472935446195792 -0.00029129759859196092 0 0.034762712228384104 -0.00024840111674701568 0 0.034810542117275571 -0.00026562499203607097 0 0.034765480309042744 -0.00029457220205983349 0 0.034762712228384104 -0.00024840111674701568 0 0.03472935446195792 -0.00029129759859196092 0 0.034707150927324043 -0.00026700423278834702 0 0.034685240132103556 -0.00031411532028636602 0 0.03472935446195792 -0.00029129759859196092 0 0.034762712228384104 -0.00024840111674701568 0 0.034707150927324043 -0.00026700423278834702 0 0.034730052302985266 -0.00022685124126587639 0 0.034762712228384104 -0.00024840111674701568 0 0.034707150927324043 -0.00026700423278834702 0 0.034762712228384104 -0.00024840111674701568 0 0.034772294752114734 -0.00019150810721507738 0 0.034830007459588287 -0.00020770717786822545 0 0.034730052302985266 -0.00022685124126587639 0 0.034772294752114734 -0.00019150810721507738 0 0.034731980229922813 -0.0001922313135187783 0 0.034730052302985266 -0.00022685124126587639 0 0.034762712228384104 -0.00024840111674701568 0 0.034772294752114734 -0.00019150810721507738 0 0.034830007459588287 -0.00020770717786822545 0 0.034862450552391608 -0.00024591927511700187 0 0.034901433573172089 -0.00018721161040513478 0 0.034810542117275571 -0.00026562499203607097 0 0.034830007459588287 -0.00020770717786822545 0 0.034862450552391608 -0.00024591927511700187 0 0.034810542117275571 -0.00026562499203607097 0 0.034762712228384104 -0.00024840111674701568 0 0.034830007459588287 -0.00020770717786822545 0 0.034910069318220771 -0.00023656482783621807 0 0.03496255022543901 -0.00017099222363074036 0 0.034901433573172089 -0.00018721161040513478 0 0.034910069318220771 -0.00023656482783621807 0 0.034862450552391608 -0.00024591927511700187 0 0.034901433573172089 -0.00018721161040513478 0 0.034910069318220771 -0.00023656482783621807 0 0.034862450552391608 -0.00024591927511700187 0 0.034879689819647321 -0.00029102115640837722 0 0.034838416029448462 -0.00029102665633030873 0 0.034862450552391608 -0.00024591927511700187 0 0.034879689819647321 -0.00029102115640837722 0 0.034910069318220771 -0.00023656482783621807 0 0.034879689819647321 -0.00029102115640837722 0 0.034940018119304896 -0.00028850700590845197 0 0.034883192761431023 -0.00034380462671301798 0 0.034879689819647321 -0.00029102115640837722 0 0.034940018119304896 -0.00028850700590845197 0 0.034843448675368906 -0.00033707045839630829 0 0.034883192761431023 -0.00034380462671301798 0 0.034879689819647321 -0.00029102115640837722 0 0.034843448675368906 -0.00033707045839630829 0 0.034838416029448462 -0.00029102665633030873 0 0.034879689819647321 -0.00029102115640837722 0 0.034919194689032422 -0.00047810498680986573 0 0.034913553963909494 -0.00030835874174738108 0 0.034993064551481649 -0.00028443774363745469 0 0.034910069318220771 -0.00023656482783621807 0 0.034940018119304896 -0.00028850700590845197 0 0.03496255022543901 -0.00017099222363074036 0 0.034913553963909494 -0.00030835874174738108 0 0.03496255022543901 -0.00017099222363074036 0 0.034993064551481649 -0.00028443774363745469 0 0.034919534286576501 -0.00030269007509338154 0 0.034959633954839808 -0.00017689869774865688 0 0.03496255022543901 -0.00017099222363074036 0 0.034990253376355814 -9.3172243406139762e-05 0 0.035036022017257577 -0.00014570794052049833 0 0.03496255022543901 -0.00017099222363074036 0 0.034944384038347778 -0.00012698595817947048 0 0.034990253376355814 -9.3172243406139762e-05 0 0.03496255022543901 -0.00017099222363074036 0 0.034901433573172089 -0.00018721161040513478 0 0.034944384038347778 -0.00012698595817947048 0 0.034901433573172089 -0.00018721161040513478 0 0.034944384038347778 -0.00012698595817947048 0 0.034886517085132421 -0.00014652906697826983 0 0.034944384038347778 -0.00012698595817947048 0 0.034938366538641047 -8.1549541323646296e-05 0 0.034886517085132421 -0.00014652906697826983 0 0.034944384038347778 -0.00012698595817947048 0 0.034938366538641047 -8.1549541323646296e-05 0 0.034990253376355814 -9.3172243406139762e-05 0 0.034938366538641047 -8.1549541323646296e-05 0 0.034990253376355814 -9.3172243406139762e-05 0 0.034989705227949225 -3.1958573297870441e-05 0 0.034938366538641047 -8.1549541323646296e-05 0 0.034989705227949225 -3.1958573297870441e-05 0 0.034964068321369141 -2.9319318642732844e-05 0 0.034964068321369141 -2.9319318642732844e-05 0 0.035000002485851854 -3.9781952407204786e-08 0 0.034999736454307824 6.6232296151568733e-08 0 0.034989705227949225 -3.1958573297870441e-05 0 0.034964068321369141 -2.9319318642732844e-05 0 0.035000002485851854 -3.9781952407204786e-08 0 0.034989705227949225 -3.1958573297870441e-05 0 0.035000002485851854 -3.9781952407204786e-08 0 0.035000045439995346 1.0090726485525315e-08 0 0.035000005836188702 3.4418627086814772e-10 0 0.03500310852097438 -7.3017736125150864e-06 0 0.034999999690849486 -2.7622609605797519e-09 0 0.034999961772161144 -1.147050929875573e-08 0 0.034905231368838628 -3.0595997920546024e-05 0 0.034964068321369141 -2.9319318642732844e-05 0 0.034999736454307824 6.6232296151568733e-08 0 0.034889452647508062 -6.7328414294313892e-05 0 0.034938366538641047 -8.1549541323646296e-05 0 0.034964068321369141 -2.9319318642732844e-05 0 0.034889452647508062 -6.7328414294313892e-05 0 0.034889452647508062 -6.7328414294313892e-05 0 0.034810672804122221 -3.9844232993754254e-05 0 0.034796304711529731 -9.8387349371232131e-05 0 0.034999736454307824 6.6232296151568733e-08 0 0.034889452647508062 -6.7328414294313892e-05 0 0.034810672804122221 -3.9844232993754254e-05 0 0.034889452647508062 -6.7328414294313892e-05 0 0.034796304711529731 -9.8387349371232131e-05 0 0.034801833941638792 -0.00013259333149470497 0 0.034796304711529731 -9.8387349371232131e-05 0 0.034801833941638792 -0.00013259333149470497 0 0.034759591084128405 -0.00012960594217115438 0 0.034938366538641047 -8.1549541323646296e-05 0 0.034889452647508062 -6.7328414294313892e-05 0 0.034878846574376031 -0.00011124549817424683 0 0.034938366538641047 -8.1549541323646296e-05 0 0.034878846574376031 -0.00011124549817424683 0 0.034886517085132421 -0.00014652906697826983 0 0.034889452647508062 -6.7328414294313892e-05 0 0.034878846574376031 -0.00011124549817424683 0 0.034801833941638792 -0.00013259333149470497 0 0.034878846574376031 -0.00011124549817424683 0 0.034834110944615103 -0.00015766083476632183 0 0.034801833941638792 -0.00013259333149470497 0 0.034830007459588287 -0.00020770717786822545 0 0.034901433573172089 -0.00018721161040513478 0 0.034886517085132421 -0.00014652906697826983 0 0.034878846574376031 -0.00011124549817424683 0 0.034886517085132421 -0.00014652906697826983 0 0.034834110944615103 -0.00015766083476632183 0 0.034830007459588287 -0.00020770717786822545 0 0.034886517085132421 -0.00014652906697826983 0 0.034834110944615103 -0.00015766083476632183 0 0.034772294752114734 -0.00019150810721507738 0 0.034834110944615103 -0.00015766083476632183 0 0.034801833941638792 -0.00013259333149470497 0 0.034772294752114734 -0.00019150810721507738 0 0.034801833941638792 -0.00013259333149470497 0 0.034744088311740175 -0.00015807787220676795 0 0.034801833941638792 -0.00013259333149470497 0 0.034744088311740175 -0.00015807787220676795 0 0.034759591084128405 -0.00012960594217115438 0 0.034772294752114734 -0.00019150810721507738 0 0.034830007459588287 -0.00020770717786822545 0 0.034834110944615103 -0.00015766083476632183 0 0.034772294752114734 -0.00019150810721507738 0 0.034744088311740175 -0.00015807787220676795 0 0.034731980229922813 -0.0001922313135187783 0 0.034711894775609604 -0.00017903732765070315 0 0.034744088311740175 -0.00015807787220676795 0 0.034731980229922813 -0.0001922313135187783 0 0.034711894775609604 -0.00017903732765070315 0 0.034718106610922964 -0.00016006329532943398 0 0.034744088311740175 -0.00015807787220676795 0 0.034711894775609604 -0.00017903732765070315 0 0.034693254076814985 -0.00016400345447362916 0 0.034676477153680552 -0.0001941388829076521 0 0.034693254076814985 -0.00016400345447362916 0 0.034652028538132054 -0.00018682946217105179 0 0.034676477153680552 -0.0001941388829076521 0 0.034693254076814985 -0.00016400345447362916 0 0.034702474225085204 -0.00014332151453679058 0 0.034666566153554908 -0.00016474621443283202 0 0.034711894775609604 -0.00017903732765070315 0 0.034693254076814985 -0.00016400345447362916 0 0.034718106610922964 -0.00016006329532943398 0 0.034693254076814985 -0.00016400345447362916 0 0.034718106610922964 -0.00016006329532943398 0 0.034722079974685127 -0.00014139572943439678 0 0.034711858478153168 -0.00013334994202485688 0 0.034722079974685127 -0.00014139572943439678 0 0.034738342917451356 -0.00011796230162666976 0 0.034693254076814985 -0.00016400345447362916 0 0.034702474225085204 -0.00014332151453679058 0 0.034722079974685127 -0.00014139572943439678 0 0.034702474225085204 -0.00014332151453679058 0 0.034711858478153168 -0.00013334994202485688 0 0.034722079974685127 -0.00014139572943439678 0 0.034702474225085204 -0.00014332151453679058 0 0.034711858478153168 -0.00013334994202485688 0 0.03470857955978493 -0.00012100628270539455 0 0.034722079974685127 -0.00014139572943439678 0 0.034744088311740175 -0.00015807787220676795 0 0.034759591084128405 -0.00012960594217115438 0 0.034718106610922964 -0.00016006329532943398 0 0.034722079974685127 -0.00014139572943439678 0 0.034744088311740175 -0.00015807787220676795 0 0.03470857955978493 -0.00012100628270539455 0 0.034918766089121929 -6.66250600667701e-05 0 0.034888256825359808 -4.9928015473202466e-05 0 0.034712430741029962 -0.00012602913098439951 0 0.034709566963051164 -0.00014723155335808806 0 0.034961351488476497 -3.8871307981919943e-05 0 0.03498843587201101 -3.6656730237198817e-05 0 0.034918766089121929 -6.66250600667701e-05 0 0.034666566153554908 -0.00016474621443283202 0 0.03470857955978493 -0.00012100628270539455 0 0.034570137444430007 -0.00020958379741666506 0 0.03470959180823241 -0.00013166364294205421 0 0.03470857955978493 -0.00012100628270539455 0 0.034918766089121929 -6.66250600667701e-05 0 0.034857052631152879 -8.1034028462743485e-05 0 0.034915378596787471 -5.9225204761706942e-05 0 0.034693254076814985 -0.00016400345447362916 0 0.034666566153554908 -0.00016474621443283202 0 0.034652028538132054 -0.00018682946217105179 0 0.034702474225085204 -0.00014332151453679058 0 0.034666566153554908 -0.00016474621443283202 0 0.03470857955978493 -0.00012100628270539455 0 0.03498843587201101 -3.6656730237198817e-05 0 0.034985430205565327 -2.0832151340983094e-05 0 0.03499375196702418 -1.2502949334464304e-05 0 0.034961351488476497 -3.8871307981919943e-05 0 0.03498843587201101 -3.6656730237198817e-05 0 0.034977768635829534 -2.8709221591706555e-05 0 0.03470959180823241 -0.00013166364294205421 0 0.03470857955978493 -0.00012100628270539455 0 0.034715506863078616 -0.00012542984961050883 0 0.03498843587201101 -3.6656730237198817e-05 0 0.034985430205565327 -2.0832151340983094e-05 0 0.034977768635829534 -2.8709221591706555e-05 0 0.034961351488476497 -3.8871307981919943e-05 0 0.034977768635829534 -2.8709221591706555e-05 0 0.034972604770468506 -2.2977983299672748e-05 0 0.034985430205565327 -2.0832151340983094e-05 0 0.034977768635829534 -2.8709221591706555e-05 0 0.034972604770468506 -2.2977983299672748e-05 0 0.034810672804122221 -3.9844232993754254e-05 0 0.03470959180823241 -0.00013166364294205421 0 0.034738342917451356 -0.00011796230162666976 0 0.034810672804122221 -3.9844232993754254e-05 0 0.034796304711529731 -9.8387349371232131e-05 0 0.034738342917451356 -0.00011796230162666976 0 0.034905231368838628 -3.0595997920546024e-05 0 0.034857052631152879 -8.1034028462743485e-05 0 0.034796304711529731 -9.8387349371232131e-05 0 0.034759591084128405 -0.00012960594217115438 0 0.034738342917451356 -0.00011796230162666976 0 0.034722079974685127 -0.00014139572943439678 0 0.034759591084128405 -0.00012960594217115438 0 0.034738342917451356 -0.00011796230162666976 0 0.03470959180823241 -0.00013166364294205421 0 0.034715506863078616 -0.00012542984961050883 0 0.034738342917451356 -0.00011796230162666976 0 0.034711858478153168 -0.00013334994202485688 0 0.034715506863078616 -0.00012542984961050883 0 0.034738342917451356 -0.00011796230162666976 0 0.034711858478153168 -0.00013334994202485688 0 0.03470857955978493 -0.00012100628270539455 0 0.034715506863078616 -0.00012542984961050883 0 0.03500310852097438 -7.3017736125150864e-06 0 0.03498843587201101 -3.6656730237198817e-05 0 0.03499375196702418 -1.2502949334464304e-05 0 0.03500310852097438 -7.3017736125150864e-06 0 0.03499375196702418 -1.2502949334464304e-05 0 0.034997115911153391 -3.1684261093913247e-06 0 0.03499375196702418 -1.2502949334464304e-05 0 0.034988170024046111 -8.6406735144348282e-06 0 0.034997115911153391 -3.1684261093913247e-06 0 0.034985430205565327 -2.0832151340983094e-05 0 0.034972604770468506 -2.2977983299672748e-05 0 0.034988170024046111 -8.6406735144348282e-06 0 0.034985430205565327 -2.0832151340983094e-05 0 0.03499375196702418 -1.2502949334464304e-05 0 0.034988170024046111 -8.6406735144348282e-06 0 0.034972604770468506 -2.2977983299672748e-05 0 0.034988170024046111 -8.6406735144348282e-06 0 0.034975599925421812 -1.3023048684425417e-05 0 0.034988170024046111 -8.6406735144348282e-06 0 0.034985965308205809 -5.014049749359472e-06 0 0.034975599925421812 -1.3023048684425417e-05 0 0.034988170024046111 -8.6406735144348282e-06 0 0.034999990064893106 -1.6555439453934399e-09 0 0.034997115911153391 -3.1684261093913247e-06 0 0.034988170024046111 -8.6406735144348282e-06 0 0.034999990064893106 -1.6555439453934399e-09 0 0.034985965308205809 -5.014049749359472e-06 0 0.034999990064893106 -1.6555439453934399e-09 0 0.034999999690849486 -2.7622609605797519e-09 0 0.034997115911153391 -3.1684261093913247e-06 0 0.03500310852097438 -7.3017736125150864e-06 0 0.034999999690849486 -2.7622609605797519e-09 0 0.034997115911153391 -3.1684261093913247e-06 0 0.0350003701920239 -1.4322128057974592e-07 0 0.035041199736162022 -0.00014346611701188824 0 0.034972686568905835 -0.00021063202880100741 0 0.034999997442193793 -2.5902773702875223e-08 0 0.034999355735956639 -8.7894197006398969e-05 0 0.034999990064893106 -1.6555439453934399e-09 0 0.034999951870092749 3.222559663635021e-09 0 0.034985965308205809 -5.014049749359472e-06 0 0.034999951870092749 3.222559663635021e-09 0 0.034985965308205809 -5.014049749359472e-06 0 0.034952425336188517 -1.7297264598998006e-05 0 0.034985965308205809 -5.014049749359472e-06 0 0.034975599925421812 -1.3023048684425417e-05 0 0.034952425336188517 -1.7297264598998006e-05 0 0.034972604770468506 -2.2977983299672748e-05 0 0.034975599925421812 -1.3023048684425417e-05 0 0.034952425336188517 -1.7297264598998006e-05 0 0.034999355735956639 -8.7894197006398969e-05 0 0.034978933433908198 -0.00019407388844571856 0 0.035041199736162022 -0.00014346611701188824 0 0.035079071480946328 -0.00033906134730643479 0 0.034972686568905835 -0.00021063202880100741 0 0.034952425336188517 -1.7297264598998006e-05 0 0.034945530920814531 -4.0780766881591961e-05 0 0.034916021057001312 -5.8813293522776615e-05 0 0.034972604770468506 -2.2977983299672748e-05 0 0.034952425336188517 -1.7297264598998006e-05 0 0.034945530920814531 -4.0780766881591961e-05 0 0.034961351488476497 -3.8871307981919943e-05 0 0.034972604770468506 -2.2977983299672748e-05 0 0.034945530920814531 -4.0780766881591961e-05 0 0.034961351488476497 -3.8871307981919943e-05 0 0.034945530920814531 -4.0780766881591961e-05 0 0.034918766089121929 -6.66250600667701e-05 0 0.034945530920814531 -4.0780766881591961e-05 0 0.034916021057001312 -5.8813293522776615e-05 0 0.034918766089121929 -6.66250600667701e-05 0 0.034916021057001312 -5.8813293522776615e-05 0 0.03488769235067217 -7.7933792319811269e-05 0 0.034905920035675816 -6.9370198243572608e-05 0 0.034978933433908198 -0.00019407388844571856 0 0.035080496639953877 -0.00036988872467839744 0 0.035079071480946328 -0.00033906134730643479 0 0.035040917341169937 -0.0005952933444975236 0 0.034897535911618628 -0.00038703456062051146 0 0.034914485422382582 -9.2983644702585101e-05 0 0.034905920035675816 -6.9370198243572608e-05 0 0.034888256825359808 -4.9928015473202466e-05 0 0.034464932801821779 -0.00031699247580222167 0 0.034570137444430007 -0.00020958379741666506 0 0.034565229667315581 -0.00028128704979029235 0 0.034766025924108657 -0.00017316827965605525 0 0.034709566963051164 -0.00014723155335808806 0 0.034464932801821779 -0.00031699247580222167 0 0.034565229667315581 -0.00028128704979029235 0 0.034534241858810065 -0.00034580411504464093 0 0.03488769235067217 -7.7933792319811269e-05 0 0.034914485422382582 -9.2983644702585101e-05 0 0.034905920035675816 -6.9370198243572608e-05 0 0.034916021057001312 -5.8813293522776615e-05 0 0.034905920035675816 -6.9370198243572608e-05 0 0.03490664625002933 -6.4273767450644822e-05 0 0.034905920035675816 -6.9370198243572608e-05 0 0.03490664625002933 -6.4273767450644822e-05 0 0.034888256825359808 -4.9928015473202466e-05 0 0.034916021057001312 -5.8813293522776615e-05 0 0.03490664625002933 -6.4273767450644822e-05 0 0.034918766089121929 -6.66250600667701e-05 0 0.03490664625002933 -6.4273767450644822e-05 0 0.034918766089121929 -6.66250600667701e-05 0 0.034888256825359808 -4.9928015473202466e-05 0 0.034666566153554908 -0.00016474621443283202 0 0.034570137444430007 -0.00020958379741666506 0 0.034652028538132054 -0.00018682946217105179 0 0.034570137444430007 -0.00020958379741666506 0 0.034652028538132054 -0.00018682946217105179 0 0.034636034066662873 -0.00020857386479499951 0 0.034652028538132054 -0.00018682946217105179 0 0.034636034066662873 -0.00020857386479499951 0 0.034676477153680552 -0.0001941388829076521 0 0.034636034066662873 -0.00020857386479499951 0 0.034610963109024347 -0.00023913111438137651 0 0.034658288757217916 -0.00023315621037742605 0 0.034610963109024347 -0.00023913111438137651 0 0.034658288757217916 -0.00023315621037742605 0 0.034627641260987226 -0.00026778718800954816 0 0.034570137444430007 -0.00020958379741666506 0 0.034636034066662873 -0.00020857386479499951 0 0.034610963109024347 -0.00023913111438137651 0 0.034570137444430007 -0.00020958379741666506 0 0.034610963109024347 -0.00023913111438137651 0 0.034565229667315581 -0.00028128704979029235 0 0.034730052302985266 -0.00022685124126587639 0 0.034731980229922813 -0.0001922313135187783 0 0.034701049840492999 -0.00020854135355055799 0 0.034711894775609604 -0.00017903732765070315 0 0.034731980229922813 -0.0001922313135187783 0 0.034701049840492999 -0.00020854135355055799 0 0.034701049840492999 -0.00020854135355055799 0 0.034676477153680552 -0.0001941388829076521 0 0.034658288757217916 -0.00023315621037742605 0 0.034636034066662873 -0.00020857386479499951 0 0.034676477153680552 -0.0001941388829076521 0 0.034658288757217916 -0.00023315621037742605 0 0.034711894775609604 -0.00017903732765070315 0 0.034701049840492999 -0.00020854135355055799 0 0.034676477153680552 -0.0001941388829076521 0 0.034701049840492999 -0.00020854135355055799 0 0.034658288757217916 -0.00023315621037742605 0 0.034691482475512618 -0.00024424830367930465 0 0.034658288757217916 -0.00023315621037742605 0 0.034691482475512618 -0.00024424830367930465 0 0.03465821434254069 -0.00028516237836217763 0 0.034730052302985266 -0.00022685124126587639 0 0.034701049840492999 -0.00020854135355055799 0 0.034691482475512618 -0.00024424830367930465 0 0.034730052302985266 -0.00022685124126587639 0 0.034691482475512618 -0.00024424830367930465 0 0.034707150927324043 -0.00026700423278834702 0 0.034707150927324043 -0.00026700423278834702 0 0.03465821434254069 -0.00028516237836217763 0 0.034685240132103556 -0.00031411532028636602 0 0.034691482475512618 -0.00024424830367930465 0 0.034707150927324043 -0.00026700423278834702 0 0.03465821434254069 -0.00028516237836217763 0 0.034658288757217916 -0.00023315621037742605 0 0.03465821434254069 -0.00028516237836217763 0 0.034627641260987226 -0.00026778718800954816 0 0.03465821434254069 -0.00028516237836217763 0 0.03459410301363075 -0.00030779258416107903 0 0.034624034952146006 -0.00034081537634753664 0 0.03465821434254069 -0.00028516237836217763 0 0.034685240132103556 -0.00031411532028636602 0 0.034624034952146006 -0.00034081537634753664 0 0.03465821434254069 -0.00028516237836217763 0 0.034627641260987226 -0.00026778718800954816 0 0.03459410301363075 -0.00030779258416107903 0 0.034565229667315581 -0.00028128704979029235 0 0.034627641260987226 -0.00026778718800954816 0 0.03459410301363075 -0.00030779258416107903 0 0.034610963109024347 -0.00023913111438137651 0 0.034565229667315581 -0.00028128704979029235 0 0.034627641260987226 -0.00026778718800954816 0 0.034565229667315581 -0.00028128704979029235 0 0.03459410301363075 -0.00030779258416107903 0 0.034534241858810065 -0.00034580411504464093 0 0.034534241858810065 -0.00034580411504464093 0 0.034598478594662155 -0.00041028298821277586 0 0.034513171914562497 -0.00043513956138105408 0 0.03459410301363075 -0.00030779258416107903 0 0.034534241858810065 -0.00034580411504464093 0 0.034624034952146006 -0.00034081537634753664 0 0.034534241858810065 -0.00034580411504464093 0 0.034624034952146006 -0.00034081537634753664 0 0.034598478594662155 -0.00041028298821277586 0 0.034718737739035797 -0.00033476800218764448 0 0.034685240132103556 -0.00031411532028636602 0 0.034665190731850197 -0.00037006788294769995 0 0.034685240132103556 -0.00031411532028636602 0 0.034624034952146006 -0.00034081537634753664 0 0.034665190731850197 -0.00037006788294769995 0 0.034624034952146006 -0.00034081537634753664 0 0.034665190731850197 -0.00037006788294769995 0 0.034598478594662155 -0.00041028298821277586 0 0.034665190731850197 -0.00037006788294769995 0 0.03465339379990201 -0.00043060204275285831 0 0.034598478594662155 -0.00041028298821277586 0 0.034708681139228342 -0.00038950996810397276 0 0.034665190731850197 -0.00037006788294769995 0 0.03465339379990201 -0.00043060204275285831 0 0.03465339379990201 -0.00043060204275285831 0 0.034598478594662155 -0.00041028298821277586 0 0.034577980015730383 -0.00047589728787089794 0 0.03463976006553296 -0.00048533600311596365 0 0.03465339379990201 -0.00043060204275285831 0 0.034577980015730383 -0.00047589728787089794 0 0.034480823182838134 -0.00052376002734106871 0 0.034513171914562497 -0.00043513956138105408 0 0.034577980015730383 -0.00047589728787089794 0 0.034598478594662155 -0.00041028298821277586 0 0.034513171914562497 -0.00043513956138105408 0 0.034577980015730383 -0.00047589728787089794 0 0.034480823182838134 -0.00052376002734106871 0 0.034513171914562497 -0.00043513956138105408 0 0.034436323977275578 -0.00045489137049827948 0 0.034513171914562497 -0.00043513956138105408 0 0.034436323977275578 -0.00045489137049827948 0 0.034463590930317978 -0.00039882433526363504 0 0.034436323977275578 -0.00045489137049827948 0 0.034365504387834117 -0.00043252400655654268 0 0.034463590930317978 -0.00039882433526363504 0 0.034436323977275578 -0.00045489137049827948 0 0.034354171469918697 -0.0004838641878884725 0 0.034365504387834117 -0.00043252400655654268 0 0.032860498026733152 -0.00065695201215479337 0 0.033092436844940204 -0.00074463899359800188 0 0.033142458980725653 -0.000179280901312506 0 0.031982192359870605 -0.00049782587746236972 0 0.034082408673969528 -0.00035074946056439942 0 0.032857612292887625 -0.00038891452265119904 0 0.031982192359870605 -0.00049782587746236972 0 0.032857612292887625 -0.00038891452265119904 0 0.034082408673969528 -0.00035074946056439942 0 0.034949778439391108 -0.00093533124941018962 0 0.034996091845219145 -0.00086444261910763483 0 0.034870869478432612 -0.00084208197740091232 0 0.03488769235067217 -7.7933792319811269e-05 0 0.034914485422382582 -9.2983644702585101e-05 0 0.034858765533878122 -0.00017448805947320532 0 0.035080496639953877 -0.00036988872467839744 0 0.034082408673969528 -0.00035074946056439942 0 0.034766025924108657 -0.00017316827965605525 0 0.034082408673969528 -0.00035074946056439942 0 0.035040917341169937 -0.0005952933444975236 0 0.034996091845219145 -0.00086444261910763483 0 0.034870869478432612 -0.00084208197740091232 0 0.034534241858810065 -0.00034580411504464093 0 0.034513171914562497 -0.00043513956138105408 0 0.034463590930317978 -0.00039882433526363504 0 0.034464932801821779 -0.00031699247580222167 0 0.034534241858810065 -0.00034580411504464093 0 0.034463590930317978 -0.00039882433526363504 0 0.034464932801821779 -0.00031699247580222167 0 0.034365504387834117 -0.00043252400655654268 0 0.034463590930317978 -0.00039882433526363504 0 0.034629073302328589 -0.00069051720115437904 0 0.034805694360525948 -0.00070934193617829748 0 0.034734886229343238 -0.00087132784780602241 0 0.035040917341169937 -0.0005952933444975236 0 0.034805694360525948 -0.00070934193617829748 0 0.034870869478432612 -0.00084208197740091232 0 0.034805694360525948 -0.00070934193617829748 0 0.034870869478432612 -0.00084208197740091232 0 0.034734886229343238 -0.00087132784780602241 0 0.034949778439391108 -0.00093533124941018962 0 0.034870869478432612 -0.00084208197740091232 0 0.034734886229343238 -0.00087132784780602241 0 0.032857612292887625 -0.00038891452265119904 0 0.034001402738812012 -0.00071334778401226724 0 0.0323042774297677 0.00016562867567246746 0 0.031451144992918324 -4.3430923364517675e-05 0 0.033135860991376942 -0.00055389419996291264 0 0.03278300531605547 0.00060260781329898937 0 0.033135860991376942 -0.00055389419996291264 0 0.034094306135285295 -0.00046205948432853313 0 0.026257185228111851 -0.00094356313164872915 0 0.026890446837242163 -0.0016568530352874312 0 0.03278300531605547 0.00060260781329898937 0 0.0323042774297677 0.00016562867567246746 0 0.033135860991376942 -0.00055389419996291264 0 0.034001402738812012 -0.00071334778401226724 0 0.034302276869023776 -0.00068192629657577762 0 0.033135860991376942 -0.00055389419996291264 0 0.034094306135285295 -0.00046205948432853313 0 0.034382495377311764 -0.00066356767533387118 0 0.02048420348796234 -0.0026755558739521511 0 0.020155638032798337 -0.0029426674262009243 0 0.020750506376732161 -0.0029945525192052315 0 0.03471374343805813 -0.00078110736252474272 0 0.034382495377311764 -0.00066356767533387118 0 0.034563627454774828 -0.00069563056842552272 0 0.026890446837242163 -0.0016568530352874312 0 0.029072877733586671 -0.0019026401992357548 0 0.020155638032798337 -0.0029426674262009243 0 0.020646234734788899 -0.0033094155780250128 0 0.020750506376732161 -0.0029945525192052315 0 0.029072877733586671 -0.0019026401992357548 0 0.024390984549057776 -0.0029739140545324626 0 0.034629073302328589 -0.00069051720115437904 0 0.034734886229343238 -0.00087132784780602241 0 0.034382495377311764 -0.00066356767533387118 0 0.034094306135285295 -0.00046205948432853313 0 0.03471374343805813 -0.00078110736252474272 0 0.034382495377311764 -0.00066356767533387118 0 0.034629073302328589 -0.00069051720115437904 0 0.034382495377311764 -0.00066356767533387118 0 0.034563627454774828 -0.00069563056842552272 0 0.034629073302328589 -0.00069051720115437904 0 0.034563627454774828 -0.00069563056842552272 0 0.034737998924660542 -0.00059660553176170059 0 0.034563627454774828 -0.00069563056842552272 0 0.034615992298542772 -0.00065198675390920841 0 0.034737998924660542 -0.00059660553176170059 0 0.029072877733586671 -0.0019026401992357548 0 0.035914057916056244 0.00019239503799063255 0 0.034462035089919726 -0.001020603880812854 0 0.034460849992858263 -0.00075203588114435948 0 0.034615992298542772 -0.00065198675390920841 0 0.03471374343805813 -0.00078110736252474272 0 0.034563627454774828 -0.00069563056842552272 0 0.034615992298542772 -0.00065198675390920841 0 0.034462035089919726 -0.001020603880812854 0 0.034460849992858263 -0.00075203588114435948 0 0.034309313327645009 -0.00087861334654769352 0 0.034460849992858263 -0.00075203588114435948 0 0.034559382980287018 -0.00053021997138132679 0 0.034383726187110927 -0.00070280073866391297 0 0.034460849992858263 -0.00075203588114435948 0 0.034615992298542772 -0.00065198675390920841 0 0.034559382980287018 -0.00053021997138132679 0 0.034615992298542772 -0.00065198675390920841 0 0.034559382980287018 -0.00053021997138132679 0 0.034757332474829858 -0.00041528051057777648 0 0.034615992298542772 -0.00065198675390920841 0 0.034737998924660542 -0.00059660553176170059 0 0.034757332474829858 -0.00041528051057777648 0 0.034737998924660542 -0.00059660553176170059 0 0.034897535911618628 -0.00038703456062051146 0 0.034757332474829858 -0.00041528051057777648 0 0.035040917341169937 -0.0005952933444975236 0 0.034737998924660542 -0.00059660553176170059 0 0.034897535911618628 -0.00038703456062051146 0 0.035040917341169937 -0.0005952933444975236 0 0.034805694360525948 -0.00070934193617829748 0 0.034737998924660542 -0.00059660553176170059 0 0.034629073302328589 -0.00069051720115437904 0 0.034805694360525948 -0.00070934193617829748 0 0.034737998924660542 -0.00059660553176170059 0 0.0350003701920239 -1.4322128057974592e-07 0 0.034892966442478746 -0.00014976409123765595 0 0.03499934262446007 1.3526117838732255e-08 0 0.035079071480946328 -0.00033906134730643479 0 0.034897535911618628 -0.00038703456062051146 0 0.034972686568905835 -0.00021063202880100741 0 0.034897535911618628 -0.00038703456062051146 0 0.034892966442478746 -0.00014976409123765595 0 0.034757332474829858 -0.00041528051057777648 0 0.034897535911618628 -0.00038703456062051146 0 0.034892966442478746 -0.00014976409123765595 0 0.034972686568905835 -0.00021063202880100741 0 0.0350003701920239 -1.4322128057974592e-07 0 0.034892966442478746 -0.00014976409123765595 0 0.034972686568905835 -0.00021063202880100741 0 0.034892966442478746 -0.00014976409123765595 0 0.034660587014893676 -0.00018696996264572717 0 0.03499934262446007 1.3526117838732255e-08 0 0.034892966442478746 -0.00014976409123765595 0 0.034660587014893676 -0.00018696996264572717 0 0.034757332474829858 -0.00041528051057777648 0 0.034559382980287018 -0.00053021997138132679 0 0.034660587014893676 -0.00018696996264572717 0 0.034757332474829858 -0.00041528051057777648 0 0.034559382980287018 -0.00053021997138132679 0 0.034660587014893676 -0.00018696996264572717 0 0.03433247656293939 -0.00053982140095716158 0 0.034660587014893676 -0.00018696996264572717 0 0.03433247656293939 -0.00053982140095716158 0 0.03424310513585048 -0.00016881120416053835 0 0.03433247656293939 -0.00053982140095716158 0 0.033929962715352195 -0.0005756504684884037 0 0.03424310513585048 -0.00016881120416053835 0 0.033929962715352195 -0.0005756504684884037 0 0.03424310513585048 -0.00016881120416053835 0 0.032842319332420405 -0.00035496545481441622 0 0.03424310513585048 -0.00016881120416053835 0 0.034534528839298202 -2.5322270330802166e-05 0 0.03417913454717901 0.00018700436697555544 0 0.034660587014893676 -0.00018696996264572717 0 0.03424310513585048 -0.00016881120416053835 0 0.034534528839298202 -2.5322270330802166e-05 0 0.034660587014893676 -0.00018696996264572717 0 0.034534528839298202 -2.5322270330802166e-05 0 0.03499934262446007 1.3526117838732255e-08 0 0.034534528839298202 -2.5322270330802166e-05 0 0.03499934262446007 1.3526117838732255e-08 0 0.03417913454717901 0.00018700436697555544 0 0.034996648920338116 1.158324629633352e-06 0 0.03417913454717901 0.00018700436697555544 0 0.03106766405868585 -2.137990744158864e-06 0 0.03499934262446007 1.3526117838732255e-08 0 0.034996648920338116 1.158324629633352e-06 0 0.03417913454717901 0.00018700436697555544 0 0.03417913454717901 0.00018700436697555544 0 0.032842319332420405 -0.00035496545481441622 0 0.03106766405868585 -2.137990744158864e-06 0 0.03424310513585048 -0.00016881120416053835 0 0.03417913454717901 0.00018700436697555544 0 0.032842319332420405 -0.00035496545481441622 0 0.033929962715352195 -0.0005756504684884037 0 0.032842319332420405 -0.00035496545481441622 0 0.033629327734950511 -0.00081149386733008356 0 0.032866695673230611 -0.00039130549277940967 0 0.033515583606744399 -0.0010025104670274847 0 0.032842319332420405 -0.00035496545481441622 0 0.03106766405868585 -2.137990744158864e-06 0 0.032496556387292673 -0.0016259604633949052 0 0.031058989139409642 -1.1024211378598887e-06 0 0.028487557436170988 -0.00033967962546875991 0 0.029043527939300429 -2.7706424245256764e-07 0 0.031060155409592227 -5.1394558319321934e-08 0 0.030405761669226664 -0.00082637889684980938 0 0.028487557436170988 -0.00033967962546875991 0 0.029043527939300429 -2.7706424245256764e-07 0 0.027604370809215639 -4.4116353042165485e-05 0 0.030405761669226664 -0.00082637889684980938 0 0.029940534644401082 -0.0011939491131309485 0 0.032496556387292673 -0.0016259604633949052 0 0.03320228098927256 -0.0017067484845640444 0 0.033143862728215817 -0.0022217498522001497 0 0.028487557436170988 -0.00033967962546875991 0 0.027604370809215639 -4.4116353042165485e-05 0 0.026497351160267402 -0.00025314910460836248 0 0.032842319332420405 -0.00035496545481441622 0 0.032496556387292673 -0.0016259604633949052 0 0.033311033442555378 -0.0010483573863875996 0 0.032496556387292673 -0.0016259604633949052 0 0.03320228098927256 -0.0017067484845640444 0 0.033311033442555378 -0.0010483573863875996 0 0.033929962715352195 -0.0005756504684884037 0 0.033629327734950511 -0.00081149386733008356 0 0.034112824321854619 -0.00080696031134331713 0 0.03433247656293939 -0.00053982140095716158 0 0.033929962715352195 -0.0005756504684884037 0 0.034112824321854619 -0.00080696031134331713 0 0.032634365160885519 -0.0011959439879473046 0 0.032193523505454305 -0.0018079869885595664 0 0.034112824321854619 -0.00080696031134331713 0 0.034143812761178137 -0.00081902529658412447 0 0.034250662024296448 -0.00076553765483309709 0 0.03320228098927256 -0.0017067484845640444 0 0.033311033442555378 -0.0010483573863875996 0 0.033673555456572607 -0.001558644886884696 0 0.033515583606744399 -0.0010025104670274847 0 0.032193523505454305 -0.0018079869885595664 0 0.033629327734950511 -0.00081149386733008356 0 0.034112824321854619 -0.00080696031134331713 0 0.034122622013222213 -0.00095446395540340733 0 0.034559382980287018 -0.00053021997138132679 0 0.03433247656293939 -0.00053982140095716158 0 0.034383726187110927 -0.00070280073866391297 0 0.03433247656293939 -0.00053982140095716158 0 0.034112824321854619 -0.00080696031134331713 0 0.034250662024296448 -0.00076553765483309709 0 0.03433247656293939 -0.00053982140095716158 0 0.034250662024296448 -0.00076553765483309709 0 0.034383726187110927 -0.00070280073866391297 0 0.034250662024296448 -0.00076553765483309709 0 0.034383726187110927 -0.00070280073866391297 0 0.034309313327645009 -0.00087861334654769352 0 0.028855021054394244 -0.0030571548139798005 0 0.028516681174736616 -0.0027961270954953649 0 0.028813576481216338 -0.0025767538729062475 0 0.034460849992858263 -0.00075203588114435948 0 0.034383726187110927 -0.00070280073866391297 0 0.034309313327645009 -0.00087861334654769352 0 0.032193523505454305 -0.0018079869885595664 0 0.031534167119031779 -0.0019779407615458334 0 0.034143812761178137 -0.00081902529658412447 0 0.034250662024296448 -0.00076553765483309709 0 0.034309313327645009 -0.00087861334654769352 0 0.029072877733586671 -0.0019026401992357548 0 0.031534167119031779 -0.0019779407615458334 0 0.033673555456572607 -0.001558644886884696 0 0.0333879060590885 -0.0019335153307279218 0 0.033550012231798848 -0.0022154315785971987 0 0.032193523505454305 -0.0018079869885595664 0 0.031249966431773048 -0.0026323811501394291 0 0.03320228098927256 -0.0017067484845640444 0 0.033673555456572607 -0.001558644886884696 0 0.0333879060590885 -0.0019335153307279218 0 0.0333879060590885 -0.0019335153307279218 0 0.033550012231798848 -0.0022154315785971987 0 0.033143862728215817 -0.0022217498522001497 0 0.03320228098927256 -0.0017067484845640444 0 0.0333879060590885 -0.0019335153307279218 0 0.033143862728215817 -0.0022217498522001497 0 0.025362313280754962 1.9088818481669316e-05 0 0.026351066244380932 1.7537146013580785e-05 0 0.026497351160267402 -0.00025314910460836248 0 0.028407377693233905 -0.0015626899906507679 0 0.029940534644401082 -0.0011939491131309485 0 0.033550012231798848 -0.0022154315785971987 0 0.033491005970225536 -0.0026992976539629778 0 0.033143862728215817 -0.0022217498522001497 0 0.031249966431773048 -0.0026323811501394291 0 0.028407377693233905 -0.0015626899906507679 0 0.028529508035304608 -0.0024342356405365794 0 0.028354876797721886 -0.002167615146164135 0 0.028769200460253753 -0.0021052898713823571 0 0.028813576481216338 -0.0025767538729062475 0 0.028529508035304608 -0.0024342356405365794 0 0.028769200460253753 -0.0021052898713823571 0 0.028194570823842614 -0.0025334761138840227 0 0.028516681174736616 -0.0027961270954953649 0 0.028529508035304608 -0.0024342356405365794 0 0.028516681174736616 -0.0027961270954953649 0 0.028813576481216338 -0.0025767538729062475 0 0.028529508035304608 -0.0024342356405365794 0 0.028194570823842614 -0.0025334761138840227 0 0.028529508035304608 -0.0024342356405365794 0 0.028354876797721886 -0.002167615146164135 0 0.028508264232820536 -0.0017998523631219039 0 0.028354876797721886 -0.002167615146164135 0 0.028769200460253753 -0.0021052898713823571 0 0.020877590466789886 -0.0026817656030554498 0 0.02048420348796234 -0.0026755558739521511 0 0.020750506376732161 -0.0029945525192052315 0 0.023804061674163966 -0.0022052422931907096 0 0.028407377693233905 -0.0015626899906507679 0 0.023804061674163966 -0.0022052422931907096 0 0.024390984549057776 -0.0029739140545324626 0 0.025029276436282742 -0.00046118006030870882 0 0.028407377693233905 -0.0015626899906507679 0 0.02542841736430148 0.00010843664872609144 0 0.024911566214007419 0.00012980881694165856 0 0.025362313280754962 1.9088818481669316e-05 0 0.02505284712587651 -0.0015854686957592575 0 0.024995425902867876 -0.0016069803654934832 0 0.025080090981862275 -0.0016898510517909435 0 0.02542841736430148 0.00010843664872609144 0 0.025362313280754962 1.9088818481669316e-05 0 0.026351066244380932 1.7537146013580785e-05 0 0.02542841736430148 0.00010843664872609144 0 0.027027471214291603 3.069205002858748e-07 0 0.026351066244380932 1.7537146013580785e-05 0 0.027027471214291603 3.069205002858748e-07 0 0.027604370809215639 -4.4116353042165485e-05 0 0.026351066244380932 1.7537146013580785e-05 0 0.029043527939300429 -2.7706424245256764e-07 0 0.027027471214291603 3.069205002858748e-07 0 0.027604370809215639 -4.4116353042165485e-05 0 0.027604370809215639 -4.4116353042165485e-05 0 0.026351066244380932 1.7537146013580785e-05 0 0.026497351160267402 -0.00025314910460836248 0 0.032801392826622276 -0.00076037929644278454 0 0.033144453913171286 -0.00089760299209001328 0 0.033159956090701832 -0.00050261986038901258 0 0.032801392826622276 -0.00076037929644278454 0 0.033144453913171286 -0.00089760299209001328 0 0.032737456021787674 -0.0011812211001751096 0 0.033144453913171286 -0.00089760299209001328 0 0.033159956090701832 -0.00050261986038901258 0 0.033504344893906531 -0.00056553116760976665 0 0.033144453913171286 -0.00089760299209001328 0 0.033504344893906531 -0.00056553116760976665 0 0.03352348447231096 -0.0010412519150832225 0 0.033144453913171286 -0.00089760299209001328 0 0.033167765853736507 -0.0012815593323230652 0 0.03352348447231096 -0.0010412519150832225 0 0.033144453913171286 -0.00089760299209001328 0 0.033167765853736507 -0.0012815593323230652 0 0.032737456021787674 -0.0011812211001751096 0 0.032737456021787674 -0.0011812211001751096 0 0.032346837678215432 -0.0012899966101924687 0 0.032471251062524721 -0.0014500461721120819 0 0.032737456021787674 -0.0011812211001751096 0 0.032346837678215432 -0.0012899966101924687 0 0.0325216068881631 -0.0010204101516010163 0 0.032346837678215432 -0.0012899966101924687 0 0.032254911529703244 -0.0010711714056337921 0 0.031984879417081495 -0.0013234141577384002 0 0.032346837678215432 -0.0012899966101924687 0 0.032254911529703244 -0.0010711714056337921 0 0.0325216068881631 -0.0010204101516010163 0 0.032254911529703244 -0.0010711714056337921 0 0.0324036190920323 -0.0007532743802222214 0 0.0325216068881631 -0.0010204101516010163 0 0.032254911529703244 -0.0010711714056337921 0 0.0324036190920323 -0.0007532743802222214 0 0.032023464882110407 -0.000960374752611696 0 0.032801392826622276 -0.00076037929644278454 0 0.032737456021787674 -0.0011812211001751096 0 0.0325216068881631 -0.0010204101516010163 0 0.032801392826622276 -0.00076037929644278454 0 0.0324036190920323 -0.0007532743802222214 0 0.0325216068881631 -0.0010204101516010163 0 0.032801392826622276 -0.00076037929644278454 0 0.032699735888611345 -0.00046254396749245377 0 0.032957113193839767 -0.00041538708255214359 0 0.032801392826622276 -0.00076037929644278454 0 0.0324036190920323 -0.0007532743802222214 0 0.032699735888611345 -0.00046254396749245377 0 0.0324036190920323 -0.0007532743802222214 0 0.032699735888611345 -0.00046254396749245377 0 0.032482510431170016 -0.0004106762490146976 0 0.032699735888611345 -0.00046254396749245377 0 0.032482510431170016 -0.0004106762490146976 0 0.0326654995343389 -0.00025069036389292862 0 0.032699735888611345 -0.00046254396749245377 0 0.032907923321040665 -0.00021157137848648258 0 0.032957113193839767 -0.00041538708255214359 0 0.0324036190920323 -0.0007532743802222214 0 0.03220390707735344 -0.00057690734309536525 0 0.032023464882110407 -0.000960374752611696 0 0.032402402698638165 -0.00075227176775154842 0 0.032156680609970088 -0.00043218296152701288 0 0.0324036190920323 -0.0007532743802222214 0 0.032482510431170016 -0.0004106762490146976 0 0.032201631770596637 -0.00040098798226428521 0 0.032439456124660912 -0.00019473702703076576 0 0.032819293961942955 -1.7487535898142414e-05 0 0.032076787468148987 2.2166675898079663e-05 0 0.032457373281865959 -3.4508995575747231e-05 0 0.03295504392395434 0.00010726853501375815 0 0.032201631770596637 -0.00040098798226428521 0 0.032439456124660912 -0.00019473702703076576 0 0.032076787468148987 2.2166675898079663e-05 0 0.032482510431170016 -0.0004106762490146976 0 0.032201631770596637 -0.00040098798226428521 0 0.032439456124660912 -0.00019473702703076576 0 0.032699735888611345 -0.00046254396749245377 0 0.032907923321040665 -0.00021157137848648258 0 0.0326654995343389 -0.00025069036389292862 0 0.032907923321040665 -0.00021157137848648258 0 0.0326654995343389 -0.00025069036389292862 0 0.032819293961942955 -1.7487535898142414e-05 0 0.032482510431170016 -0.0004106762490146976 0 0.032439456124660912 -0.00019473702703076576 0 0.0326654995343389 -0.00025069036389292862 0 0.032439456124660912 -0.00019473702703076576 0 0.0326654995343389 -0.00025069036389292862 0 0.032819293961942955 -1.7487535898142414e-05 0 0.032907923321040665 -0.00021157137848648258 0 0.032819293961942955 -1.7487535898142414e-05 0 0.033101939344578488 -7.5836468724796878e-06 0 0.032907923321040665 -0.00021157137848648258 0 0.033101939344578488 -7.5836468724796878e-06 0 0.033200691131476404 -0.00015308401294598649 0 0.033101939344578488 -7.5836468724796878e-06 0 0.033200691131476404 -0.00015308401294598649 0 0.033293086697859013 9.9239339237668884e-05 0 0.032907923321040665 -0.00021157137848648258 0 0.033200691131476404 -0.00015308401294598649 0 0.032957113193839767 -0.00041538708255214359 0 0.033200691131476404 -0.00015308401294598649 0 0.032957113193839767 -0.00041538708255214359 0 0.033159956090701832 -0.00050261986038901258 0 0.032801392826622276 -0.00076037929644278454 0 0.032957113193839767 -0.00041538708255214359 0 0.033159956090701832 -0.00050261986038901258 0 0.033200691131476404 -0.00015308401294598649 0 0.033159956090701832 -0.00050261986038901258 0 0.033416244143226352 -0.00023017149985062399 0 0.033159956090701832 -0.00050261986038901258 0 0.033416244143226352 -0.00023017149985062399 0 0.033504344893906531 -0.00056553116760976665 0 0.033200691131476404 -0.00015308401294598649 0 0.033416244143226352 -0.00023017149985062399 0 0.03345830298993463 6.0114219184456664e-05 0 0.033416244143226352 -0.00023017149985062399 0 0.033783566750873267 -9.0852202324413276e-05 0 0.03345830298993463 6.0114219184456664e-05 0 0.033783566750873267 -9.0852202324413276e-05 0 0.034441528221309178 1.8066102582633908e-05 0 0.034198943852870936 0.00035222786072205758 0 0.033783566750873267 -9.0852202324413276e-05 0 0.034207841055722096 -0.00036051598814755857 0 0.034441528221309178 1.8066102582633908e-05 0 0.033783566750873267 -9.0852202324413276e-05 0 0.034207841055722096 -0.00036051598814755857 0 0.033912590287346278 -0.0006380167201161511 0 0.033416244143226352 -0.00023017149985062399 0 0.033783566750873267 -9.0852202324413276e-05 0 0.033504344893906531 -0.00056553116760976665 0 0.033783566750873267 -9.0852202324413276e-05 0 0.033504344893906531 -0.00056553116760976665 0 0.033912590287346278 -0.0006380167201161511 0 0.034906360457462357 0.0001269027339547188 0 0.034441528221309178 1.8066102582633908e-05 0 0.034886672504027536 -0.00030541638196174482 0 0.034906360457462357 0.0001269027339547188 0 0.034441528221309178 1.8066102582633908e-05 0 0.034533619887726505 0.00057256178670679625 0 0.034207841055722096 -0.00036051598814755857 0 0.034441528221309178 1.8066102582633908e-05 0 0.034537082017579088 -0.0004797416926425889 0 0.034441528221309178 1.8066102582633908e-05 0 0.034537082017579088 -0.0004797416926425889 0 0.034886672504027536 -0.00030541638196174482 0 0.034207841055722096 -0.00036051598814755857 0 0.034537082017579088 -0.0004797416926425889 0 0.034263040565041342 -0.00069232965423557705 0 0.034906360457462357 0.0001269027339547188 0 0.034886672504027536 -0.00030541638196174482 0 0.035223202699804855 -0.00025292850708327552 0 0.034537082017579088 -0.0004797416926425889 0 0.034886672504027536 -0.00030541638196174482 0 0.034831912822157855 -0.00069803717888311653 0 0.034886672504027536 -0.00030541638196174482 0 0.034831912822157855 -0.00069803717888311653 0 0.035187395691055723 -0.00061475024098445262 0 0.034831912822157855 -0.00069803717888311653 0 0.034508768380715191 -0.0008116924867192808 0 0.034765679762372624 -0.0010698032591760079 0 0.034537082017579088 -0.0004797416926425889 0 0.034831912822157855 -0.00069803717888311653 0 0.034508768380715191 -0.0008116924867192808 0 0.034537082017579088 -0.0004797416926425889 0 0.034508768380715191 -0.0008116924867192808 0 0.034263040565041342 -0.00069232965423557705 0 0.034508768380715191 -0.0008116924867192808 0 0.034263040565041342 -0.00069232965423557705 0 0.034178278501530296 -0.0010675432579415765 0 0.034508768380715191 -0.0008116924867192808 0 0.034765679762372624 -0.0010698032591760079 0 0.034178278501530296 -0.0010675432579415765 0 0.033591963220672004 -0.00087009771278219537 0 0.034213144670280526 -0.0011333031425237235 0 0.034152213593648159 -0.0011650072693223123 0 0.033880681581306422 -0.0011384732942781321 0 0.033896912994054 -0.0013029910543252885 0 0.033591963220672004 -0.00087009771278219537 0 0.031805929404505211 -0.00057805868425877627 0 0.034831912822157855 -0.00069803717888311653 0 0.034765679762372624 -0.0010698032591760079 0 0.035049230810551342 -0.00090955473053352519 0 0.033591963220672004 -0.00087009771278219537 0 0.035195581494491777 -0.00074565026953758913 0 0.033504344893906531 -0.00056553116760976665 0 0.033912590287346278 -0.0006380167201161511 0 0.03352348447231096 -0.0010412519150832225 0 0.033912590287346278 -0.0006380167201161511 0 0.034178278501530296 -0.0010675432579415765 0 0.03352348447231096 -0.0010412519150832225 0 0.034263040565041342 -0.00069232965423557705 0 0.033912590287346278 -0.0006380167201161511 0 0.034178278501530296 -0.0010675432579415765 0 0.034207841055722096 -0.00036051598814755857 0 0.034263040565041342 -0.00069232965423557705 0 0.033912590287346278 -0.0006380167201161511 0 0.034213144670280526 -0.0011333031425237235 0 0.033470038393890046 -0.0010359499640145993 0 0.033880681581306422 -0.0011384732942781321 0 0.033688313430062386 -0.0012408962716932701 0 0.03352348447231096 -0.0010412519150832225 0 0.033880681581306422 -0.0011384732942781321 0 0.033688313430062386 -0.0012408962716932701 0 0.033896912994054 -0.0013029910543252885 0 0.033688313430062386 -0.0012408962716932701 0 0.03352348447231096 -0.0010412519150832225 0 0.033531663699403295 -0.0015394786443617271 0 0.033167765853736507 -0.0012815593323230652 0 0.03352348447231096 -0.0010412519150832225 0 0.033531663699403295 -0.0015394786443617271 0 0.028070876824732961 0.00027580733019793755 0 0.028730656450629503 0.00039684439825333996 0 0.03149004758741359 -0.00089801738733634906 0 0.031805929404505211 -0.00057805868425877627 0 0.033688313430062386 -0.0012408962716932701 0 0.033531663699403295 -0.0015394786443617271 0 0.033896912994054 -0.0013029910543252885 0 0.030119607592375076 0.00011279598661640448 0 0.029651656925072059 -0.00038322098867362927 0 0.030568121615166845 -0.00012938772222333622 0 0.029314392136380849 -0.00024269138305525097 0 0.030119607592375076 0.00011279598661640448 0 0.029651656925072059 -0.00038322098867362927 0 0.025904460107259355 0.00082705780820707187 0 0.025752976328847023 0.00049451793375922314 0 0.026439240568424099 0.0003881216470325861 0 0.023413986390980593 0.00031011638697859759 0 0.024749709956665478 0.00018202942988679329 0 0.025904460107259355 0.00082705780820707187 0 0.025752976328847023 0.00049451793375922314 0 0.025081947671988396 0.000583973424276791 0 0.029314392136380849 -0.00024269138305525097 0 0.029651656925072059 -0.00038322098867362927 0 0.028703330837880715 -0.00065470133093008904 0 0.028070876824732961 0.00027580733019793755 0 0.025444081677921161 -0.00014863764921566833 0 0.023413986390980593 0.00031011638697859759 0 0.025444081677921161 -0.00014863764921566833 0 0.027198516026011244 0.00097641055808385564 0 0.026750498625315561 0.001068446532558702 0 0.027644824435371584 0.0013183471601888152 0 0.030897574007378442 0.00044911038184015093 0 0.030568121615166845 -0.00012938772222333622 0 0.031445280832790183 0.00011569449331070433 0 0.028730656450629503 0.00039684439825333996 0 0.02885025355873547 0.0012733477496103263 0 0.027198516026011244 0.00097641055808385564 0 0.026750498625315561 0.001068446532558702 0 0.026877537925398695 0.00063556956963451534 0 0.030897574007378442 0.00044911038184015093 0 0.030119607592375076 0.00011279598661640448 0 0.030568121615166845 -0.00012938772222333622 0 0.025904460107259355 0.00082705780820707187 0 0.026750498625315561 0.001068446532558702 0 0.026439240568424099 0.0003881216470325861 0 0.026439240568424099 0.0003881216470325861 0 0.026877537925398695 0.00063556956963451534 0 0.02714064873446486 0.00027450115964800214 0 0.026750498625315561 0.001068446532558702 0 0.026439240568424099 0.0003881216470325861 0 0.026877537925398695 0.00063556956963451534 0 0.027160748996355677 0.00069288563626932311 0 0.02714064873446486 0.00027450115964800214 0 0.027429565098077268 0.00080010689145448215 0 0.02465643841974401 0.00069162247398379896 0 0.025611937646130723 0.0016482631350003803 0 0.027198516026011244 0.00097641055808385564 0 0.026877537925398695 0.00063556956963451534 0 0.027160748996355677 0.00069288563626932311 0 0.026877537925398695 0.00063556956963451534 0 0.027160748996355677 0.00069288563626932311 0 0.02714064873446486 0.00027450115964800214 0 0.027198516026011244 0.00097641055808385564 0 0.027160748996355677 0.00069288563626932311 0 0.027429565098077268 0.00080010689145448215 0 0.022598593880586687 9.6101203605992926e-05 0 0.0233085545506918 0.00026247123897994365 0 0.023235573169802473 0.00012610846075068689 0 0.023379773488527968 -0.0001598005697233102 0 0.023583564813972637 0.00017929997424659229 0 0.023955787653365999 -0.00020410076560408984 0 0.023379773488527968 -0.0001598005697233102 0 0.023583564813972637 0.00017929997424659229 0 0.023235573169802473 0.00012610846075068689 0 0.023583564813972637 0.00017929997424659229 0 0.023360188581274196 0.0005456302497710713 0 0.023826236027308489 0.00063966078488535887 0 0.02465643841974401 0.00069162247398379896 0 0.02372693104844778 0.00074899819865901444 0 0.02465643841974401 0.00069162247398379896 0 0.024121669670076101 0.00019852295387776624 0 0.023583564813972637 0.00017929997424659229 0 0.023360188581274196 0.0005456302497710713 0 0.023235573169802473 0.00012610846075068689 0 0.023235573169802473 0.00012610846075068689 0 0.022786464495705195 -0.00018306676977350886 0 0.023006717228259799 -0.00028633057511699906 0 0.023379773488527968 -0.0001598005697233102 0 0.023235573169802473 0.00012610846075068689 0 0.023006717228259799 -0.00028633057511699906 0 0.024749709956665478 0.00018202942988679329 0 0.02465643841974401 0.00069162247398379896 0 0.022598593880586687 9.6101203605992926e-05 0 0.022786464495705195 -0.00018306676977350886 0 0.022447486940949835 -0.00051306925924779923 0 0.022598593880586687 9.6101203605992926e-05 0 0.023235573169802473 0.00012610846075068689 0 0.022786464495705195 -0.00018306676977350886 0 0.022569679609190752 -0.00051895063379979553 0 0.021754025354082343 -0.00057592648389460997 0 0.022786464495705195 -0.00018306676977350886 0 0.023006717228259799 -0.00028633057511699906 0 0.022447486940949835 -0.00051306925924779923 0 0.023006717228259799 -0.00028633057511699906 0 0.023292163777326767 -0.000618155711351489 0 0.022447486940949835 -0.00051306925924779923 0 0.02127039026668652 -0.00086115741000011489 0 0.021674155425661756 -0.00032130050174715853 0 0.021043130337396059 -0.00066098869138486705 0 0.021092315563080867 -0.00084136117350377352 0 0.02127039026668652 -0.00086115741000011489 0 0.021043130337396059 -0.00066098869138486705 0 0.023379773488527968 -0.0001598005697233102 0 0.023006717228259799 -0.00028633057511699906 0 0.023292163777326767 -0.000618155711351489 0 0.021737901762748885 -0.0010365893569607156 0 0.02127039026668652 -0.00086115741000011489 0 0.021674155425661756 -0.00032130050174715853 0 0.021737901762748885 -0.0010365893569607156 0 0.021674155425661756 -0.00032130050174715853 0 0.022907549694510712 -0.0011553982229975052 0 0.023379773488527968 -0.0001598005697233102 0 0.023292163777326767 -0.000618155711351489 0 0.023955787653365999 -0.00020410076560408984 0 0.021991958740928054 -2.6946216157940098e-05 0 0.021834706251958245 -0.00060623034451369625 0 0.021634072986750168 -0.0003306602456644464 0 0.021991958740928054 -2.6946216157940098e-05 0 0.022447486940949835 -0.00051306925924779923 0 0.021834706251958245 -0.00060623034451369625 0 0.021991958740928054 -2.6946216157940098e-05 0 0.022598593880586687 9.6101203605992926e-05 0 0.022447486940949835 -0.00051306925924779923 0 0.021029746865107942 -0.00075484781876089893 0 0.021043130337396059 -0.00066098869138486705 0 0.021035994999431932 -0.00072778153927022986 0 0.021754025354082343 -0.00057592648389460997 0 0.02142471042559083 -0.00065997464717152971 0 0.021029746865107942 -0.00075484781876089893 0 0.021092315563080867 -0.00084136117350377352 0 0.021043130337396059 -0.00066098869138486705 0 0.02102258505509114 -0.0007410878514238742 0 0.021029746865107942 -0.00075484781876089893 0 0.021035994999431932 -0.00072778153927022986 0 0.021081106697363513 -0.00068246790812980548 0 0.021035994999431932 -0.00072778153927022986 0 0.02120068302047954 -0.00067934495034876628 0 0.02142471042559083 -0.00065997464717152971 0 0.021204309961628177 -0.00067287389781685888 0 0.021081106697363513 -0.00068246790812980548 0 0.021137758146602358 -0.00069358115554061866 0 0.02120068302047954 -0.00067934495034876628 0 0.021137758146602358 -0.00069358115554061866 0 0.021158056406225437 -0.00064437625685262716 0 0.02120068302047954 -0.00067934495034876628 0 0.021158056406225437 -0.00064437625685262716 0 0.02120068302047954 -0.00067934495034876628 0 0.021310915824237848 -0.00043523540714715341 0 0.021158056406225437 -0.00064437625685262716 0 0.021310915824237848 -0.00043523540714715341 0 0.021216334982969105 -0.0003966886078504641 0 0.021834706251958245 -0.00060623034451369625 0 0.02120068302047954 -0.00067934495034876628 0 0.021634072986750168 -0.0003306602456644464 0 0.02120068302047954 -0.00067934495034876628 0 0.021310915824237848 -0.00043523540714715341 0 0.021634072986750168 -0.0003306602456644464 0 0.021991958740928054 -2.6946216157940098e-05 0 0.021634072986750168 -0.0003306602456644464 0 0.021465495069090325 -0.0001582729143168422 0 0.03149004758741359 -0.00089801738733634906 0 0.030547425870274997 -0.00107469518827221 0 0.029314392136380849 -0.00024269138305525097 0 0.028703330837880715 -0.00065470133093008904 0 0.028493466896710427 -0.00062480612305333032 0 0.025444081677921161 -0.00014863764921566833 0 0.030547425870274997 -0.00107469518827221 0 0.021310915824237848 -0.00043523540714715341 0 0.021634072986750168 -0.0003306602456644464 0 0.021465495069090325 -0.0001582729143168422 0 0.021310915824237848 -0.00043523540714715341 0 0.021465495069090325 -0.0001582729143168422 0 0.021216334982969105 -0.0003966886078504641 0 0.026485338864323235 -0.0010674848971664644 0 0.030547425870274997 -0.00107469518827221 0 0.025444081677921161 -0.00014863764921566833 0 0.026485338864323235 -0.0010674848971664644 0 0.030547425870274997 -0.00107469518827221 0 0.033208786727583477 -0.001902880461233374 0 0.027387059949195446 -0.00061129512827824684 0 0.027254325859868679 -0.00067708959259983571 0 0.027336064196351189 -0.00061585508533455041 0 0.032208545201762646 -0.001675767525974751 0 0.03213604286175939 -0.0017167870695660547 0 0.032334537299206767 -0.0016676544890441125 0 0.033017134507913846 -0.0018164479982416585 0 0.032752665012789846 -0.001485604418920211 0 0.032334537299206767 -0.0016676544890441125 0 0.033167765853736507 -0.0012815593323230652 0 0.032752665012789846 -0.001485604418920211 0 0.033126588554316529 -0.0015323264970156488 0 0.033167765853736507 -0.0012815593323230652 0 0.032737456021787674 -0.0011812211001751096 0 0.032752665012789846 -0.001485604418920211 0 0.033017134507913846 -0.0018164479982416585 0 0.032752665012789846 -0.001485604418920211 0 0.033126588554316529 -0.0015323264970156488 0 0.033167765853736507 -0.0012815593323230652 0 0.033531663699403295 -0.0015394786443617271 0 0.033126588554316529 -0.0015323264970156488 0 0.033531663699403295 -0.0015394786443617271 0 0.033017134507913846 -0.0018164479982416585 0 0.033126588554316529 -0.0015323264970156488 0 0.032346837678215432 -0.0012899966101924687 0 0.032174664647982701 -0.0015129176585136316 0 0.031984879417081495 -0.0013234141577384002 0 0.032346837678215432 -0.0012899966101924687 0 0.032174664647982701 -0.0015129176585136316 0 0.032471251062524721 -0.0014500461721120819 0 0.032737456021787674 -0.0011812211001751096 0 0.032752665012789846 -0.001485604418920211 0 0.032471251062524721 -0.0014500461721120819 0 0.032752665012789846 -0.001485604418920211 0 0.032471251062524721 -0.0014500461721120819 0 0.032334537299206767 -0.0016676544890441125 0 0.032174664647982701 -0.0015129176585136316 0 0.032471251062524721 -0.0014500461721120819 0 0.032334537299206767 -0.0016676544890441125 0 0.032208545201762646 -0.001675767525974751 0 0.032334537299206767 -0.0016676544890441125 0 0.032266603649583683 -0.0017249628188881147 0 0.026485338864323235 -0.0010674848971664644 0 0.026753685689813504 -0.0011685261580854178 0 0.032334537299206767 -0.0016676544890441125 0 0.032145064971535339 -0.0016782680109617928 0 0.032266603649583683 -0.0017249628188881147 0 0.032145064971535339 -0.0016782680109617928 0 0.031957698563033071 -0.0018533467998143539 0 0.031951256460519127 -0.0016039561174790655 0 0.032174664647982701 -0.0015129176585136316 0 0.032334537299206767 -0.0016676544890441125 0 0.032145064971535339 -0.0016782680109617928 0 0.032174664647982701 -0.0015129176585136316 0 0.032145064971535339 -0.0016782680109617928 0 0.031951256460519127 -0.0016039561174790655 0 0.026753685689813504 -0.0011685261580854178 0 0.026682432432755195 -0.0013681680851838959 0 0.021166456175264432 -0.00066747734311715175 0 0.0211893653830128 -0.00073217371941115893 0 0.021402309990465017 -0.00089392176929605556 0 0.032145064971535339 -0.0016782680109617928 0 0.032266603649583683 -0.0017249628188881147 0 0.031957698563033071 -0.0018533467998143539 0 0.021158056406225437 -0.00064437625685262716 0 0.021166456175264432 -0.00066747734311715175 0 0.0211893653830128 -0.00073217371941115893 0 0.021158056406225437 -0.00064437625685262716 0 0.021216334982969105 -0.0003966886078504641 0 0.021166456175264432 -0.00066747734311715175 0 0.021091961750701365 -0.00064877168761836245 0 0.021137758146602358 -0.00069358115554061866 0 0.0211893653830128 -0.00073217371941115893 0 0.021137758146602358 -0.00069358115554061866 0 0.021158056406225437 -0.00064437625685262716 0 0.0211893653830128 -0.00073217371941115893 0 0.0211893653830128 -0.00073217371941115893 0 0.021443968673757759 -0.00074047544391263721 0 0.021402309990465017 -0.00089392176929605556 0 0.021443968673757759 -0.00074047544391263721 0 0.021402309990465017 -0.00089392176929605556 0 0.021899869659980451 -0.00096138976169725225 0 0.026682432432755195 -0.0013681680851838959 0 0.026827802562106321 -0.001409015862426958 0 0.031957698563033071 -0.0018533467998143539 0 0.031707195811064307 -0.0016882671769680513 0 0.031951256460519127 -0.0016039561174790655 0 0.031957698563033071 -0.0018533467998143539 0 0.031707195811064307 -0.0016882671769680513 0 0.031644923609746765 -0.0019035829377962968 0 0.03139405423066309 -0.0019638629170384506 0 0.031644923609746765 -0.0019035829377962968 0 0.031440837550922279 -0.0017498704126353366 0 0.02681897286708091 -0.0014599020052307146 0 0.026827802562106321 -0.001409015862426958 0 0.03139405423066309 -0.0019638629170384506 0 0.031248899606912382 -0.0018634263247000653 0 0.031440837550922279 -0.0017498704126353366 0 0.031248899606912382 -0.0018634263247000653 0 0.031440837550922279 -0.0017498704126353366 0 0.031185312267378855 -0.0017088186622321519 0 0.031343374978526066 -0.0016035531253974123 0 0.031440837550922279 -0.0017498704126353366 0 0.031185312267378855 -0.0017088186622321519 0 0.031343374978526066 -0.0016035531253974123 0 0.031440837550922279 -0.0017498704126353366 0 0.03153872435178718 -0.001518748228071696 0 0.031707195811064307 -0.0016882671769680513 0 0.031440837550922279 -0.0017498704126353366 0 0.03153872435178718 -0.001518748228071696 0 0.031707195811064307 -0.0016882671769680513 0 0.031644923609746765 -0.0019035829377962968 0 0.031440837550922279 -0.0017498704126353366 0 0.031343374978526066 -0.0016035531253974123 0 0.03153872435178718 -0.001518748228071696 0 0.031363685409086427 -0.0014754206450236444 0 0.031363685409086427 -0.0014754206450236444 0 0.031526507011067018 -0.0013390461343068547 0 0.031423972806462648 -0.0013392970623400692 0 0.03153872435178718 -0.001518748228071696 0 0.031363685409086427 -0.0014754206450236444 0 0.031526507011067018 -0.0013390461343068547 0 0.03153872435178718 -0.001518748228071696 0 0.031696229054829841 -0.0013208892409594245 0 0.031526507011067018 -0.0013390461343068547 0 0.031758459658480981 -0.0014981130720442156 0 0.031984879417081495 -0.0013234141577384002 0 0.031696229054829841 -0.0013208892409594245 0 0.03153872435178718 -0.001518748228071696 0 0.031758459658480981 -0.0014981130720442156 0 0.031696229054829841 -0.0013208892409594245 0 0.032174664647982701 -0.0015129176585136316 0 0.031951256460519127 -0.0016039561174790655 0 0.031984879417081495 -0.0013234141577384002 0 0.031758459658480981 -0.0014981130720442156 0 0.031951256460519127 -0.0016039561174790655 0 0.031984879417081495 -0.0013234141577384002 0 0.031707195811064307 -0.0016882671769680513 0 0.031758459658480981 -0.0014981130720442156 0 0.031951256460519127 -0.0016039561174790655 0 0.031707195811064307 -0.0016882671769680513 0 0.03153872435178718 -0.001518748228071696 0 0.031758459658480981 -0.0014981130720442156 0 0.030425121198325356 -0.00085326982149492854 0 0.03025284971552503 -0.00086631536219803241 0 0.030377693702823998 -0.0011079034061681691 0 0.030425121198325356 -0.00085326982149492854 0 0.03036190571517644 -0.00066711247436478419 0 0.03025284971552503 -0.00086631536219803241 0 0.030425121198325356 -0.00085326982149492854 0 0.030482769801433187 -0.00056592517794254145 0 0.03036190571517644 -0.00066711247436478419 0 0.022216594015903403 -0.0016441316540429963 0 0.022331536016934751 -0.0015534612737492679 0 0.0222706604061358 -0.0016732012070348318 0 0.026239712628024176 -0.0012668365086737242 0 0.026677585094911898 -0.0010301751163975274 0 0.030395414187060786 -0.0004946753679237084 0 0.03036190571517644 -0.00066711247436478419 0 0.030256098109824634 -0.0005437969611217611 0 0.030395414187060786 -0.0004946753679237084 0 0.030482769801433187 -0.00056592517794254145 0 0.03036190571517644 -0.00066711247436478419 0 0.030506330271850783 -0.0012428316207384049 0 0.030183046344637695 -0.0014732067739796333 0 0.030531136096162943 -0.0020191439996969035 0 0.03036190571517644 -0.00066711247436478419 0 0.030256098109824634 -0.0005437969611217611 0 0.03025284971552503 -0.00086631536219803241 0 0.030323526535036602 -0.00087690796937131793 0 0.030973978730707879 -0.0014414537418001399 0 0.030172462691224273 -0.0011139728625811955 0 0.030506330271850783 -0.0012428316207384049 0 0.030183046344637695 -0.0014732067739796333 0 0.03055521247270513 -0.0016794005123591509 0 0.030973978730707879 -0.0014414537418001399 0 0.031000449410303159 -0.0018189870130708133 0 0.030993037670986909 -0.0016472787777950962 0 0.031018352420183873 -0.0016985506760855897 0 0.030993037670986909 -0.0016472787777950962 0 0.031018352420183873 -0.0016985506760855897 0 0.031110646866688397 -0.0015655998464574436 0 0.031091532217360125 -0.001624686304007249 0 0.031018352420183873 -0.0016985506760855897 0 0.031110646866688397 -0.0015655998464574436 0 0.031091532217360125 -0.001624686304007249 0 0.031028700974849447 -0.0016831441608514139 0 0.03119562918301582 -0.0015880383514987289 0 0.031028700974849447 -0.0016831441608514139 0 0.031018352420183873 -0.0016985506760855897 0 0.030889328613342541 -0.0017490513229821952 0 0.031091532217360125 -0.001624686304007249 0 0.031028700974849447 -0.0016831441608514139 0 0.031018352420183873 -0.0016985506760855897 0 0.030889328613342541 -0.0017490513229821952 0 0.03059973993134411 -0.0016877630756472217 0 0.030930991694028957 -0.0017351996932530411 0 0.031000449410303159 -0.0018189870130708133 0 0.031018352420183873 -0.0016985506760855897 0 0.030889328613342541 -0.0017490513229821952 0 0.029847906628141893 -0.00098059913734274717 0 0.031000449410303159 -0.0018189870130708133 0 0.03059973993134411 -0.0016877630756472217 0 0.031000449410303159 -0.0018189870130708133 0 0.030889328613342541 -0.0017490513229821952 0 0.03059973993134411 -0.0016877630756472217 0 0.03059973993134411 -0.0016877630756472217 0 0.03086254732386921 -0.0018358620518320488 0 0.030930991694028957 -0.0017351996932530411 0 0.031028700974849447 -0.0016831441608514139 0 0.030889328613342541 -0.0017490513229821952 0 0.030930991694028957 -0.0017351996932530411 0 0.031028700974849447 -0.0016831441608514139 0 0.030930991694028957 -0.0017351996932530411 0 0.031185312267378855 -0.0017088186622321519 0 0.030930991694028957 -0.0017351996932530411 0 0.031063042045546881 -0.0018491418392743736 0 0.031185312267378855 -0.0017088186622321519 0 0.03086254732386921 -0.0018358620518320488 0 0.030930991694028957 -0.0017351996932530411 0 0.031063042045546881 -0.0018491418392743736 0 0.031024514665455194 -0.001943069508828705 0 0.03086254732386921 -0.0018358620518320488 0 0.031063042045546881 -0.0018491418392743736 0 0.031145164445186026 -0.002009986809566401 0 0.031248899606912382 -0.0018634263247000653 0 0.031063042045546881 -0.0018491418392743736 0 0.031248899606912382 -0.0018634263247000653 0 0.031063042045546881 -0.0018491418392743736 0 0.031185312267378855 -0.0017088186622321519 0 0.031343374978526066 -0.0016035531253974123 0 0.031185312267378855 -0.0017088186622321519 0 0.03119562918301582 -0.0015880383514987289 0 0.031028700974849447 -0.0016831441608514139 0 0.031185312267378855 -0.0017088186622321519 0 0.03119562918301582 -0.0015880383514987289 0 0.031363685409086427 -0.0014754206450236444 0 0.03119562918301582 -0.0015880383514987289 0 0.031251085518742991 -0.0014849813042912561 0 0.031343374978526066 -0.0016035531253974123 0 0.031363685409086427 -0.0014754206450236444 0 0.03119562918301582 -0.0015880383514987289 0 0.031363685409086427 -0.0014754206450236444 0 0.031361729697824615 -0.0013702020564206473 0 0.031423972806462648 -0.0013392970623400692 0 0.031363685409086427 -0.0014754206450236444 0 0.031251085518742991 -0.0014849813042912561 0 0.031361729697824615 -0.0013702020564206473 0 0.031288006851247933 -0.0014242048994500542 0 0.031251085518742991 -0.0014849813042912561 0 0.031361729697824615 -0.0013702020564206473 0 0.031288006851247933 -0.0014242048994500542 0 0.031251085518742991 -0.0014849813042912561 0 0.031206582858510832 -0.0014775309334112635 0 0.031251085518742991 -0.0014849813042912561 0 0.031159345831575227 -0.0015382837785773008 0 0.031206582858510832 -0.0014775309334112635 0 0.031251085518742991 -0.0014849813042912561 0 0.031179472649118342 -0.0015530954295715491 0 0.031159345831575227 -0.0015382837785773008 0 0.031091532217360125 -0.001624686304007249 0 0.03119562918301582 -0.0015880383514987289 0 0.031179472649118342 -0.0015530954295715491 0 0.03119562918301582 -0.0015880383514987289 0 0.031251085518742991 -0.0014849813042912561 0 0.031179472649118342 -0.0015530954295715491 0 0.031091532217360125 -0.001624686304007249 0 0.031179472649118342 -0.0015530954295715491 0 0.031159345831575227 -0.0015382837785773008 0 0.031091532217360125 -0.001624686304007249 0 0.031159345831575227 -0.0015382837785773008 0 0.031110646866688397 -0.0015655998464574436 0 0.030973978730707879 -0.0014414537418001399 0 0.0313731850979568 -0.001334944627107535 0 0.03143652985594321 -0.0010801744043711938 0 0.03146399404976119 -0.0012310627777903553 0 0.031520203583505102 -0.0011909307931234404 0 0.031110646866688397 -0.0015655998464574436 0 0.031206582858510832 -0.0014775309334112635 0 0.031210215700958242 -0.001438332864575721 0 0.030993037670986909 -0.0016472787777950962 0 0.031110646866688397 -0.0015655998464574436 0 0.031210215700958242 -0.001438332864575721 0 0.031159345831575227 -0.0015382837785773008 0 0.031110646866688397 -0.0015655998464574436 0 0.031206582858510832 -0.0014775309334112635 0 0.031288006851247933 -0.0014242048994500542 0 0.031210215700958242 -0.001438332864575721 0 0.031426174364103714 -0.0013652348879925223 0 0.031288006851247933 -0.0014242048994500542 0 0.031206582858510832 -0.0014775309334112635 0 0.031210215700958242 -0.001438332864575721 0 0.026510813026512481 -0.0011815643342397589 0 0.028658953212159714 -0.0010653964556427641 0 0.03146399404976119 -0.0012310627777903553 0 0.031520711546979996 -0.0012003505572061991 0 0.031545758551756342 -0.0013119732812107556 0 0.031618011448066127 -0.0013353488761914051 0 0.031520711546979996 -0.0012003505572061991 0 0.031520056882147894 -0.0011896522608784306 0 0.031618011448066127 -0.0013353488761914051 0 0.031520711546979996 -0.0012003505572061991 0 0.031545758551756342 -0.0013119732812107556 0 0.02219310292915682 -0.0011194604297189504 0 0.022204443792761694 -0.0012034016813741119 0 0.022386656729018118 -0.001265827589761832 0 0.030973978730707879 -0.0014414537418001399 0 0.028658953212159714 -0.0010653964556427641 0 0.022219149413755624 -0.001412689788570275 0 0.02225415806025206 -0.0012988077783120959 0 0.022386656729018118 -0.001265827589761832 0 0.02225415806025206 -0.0012988077783120959 0 0.022204443792761694 -0.0012034016813741119 0 0.022386656729018118 -0.001265827589761832 0 0.022219149413755624 -0.001412689788570275 0 0.022331536016934751 -0.0015534612737492679 0 0.022386656729018118 -0.001265827589761832 0 0.026239712628024176 -0.0012668365086737242 0 0.028658953212159714 -0.0010653964556427641 0 0.03146399404976119 -0.0012310627777903553 0 0.031520711546979996 -0.0012003505572061991 0 0.031520203583505102 -0.0011909307931234404 0 0.028732244091283287 -0.0010585297415087824 0 0.028658953212159714 -0.0010653964556427641 0 0.031643944797827589 -0.0014555232107210064 0 0.031509897955745401 -0.0013871380931984845 0 0.031660239090165819 -0.0014578172795251343 0 0.031659636743432404 -0.0014597803864461437 0 0.031643944797827589 -0.0014555232107210064 0 0.031611264002798525 -0.0014047082274127711 0 0.031643944797827589 -0.0014555232107210064 0 0.031611264002798525 -0.0014047082274127711 0 0.031509897955745401 -0.0013871380931984845 0 0.03146399404976119 -0.0012310627777903553 0 0.031545758551756342 -0.0013119732812107556 0 0.031509897955745401 -0.0013871380931984845 0 0.031618011448066127 -0.0013353488761914051 0 0.031611264002798525 -0.0014047082274127711 0 0.031545758551756342 -0.0013119732812107556 0 0.031611264002798525 -0.0014047082274127711 0 0.031545758551756342 -0.0013119732812107556 0 0.031509897955745401 -0.0013871380931984845 0 0.031210215700958242 -0.001438332864575721 0 0.031509897955745401 -0.0013871380931984845 0 0.031426174364103714 -0.0013652348879925223 0 0.0313731850979568 -0.001334944627107535 0 0.031471518264873238 -0.0014033515937827666 0 0.031509897955745401 -0.0013871380931984845 0 0.031601939864505164 -0.0014159641033346785 0 0.031426174364103714 -0.0013652348879925223 0 0.031509897955745401 -0.0013871380931984845 0 0.031601939864505164 -0.0014159641033346785 0 0.031660239090165819 -0.0014578172795251343 0 0.031601939864505164 -0.0014159641033346785 0 0.031426174364103714 -0.0013652348879925223 0 0.03142716587660771 -0.0013035358579532113 0 0.031288006851247933 -0.0014242048994500542 0 0.031426174364103714 -0.0013652348879925223 0 0.031361729697824615 -0.0013702020564206473 0 0.031426174364103714 -0.0013652348879925223 0 0.031361729697824615 -0.0013702020564206473 0 0.03142716587660771 -0.0013035358579532113 0 0.031361729697824615 -0.0013702020564206473 0 0.03142716587660771 -0.0013035358579532113 0 0.031423972806462648 -0.0013392970623400692 0 0.031601939864505164 -0.0014159641033346785 0 0.03142716587660771 -0.0013035358579532113 0 0.031455629172718005 -0.0012831410187541478 0 0.03142716587660771 -0.0013035358579532113 0 0.031455629172718005 -0.0012831410187541478 0 0.031483049266428288 -0.0012202217240827574 0 0.032659891439784455 -0.0016379200197057461 0 0.033034351359777683 -0.0016278674943264035 0 0.031709621228776838 -0.0015720602461177968 0 0.031678852327314794 -0.0015173731048843393 0 0.031685157176698064 -0.0015106011897365471 0 0.03167262197131774 -0.0014659038290750011 0 0.031709621228776838 -0.0015720602461177968 0 0.031678852327314794 -0.0015173731048843393 0 0.031709621228776838 -0.0015720602461177968 0 0.031786943635314847 -0.0014851133291689991 0 0.032093222763901745 -0.0016092851983795277 0 0.032659891439784455 -0.0016379200197057461 0 0.03215132276230772 -0.0016244267674735708 0 0.03167262197131774 -0.0014659038290750011 0 0.031709621228776838 -0.0015720602461177968 0 0.031786943635314847 -0.0014851133291689991 0 0.031601939864505164 -0.0014159641033346785 0 0.031786943635314847 -0.0014851133291689991 0 0.031705908349092253 -0.0014704253787272174 0 0.031601939864505164 -0.0014159641033346785 0 0.03167262197131774 -0.0014659038290750011 0 0.031786943635314847 -0.0014851133291689991 0 0.031602441966177501 -0.0014012471307003622 0 0.031598140665298764 -0.0013649383205912875 0 0.031601939864505164 -0.0014159641033346785 0 0.031705908349092253 -0.0014704253787272174 0 0.031660239090165819 -0.0014578172795251343 0 0.031660239090165819 -0.0014578172795251343 0 0.031762253328139818 -0.001508648795981192 0 0.031710366322642167 -0.00149942951854566 0 0.031705908349092253 -0.0014704253787272174 0 0.031660239090165819 -0.0014578172795251343 0 0.031762253328139818 -0.001508648795981192 0 0.031786943635314847 -0.0014851133291689991 0 0.031705908349092253 -0.0014704253787272174 0 0.031762253328139818 -0.001508648795981192 0 0.031884225956972795 -0.0015784794339657234 0 0.03173026560897791 -0.001479208006436123 0 0.031999266187054315 -0.0012315168992108924 0 0.031786943635314847 -0.0014851133291689991 0 0.031762253328139818 -0.001508648795981192 0 0.031884225956972795 -0.0015784794339657234 0 0.031786943635314847 -0.0014851133291689991 0 0.032093222763901745 -0.0016092851983795277 0 0.031884225956972795 -0.0015784794339657234 0 0.031762253328139818 -0.001508648795981192 0 0.031884225956972795 -0.0015784794339657234 0 0.031774396603143615 -0.0015355339748628432 0 0.031774396603143615 -0.0015355339748628432 0 0.03173026560897791 -0.001479208006436123 0 0.031726397351875754 -0.0015166098557998695 0 0.031696884319887007 -0.0015065461627151321 0 0.03173026560897791 -0.001479208006436123 0 0.031726397351875754 -0.0015166098557998695 0 0.032036825780923421 -0.0011754143066875439 0 0.032477158568047795 -0.00085239426290508434 0 0.03143751282843129 -0.00049347560787694794 0 0.031609000109918142 -0.00080271040431334842 0 0.032021337159615831 -1.0881805415706747e-05 0 0.031884225956972795 -0.0015784794339657234 0 0.031774396603143615 -0.0015355339748628432 0 0.03173026560897791 -0.001479208006436123 0 0.03258490312553991 -0.00063586119632347597 0 0.032477158568047795 -0.00085239426290508434 0 0.031726397351875754 -0.0015166098557998695 0 0.031710366322642167 -0.00149942951854566 0 0.03168866622837882 -0.0014926400483071295 0 0.031696884319887007 -0.0015065461627151321 0 0.031726397351875754 -0.0015166098557998695 0 0.03168866622837882 -0.0014926400483071295 0 0.031774396603143615 -0.0015355339748628432 0 0.031726397351875754 -0.0015166098557998695 0 0.031710366322642167 -0.00149942951854566 0 0.031762253328139818 -0.001508648795981192 0 0.031774396603143615 -0.0015355339748628432 0 0.031710366322642167 -0.00149942951854566 0 0.031643944797827589 -0.0014555232107210064 0 0.031710366322642167 -0.00149942951854566 0 0.03168866622837882 -0.0014926400483071295 0 0.031643944797827589 -0.0014555232107210064 0 0.031660239090165819 -0.0014578172795251343 0 0.031710366322642167 -0.00149942951854566 0 0.031696884319887007 -0.0015065461627151321 0 0.031659636743432404 -0.0014597803864461437 0 0.03168866622837882 -0.0014926400483071295 0 0.031659636743432404 -0.0014597803864461437 0 0.031643944797827589 -0.0014555232107210064 0 0.03168866622837882 -0.0014926400483071295 0 0.031635942283877436 -0.0010658981157535999 0 0.032023464882110407 -0.000960374752611696 0 0.031826969976327842 -0.0011715830801773848 0 0.031635942283877436 -0.0010658981157535999 0 0.032023464882110407 -0.000960374752611696 0 0.031895242596340835 -0.00068862751739987092 0 0.032023464882110407 -0.000960374752611696 0 0.031826969976327842 -0.0011715830801773848 0 0.031984879417081495 -0.0013234141577384002 0 0.032254911529703244 -0.0010711714056337921 0 0.032023464882110407 -0.000960374752611696 0 0.031984879417081495 -0.0013234141577384002 0 0.031826969976327842 -0.0011715830801773848 0 0.031984879417081495 -0.0013234141577384002 0 0.031696229054829841 -0.0013208892409594245 0 0.031635942283877436 -0.0010658981157535999 0 0.031826969976327842 -0.0011715830801773848 0 0.031696229054829841 -0.0013208892409594245 0 0.031635942283877436 -0.0010658981157535999 0 0.031526507011067018 -0.0013390461343068547 0 0.031487419729428395 -0.0012454443672277363 0 0.031635942283877436 -0.0010658981157535999 0 0.031696229054829841 -0.0013208892409594245 0 0.031526507011067018 -0.0013390461343068547 0 0.03142716587660771 -0.0013035358579532113 0 0.031423972806462648 -0.0013392970623400692 0 0.031487419729428395 -0.0012454443672277363 0 0.031526507011067018 -0.0013390461343068547 0 0.031423972806462648 -0.0013392970623400692 0 0.031487419729428395 -0.0012454443672277363 0 0.03142716587660771 -0.0013035358579532113 0 0.031487419729428395 -0.0012454443672277363 0 0.031483049266428288 -0.0012202217240827574 0 0.031487419729428395 -0.0012454443672277363 0 0.031483049266428288 -0.0012202217240827574 0 0.031568634370206822 -0.0011180291589967537 0 0.031635942283877436 -0.0010658981157535999 0 0.031487419729428395 -0.0012454443672277363 0 0.031568634370206822 -0.0011180291589967537 0 0.031568634370206822 -0.0011180291589967537 0 0.031524102901852279 -0.001123712408593086 0 0.031584445419917014 -0.0010932608935138705 0 0.031635942283877436 -0.0010658981157535999 0 0.031568634370206822 -0.0011180291589967537 0 0.031584445419917014 -0.0010932608935138705 0 0.031483049266428288 -0.0012202217240827574 0 0.031568634370206822 -0.0011180291589967537 0 0.031524102901852279 -0.001123712408593086 0 0.03167262197131774 -0.0014659038290750011 0 0.031685158053985453 -0.0015231393098236541 0 0.031678852327314794 -0.0015173731048843393 0 0.031598140665298764 -0.0013649383205912875 0 0.031533909735644752 -0.0013637005250075895 0 0.031455629172718005 -0.0012831410187541478 0 0.031483049266428288 -0.0012202217240827574 0 0.031524102901852279 -0.001123712408593086 0 0.031685158053985453 -0.0015231393098236541 0 0.031678852327314794 -0.0015173731048843393 0 0.031685157176698064 -0.0015106011897365471 0 0.031685158053985453 -0.0015231393098236541 0 0.031685157176698064 -0.0015106011897365471 0 0.031712257177128181 -0.0015103886653928956 0 0.031685157176698064 -0.0015106011897365471 0 0.031712257177128181 -0.0015103886653928956 0 0.031749134677253099 -0.0014847376708920362 0 0.031685158053985453 -0.0015231393098236541 0 0.031712257177128181 -0.0015103886653928956 0 0.031750839301307593 -0.0015191682147568562 0 0.033034351359777683 -0.0016278674943264035 0 0.033683258516210415 -0.00079391750581584396 0 0.031533909735644752 -0.0013637005250075895 0 0.032021272607860328 -0.00098986299549125582 0 0.031712257177128181 -0.0015103886653928956 0 0.031749134677253099 -0.0014847376708920362 0 0.031750839301307593 -0.0015191682147568562 0 0.033683258516210415 -0.00079391750581584396 0 0.032021272607860328 -0.00098986299549125582 0 0.032021272607860328 -0.00098986299549125582 0 0.032903522606547275 -3.2359640199418204e-05 0 0.031531572202504861 -0.00048913858357129108 0 0.031895242596340835 -0.00068862751739987092 0 0.032019804506133273 -0.00032234430871954745 0 0.033683258516210415 -0.00079391750581584396 0 0.033814045261488422 -5.1639049209369833e-05 0 0.03283818097754742 -0.00046696053384319305 0 0.032871005074770934 -0.00069158482365741449 0 0.033354480500078068 -0.00046163779075122523 0 0.031520267393882223 -0.00095786327138859745 0 0.032021272607860328 -0.00098986299549125582 0 0.031635942283877436 -0.0010658981157535999 0 0.031531572202504861 -0.00048913858357129108 0 0.031895242596340835 -0.00068862751739987092 0 0.03220390707735344 -0.00057690734309536525 0 0.032023464882110407 -0.000960374752611696 0 0.031895242596340835 -0.00068862751739987092 0 0.032871005074770934 -0.00069158482365741449 0 0.033354480500078068 -0.00046163779075122523 0 0.033387679757081991 -0.00050601418495957971 0 0.03220390707735344 -0.00057690734309536525 0 0.031895242596340835 -0.00068862751739987092 0 0.032019804506133273 -0.00032234430871954745 0 0.032201631770596637 -0.00040098798226428521 0 0.031924723693219408 -3.1811533123277645e-05 0 0.032076787468148987 2.2166675898079663e-05 0 0.032156680609970088 -0.00043218296152701288 0 0.032903522606547275 -3.2359640199418204e-05 0 0.033199724658429838 0.00013518263358643827 0 0.033167977288512181 0.00017689973965967241 0 0.033049090730334706 0.0001372804721399461 0 0.033814045261488422 -5.1639049209369833e-05 0 0.03295504392395434 0.00010726853501375815 0 0.032903522606547275 -3.2359640199418204e-05 0 0.03295504392395434 0.00010726853501375815 0 0.033814045261488422 -5.1639049209369833e-05 0 0.032903522606547275 -3.2359640199418204e-05 0 0.034722105437134346 0.00047151146608954785 0 0.03476250627780833 0.00017383380031022984 0 0.034865162272108015 0.00015174542714561397 0 0.034722105437134346 0.00047151146608954785 0 0.034617371941414614 0.00030567161219869526 0 0.03476250627780833 0.00017383380031022984 0 0.033814045261488422 -5.1639049209369833e-05 0 0.034917076682889105 0.00011003938167611082 0 0.034722105437134346 0.00047151146608954785 0 0.034463285850115898 0.00059136250952707202 0 0.034617371941414614 0.00030567161219869526 0 0.034617371941414614 0.00030567161219869526 0 0.03476250627780833 0.00017383380031022984 0 0.034752134681723952 0.00010075469460684802 0 0.03476250627780833 0.00017383380031022984 0 0.034752134681723952 0.00010075469460684802 0 0.034831392963662333 5.9704713422488243e-05 0 0.034917076682889105 0.00011003938167611082 0 0.034815330817924837 5.4160578052258027e-05 0 0.03476250627780833 0.00017383380031022984 0 0.034865162272108015 0.00015174542714561397 0 0.034831392963662333 5.9704713422488243e-05 0 0.034865162272108015 0.00015174542714561397 0 0.034838350413057308 2.9841166084959402e-05 0 0.034831392963662333 5.9704713422488243e-05 0 0.034807071660911661 9.951583015711754e-05 0 0.034789906660361282 5.7654462179552321e-05 0 0.034839508711882537 4.5471987091728422e-05 0 0.034807071660911661 9.951583015711754e-05 0 0.03473683668499402 0.00010226729571328651 0 0.034789906660361282 5.7654462179552321e-05 0 0.035195630528032255 -0.0015881974966548316 0 0.034854696803891902 -0.0010549296041870639 0 0.035032620639823292 -0.00070616668892260564 0 0.034470901061816814 -0.0016293742065362801 0 0.035195630528032255 -0.0015881974966548316 0 0.034769982761533216 -0.0013176493882299679 0 0.033683258516210415 -0.00079391750581584396 0 0.03508538380142244 -0.00034499015226074063 0 0.035195630528032255 -0.0015881974966548316 0 0.034769982761533216 -0.0013176493882299679 0 0.034854696803891902 -0.0010549296041870639 0 0.034769982761533216 -0.0013176493882299679 0 0.034854696803891902 -0.0010549296041870639 0 0.03452761607032085 -0.001058725465981667 0 0.034470901061816814 -0.0016293742065362801 0 0.034769982761533216 -0.0013176493882299679 0 0.03452761607032085 -0.001058725465981667 0 0.034470901061816814 -0.0016293742065362801 0 0.03452761607032085 -0.001058725465981667 0 0.034031174972976204 -0.0011245120639481029 0 0.03452761607032085 -0.001058725465981667 0 0.034248975017488394 -0.00060002719896919523 0 0.034031174972976204 -0.0011245120639481029 0 0.03452761607032085 -0.001058725465981667 0 0.034700993586351953 -0.00072670520277142955 0 0.034248975017488394 -0.00060002719896919523 0 0.034854696803891902 -0.0010549296041870639 0 0.03452761607032085 -0.001058725465981667 0 0.034700993586351953 -0.00072670520277142955 0 0.034700993586351953 -0.00072670520277142955 0 0.034248975017488394 -0.00060002719896919523 0 0.034653912228200009 -0.00041236766027284884 0 0.034789906660361282 5.7654462179552321e-05 0 0.034839508711882537 4.5471987091728422e-05 0 0.034838350413057308 2.9841166084959402e-05 0 0.034854696803891902 -0.0010549296041870639 0 0.034700993586351953 -0.00072670520277142955 0 0.035032620639823292 -0.00070616668892260564 0 0.034700993586351953 -0.00072670520277142955 0 0.035032620639823292 -0.00070616668892260564 0 0.034653912228200009 -0.00041236766027284884 0 0.035032620639823292 -0.00070616668892260564 0 0.034653912228200009 -0.00041236766027284884 0 0.034821012183124687 1.5498982740031879e-06 0 0.03508538380142244 -0.00034499015226074063 0 0.034800624915584673 -8.8778302966246162e-06 0 0.034839508711882537 4.5471987091728422e-05 0 0.034838350413057308 2.9841166084959402e-05 0 0.034821012183124687 1.5498982740031879e-06 0 0.034838350413057308 2.9841166084959402e-05 0 0.034821012183124687 1.5498982740031879e-06 0 0.03483484712846964 2.2923508764467567e-05 0 0.034653912228200009 -0.00041236766027284884 0 0.034435021439545903 -9.734166696126252e-05 0 0.034821012183124687 1.5498982740031879e-06 0 0.034368388498076594 -0.00034149190291863111 0 0.034653912228200009 -0.00041236766027284884 0 0.034435021439545903 -9.734166696126252e-05 0 0.034248975017488394 -0.00060002719896919523 0 0.034368388498076594 -0.00034149190291863111 0 0.034653912228200009 -0.00041236766027284884 0 0.034368388498076594 -0.00034149190291863111 0 0.034435021439545903 -9.734166696126252e-05 0 0.034126262933721882 -0.00026554711664915912 0 0.034435021439545903 -9.734166696126252e-05 0 0.034608657789949419 6.7386972530015241e-05 0 0.034821012183124687 1.5498982740031879e-06 0 0.034435021439545903 -9.734166696126252e-05 0 0.034608657789949419 6.7386972530015241e-05 0 0.034384022012048987 0.0001457016781531826 0 0.034821012183124687 1.5498982740031879e-06 0 0.03483484712846964 2.2923508764467567e-05 0 0.034842682014809619 6.5002212025420657e-05 0 0.034608657789949419 6.7386972530015241e-05 0 0.034821012183124687 1.5498982740031879e-06 0 0.034759493931030311 8.9481809633296284e-05 0 0.034821012183124687 1.5498982740031879e-06 0 0.034842682014809619 6.5002212025420657e-05 0 0.034759493931030311 8.9481809633296284e-05 0 0.034840679311060399 3.6635602207043412e-05 0 0.034855712716407763 5.1852487303132861e-05 0 0.034842682014809619 6.5002212025420657e-05 0 0.034840679311060399 3.6635602207043412e-05 0 0.03483484712846964 2.2923508764467567e-05 0 0.034842682014809619 6.5002212025420657e-05 0 0.034840679311060399 3.6635602207043412e-05 0 0.034846339088169191 4.9792993805576604e-05 0 0.034855712716407763 5.1852487303132861e-05 0 0.034840679311060399 3.6635602207043412e-05 0 0.034846339088169191 4.9792993805576604e-05 0 0.03481014799552385 5.4725847772114434e-05 0 0.034840679311060399 3.6635602207043412e-05 0 0.03481014799552385 5.4725847772114434e-05 0 0.034831392963662333 5.9704713422488243e-05 0 0.034752134681723952 0.00010075469460684802 0 0.03481014799552385 5.4725847772114434e-05 0 0.034831392963662333 5.9704713422488243e-05 0 0.034840679311060399 3.6635602207043412e-05 0 0.034831392963662333 5.9704713422488243e-05 0 0.03483484712846964 2.2923508764467567e-05 0 0.034838350413057308 2.9841166084959402e-05 0 0.034831392963662333 5.9704713422488243e-05 0 0.03483484712846964 2.2923508764467567e-05 0 0.033602746457533902 -0.00057744651513729351 0 0.033885400630432237 -0.00053269233372444074 0 0.033712651254442345 -0.00028756980999888871 0 0.032477158568047795 -0.00085239426290508434 0 0.033421252370752476 -0.00062335874094364635 0 0.033602746457533902 -0.00057744651513729351 0 0.033759783689707536 -0.00076109578941185884 0 0.033885400630432237 -0.00053269233372444074 0 0.032477158568047795 -0.00085239426290508434 0 0.032378241353818352 -0.0011509428574977161 0 0.032093222763901745 -0.0016092851983795277 0 0.031884225956972795 -0.0015784794339657234 0 0.031999266187054315 -0.0012315168992108924 0 0.032570371365006665 -0.0011517839931889813 0 0.032830604187837599 -0.0009291700732798956 0 0.032778010868201979 -0.00073533057595155259 0 0.032093222763901745 -0.0016092851983795277 0 0.031999266187054315 -0.0012315168992108924 0 0.03282770205077952 -0.0012516320594527436 0 0.032378241353818352 -0.0011509428574977161 0 0.033008335860528357 -0.00071934605054111984 0 0.032778010868201979 -0.00073533057595155259 0 0.033104569495392464 -0.00070596606636887278 0 0.033142939637014639 -0.00022547366338905535 0 0.032830604187837599 -0.0009291700732798956 0 0.032778010868201979 -0.00073533057595155259 0 0.033104569495392464 -0.00070596606636887278 0 0.033421252370752476 -0.00062335874094364635 0 0.033525160597218322 -0.00027291351372655192 0 0.033104569495392464 -0.00070596606636887278 0 0.033721478727814579 -0.00075612800116898094 0 0.033715126069551314 -0.00039358345675589404 0 0.033104569495392464 -0.00070596606636887278 0 0.033463176519951392 -0.0010825632538037022 0 0.033721478727814579 -0.00075612800116898094 0 0.031999266187054315 -0.0012315168992108924 0 0.033104569495392464 -0.00070596606636887278 0 0.03282770205077952 -0.0012516320594527436 0 0.033618374321293998 -0.0017478133417205019 0 0.032093222763901745 -0.0016092851983795277 0 0.03282770205077952 -0.0012516320594527436 0 0.033618374321293998 -0.0017478133417205019 0 0.03282770205077952 -0.0012516320594527436 0 0.033463176519951392 -0.0010825632538037022 0 0.033104569495392464 -0.00070596606636887278 0 0.03282770205077952 -0.0012516320594527436 0 0.033463176519951392 -0.0010825632538037022 0 0.033618374321293998 -0.0017478133417205019 0 0.033463176519951392 -0.0010825632538037022 0 0.034031174972976204 -0.0011245120639481029 0 0.033618374321293998 -0.0017478133417205019 0 0.034470901061816814 -0.0016293742065362801 0 0.034031174972976204 -0.0011245120639481029 0 0.033463176519951392 -0.0010825632538037022 0 0.034031174972976204 -0.0011245120639481029 0 0.033721478727814579 -0.00075612800116898094 0 0.034248975017488394 -0.00060002719896919523 0 0.034031174972976204 -0.0011245120639481029 0 0.033721478727814579 -0.00075612800116898094 0 0.034248975017488394 -0.00060002719896919523 0 0.033721478727814579 -0.00075612800116898094 0 0.033715126069551314 -0.00039358345675589404 0 0.034126262933721882 -0.00026554711664915912 0 0.033715126069551314 -0.00039358345675589404 0 0.034048486586011117 7.2701745420740793e-05 0 0.034248975017488394 -0.00060002719896919523 0 0.034126262933721882 -0.00026554711664915912 0 0.033715126069551314 -0.00039358345675589404 0 0.034435021439545903 -9.734166696126252e-05 0 0.034126262933721882 -0.00026554711664915912 0 0.034048486586011117 7.2701745420740793e-05 0 0.034248975017488394 -0.00060002719896919523 0 0.034368388498076594 -0.00034149190291863111 0 0.034126262933721882 -0.00026554711664915912 0 0.034435021439545903 -9.734166696126252e-05 0 0.034048486586011117 7.2701745420740793e-05 0 0.034384022012048987 0.0001457016781531826 0 0.034048486586011117 7.2701745420740793e-05 0 0.034254447545638937 0.00014899313809148501 0 0.034384022012048987 0.0001457016781531826 0 0.03400649583909237 -0.00030590077098313775 0 0.033944908081502218 -0.0001341513935145669 0 0.034119744761185795 -8.5386197707186342e-05 0 0.034048486586011117 7.2701745420740793e-05 0 0.033142939637014639 -0.00022547366338905535 0 0.033722047645307035 0.00061787821954713599 0 0.033525160597218322 -0.00027291351372655192 0 0.034270521514539867 0.0001771154341311421 0 0.03404982279217221 0.00019915507365042982 0 0.034270521514539867 0.0001771154341311421 0 0.033104569495392464 -0.00070596606636887278 0 0.033715126069551314 -0.00039358345675589404 0 0.033142939637014639 -0.00022547366338905535 0 0.033715126069551314 -0.00039358345675589404 0 0.034048486586011117 7.2701745420740793e-05 0 0.033142939637014639 -0.00022547366338905535 0 0.033885400630432237 -0.00053269233372444074 0 0.03400649583909237 -0.00030590077098313775 0 0.033712651254442345 -0.00028756980999888871 0 0.03400649583909237 -0.00030590077098313775 0 0.033944908081502218 -0.0001341513935145669 0 0.033712651254442345 -0.00028756980999888871 0 0.03496255022543901 -0.00017099222363074036 0 0.034993064551481649 -0.00028443774363745469 0 0.035036022017257577 -0.00014570794052049833 0 0.033944908081502218 -0.0001341513935145669 0 0.033712651254442345 -0.00028756980999888871 0 0.033821204287296916 -9.1648707347793661e-06 0 0.034362781499045182 -0.00027984983011703819 0 0.03439155599558559 -7.4749984735518102e-05 0 0.034990253376355814 -9.3172243406139762e-05 0 0.035036022017257577 -0.00014570794052049833 0 0.035051118962654094 -5.2782532749710643e-05 0 0.03439155599558559 -7.4749984735518102e-05 0 0.034728330417755256 4.5277936205846103e-05 0 0.033944908081502218 -0.0001341513935145669 0 0.033821204287296916 -9.1648707347793661e-06 0 0.034017214527524993 8.7044358539536889e-05 0 0.033821204287296916 -9.1648707347793661e-06 0 0.034017214527524993 8.7044358539536889e-05 0 0.03392249947443144 0.00025468823444439357 0 0.034480683257995845 0.00018012004098914516 0 0.034728330417755256 4.5277936205846103e-05 0 0.034966552364669397 0.00022954941890051107 0 0.034730542806511944 0.00018020611816556577 0 0.034933503214443724 5.2086961862523843e-05 0 0.034966552364669397 0.00022954941890051107 0 0.034849482456836958 0.000414885132956682 0 0.034730542806511944 0.00018020611816556577 0 0.033944908081502218 -0.0001341513935145669 0 0.034017214527524993 8.7044358539536889e-05 0 0.034119744761185795 -8.5386197707186342e-05 0 0.034480683257995845 0.00018012004098914516 0 0.034270521514539867 0.0001771154341311421 0 0.034254447545638937 0.00014899313809148501 0 0.034384022012048987 0.0001457016781531826 0 0.034730542806511944 0.00018020611816556577 0 0.034270521514539867 0.0001771154341311421 0 0.034769380287888313 0.00023403155721096096 0 0.034384022012048987 0.0001457016781531826 0 0.034730542806511944 0.00018020611816556577 0 0.034627877849995957 0.00014660164766524484 0 0.034730542806511944 0.00018020611816556577 0 0.034877881299036247 7.6763137045673716e-05 0 0.034933503214443724 5.2086961862523843e-05 0 0.034877881299036247 7.6763137045673716e-05 0 0.03499980254955061 4.5354633490995112e-08 0 0.034933503214443724 5.2086961862523843e-05 0 0.03499980254955061 4.5354633490995112e-08 0 0.034933503214443724 5.2086961862523843e-05 0 0.035000048225920864 -2.5133878868431722e-08 0 0.034966552364669397 0.00022954941890051107 0 0.034933503214443724 5.2086961862523843e-05 0 0.035038942604583387 0.0001013109073024281 0 0.034997155192878757 1.5362109811909694e-06 0 0.034999994991104906 4.2012602767486005e-10 0 0.035000000956125349 6.0407755618158585e-10 0 0.034728330417755256 4.5277936205846103e-05 0 0.035000188907942667 1.1298646754550807e-07 0 0.034933503214443724 5.2086961862523843e-05 0 0.035038942604583387 0.0001013109073024281 0 0.035000048225920864 -2.5133878868431722e-08 0 0.034728330417755256 4.5277936205846103e-05 0 0.035000330502686673 -2.6606229290648173e-07 0 0.034989705227949225 -3.1958573297870441e-05 0 0.035051118962654094 -5.2782532749710643e-05 0 0.035000045439995346 1.0090726485525315e-08 0 0.034990253376355814 -9.3172243406139762e-05 0 0.034989705227949225 -3.1958573297870441e-05 0 0.035051118962654094 -5.2782532749710643e-05 0 0.034879467855403516 8.3037281161507878e-05 0 0.034879958489039034 5.8501573097684409e-05 0 0.034937249738045191 4.6341452213996761e-05 0 0.034846339088169191 4.9792993805576604e-05 0 0.034879958489039034 5.8501573097684409e-05 0 0.034891912828197202 5.1824742539763682e-05 0 0.034846339088169191 4.9792993805576604e-05 0 0.034855712716407763 5.1852487303132861e-05 0 0.034879958489039034 5.8501573097684409e-05 0 0.034879467855403516 8.3037281161507878e-05 0 0.034879958489039034 5.8501573097684409e-05 0 0.034842682014809619 6.5002212025420657e-05 0 0.034855712716407763 5.1852487303132861e-05 0 0.034879958489039034 5.8501573097684409e-05 0 0.034842682014809619 6.5002212025420657e-05 0 0.034842682014809619 6.5002212025420657e-05 0 0.034759493931030311 8.9481809633296284e-05 0 0.034789955072624279 0.0001225028278110048 0 0.034879467855403516 8.3037281161507878e-05 0 0.034842682014809619 6.5002212025420657e-05 0 0.034789955072624279 0.0001225028278110048 0 0.034608657789949419 6.7386972530015241e-05 0 0.034384022012048987 0.0001457016781531826 0 0.034627877849995957 0.00014660164766524484 0 0.034608657789949419 6.7386972530015241e-05 0 0.034759493931030311 8.9481809633296284e-05 0 0.034627877849995957 0.00014660164766524484 0 0.034759493931030311 8.9481809633296284e-05 0 0.034627877849995957 0.00014660164766524484 0 0.034789955072624279 0.0001225028278110048 0 0.034730542806511944 0.00018020611816556577 0 0.034627877849995957 0.00014660164766524484 0 0.034789955072624279 0.0001225028278110048 0 0.034730542806511944 0.00018020611816556577 0 0.034789955072624279 0.0001225028278110048 0 0.034865319875816439 9.2787806796469589e-05 0 0.034879467855403516 8.3037281161507878e-05 0 0.034789955072624279 0.0001225028278110048 0 0.034865319875816439 9.2787806796469589e-05 0 0.034879467855403516 8.3037281161507878e-05 0 0.034865319875816439 9.2787806796469589e-05 0 0.034936246646556736 5.0994658417917233e-05 0 0.034730542806511944 0.00018020611816556577 0 0.034877881299036247 7.6763137045673716e-05 0 0.034865319875816439 9.2787806796469589e-05 0 0.034877881299036247 7.6763137045673716e-05 0 0.03499980254955061 4.5354633490995112e-08 0 0.034999871744534602 6.5026294533514552e-08 0 0.034877881299036247 7.6763137045673716e-05 0 0.034865319875816439 9.2787806796469589e-05 0 0.034999871744534602 6.5026294533514552e-08 0 0.034865319875816439 9.2787806796469589e-05 0 0.034999871744534602 6.5026294533514552e-08 0 0.034936246646556736 5.0994658417917233e-05 0 0.034999871744534602 6.5026294533514552e-08 0 0.034936246646556736 5.0994658417917233e-05 0 0.034999910989035932 4.1543267646431113e-08 0 0.034879467855403516 8.3037281161507878e-05 0 0.034936246646556736 5.0994658417917233e-05 0 0.034937249738045191 4.6341452213996761e-05 0 0.034936246646556736 5.0994658417917233e-05 0 0.034999910989035932 4.1543267646431113e-08 0 0.034937249738045191 4.6341452213996761e-05 0 0.034937249738045191 4.6341452213996761e-05 0 0.034963427664646107 2.5916810707011875e-05 0 0.034922513554589134 4.5115880036178374e-05 0 0.034999949860023694 1.9253676359781355e-08 0 0.034937249738045191 4.6341452213996761e-05 0 0.034963427664646107 2.5916810707011875e-05 0 0.034999910989035932 4.1543267646431113e-08 0 0.034999949860023694 1.9253676359781355e-08 0 0.034937249738045191 4.6341452213996761e-05 0 0.034999949860023694 1.9253676359781355e-08 0 0.034999920387154937 2.2411001617809746e-08 0 0.034963427664646107 2.5916810707011875e-05 0 0.034999920387154937 2.2411001617809746e-08 0 0.03497535405852216 1.6811196343819345e-05 0 0.035000078431897147 -1.8994820780863138e-09 0 0.034999920387154937 2.2411001617809746e-08 0 0.034963427664646107 2.5916810707011875e-05 0 0.03497535405852216 1.6811196343819345e-05 0 0.034963427664646107 2.5916810707011875e-05 0 0.03497535405852216 1.6811196343819345e-05 0 0.034933044722607921 4.3033647365793126e-05 0 0.03497535405852216 1.6811196343819345e-05 0 0.034933044722607921 4.3033647365793126e-05 0 0.034949663910882708 3.1715741027014101e-05 0 0.034963427664646107 2.5916810707011875e-05 0 0.034933044722607921 4.3033647365793126e-05 0 0.034922513554589134 4.5115880036178374e-05 0 0.034933044722607921 4.3033647365793126e-05 0 0.034900333379350182 4.9772017300844084e-05 0 0.034922513554589134 4.5115880036178374e-05 0 0.034933044722607921 4.3033647365793126e-05 0 0.034918949568410948 4.5629223232150152e-05 0 0.034927767731120662 4.5623029886378108e-05 0 0.034933044722607921 4.3033647365793126e-05 0 0.034900333379350182 4.9772017300844084e-05 0 0.034918949568410948 4.5629223232150152e-05 0 0.034937249738045191 4.6341452213996761e-05 0 0.034922513554589134 4.5115880036178374e-05 0 0.034891912828197202 5.1824742539763682e-05 0 0.034879958489039034 5.8501573097684409e-05 0 0.034937249738045191 4.6341452213996761e-05 0 0.034891912828197202 5.1824742539763682e-05 0 0.034922513554589134 4.5115880036178374e-05 0 0.034891912828197202 5.1824742539763682e-05 0 0.034865660353903295 5.4093075119811967e-05 0 0.034900333379350182 4.9772017300844084e-05 0 0.034922513554589134 4.5115880036178374e-05 0 0.034865660353903295 5.4093075119811967e-05 0 0.034846339088169191 4.9792993805576604e-05 0 0.034891912828197202 5.1824742539763682e-05 0 0.034865660353903295 5.4093075119811967e-05 0 0.034846339088169191 4.9792993805576604e-05 0 0.034801641503885032 6.3023616998900101e-05 0 0.034865660353903295 5.4093075119811967e-05 0 0.034752134681723952 0.00010075469460684802 0 0.03481014799552385 5.4725847772114434e-05 0 0.034801641503885032 6.3023616998900101e-05 0 0.034846339088169191 4.9792993805576604e-05 0 0.03481014799552385 5.4725847772114434e-05 0 0.034801641503885032 6.3023616998900101e-05 0 0.034801641503885032 6.3023616998900101e-05 0 0.034865660353903295 5.4093075119811967e-05 0 0.034845722295049897 4.5841222124103233e-05 0 0.034801641503885032 6.3023616998900101e-05 0 0.034845722295049897 4.5841222124103233e-05 0 0.034749118253835407 8.9756741457764895e-05 0 0.034900333379350182 4.9772017300844084e-05 0 0.034865660353903295 5.4093075119811967e-05 0 0.034845722295049897 4.5841222124103233e-05 0 0.034900333379350182 4.9772017300844084e-05 0 0.034907053679256721 4.0975784538133284e-05 0 0.034845722295049897 4.5841222124103233e-05 0 0.034918949568410948 4.5629223232150152e-05 0 0.034907053679256721 4.0975784538133284e-05 0 0.034927767731120662 4.5623029886378108e-05 0 0.034900333379350182 4.9772017300844084e-05 0 0.034918949568410948 4.5629223232150152e-05 0 0.034907053679256721 4.0975784538133284e-05 0 0.033397444509822238 0.00029436171437608962 0 0.033298897059544211 0.00013659070992921968 0 0.03337188312390655 0.00018453385794846066 0 0.033397444509822238 0.00029436171437608962 0 0.03337188312390655 0.00018453385794846066 0 0.033502669346174317 0.00026577928628530439 0 0.034099478705810177 0.00011445559841105442 0 0.034099784501261436 0.00010320173122377758 0 0.033298897059544211 0.00013659070992921968 0 0.033198836248094866 0.00019346387573114854 0 0.033438864606747526 0.00017420017423164279 0 0.033298897059544211 0.00013659070992921968 0 0.03337188312390655 0.00018453385794846066 0 0.033198836248094866 0.00019346387573114854 0 0.03337188312390655 0.00018453385794846066 0 0.033293086697859013 9.9239339237668884e-05 0 0.03345830298993463 6.0114219184456664e-05 0 0.033200691131476404 -0.00015308401294598649 0 0.033293086697859013 9.9239339237668884e-05 0 0.03345830298993463 6.0114219184456664e-05 0 0.03337188312390655 0.00018453385794846066 0 0.033293086697859013 9.9239339237668884e-05 0 0.033198836248094866 0.00019346387573114854 0 0.033101939344578488 -7.5836468724796878e-06 0 0.033293086697859013 9.9239339237668884e-05 0 0.033198836248094866 0.00019346387573114854 0 0.032819293961942955 -1.7487535898142414e-05 0 0.033101939344578488 -7.5836468724796878e-06 0 0.033198836248094866 0.00019346387573114854 0 0.032819293961942955 -1.7487535898142414e-05 0 0.033198836248094866 0.00019346387573114854 0 0.03265159146417998 0.00012397891962009482 0 0.033198836248094866 0.00019346387573114854 0 0.033438864606747526 0.00017420017423164279 0 0.033644743981874961 0.00045006299796419456 0 0.033153225805094881 0.0002110845780319401 0 0.033244539670713745 0.00029526930613019641 0 0.033438864606747526 0.00017420017423164279 0 0.033825314284510195 0.00024481864726173618 0 0.033622984330942664 2.3790557939748775e-05 0 0.033438864606747526 0.00017420017423164279 0 0.033644743981874961 0.00045006299796419456 0 0.033825314284510195 0.00024481864726173618 0 0.034608901534505528 0.00031718941348875734 0 0.034218402544847197 8.4626323465170501e-05 0 0.034617371941414614 0.00030567161219869526 0 0.034119058763594279 0.00038747875532680275 0 0.033825314284510195 0.00024481864726173618 0 0.032819293961942955 -1.7487535898142414e-05 0 0.032284010893567604 1.4718700270986612e-06 0 0.03265159146417998 0.00012397891962009482 0 0.034617371941414614 0.00030567161219869526 0 0.033825314284510195 0.00024481864726173618 0 0.033622984330942664 2.3790557939748775e-05 0 0.034463285850115898 0.00059136250952707202 0 0.033644743981874961 0.00045006299796419456 0 0.034119058763594279 0.00038747875532680275 0 0.033644743981874961 0.00045006299796419456 0 0.034119058763594279 0.00038747875532680275 0 0.033825314284510195 0.00024481864726173618 0 0.03295504392395434 0.00010726853501375815 0 0.033244539670713745 0.00029526930613019641 0 0.034463285850115898 0.00059136250952707202 0 0.034617371941414614 0.00030567161219869526 0 0.034119058763594279 0.00038747875532680275 0 0.034617371941414614 0.00030567161219869526 0 0.034752134681723952 0.00010075469460684802 0 0.034749118253835407 8.9756741457764895e-05 0 0.034752134681723952 0.00010075469460684802 0 0.034801641503885032 6.3023616998900101e-05 0 0.034749118253835407 8.9756741457764895e-05 0 0.033298897059544211 0.00013659070992921968 0 0.033438864606747526 0.00017420017423164279 0 0.033622984330942664 2.3790557939748775e-05 0 0.034099784501261436 0.00010320173122377758 0 0.034218402544847197 8.4626323465170501e-05 0 0.034393683087348879 0.00072824339990733842 0 0.034531798227030758 0.00071277378926345547 0 0.034533619887726505 0.00057256178670679625 0 0.034393683087348879 0.00072824339990733842 0 0.034531798227030758 0.00071277378926345547 0 0.034497415878337954 0.00076057209933974622 0 0.034531798227030758 0.00071277378926345547 0 0.034560390679447078 0.00074894014984519248 0 0.034589133811513136 0.00075397543075103818 0 0.034531798227030758 0.00071277378926345547 0 0.034533619887726505 0.00057256178670679625 0 0.034589133811513136 0.00075397543075103818 0 0.034619598946845853 0.00085161750558969363 0 0.034533619887726505 0.00057256178670679625 0 0.034589133811513136 0.00075397543075103818 0 0.034721635080548256 0.00051769366448972491 0 0.034558999715377244 0.00058394052197760461 0 0.034441528221309178 1.8066102582633908e-05 0 0.034533619887726505 0.00057256178670679625 0 0.034198943852870936 0.00035222786072205758 0 0.034393683087348879 0.00072824339990733842 0 0.034533619887726505 0.00057256178670679625 0 0.034198943852870936 0.00035222786072205758 0 0.033783566750873267 -9.0852202324413276e-05 0 0.034198943852870936 0.00035222786072205758 0 0.034062690587930697 0.0005752104498597464 0 0.034393683087348879 0.00072824339990733842 0 0.034198943852870936 0.00035222786072205758 0 0.034062690587930697 0.0005752104498597464 0 0.03337188312390655 0.00018453385794846066 0 0.03345830298993463 6.0114219184456664e-05 0 0.033561757004125968 0.00014884630623570103 0 0.033783566750873267 -9.0852202324413276e-05 0 0.03345830298993463 6.0114219184456664e-05 0 0.033561757004125968 0.00014884630623570103 0 0.033787526265187905 -8.5973699397039319e-05 0 0.033825051040922482 0.00032406214184817065 0 0.03337188312390655 0.00018453385794846066 0 0.033561757004125968 0.00014884630623570103 0 0.033502669346174317 0.00026577928628530439 0 0.033825051040922482 0.00032406214184817065 0 0.03385015665331477 0.0005291628795490573 0 0.034393683087348879 0.00072824339990733842 0 0.034062690587930697 0.0005752104498597464 0 0.034316229273041184 0.00077478814319938388 0 0.034393683087348879 0.00072824339990733842 0 0.034316229273041184 0.00077478814319938388 0 0.034444907953507797 0.0007746473427917847 0 0.03385015665331477 0.0005291628795490573 0 0.03443922129398308 0.00049278327607714292 0 0.033397444509822238 0.00029436171437608962 0 0.033502669346174317 0.00026577928628530439 0 0.033507879321552615 0.0003865702357998841 0 0.034099478705810177 0.00011445559841105442 0 0.03443922129398308 0.00049278327607714292 0 0.034316229273041184 0.00077478814319938388 0 0.034444907953507797 0.0007746473427917847 0 0.034445197529152892 0.00075922927310294775 0 0.034444907953507797 0.0007746473427917847 0 0.034497415878337954 0.00076057209933974622 0 0.034471065393219931 0.00077639930617971764 0 0.034444907953507797 0.0007746473427917847 0 0.034471065393219931 0.00077639930617971764 0 0.034474264422919995 0.00073132846865682792 0 0.034393683087348879 0.00072824339990733842 0 0.034444907953507797 0.0007746473427917847 0 0.034497415878337954 0.00076057209933974622 0 0.034497415878337954 0.00076057209933974622 0 0.034471065393219931 0.00077639930617971764 0 0.034560390679447078 0.00074894014984519248 0 0.034531798227030758 0.00071277378926345547 0 0.034497415878337954 0.00076057209933974622 0 0.034560390679447078 0.00074894014984519248 0 0.034721171728692171 0.00046673463089283554 0 0.03472587599766605 0.00032424400761781801 0 0.03497652534025162 0.00016293951727132039 0 0.034985656577004663 1.8786993353024866e-05 0 0.034964692990332828 4.7880712338922856e-05 0 0.03497652534025162 0.00016293951727132039 0 0.034930576157496979 2.5856304382147455e-05 0 0.034964692990332828 4.7880712338922856e-05 0 0.034444907953507797 0.0007746473427917847 0 0.034474264422919995 0.00073132846865682792 0 0.034503718285714906 0.00071796303010440775 0 0.034471065393219931 0.00077639930617971764 0 0.034474264422919995 0.00073132846865682792 0 0.034436929114195686 0.00062870633855796468 0 0.034474264422919995 0.00073132846865682792 0 0.034436929114195686 0.00062870633855796468 0 0.034502352966860328 0.00066838115754991399 0 0.034474264422919995 0.00073132846865682792 0 0.034502352966860328 0.00066838115754991399 0 0.034503718285714906 0.00071796303010440775 0 0.034985656577004663 1.8786993353024866e-05 0 0.034967358569328089 1.6386430434245811e-05 0 0.034969658124495671 2.1420379910310322e-05 0 0.034436929114195686 0.00062870633855796468 0 0.034502352966860328 0.00066838115754991399 0 0.034575257762361138 0.00049813143686036154 0 0.034541425235561113 0.00049772713131332989 0 0.03474931575313113 0.00071171838271912849 0 0.034502352966860328 0.00066838115754991399 0 0.034575257762361138 0.00049813143686036154 0 0.034503718285714906 0.00071796303010440775 0 0.034967358569328089 1.6386430434245811e-05 0 0.034930576157496979 2.5856304382147455e-05 0 0.034961418375450304 1.1912314741091328e-07 0 0.034967358569328089 1.6386430434245811e-05 0 0.034930576157496979 2.5856304382147455e-05 0 0.034964692990332828 4.7880712338922856e-05 0 0.034985656577004663 1.8786993353024866e-05 0 0.034967358569328089 1.6386430434245811e-05 0 0.034964692990332828 4.7880712338922856e-05 0 0.034444907953507797 0.0007746473427917847 0 0.034445197529152892 0.00075922927310294775 0 0.034503718285714906 0.00071796303010440775 0 0.03443922129398308 0.00049278327607714292 0 0.03474931575313113 0.00071171838271912849 0 0.035139735382839869 0.00083320067630234332 0 0.034894344987402348 0.00063702775506525628 0 0.03513270975529445 0.00031980113069850479 0 0.034575257762361138 0.00049813143686036154 0 0.034894344987402348 0.00063702775506525628 0 0.034900728791803198 0.0003780497031565757 0 0.034894344987402348 0.00063702775506525628 0 0.034900728791803198 0.0003780497031565757 0 0.03513270975529445 0.00031980113069850479 0 0.03443922129398308 0.00049278327607714292 0 0.035106446342302366 0.00016779428808668927 0 0.034933044722607921 4.3033647365793126e-05 0 0.034927767731120662 4.5623029886378108e-05 0 0.034949663910882708 3.1715741027014101e-05 0 0.03497535405852216 1.6811196343819345e-05 0 0.034949663910882708 3.1715741027014101e-05 0 0.035006265883091872 9.5683222644213288e-07 0 0.035106446342302366 0.00016779428808668927 0 0.034997846112719493 2.6830031886715584e-05 0 0.034575257762361138 0.00049813143686036154 0 0.034900728791803198 0.0003780497031565757 0 0.034919354926786238 5.8281563202244559e-05 0 0.03513270975529445 0.00031980113069850479 0 0.034919354926786238 5.8281563202244559e-05 0 0.035006265883091872 9.5683222644213288e-07 0 0.034900728791803198 0.0003780497031565757 0 0.03513270975529445 0.00031980113069850479 0 0.034919354926786238 5.8281563202244559e-05 0 0.034919354926786238 5.8281563202244559e-05 0 0.035006265883091872 9.5683222644213288e-07 0 0.034999844432165451 5.4148340714351535e-08 0 0.035006265883091872 9.5683222644213288e-07 0 0.035000078431897147 -1.8994820780863138e-09 0 0.034999844432165451 5.4148340714351535e-08 0 0.03497535405852216 1.6811196343819345e-05 0 0.035006265883091872 9.5683222644213288e-07 0 0.035000078431897147 -1.8994820780863138e-09 0 0.034961418375450304 1.1912314741091328e-07 0 0.034969658124495671 2.1420379910310322e-05 0 0.034975912568504387 1.7718887761825873e-05 0 0.034967358569328089 1.6386430434245811e-05 0 0.034961418375450304 1.1912314741091328e-07 0 0.034969658124495671 2.1420379910310322e-05 0 0.034436929114195686 0.00062870633855796468 0 0.034575257762361138 0.00049813143686036154 0 0.034919354926786238 5.8281563202244559e-05 0 0.034919354926786238 5.8281563202244559e-05 0 0.034969658124495671 2.1420379910310322e-05 0 0.034975912568504387 1.7718887761825873e-05 0 0.034985656577004663 1.8786993353024866e-05 0 0.034919354926786238 5.8281563202244559e-05 0 0.034969658124495671 2.1420379910310322e-05 0 0.03472587599766605 0.00032424400761781801 0 0.034894426428502746 7.8815435094002856e-05 0 0.034919354926786238 5.8281563202244559e-05 0 0.034999844432165451 5.4148340714351535e-08 0 0.034975912568504387 1.7718887761825873e-05 0 0.034961418375450304 1.1912314741091328e-07 0 0.034975912568504387 1.7718887761825873e-05 0 0.034999960175387416 -1.571176879000572e-08 0 0.034999844432165451 5.4148340714351535e-08 0 0.034975912568504387 1.7718887761825873e-05 0 0.034999960175387416 -1.571176879000572e-08 0 0.034999960175387416 -1.571176879000572e-08 0 0.034936012142525466 -1.9276194922838639e-05 0 0.034999817331493946 -5.1412478297054446e-08 0 0.034961418375450304 1.1912314741091328e-07 0 0.034999960175387416 -1.571176879000572e-08 0 0.034936012142525466 -1.9276194922838639e-05 0 0.034961418375450304 1.1912314741091328e-07 0 0.034936012142525466 -1.9276194922838639e-05 0 0.034880719522080286 -9.2107520603793515e-06 0 0.034936012142525466 -1.9276194922838639e-05 0 0.03484552850734382 -3.7620975070092365e-05 0 0.034880719522080286 -9.2107520603793515e-06 0 0.034936012142525466 -1.9276194922838639e-05 0 0.034999817331493946 -5.1412478297054446e-08 0 0.03484552850734382 -3.7620975070092365e-05 0 0.034999817331493946 -5.1412478297054446e-08 0 0.034863220755021955 -3.0025276800960243e-05 0 0.03484552850734382 -3.7620975070092365e-05 0 0.034999817331493946 -5.1412478297054446e-08 0 0.034999799680035477 8.729498136014691e-09 0 0.034863220755021955 -3.0025276800960243e-05 0 0.034999799680035477 8.729498136014691e-09 0 0.034863220755021955 -3.0025276800960243e-05 0 0.034861246834820385 -3.3424330161661537e-05 0 0.034863220755021955 -3.0025276800960243e-05 0 0.034681215892085233 -7.8030182724237688e-05 0 0.034861246834820385 -3.3424330161661537e-05 0 0.034863220755021955 -3.0025276800960243e-05 0 0.03484552850734382 -3.7620975070092365e-05 0 0.034681215892085233 -7.8030182724237688e-05 0 0.03484552850734382 -3.7620975070092365e-05 0 0.034681215892085233 -7.8030182724237688e-05 0 0.034730592766742854 7.5477599500112407e-06 0 0.034631618977580131 -7.5629866091459785e-05 0 0.034374453418386325 1.5901939059878867e-06 0 0.034681215892085233 -7.8030182724237688e-05 0 0.033976186892800839 -5.9534738826115396e-05 0 0.034392000038055835 0.00013477443360343337 0 0.034681215892085233 -7.8030182724237688e-05 0 0.034730592766742854 7.5477599500112407e-06 0 0.034392000038055835 0.00013477443360343337 0 0.034730592766742854 7.5477599500112407e-06 0 0.034658375716238393 0.0001712633110724863 0 0.034392000038055835 0.00013477443360343337 0 0.034838529183752825 7.7256496089685506e-05 0 0.034730592766742854 7.5477599500112407e-06 0 0.034658375716238393 0.0001712633110724863 0 0.03497652534025162 0.00016293951727132039 0 0.034930576157496979 2.5856304382147455e-05 0 0.034838529183752825 7.7256496089685506e-05 0 0.034930576157496979 2.5856304382147455e-05 0 0.034961418375450304 1.1912314741091328e-07 0 0.034880719522080286 -9.2107520603793515e-06 0 0.034930576157496979 2.5856304382147455e-05 0 0.034838529183752825 7.7256496089685506e-05 0 0.034880719522080286 -9.2107520603793515e-06 0 0.034838529183752825 7.7256496089685506e-05 0 0.034880719522080286 -9.2107520603793515e-06 0 0.034730592766742854 7.5477599500112407e-06 0 0.03484552850734382 -3.7620975070092365e-05 0 0.034880719522080286 -9.2107520603793515e-06 0 0.034730592766742854 7.5477599500112407e-06 0 0.034980932982906172 3.2434014575886466e-05 0 0.034937176046628708 -2.4951961250609067e-05 0 0.03498443989667719 -8.9976882217316169e-06 0 0.034980932982906172 3.2434014575886466e-05 0 0.034937176046628708 -2.4951961250609067e-05 0 0.0348471712189031 0.00011477103824026252 0 0.03498443989667719 -8.9976882217316169e-06 0 0.034999777797713641 -7.5049208736928643e-08 0 0.035000044245852888 4.373325294863345e-08 0 0.034811533998274552 3.512433437129057e-06 0 0.034957520652781654 7.6820916796743421e-06 0 0.03498443989667719 -8.9976882217316169e-06 0 0.034999777797713641 -7.5049208736928643e-08 0 0.034999815676963877 -4.244255603191942e-08 0 0.03498443989667719 -8.9976882217316169e-06 0 0.03485856406809916 -3.3267074480845176e-05 0 0.034999815676963877 -4.244255603191942e-08 0 0.034675771681911632 -3.8185761398838416e-05 0 0.03498443989667719 -8.9976882217316169e-06 0 0.03485856406809916 -3.3267074480845176e-05 0 0.034675771681911632 -3.8185761398838416e-05 0 0.03485856406809916 -3.3267074480845176e-05 0 0.034708622575861228 -2.0600964002862788e-05 0 0.03485856406809916 -3.3267074480845176e-05 0 0.034861246834820385 -3.3424330161661537e-05 0 0.034708622575861228 -2.0600964002862788e-05 0 0.03485856406809916 -3.3267074480845176e-05 0 0.034999815676963877 -4.244255603191942e-08 0 0.034861246834820385 -3.3424330161661537e-05 0 0.034999799680035477 8.729498136014691e-09 0 0.034999815676963877 -4.244255603191942e-08 0 0.034861246834820385 -3.3424330161661537e-05 0 0.034681215892085233 -7.8030182724237688e-05 0 0.034861246834820385 -3.3424330161661537e-05 0 0.034796992176201372 1.1260131940634954e-05 0 0.034796992176201372 1.1260131940634954e-05 0 0.034630666116049182 4.3463798896770956e-05 0 0.034582598509619804 0.00024299947531607275 0 0.034374453418386325 1.5901939059878867e-06 0 0.034019547734407497 0.00020341822423160233 0 0.034861246834820385 -3.3424330161661537e-05 0 0.034708622575861228 -2.0600964002862788e-05 0 0.034630666116049182 4.3463798896770956e-05 0 0.034861246834820385 -3.3424330161661537e-05 0 0.034796992176201372 1.1260131940634954e-05 0 0.034630666116049182 4.3463798896770956e-05 0 0.034708622575861228 -2.0600964002862788e-05 0 0.034630666116049182 4.3463798896770956e-05 0 0.034304720425691215 0.00011355809160804184 0 0.034630666116049182 4.3463798896770956e-05 0 0.034304720425691215 0.00011355809160804184 0 0.034194127017180428 0.00022005512583226109 0 0.034630666116049182 4.3463798896770956e-05 0 0.034194127017180428 0.00022005512583226109 0 0.034582598509619804 0.00024299947531607275 0 0.034811533998274552 3.512433437129057e-06 0 0.034758128892193652 0.00032481852499565426 0 0.034675771681911632 -3.8185761398838416e-05 0 0.034708622575861228 -2.0600964002862788e-05 0 0.034304720425691215 0.00011355809160804184 0 0.034980932982906172 3.2434014575886466e-05 0 0.034936377980307902 0.00034840267573832428 0 0.0348471712189031 0.00011477103824026252 0 0.03380252855765805 0.000281022570811293 0 0.034105343765517659 0.00029170246667223852 0 0.033255647344145517 0.00019926482729230069 0 0.033293509168774903 4.0381511807766292e-05 0 0.03317985200041982 0.00010246850587234512 0 0.032043660326261596 -0.00054684373619971435 0 0.03249149364067945 0.00027353292197173561 0 0.031942436794002264 0.00048366982868430569 0 0.032043660326261596 -0.00054684373619971435 0 0.033255647344145517 0.00019926482729230069 0 0.03249149364067945 0.00027353292197173561 0 0.033293509168774903 4.0381511807766292e-05 0 0.031788927159580829 0.00026524742829664243 0 0.034304720425691215 0.00011355809160804184 0 0.034105343765517659 0.00029170246667223852 0 0.034194127017180428 0.00022005512583226109 0 0.034758128892193652 0.00032481852499565426 0 0.033293509168774903 4.0381511807766292e-05 0 0.03380252855765805 0.000281022570811293 0 0.034105343765517659 0.00029170246667223852 0 0.034194127017180428 0.00022005512583226109 0 0.033853393606208544 0.00026297390928932868 0 0.034019547734407497 0.00020341822423160233 0 0.03380252855765805 0.000281022570811293 0 0.034194127017180428 0.00022005512583226109 0 0.034582598509619804 0.00024299947531607275 0 0.03380252855765805 0.000281022570811293 0 0.033255647344145517 0.00019926482729230069 0 0.033433492861011022 0.00019964362295539018 0 0.033255647344145517 0.00019926482729230069 0 0.033603474336065274 0.00037775927615349474 0 0.033433492861011022 0.00019964362295539018 0 0.033603474336065274 0.00037775927615349474 0 0.033433492861011022 0.00019964362295539018 0 0.033860053127210257 0.00021847724581406931 0 0.033976186892800839 -5.9534738826115396e-05 0 0.033860053127210257 0.00021847724581406931 0 0.034392000038055835 0.00013477443360343337 0 0.033976186892800839 -5.9534738826115396e-05 0 0.033433492861011022 0.00019964362295539018 0 0.033860053127210257 0.00021847724581406931 0 0.033603474336065274 0.00037775927615349474 0 0.033730248818444199 0.00068739308555300404 0 0.034046047736814071 0.00044371366373094665 0 0.033603474336065274 0.00037775927615349474 0 0.033860053127210257 0.00021847724581406931 0 0.034046047736814071 0.00044371366373094665 0 0.033603474336065274 0.00037775927615349474 0 0.033730248818444199 0.00068739308555300404 0 0.033304466253974464 0.00080721877050749186 0 0.033742730332566959 0.0010321369037298584 0 0.033304466253974464 0.00080721877050749186 0 0.033294048644996202 0.0015115917957150597 0 0.033730248818444199 0.00068739308555300404 0 0.033742730332566959 0.0010321369037298584 0 0.033304466253974464 0.00080721877050749186 0 0.033304466253974464 0.00080721877050749186 0 0.033294048644996202 0.0015115917957150597 0 0.032718718878256975 0.0013908511114363871 0 0.033255647344145517 0.00019926482729230069 0 0.033603474336065274 0.00037775927615349474 0 0.033304466253974464 0.00080721877050749186 0 0.033255647344145517 0.00019926482729230069 0 0.032661991187745418 0.00077944741257244177 0 0.03249149364067945 0.00027353292197173561 0 0.033255647344145517 0.00019926482729230069 0 0.033304466253974464 0.00080721877050749186 0 0.032661991187745418 0.00077944741257244177 0 0.033304466253974464 0.00080721877050749186 0 0.032661991187745418 0.00077944741257244177 0 0.032718718878256975 0.0013908511114363871 0 0.032661991187745418 0.00077944741257244177 0 0.032093602742485648 0.0013035082226787002 0 0.032718718878256975 0.0013908511114363871 0 0.032093602742485648 0.0013035082226787002 0 0.031942436794002264 0.00048366982868430569 0 0.031471287711911704 0.0011549169023406026 0 0.032661991187745418 0.00077944741257244177 0 0.032093602742485648 0.0013035082226787002 0 0.031942436794002264 0.00048366982868430569 0 0.032661991187745418 0.00077944741257244177 0 0.03249149364067945 0.00027353292197173561 0 0.031942436794002264 0.00048366982868430569 0 0.034854922260186244 0.00045681428242155147 0 0.034815874450209235 0.0002346402020462204 0 0.034508704587896677 0.00042991241824477146 0 0.03497652534025162 0.00016293951727132039 0 0.034854922260186244 0.00045681428242155147 0 0.034815874450209235 0.0002346402020462204 0 0.03497652534025162 0.00016293951727132039 0 0.034838529183752825 7.7256496089685506e-05 0 0.034815874450209235 0.0002346402020462204 0 0.034721171728692171 0.00046673463089283554 0 0.034702770956519566 0.0006037663640821332 0 0.034838529183752825 7.7256496089685506e-05 0 0.034815874450209235 0.0002346402020462204 0 0.034658375716238393 0.0001712633110724863 0 0.034815874450209235 0.0002346402020462204 0 0.034658375716238393 0.0001712633110724863 0 0.034508704587896677 0.00042991241824477146 0 0.034658375716238393 0.0001712633110724863 0 0.034392000038055835 0.00013477443360343337 0 0.034508704587896677 0.00042991241824477146 0 0.033860053127210257 0.00021847724581406931 0 0.034392000038055835 0.00013477443360343337 0 0.034046047736814071 0.00044371366373094665 0 0.034392000038055835 0.00013477443360343337 0 0.034046047736814071 0.00044371366373094665 0 0.034508704587896677 0.00042991241824477146 0 0.034508704587896677 0.00042991241824477146 0 0.034173352808336242 0.00082103664554469466 0 0.034585261885040942 0.00082115236504526812 0 0.034046047736814071 0.00044371366373094665 0 0.034508704587896677 0.00042991241824477146 0 0.034173352808336242 0.00082103664554469466 0 0.033730248818444199 0.00068739308555300404 0 0.034046047736814071 0.00044371366373094665 0 0.034173352808336242 0.00082103664554469466 0 0.033730248818444199 0.00068739308555300404 0 0.033742730332566959 0.0010321369037298584 0 0.034173352808336242 0.00082103664554469466 0 0.034173352808336242 0.00082103664554469466 0 0.034367842341603713 0.0011731073708339699 0 0.033898792714976651 0.0013398635661752715 0 0.033742730332566959 0.0010321369037298584 0 0.034173352808336242 0.00082103664554469466 0 0.033898792714976651 0.0013398635661752715 0 0.034173352808336242 0.00082103664554469466 0 0.034585261885040942 0.00082115236504526812 0 0.034367842341603713 0.0011731073708339699 0 0.034585261885040942 0.00082115236504526812 0 0.034527689310157948 0.00099699315559653528 0 0.034367842341603713 0.0011731073708339699 0 0.034854922260186244 0.00045681428242155147 0 0.034508704587896677 0.00042991241824477146 0 0.034585261885040942 0.00082115236504526812 0 0.034702770956519566 0.0006037663640821332 0 0.034596042381874116 0.00080371507559672168 0 0.034560390679447078 0.00074894014984519248 0 0.034585261885040942 0.00082115236504526812 0 0.034589133811513136 0.00075397543075103818 0 0.034619598946845853 0.00085161750558969363 0 0.034589133811513136 0.00075397543075103818 0 0.034527689310157948 0.00099699315559653528 0 0.034585261885040942 0.00082115236504526812 0 0.034589133811513136 0.00075397543075103818 0 0.034527689310157948 0.00099699315559653528 0 0.034619598946845853 0.00085161750558969363 0 0.034527689310157948 0.00099699315559653528 0 0.034576889167061552 0.0010600399946257819 0 0.034721635080548256 0.00051769366448972491 0 0.034980296656111534 0.00029812147742416903 0 0.034527689310157948 0.00099699315559653528 0 0.034576889167061552 0.0010600399946257819 0 0.034441711914336204 0.0011173091112272461 0 0.034576889167061552 0.0010600399946257819 0 0.034488326747291104 0.0011821855298771511 0 0.034441711914336204 0.0011173091112272461 0 0.034980296656111534 0.00029812147742416903 0 0.034709077395637652 0.00094368459350858112 0 0.034709077395637652 0.00094368459350858112 0 0.034616146021519925 0.00155449433796569 0 0.034886672504027536 -0.00030541638196174482 0 0.035223202699804855 -0.00025292850708327552 0 0.035187395691055723 -0.00061475024098445262 0 0.035223202699804855 -0.00025292850708327552 0 0.035187395691055723 -0.00061475024098445262 0 0.03554453966092546 -0.0005877951907331 0 0.034831912822157855 -0.00069803717888311653 0 0.035187395691055723 -0.00061475024098445262 0 0.035049230810551342 -0.00090955473053352519 0 0.035187395691055723 -0.00061475024098445262 0 0.03554453966092546 -0.0005877951907331 0 0.035287937160109271 -0.0010774961194182971 0 0.034709077395637652 0.00094368459350858112 0 0.032702775125780098 0.0010420981682823401 0 0.033801385051155611 0.001996953718182576 0 0.033521960161063485 0.0012070983494105515 0 0.034134629869591697 0.0016738502612174085 0 0.034709077395637652 0.00094368459350858112 0 0.034314859447041893 0.0025554926740438532 0 0.032520296751964821 0.0020467507360705582 0 0.034314859447041893 0.0025554926740438532 0 0.030238275416851763 0.0027413860669487141 0 0.031383104512560579 0.0026416439627753156 0 0.029631285740204516 0.0021594968096845008 0 0.033801385051155611 0.001996953718182576 0 0.033521960161063485 0.0012070983494105515 0 0.033390207814555872 0.0012193795161553893 0 0.030868137695487539 0.0033695674679745297 0 0.028166803303184291 0.0015759116662293995 0 0.034111929612655106 0.0031459290169642464 0 0.034058656338404422 0.0031629364777167575 0 0.034060808848565258 0.0030682974748447544 0 0.032520296751964821 0.0020467507360705582 0 0.030868137695487539 0.0033695674679745297 0 0.032520296751964821 0.0020467507360705582 0 0.032702775125780098 0.0010420981682823401 0 0.032520296751964821 0.0020467507360705582 0 0.029845638718474867 0.0015016677056883898 0 0.032111153774710272 0.0022670003846159523 0 0.030794820830470752 0.0012563916851823541 0 0.03135468462224543 0.0023405413465949613 0 0.029845638718474867 0.0015016677056883898 0 0.032702775125780098 0.0010420981682823401 0 0.034749610509519205 -0.0010393565916597385 0 0.035287937160109271 -0.0010774961194182971 0 0.035049230810551342 -0.00090955473053352519 0 0.030897574007378442 0.00044911038184015093 0 0.031570451634141079 0.00021208695804875575 0 0.031660402846024664 0.00038121664524716465 0 0.030238275416851763 0.0027413860669487141 0 0.02972487548276883 0.0023418543144516461 0 0.029631285740204516 0.0021594968096845008 0 0.035187395691055723 -0.00061475024098445262 0 0.035287937160109271 -0.0010774961194182971 0 0.035049230810551342 -0.00090955473053352519 0 0.030897574007378442 0.00044911038184015093 0 0.031570451634141079 0.00021208695804875575 0 0.031445280832790183 0.00011569449331070433 0 0.033591963220672004 -0.00087009771278219537 0 0.032702775125780098 0.0010420981682823401 0 0.033651713258183245 0.0033671987233360244 0 0.033910578976279575 0.0031672201526737088 0 0.034039593174995872 0.0031702918072246625 0 0.033603924464606492 0.002842388860942094 0 0.033651713258183245 0.0033671987233360244 0 0.033910578976279575 0.0031672201526737088 0 0.033603924464606492 0.002842388860942094 0 0.033910578976279575 0.0031672201526737088 0 0.033926972441095812 0.0027827528057863021 0 0.033603924464606492 0.002842388860942094 0 0.033651713258183245 0.0033671987233360244 0 0.033042064789890704 0.0030410266997844397 0 0.033651713258183245 0.0033671987233360244 0 0.034164156583875067 0.003173525124933102 0 0.034039593174995872 0.0031702918072246625 0 0.031420099749359914 0.0039013679539205543 0 0.030868137695487539 0.0033695674679745297 0 0.030868137695487539 0.0033695674679745297 0 0.033249759171164905 0.0036630137204943024 0 0.034058656338404422 0.0031629364777167575 0 0.034039593174995872 0.0031702918072246625 0 0.034060808848565258 0.0030682974748447544 0 0.033910578976279575 0.0031672201526737088 0 0.034347837733071131 0.0027640614762196635 0 0.033926972441095812 0.0027827528057863021 0 0.033910578976279575 0.0031672201526737088 0 0.034039593174995872 0.0031702918072246625 0 0.034060808848565258 0.0030682974748447544 0 0.033870921928444271 0.0032068309860131534 0 0.034314859447041893 0.0025554926740438532 0 0.034347837733071131 0.0027640614762196635 0 0.03386473256708368 0.0023628977110698736 0 0.033926972441095812 0.0027827528057863021 0 0.034960565495911221 0.0023195866679451972 0 0.034628333198711302 0.0026460341299580285 0 0.034529849319503973 0.0022161430770556651 0 0.034314859447041893 0.0025554926740438532 0 0.033999233509040758 0.002312498722427852 0 0.034628333198711302 0.0026460341299580285 0 0.034529849319503973 0.0022161430770556651 0 0.034080356747153089 0.0022380836945996227 0 0.033603924464606492 0.002842388860942094 0 0.03386473256708368 0.0023628977110698736 0 0.033926972441095812 0.0027827528057863021 0 0.033603924464606492 0.002842388860942094 0 0.03386473256708368 0.0023628977110698736 0 0.033453239261402062 0.0024143499682181897 0 0.034080356747153089 0.0022380836945996227 0 0.034169151180104849 0.0017209403853629577 0 0.033538280448705313 0.0019000945773423486 0 0.033999233509040758 0.002312498722427852 0 0.033547386032064357 0.0019267124691186152 0 0.03386473256708368 0.0023628977110698736 0 0.033538280448705313 0.0019000945773423486 0 0.033453239261402062 0.0024143499682181897 0 0.034960565495911221 0.0023195866679451972 0 0.034529849319503973 0.0022161430770556651 0 0.034695166528693838 0.0017871532928708136 0 0.034529849319503973 0.0022161430770556651 0 0.034080356747153089 0.0022380836945996227 0 0.034169151180104849 0.0017209403853629577 0 0.034529849319503973 0.0022161430770556651 0 0.034169151180104849 0.0017209403853629577 0 0.034695166528693838 0.0017871532928708136 0 0.034527689310157948 0.00099699315559653528 0 0.034441711914336204 0.0011173091112272461 0 0.034367842341603713 0.0011731073708339699 0 0.034616146021519925 0.00155449433796569 0 0.034381707443148272 0.001161261869413992 0 0.034169151180104849 0.0017209403853629577 0 0.034695166528693838 0.0017871532928708136 0 0.034367842341603713 0.0011731073708339699 0 0.034169151180104849 0.0017209403853629577 0 0.033898792714976651 0.0013398635661752715 0 0.033538280448705313 0.0019000945773423486 0 0.034169151180104849 0.0017209403853629577 0 0.034367842341603713 0.0011731073708339699 0 0.033898792714976651 0.0013398635661752715 0 0.033742730332566959 0.0010321369037298584 0 0.033898792714976651 0.0013398635661752715 0 0.033294048644996202 0.0015115917957150597 0 0.033898792714976651 0.0013398635661752715 0 0.033294048644996202 0.0015115917957150597 0 0.033538280448705313 0.0019000945773423486 0 0.033294048644996202 0.0015115917957150597 0 0.032737020250682418 0.001976115550917301 0 0.032718718878256975 0.0013908511114363871 0 0.033294048644996202 0.0015115917957150597 0 0.032737020250682418 0.001976115550917301 0 0.032998651859861595 0.0023225696681324001 0 0.033294048644996202 0.0015115917957150597 0 0.033538280448705313 0.0019000945773423486 0 0.032998651859861595 0.0023225696681324001 0 0.033538280448705313 0.0019000945773423486 0 0.033453239261402062 0.0024143499682181897 0 0.032998651859861595 0.0023225696681324001 0 0.032093602742485648 0.0013035082226787002 0 0.032220189885166915 0.0019961073811241561 0 0.031495638876240621 0.0019105196084019155 0 0.032737020250682418 0.001976115550917301 0 0.032718718878256975 0.0013908511114363871 0 0.032220189885166915 0.0019961073811241561 0 0.032093602742485648 0.0013035082226787002 0 0.032718718878256975 0.0013908511114363871 0 0.032220189885166915 0.0019961073811241561 0 0.032737020250682418 0.001976115550917301 0 0.032220189885166915 0.0019961073811241561 0 0.032406005807489487 0.0027568898453993775 0 0.032220189885166915 0.0019961073811241561 0 0.031981661034443332 0.0025622256948920562 0 0.031495638876240621 0.0019105196084019155 0 0.031981661034443332 0.0025622256948920562 0 0.031430815063924027 0.0026276909670555648 0 0.031495638876240621 0.0019105196084019155 0 0.031981661034443332 0.0025622256948920562 0 0.032406005807489487 0.0027568898453993775 0 0.031763750358998387 0.0029889177711568625 0 0.031981661034443332 0.0025622256948920562 0 0.031763750358998387 0.0029889177711568625 0 0.031430815063924027 0.0026276909670555648 0 0.032220189885166915 0.0019961073811241561 0 0.031981661034443332 0.0025622256948920562 0 0.032406005807489487 0.0027568898453993775 0 0.032406005807489487 0.0027568898453993775 0 0.03197508116563872 0.0034209573324259892 0 0.032402562816144023 0.0034903122685166765 0 0.032399245741959029 0.0027271201528682536 0 0.03257118561996445 0.0035055849827160561 0 0.032406005807489487 0.0027568898453993775 0 0.031763750358998387 0.0029889177711568625 0 0.03197508116563872 0.0034209573324259892 0 0.031763750358998387 0.0029889177711568625 0 0.031540495285479433 0.0034721312798530919 0 0.03197508116563872 0.0034209573324259892 0 0.033122840254940548 0.0027189210153014836 0 0.032998651859861595 0.0023225696681324001 0 0.03260021268251715 0.0029934364393840577 0 0.033603924464606492 0.002842388860942094 0 0.033122840254940548 0.0027189210153014836 0 0.033453239261402062 0.0024143499682181897 0 0.033122840254940548 0.0027189210153014836 0 0.033453239261402062 0.0024143499682181897 0 0.032998651859861595 0.0023225696681324001 0 0.032737020250682418 0.001976115550917301 0 0.032406005807489487 0.0027568898453993775 0 0.032998651859861595 0.0023225696681324001 0 0.032406005807489487 0.0027568898453993775 0 0.032998651859861595 0.0023225696681324001 0 0.03260021268251715 0.0029934364393840577 0 0.03260021268251715 0.0029934364393840577 0 0.032328831821384504 0.0034682976842017673 0 0.032572272649986016 0.003275963782704588 0 0.032406005807489487 0.0027568898453993775 0 0.03260021268251715 0.0029934364393840577 0 0.032572272649986016 0.003275963782704588 0 0.03260021268251715 0.0029934364393840577 0 0.033042064789890704 0.0030410266997844397 0 0.032328831821384504 0.0034682976842017673 0 0.033651713258183245 0.0033671987233360244 0 0.033042064789890704 0.0030410266997844397 0 0.032328831821384504 0.0034682976842017673 0 0.031420099749359914 0.0039013679539205543 0 0.032291029487178449 0.0035375021978982235 0 0.033122840254940548 0.0027189210153014836 0 0.03260021268251715 0.0029934364393840577 0 0.033042064789890704 0.0030410266997844397 0 0.033603924464606492 0.002842388860942094 0 0.033122840254940548 0.0027189210153014836 0 0.033042064789890704 0.0030410266997844397 0 0.029415184649258838 0.004404298353647888 0 0.030522584022156882 0.0032436645025672264 0 0.032328831821384504 0.0034682976842017673 0 0.030522584022156882 0.0032436645025672264 0 0.031472880032956535 0.0026540367728174743 0 0.029834182662886084 0.0024170363070190296 0 0.030522584022156882 0.0032436645025672264 0 0.031472880032956535 0.0026540367728174743 0 0.032328831821384504 0.0034682976842017673 0 0.032328831821384504 0.0034682976842017673 0 0.032218693301960075 0.0025946139472033101 0 0.032572272649986016 0.003275963782704588 0 0.031472880032956535 0.0026540367728174743 0 0.032328831821384504 0.0034682976842017673 0 0.032218693301960075 0.0025946139472033101 0 0.032218693301960075 0.0025946139472033101 0 0.031513253912466406 0.0016811800715706888 0 0.032834432627464272 0.0015762649977715407 0 0.032218693301960075 0.0025946139472033101 0 0.032572272649986016 0.003275963782704588 0 0.032834432627464272 0.0015762649977715407 0 0.031472880032956535 0.0026540367728174743 0 0.032218693301960075 0.0025946139472033101 0 0.031513253912466406 0.0016811800715706888 0 0.032061293362047681 0.0015682268091847616 0 0.031953237619869755 0.002150109862411815 0 0.031513253912466406 0.0016811800715706888 0 0.030573299843896805 0.0017089642178168454 0 0.030512981672408773 0.00059068454090184454 0 0.031472880032956535 0.0026540367728174743 0 0.030573299843896805 0.0017089642178168454 0 0.029834182662886084 0.0024170363070190296 0 0.031472880032956535 0.0026540367728174743 0 0.031513253912466406 0.0016811800715706888 0 0.030573299843896805 0.0017089642178168454 0 0.031540495285479433 0.0034721312798530919 0 0.03197508116563872 0.0034209573324259892 0 0.03157271651410265 0.0038790472215324886 0 0.03197508116563872 0.0034209573324259892 0 0.032044201810168017 0.0038502689961629447 0 0.03157271651410265 0.0038790472215324886 0 0.03197508116563872 0.0034209573324259892 0 0.032402562816144023 0.0034903122685166765 0 0.032044201810168017 0.0038502689961629447 0 0.032420037401437118 0.0042731983440977101 0 0.032044201810168017 0.0038502689961629447 0 0.031851726512904965 0.0040948496708590552 0 0.03257118561996445 0.0035055849827160561 0 0.031953237619869755 0.002150109862411815 0 0.032402562816144023 0.0034903122685166765 0 0.032420037401437118 0.0042731983440977101 0 0.032044201810168017 0.0038502689961629447 0 0.032420037401437118 0.0042731983440977101 0 0.031851726512904965 0.0040948496708590552 0 0.031628762614599439 0.0043374055868085843 0 0.032044201810168017 0.0038502689961629447 0 0.031851726512904965 0.0040948496708590552 0 0.03157271651410265 0.0038790472215324886 0 0.031851726512904965 0.0040948496708590552 0 0.031598215321044523 0.0041334680196423437 0 0.031628762614599439 0.0043374055868085843 0 0.031598215321044523 0.0041334680196423437 0 0.031628762614599439 0.0043374055868085843 0 0.031335579017977309 0.0042234816713817248 0 0.031851726512904965 0.0040948496708590552 0 0.031598215321044523 0.0041334680196423437 0 0.03157271651410265 0.0038790472215324886 0 0.028279533917432775 0.0015908066268084482 0 0.02900408345797446 0.0019008526169853781 0 0.030494468927699379 0.0021504873038207732 0 0.032420037401437118 0.0042731983440977101 0 0.031583077035875241 0.0044805994587071487 0 0.031628762614599439 0.0043374055868085843 0 0.027758704739878178 0.0020036043873642244 0 0.027057934550157547 0.0011843281983647809 0 0.028227171149318369 0.001771585614800515 0 0.028279533917432775 0.0015908066268084482 0 0.02900408345797446 0.0019008526169853781 0 0.031579066832432348 0.0044879034853549191 0 0.031628762614599439 0.0043374055868085843 0 0.031390139738066765 0.0045330325298353329 0 0.028430640373159205 0.0029217336018655441 0 0.028518932331490925 0.0026134975914094438 0 0.027710441938668 0.0027982654775981284 0 0.028946010697998601 0.0027073534518340255 0 0.027531433802163111 0.0024625352027745086 0 0.027758704739878178 0.0020036043873642244 0 0.028946010697998601 0.0027073534518340255 0 0.028946010697998601 0.0027073534518340255 0 0.029378371380416084 0.0033475649875102237 0 0.025569425285386853 0.00066368195895984811 0 0.025396832310048387 0.0006326749088461528 0 0.025323046174126996 0.00039215384242410119 0 0.027220705618339905 0.00091227744980941776 0 0.028868846147222637 0.0014269997770827406 0 0.028861218561230365 0.0011812998069831654 0 0.031953237619869755 0.002150109862411815 0 0.028946010697998601 0.0027073534518340255 0 0.030465398651300553 0.0010890391428269169 0 0.028279533917432775 0.0015908066268084482 0 0.030494468927699379 0.0021504873038207732 0 0.027057934550157547 0.0011843281983647809 0 0.028028036741253752 0.0006283151424831589 0 0.027057934550157547 0.0011843281983647809 0 0.030112373092231654 0.00077773846901165757 0 0.025396832310048387 0.0006326749088461528 0 0.0250494730606124 0.00052320419401814464 0 0.025323046174126996 0.00039215384242410119 0 0.031953237619869755 0.002150109862411815 0 0.030112373092231654 0.00077773846901165757 0 0.028028036741253752 0.0006283151424831589 0 0.030112373092231654 0.00077773846901165757 0 0.028028036741253752 0.0006283151424831589 0 0.025462444836356464 0.00022329731200955555 0 0.0250494730606124 0.00052320419401814464 0 0.02502217001749912 0.00023332821712567477 0 0.025323046174126996 0.00039215384242410119 0 0.02502217001749912 0.00023332821712567477 0 0.025323046174126996 0.00039215384242410119 0 0.025178608685040842 0.00013441808076777433 0 0.025569425285386853 0.00066368195895984811 0 0.025323046174126996 0.00039215384242410119 0 0.025674960069193533 0.00017919903198986221 0 0.025323046174126996 0.00039215384242410119 0 0.025178608685040842 0.00013441808076777433 0 0.025674960069193533 0.00017919903198986221 0 0.030512981672408773 0.00059068454090184454 0 0.031543853676659343 -0.00030263035352731161 0 0.032186247815238898 0.00066491271521360821 0 0.030512981672408773 0.00059068454090184454 0 0.031543853676659343 -0.00030263035352731161 0 0.029735232202633851 -0.00056738654925118719 0 0.031513253912466406 0.0016811800715706888 0 0.030512981672408773 0.00059068454090184454 0 0.032186247815238898 0.00066491271521360821 0 0.030512981672408773 0.00059068454090184454 0 0.029735232202633851 -0.00056738654925118719 0 0.029566812571296119 0.00023764022787584643 0 0.030573299843896805 0.0017089642178168454 0 0.030512981672408773 0.00059068454090184454 0 0.029210658755729875 0.00094742591393273776 0 0.030112373092231654 0.00077773846901165757 0 0.031607126762365233 -0.00027699112985011181 0 0.031513253912466406 0.0016811800715706888 0 0.033234256552849714 0.0012650960352504096 0 0.032186247815238898 0.00066491271521360821 0 0.033195589440277756 8.728342164563703e-06 0 0.031543853676659343 -0.00030263035352731161 0 0.032186247815238898 0.00066491271521360821 0 0.03203049890802806 -0.00037929463399836023 0 0.032034708405261215 -0.00020756721146840504 0 0.030980531966685328 -0.00043028937615282003 0 0.033234256552849714 0.0012650960352504096 0 0.033195589440277756 8.728342164563703e-06 0 0.032186247815238898 0.00066491271521360821 0 0.02502217001749912 0.00023332821712567477 0 0.024765359247238886 0.00031252493259701389 0 0.024539182054037711 4.4113680167724588e-05 0 0.025066186097831376 0.00056971921370578093 0 0.024765359247238886 0.00031252493259701389 0 0.024420803529363187 0.00040073308764867148 0 0.028028036741253752 0.0006283151424831589 0 0.02742216310694175 -0.00032396560188366238 0 0.03203049890802806 -0.00037929463399836023 0 0.030980531966685328 -0.00043028937615282003 0 0.030403016441814822 -0.00091091101373286026 0 0.025066186097831376 0.00056971921370578093 0 0.02502217001749912 0.00023332821712567477 0 0.024765359247238886 0.00031252493259701389 0 0.024420803529363187 0.00040073308764867148 0 0.023717274411789484 -3.7378434483584826e-05 0 0.024539182054037711 4.4113680167724588e-05 0 0.031607126762365233 -0.00027699112985011181 0 0.02980035685158346 -0.00057719529831144702 0 0.024765359247238886 0.00031252493259701389 0 0.024420803529363187 0.00040073308764867148 0 0.024539182054037711 4.4113680167724588e-05 0 0.030980531966685328 -0.00043028937615282003 0 0.030403016441814822 -0.00091091101373286026 0 0.029735232202633851 -0.00056738654925118719 0 0.029735232202633851 -0.00056738654925118719 0 0.028828655726363551 -2.483556526118198e-05 0 0.027999780492164447 -0.0015509491491919151 0 0.02742216310694175 -0.00032396560188366238 0 0.026151480133912892 -0.00062003150482334562 0 0.030403016441814822 -0.00091091101373286026 0 0.029735232202633851 -0.00056738654925118719 0 0.027999780492164447 -0.0015509491491919151 0 0.028828655726363551 -2.483556526118198e-05 0 0.02775193439470533 0.00029058858158788369 0 0.027999780492164447 -0.0015509491491919151 0 0.024420803529363187 0.00040073308764867148 0 0.023646325447232643 0.00016781581037952995 0 0.023717274411789484 -3.7378434483584826e-05 0 0.029566812571296119 0.00023764022787584643 0 0.028828655726363551 -2.483556526118198e-05 0 0.029210658755729875 0.00094742591393273776 0 0.029735232202633851 -0.00056738654925118719 0 0.029566812571296119 0.00023764022787584643 0 0.028828655726363551 -2.483556526118198e-05 0 0.028828655726363551 -2.483556526118198e-05 0 0.029210658755729875 0.00094742591393273776 0 0.02775193439470533 0.00029058858158788369 0 0.029210658755729875 0.00094742591393273776 0 0.02775193439470533 0.00029058858158788369 0 0.027651844444278598 0.0014101648484816267 0 0.030512981672408773 0.00059068454090184454 0 0.029566812571296119 0.00023764022787584643 0 0.029210658755729875 0.00094742591393273776 0 0.026786600088123211 0.00069988116052160671 0 0.026461816635570783 0.0015245739429920161 0 0.027651844444278598 0.0014101648484816267 0 0.026786600088123211 0.00069988116052160671 0 0.02775193439470533 0.00029058858158788369 0 0.027651844444278598 0.0014101648484816267 0 0.026786600088123211 0.00069988116052160671 0 0.02775193439470533 0.00029058858158788369 0 0.026332240022590016 -0.00048997269449730318 0 0.02775193439470533 0.00029058858158788369 0 0.027999780492164447 -0.0015509491491919151 0 0.026332240022590016 -0.00048997269449730318 0 0.027999780492164447 -0.0015509491491919151 0 0.026332240022590016 -0.00048997269449730318 0 0.025139260520165331 -0.0019839221611764194 0 0.024707991497148488 -0.00087086388109186054 0 0.026332240022590016 -0.00048997269449730318 0 0.025139260520165331 -0.0019839221611764194 0 0.024707991497148488 -0.00087086388109186054 0 0.025303512068770132 -0.00021307053795376394 0 0.026332240022590016 -0.00048997269449730318 0 0.024707991497148488 -0.00087086388109186054 0 0.025303512068770132 -0.00021307053795376394 0 0.024591745734036927 -1.3519174869147151e-05 0 0.022569679609190752 -0.00051895063379979553 0 0.024535171510996576 -0.00081515745140714479 0 0.023292163777326767 -0.000618155711351489 0 0.024707991497148488 -0.00087086388109186054 0 0.023955787653365999 -0.00020410076560408984 0 0.021674155425661756 -0.00032130050174715853 0 0.024707991497148488 -0.00087086388109186054 0 0.022907549694510712 -0.0011553982229975052 0 0.024707991497148488 -0.00087086388109186054 0 0.023955787653365999 -0.00020410076560408984 0 0.024591745734036927 -1.3519174869147151e-05 0 0.023955787653365999 -0.00020410076560408984 0 0.024591745734036927 -1.3519174869147151e-05 0 0.024326160989875011 0.0004246339435264931 0 0.023583564813972637 0.00017929997424659229 0 0.023955787653365999 -0.00020410076560408984 0 0.024326160989875011 0.0004246339435264931 0 0.024591745734036927 -1.3519174869147151e-05 0 0.024326160989875011 0.0004246339435264931 0 0.024775722080868926 0.00091758255719981809 0 0.024326160989875011 0.0004246339435264931 0 0.024775722080868926 0.00091758255719981809 0 0.023826236027308489 0.00063966078488535887 0 0.023583564813972637 0.00017929997424659229 0 0.024326160989875011 0.0004246339435264931 0 0.023826236027308489 0.00063966078488535887 0 0.024775722080868926 0.00091758255719981809 0 0.023826236027308489 0.00063966078488535887 0 0.024096880893730938 0.0013858924067430361 0 0.023038880381193248 0.00078264407246655856 0 0.023826236027308489 0.00063966078488535887 0 0.024096880893730938 0.0013858924067430361 0 0.026786600088123211 0.00069988116052160671 0 0.026332240022590016 -0.00048997269449730318 0 0.025686213091089632 0.0005427452372211188 0 0.025303512068770132 -0.00021307053795376394 0 0.026332240022590016 -0.00048997269449730318 0 0.025686213091089632 0.0005427452372211188 0 0.025303512068770132 -0.00021307053795376394 0 0.024591745734036927 -1.3519174869147151e-05 0 0.025686213091089632 0.0005427452372211188 0 0.024591745734036927 -1.3519174869147151e-05 0 0.024775722080868926 0.00091758255719981809 0 0.025686213091089632 0.0005427452372211188 0 0.024775722080868926 0.00091758255719981809 0 0.025686213091089632 0.0005427452372211188 0 0.025538035550011284 0.0014776905068361523 0 0.026786600088123211 0.00069988116052160671 0 0.025686213091089632 0.0005427452372211188 0 0.026461816635570783 0.0015245739429920161 0 0.025686213091089632 0.0005427452372211188 0 0.026461816635570783 0.0015245739429920161 0 0.025538035550011284 0.0014776905068361523 0 0.026461816635570783 0.0015245739429920161 0 0.025538035550011284 0.0014776905068361523 0 0.025916068078640973 0.0025303410129572804 0 0.025538035550011284 0.0014776905068361523 0 0.025916068078640973 0.0025303410129572804 0 0.024842931616438049 0.002136159070063327 0 0.026461816635570783 0.0015245739429920161 0 0.025916068078640973 0.0025303410129572804 0 0.027181812807862901 0.0024299081701529574 0 0.023038880381193248 0.00078264407246655856 0 0.024096880893730938 0.0013858924067430361 0 0.023829114170360828 0.002419457246414145 0 0.024775722080868926 0.00091758255719981809 0 0.025538035550011284 0.0014776905068361523 0 0.024842931616438049 0.002136159070063327 0 0.024775722080868926 0.00091758255719981809 0 0.024096880893730938 0.0013858924067430361 0 0.024842931616438049 0.002136159070063327 0 0.024096880893730938 0.0013858924067430361 0 0.024842931616438049 0.002136159070063327 0 0.023829114170360828 0.002419457246414145 0 0.024842931616438049 0.002136159070063327 0 0.023829114170360828 0.002419457246414145 0 0.02464366547387084 0.0040352346767390619 0 0.025611937646130723 0.0016482631350003803 0 0.028166803303184291 0.0015759116662293995 0 0.027198516026011244 0.00097641055808385564 0 0.027429565098077268 0.00080010689145448215 0 0.027622555272199291 0.0013083366063657055 0 0.027429565098077268 0.00080010689145448215 0 0.027709765996812828 0.0013316606717697895 0 0.027622555272199291 0.0013083366063657055 0 0.029845638718474867 0.0015016677056883898 0 0.028166803303184291 0.0015759116662293995 0 0.029845638718474867 0.0015016677056883898 0 0.02885025355873547 0.0012733477496103263 0 0.029346468753672503 0.0012830083670707199 0 0.029206312658857689 0.0010087780514509285 0 0.028880457014120248 0.00092148163177265452 0 0.028166803303184291 0.0015759116662293995 0 0.02885025355873547 0.0012733477496103263 0 0.027027836805016303 0.00081569008663285984 0 0.02885025355873547 0.0012733477496103263 0 0.02679864758446289 0.0046499443742996508 0 0.02464366547387084 0.0040352346767390619 0 0.026644686003745269 0.0034336167906621382 0 0.025916068078640973 0.0025303410129572804 0 0.02464366547387084 0.0040352346767390619 0 0.026644686003745269 0.0034336167906621382 0 0.025916068078640973 0.0025303410129572804 0 0.024842931616438049 0.002136159070063327 0 0.02464366547387084 0.0040352346767390619 0 0.025916068078640973 0.0025303410129572804 0 0.026644686003745269 0.0034336167906621382 0 0.027181812807862901 0.0024299081701529574 0 0.029415184649258838 0.004404298353647888 0 0.02679864758446289 0.0046499443742996508 0 0.027949579208842404 0.0034105444819785401 0 0.02679864758446289 0.0046499443742996508 0 0.026644686003745269 0.0034336167906621382 0 0.027949579208842404 0.0034105444819785401 0 0.026644686003745269 0.0034336167906621382 0 0.027949579208842404 0.0034105444819785401 0 0.027181812807862901 0.0024299081701529574 0 0.027949579208842404 0.0034105444819785401 0 0.028517668144652536 0.0023059930169440821 0 0.027181812807862901 0.0024299081701529574 0 0.029415184649258838 0.004404298353647888 0 0.027949579208842404 0.0034105444819785401 0 0.029234875846528213 0.0031637223168776182 0 0.029415184649258838 0.004404298353647888 0 0.030522584022156882 0.0032436645025672264 0 0.029234875846528213 0.0031637223168776182 0 0.030522584022156882 0.0032436645025672264 0 0.029234875846528213 0.0031637223168776182 0 0.029834182662886084 0.0024170363070190296 0 0.027949579208842404 0.0034105444819785401 0 0.029234875846528213 0.0031637223168776182 0 0.028517668144652536 0.0023059930169440821 0 0.030573299843896805 0.0017089642178168454 0 0.029210658755729875 0.00094742591393273776 0 0.029834182662886084 0.0024170363070190296 0 0.029210658755729875 0.00094742591393273776 0 0.028517668144652536 0.0023059930169440821 0 0.029834182662886084 0.0024170363070190296 0 0.029234875846528213 0.0031637223168776182 0 0.028517668144652536 0.0023059930169440821 0 0.029834182662886084 0.0024170363070190296 0 0.029210658755729875 0.00094742591393273776 0 0.028517668144652536 0.0023059930169440821 0 0.027651844444278598 0.0014101648484816267 0 0.026461816635570783 0.0015245739429920161 0 0.027651844444278598 0.0014101648484816267 0 0.027181812807862901 0.0024299081701529574 0 0.028517668144652536 0.0023059930169440821 0 0.027651844444278598 0.0014101648484816267 0 0.027181812807862901 0.0024299081701529574 0 0.027559012219150324 0.0033046571446694504 0 0.027436542176622326 0.0044454440179492504 0 0.026788924431403103 0.0037295170574843275 0 0.026843837219195765 0.0031399109472396254 0 0.026863847377012584 0.0040289960718303524 0 0.028243557144152533 0.0040784912323147378 0 0.028060925912375669 0.0038469769962722485 0 0.02781095244004915 0.0047274278180478319 0 0.026685414332809566 0.0036600220963135975 0 0.026788924431403103 0.0037295170574843275 0 0.026766199232268709 0.003531915911235329 0 0.026656026345866612 0.0035454036552431882 0 0.026685414332809566 0.0036600220963135975 0 0.026766199232268709 0.003531915911235329 0 0.026656026345866612 0.0035454036552431882 0 0.026685414332809566 0.0036600220963135975 0 0.026503073839712055 0.0036025704057374929 0 0.026685414332809566 0.0036600220963135975 0 0.026788924431403103 0.0037295170574843275 0 0.026624724436832531 0.0038051933089967003 0 0.026685414332809566 0.0036600220963135975 0 0.026624724436832531 0.0038051933089967003 0 0.026503073839712055 0.0036025704057374929 0 0.026719970605323426 0.0038932218910752809 0 0.026590247630036663 0.0039914859711779726 0 0.026863847377012584 0.0040289960718303524 0 0.026788924431403103 0.0037295170574843275 0 0.026719970605323426 0.0038932218910752809 0 0.026863847377012584 0.0040289960718303524 0 0.026788924431403103 0.0037295170574843275 0 0.026624724436832531 0.0038051933089967003 0 0.026719970605323426 0.0038932218910752809 0 0.026624724436832531 0.0038051933089967003 0 0.026719970605323426 0.0038932218910752809 0 0.026590247630036663 0.0039914859711779726 0 0.027898396803119726 0.0046424641593870962 0 0.028417026596694896 0.0045176095112904593 0 0.028082809240584518 0.0047208965843416623 0 0.028243557144152533 0.0040784912323147378 0 0.02781095244004915 0.0047274278180478319 0 0.028766253564043723 0.0041398847658832847 0 0.027436542176622326 0.0044454440179492504 0 0.028746238763814509 0.0042175812666121878 0 0.027898396803119726 0.0046424641593870962 0 0.027472778480846432 0.0046519791913144379 0 0.028766253564043723 0.0041398847658832847 0 0.027898396803119726 0.0046424641593870962 0 0.028417026596694896 0.0045176095112904593 0 0.028766253564043723 0.0041398847658832847 0 0.028243557144152533 0.0040784912323147378 0 0.028499169635121717 0.0039310069578957982 0 0.028766253564043723 0.0041398847658832847 0 0.028243557144152533 0.0040784912323147378 0 0.028337669161316692 0.0038156880457825607 0 0.028060925912375669 0.0038469769962722485 0 0.028243557144152533 0.0040784912323147378 0 0.028337669161316692 0.0038156880457825607 0 0.028499169635121717 0.0039310069578957982 0 0.028337669161316692 0.0038156880457825607 0 0.028557611963582783 0.0036821895901193069 0 0.028330406628812931 0.0035305785865545132 0 0.028337669161316692 0.0038156880457825607 0 0.028330406628812931 0.0035305785865545132 0 0.028060925912375669 0.0038469769962722485 0 0.028557611963582783 0.0036821895901193069 0 0.028813170517732866 0.0038594422127384335 0 0.028972390868069145 0.0035800976714202765 0 0.028499169635121717 0.0039310069578957982 0 0.028766253564043723 0.0041398847658832847 0 0.028813170517732866 0.0038594422127384335 0 0.028337669161316692 0.0038156880457825607 0 0.028499169635121717 0.0039310069578957982 0 0.028557611963582783 0.0036821895901193069 0 0.028499169635121717 0.0039310069578957982 0 0.028557611963582783 0.0036821895901193069 0 0.028813170517732866 0.0038594422127384335 0 0.028557611963582783 0.0036821895901193069 0 0.028681077723760568 0.0034166268652334351 0 0.028972390868069145 0.0035800976714202765 0 0.028681077723760568 0.0034166268652334351 0 0.028330406628812931 0.0035305785865545132 0 0.028610777080199629 0.0030474143207537586 0 0.028557611963582783 0.0036821895901193069 0 0.028681077723760568 0.0034166268652334351 0 0.028330406628812931 0.0035305785865545132 0 0.028145785788648348 0.0034623300004104625 0 0.028330406628812931 0.0035305785865545132 0 0.028610777080199629 0.0030474143207537586 0 0.028145785788648348 0.0034623300004104625 0 0.028330406628812931 0.0035305785865545132 0 0.028060925912375669 0.0038469769962722485 0 0.026788924431403103 0.0037295170574843275 0 0.026843837219195765 0.0031399109472396254 0 0.026766199232268709 0.003531915911235329 0 0.028145785788648348 0.0034623300004104625 0 0.027752316642223811 0.0034273051951247227 0 0.028060925912375669 0.0038469769962722485 0 0.027752316642223811 0.0034273051951247227 0 0.028060925912375669 0.0038469769962722485 0 0.02781095244004915 0.0047274278180478319 0 0.026843837219195765 0.0031399109472396254 0 0.026766199232268709 0.003531915911235329 0 0.026715972232250505 0.0033353334215414812 0 0.026656026345866612 0.0035454036552431882 0 0.026701288264792799 0.0034521626211145386 0 0.026621005773105406 0.0034362847213128571 0 0.026656026345866612 0.0035454036552431882 0 0.026701288264792799 0.0034521626211145386 0 0.026766199232268709 0.003531915911235329 0 0.026701288264792799 0.0034521626211145386 0 0.026766199232268709 0.003531915911235329 0 0.026715972232250505 0.0033353334215414812 0 0.026701288264792799 0.0034521626211145386 0 0.026621005773105406 0.0034362847213128571 0 0.026715972232250505 0.0033353334215414812 0 0.027559012219150324 0.0033046571446694504 0 0.02635074888748682 0.0033852942245035113 0 0.02688505721634345 0.0031264000313041911 0 0.026428457524980697 0.0033094394073950699 0 0.026878888985231681 0.002912361999217294 0 0.026843837219195765 0.0031399109472396254 0 0.026715972232250505 0.0033353334215414812 0 0.026428457524980697 0.0033094394073950699 0 0.026194909398169167 0.0031767080160558926 0 0.026428457524980697 0.0033094394073950699 0 0.026878888985231681 0.002912361999217294 0 0.026428457524980697 0.0033094394073950699 0 0.026101318859873275 0.0035994452741185592 0 0.026503073839712055 0.0036025704057374929 0 0.026194909398169167 0.0031767080160558926 0 0.026428457524980697 0.0033094394073950699 0 0.026101318859873275 0.0035994452741185592 0 0.026621005773105406 0.0034362847213128571 0 0.026428457524980697 0.0033094394073950699 0 0.026503073839712055 0.0036025704057374929 0 0.026621005773105406 0.0034362847213128571 0 0.026715972232250505 0.0033353334215414812 0 0.026428457524980697 0.0033094394073950699 0 0.026656026345866612 0.0035454036552431882 0 0.026621005773105406 0.0034362847213128571 0 0.026503073839712055 0.0036025704057374929 0 0.026194909398169167 0.0031767080160558926 0 0.026101318859873275 0.0035994452741185592 0 0.025559078115937824 0.0034361723053048274 0 0.026479579234503368 0.0032894229150226863 0 0.025990260509665224 0.0031262717137000426 0 0.025768507369388027 0.0035270938324527034 0 0.026215273978164047 0.0032484899286447442 0 0.025685171015527839 0.0034735482413730469 0 0.026101318859873275 0.0035994452741185592 0 0.025559078115937824 0.0034361723053048274 0 0.025532351808891803 0.0038957561789441895 0 0.026101318859873275 0.0035994452741185592 0 0.025972699991479373 0.004032955464977981 0 0.025532351808891803 0.0038957561789441895 0 0.026101318859873275 0.0035994452741185592 0 0.026503073839712055 0.0036025704057374929 0 0.026361856486266759 0.0038910499327078738 0 0.026101318859873275 0.0035994452741185592 0 0.026361856486266759 0.0038910499327078738 0 0.025972699991479373 0.004032955464977981 0 0.026624724436832531 0.0038051933089967003 0 0.026361856486266759 0.0038910499327078738 0 0.026590247630036663 0.0039914859711779726 0 0.026624724436832531 0.0038051933089967003 0 0.026503073839712055 0.0036025704057374929 0 0.026361856486266759 0.0038910499327078738 0 0.026361856486266759 0.0038910499327078738 0 0.026590247630036663 0.0039914859711779726 0 0.02634871668073635 0.0043288954087701195 0 0.026361856486266759 0.0038910499327078738 0 0.02634871668073635 0.0043288954087701195 0 0.025972699991479373 0.004032955464977981 0 0.025972699991479373 0.004032955464977981 0 0.025532351808891803 0.0038957561789441895 0 0.025646500674561899 0.0043479195787200454 0 0.02634871668073635 0.0043288954087701195 0 0.025951855469127989 0.0043348621732373152 0 0.025837350105004677 0.0046332629751507206 0 0.02634871668073635 0.0043288954087701195 0 0.025972699991479373 0.004032955464977981 0 0.025951855469127989 0.0043348621732373152 0 0.025972699991479373 0.004032955464977981 0 0.025951855469127989 0.0043348621732373152 0 0.025646500674561899 0.0043479195787200454 0 0.025951855469127989 0.0043348621732373152 0 0.025837350105004677 0.0046332629751507206 0 0.025646500674561899 0.0043479195787200454 0 0.026460572019795046 0.0047309524424341753 0 0.025921374188602138 0.0050955628000395516 0 0.025952735505423832 0.0055472223798028256 0 0.026139078188914366 0.0058785146273509096 0 0.02646092806143658 0.0056732823328606886 0 0.025952735505423832 0.0055472223798028256 0 0.026139078188914366 0.0058785146273509096 0 0.025796961127667384 0.0059434759688543086 0 0.02663749994621549 0.0051106431346671722 0 0.025952735505423832 0.0055472223798028256 0 0.02646092806143658 0.0056732823328606886 0 0.02663749994621549 0.0051106431346671722 0 0.02646092806143658 0.0056732823328606886 0 0.027074268043385207 0.0057554272415384251 0 0.02663749994621549 0.0051106431346671722 0 0.027074268043385207 0.0057554272415384251 0 0.02712758304347862 0.0051378672756706477 0 0.02646092806143658 0.0056732823328606886 0 0.027074268043385207 0.0057554272415384251 0 0.026541668432271237 0.0061982396218510606 0 0.027074268043385207 0.0057554272415384251 0 0.02784310699527702 0.0059009231789244028 0 0.026541668432271237 0.0061982396218510606 0 0.027074268043385207 0.0057554272415384251 0 0.027504314534613813 0.0055925797942475942 0 0.02784310699527702 0.0059009231789244028 0 0.027504314534613813 0.0055925797942475942 0 0.02712758304347862 0.0051378672756706477 0 0.027609345027558567 0.0052820101196196598 0 0.027504314534613813 0.0055925797942475942 0 0.027609345027558567 0.0052820101196196598 0 0.028025071092182687 0.0054145847071714352 0 0.027074268043385207 0.0057554272415384251 0 0.027504314534613813 0.0055925797942475942 0 0.02712758304347862 0.0051378672756706477 0 0.026460572019795046 0.0047309524424341753 0 0.027436542176622326 0.0044454440179492504 0 0.026590247630036663 0.0039914859711779726 0 0.02634871668073635 0.0043288954087701195 0 0.026863847377012584 0.0040289960718303524 0 0.02663749994621549 0.0051106431346671722 0 0.02712758304347862 0.0051378672756706477 0 0.027472778480846432 0.0046519791913144379 0 0.02712758304347862 0.0051378672756706477 0 0.027609345027558567 0.0052820101196196598 0 0.027585099133246933 0.0049766045282683049 0 0.027585099133246933 0.0049766045282683049 0 0.027963683673936906 0.0048821478034570829 0 0.027899501884397188 0.0051324033458347755 0 0.027609345027558567 0.0052820101196196598 0 0.027585099133246933 0.0049766045282683049 0 0.027899501884397188 0.0051324033458347755 0 0.027585099133246933 0.0049766045282683049 0 0.027659791235538946 0.0047764225093939296 0 0.027472778480846432 0.0046519791913144379 0 0.027898396803119726 0.0046424641593870962 0 0.027600465908694947 0.0046927381736918006 0 0.027472778480846432 0.0046519791913144379 0 0.027585099133246933 0.0049766045282683049 0 0.027659791235538946 0.0047764225093939296 0 0.027963683673936906 0.0048821478034570829 0 0.027898396803119726 0.0046424641593870962 0 0.027659791235538946 0.0047764225093939296 0 0.027600465908694947 0.0046927381736918006 0 0.027659791235538946 0.0047764225093939296 0 0.027600465908694947 0.0046927381736918006 0 0.027472778480846432 0.0046519791913144379 0 0.02712758304347862 0.0051378672756706477 0 0.027585099133246933 0.0049766045282683049 0 0.027472778480846432 0.0046519791913144379 0 0.028417026596694896 0.0045176095112904593 0 0.028300845007878991 0.0048308686101182141 0 0.028702621442410238 0.0049267086712928817 0 0.028417026596694896 0.0045176095112904593 0 0.028300845007878991 0.0048308686101182141 0 0.028082809240584518 0.0047208965843416623 0 0.028300845007878991 0.0048308686101182141 0 0.02829151340081619 0.005107462899792312 0 0.028702621442410238 0.0049267086712928817 0 0.028300845007878991 0.0048308686101182141 0 0.028082809240584518 0.0047208965843416623 0 0.027963683673936906 0.0048821478034570829 0 0.027898396803119726 0.0046424641593870962 0 0.028082809240584518 0.0047208965843416623 0 0.027963683673936906 0.0048821478034570829 0 0.027898396803119726 0.0046424641593870962 0 0.027659791235538946 0.0047764225093939296 0 0.027963683673936906 0.0048821478034570829 0 0.028300845007878991 0.0048308686101182141 0 0.027963683673936906 0.0048821478034570829 0 0.02829151340081619 0.005107462899792312 0 0.027963683673936906 0.0048821478034570829 0 0.027899501884397188 0.0051324033458347755 0 0.02829151340081619 0.005107462899792312 0 0.027609345027558567 0.0052820101196196598 0 0.027899501884397188 0.0051324033458347755 0 0.028025071092182687 0.0054145847071714352 0 0.027899501884397188 0.0051324033458347755 0 0.02829151340081619 0.005107462899792312 0 0.028025071092182687 0.0054145847071714352 0 0.02829151340081619 0.005107462899792312 0 0.028025071092182687 0.0054145847071714352 0 0.028976309378523541 0.0054227476860961334 0 0.026716425680240418 0.0060631961890939331 0 0.026791980439926599 0.0059744129239605046 0 0.026770508105372889 0.0060521850370287488 0 0.028025071092182687 0.0054145847071714352 0 0.02784310699527702 0.0059009231789244028 0 0.028976309378523541 0.0054227476860961334 0 0.027631073805521066 0.0061541013016605502 0 0.02592555640044757 0.00386721656022011 0 0.027504314534613813 0.0055925797942475942 0 0.028025071092182687 0.0054145847071714352 0 0.02784310699527702 0.0059009231789244028 0 0.02592555640044757 0.00386721656022011 0 0.023432282225982697 0.0031580341027934319 0 0.022996758791975908 0.0022332447402901249 0 0.023065550022367907 0.0027927564583581049 0 0.023537483509736629 0.0023788063812551232 0 0.022996758791975908 0.0022332447402901249 0 0.023065550022367907 0.0027927564583581049 0 0.022630981490620903 0.0029473065221533716 0 0.023065550022367907 0.0027927564583581049 0 0.023752754494972314 0.0025813270362655323 0 0.023537483509736629 0.0023788063812551232 0 0.023065550022367907 0.0027927564583581049 0 0.023752754494972314 0.0025813270362655323 0 0.023030440664316174 0.0028579898185042306 0 0.023752754494972314 0.0025813270362655323 0 0.024235355126895508 0.0029862233987217948 0 0.023030440664316174 0.0028579898185042306 0 0.022996758791975908 0.0022332447402901249 0 0.023537483509736629 0.0023788063812551232 0 0.02384043541789551 0.0019162645966369874 0 0.023879270916744067 0.0022622139567827692 0 0.023537483509736629 0.0023788063812551232 0 0.02384043541789551 0.0019162645966369874 0 0.023752754494972314 0.0025813270362655323 0 0.023879270916744067 0.0022622139567827692 0 0.024100692114058051 0.0023010790403214278 0 0.023752754494972314 0.0025813270362655323 0 0.023879270916744067 0.0022622139567827692 0 0.023537483509736629 0.0023788063812551232 0 0.023879270916744067 0.0022622139567827692 0 0.02412016553145414 0.0020118356692920432 0 0.024100692114058051 0.0023010790403214278 0 0.028379720641945442 0.0040824504783288753 0 0.027729432000842009 0.002960105606703344 0 0.02592555640044757 0.00386721656022011 0 0.023990730224777292 0.0018970601688656299 0 0.024543787467416849 0.0016835883228314842 0 0.024495319580070656 0.0015725432515130812 0 0.024711429640704483 0.0015209334166811561 0 0.024422585037417104 0.0017605707718075375 0 0.024543787467416849 0.0016835883228314842 0 0.024495319580070656 0.0015725432515130812 0 0.023879270916744067 0.0022622139567827692 0 0.02412016553145414 0.0020118356692920432 0 0.02384043541789551 0.0019162645966369874 0 0.02829151340081619 0.005107462899792312 0 0.028976309378523541 0.0054227476860961334 0 0.028702621442410238 0.0049267086712928817 0 0.02592555640044757 0.00386721656022011 0 0.028379720641945442 0.0040824504783288753 0 0.028417026596694896 0.0045176095112904593 0 0.02930231715269575 0.004683992012586455 0 0.028702621442410238 0.0049267086712928817 0 0.028976309378523541 0.0054227476860961334 0 0.02930231715269575 0.004683992012586455 0 0.028702621442410238 0.0049267086712928817 0 0.025732781973249418 0.0017356455487726053 0 0.024895395308931572 0.0022916708437847664 0 0.025362370354411672 0.0029857621249313655 0 0.027758704739878178 0.0020036043873642244 0 0.023041804765005815 0.0010976331172345779 0 0.02412016553145414 0.0020118356692920432 0 0.024895395308931572 0.0022916708437847664 0 0.024386107299104846 0.002444166831168596 0 0.024895395308931572 0.0022916708437847664 0 0.025362370354411672 0.0029857621249313655 0 0.024235355126895508 0.0029862233987217948 0 0.024895395308931572 0.0022916708437847664 0 0.024386107299104846 0.002444166831168596 0 0.024235355126895508 0.0029862233987217948 0 0.023752754494972314 0.0025813270362655323 0 0.024386107299104846 0.002444166831168596 0 0.024235355126895508 0.0029862233987217948 0 0.02412016553145414 0.0020118356692920432 0 0.024100692114058051 0.0023010790403214278 0 0.024386107299104846 0.002444166831168596 0 0.023752754494972314 0.0025813270362655323 0 0.024100692114058051 0.0023010790403214278 0 0.024386107299104846 0.002444166831168596 0 0.024543787467416849 0.0016835883228314842 0 0.024711429640704483 0.0015209334166811561 0 0.024830740157122878 0.0016147261046139888 0 0.02412016553145414 0.0020118356692920432 0 0.02384043541789551 0.0019162645966369874 0 0.024830740157122878 0.0016147261046139888 0 0.02412016553145414 0.0020118356692920432 0 0.024895395308931572 0.0022916708437847664 0 0.025490419579416848 0.0016953325043666807 0 0.023411491400641381 0.0018465350223652354 0 0.027531433802163111 0.0024625352027745086 0 0.02412016553145414 0.0020118356692920432 0 0.024830740157122878 0.0016147261046139888 0 0.025824536358455562 0.0016900445454701304 0 0.023990730224777292 0.0018970601688656299 0 0.02481887246095069 0.0015967806578775251 0 0.027729432000842009 0.002960105606703344 0 0.027531433802163111 0.0024625352027745086 0 0.025732781973249418 0.0017356455487726053 0 0.024895395308931572 0.0022916708437847664 0 0.025490419579416848 0.0016953325043666807 0 0.024711429640704483 0.0015209334166811561 0 0.024830740157122878 0.0016147261046139888 0 0.025824536358455562 0.0016900445454701304 0 0.030732991745609714 0.0044368808582720435 0 0.031390139738066765 0.0045330325298353329 0 0.031335579017977309 0.0042234816713817248 0 0.031628762614599439 0.0043374055868085843 0 0.031390139738066765 0.0045330325298353329 0 0.031335579017977309 0.0042234816713817248 0 0.027758704739878178 0.0020036043873642244 0 0.027531433802163111 0.0024625352027745086 0 0.030732991745609714 0.0044368808582720435 0 0.031335579017977309 0.0042234816713817248 0 0.03109910423914531 0.0040204933610916089 0 0.03157271651410265 0.0038790472215324886 0 0.031335579017977309 0.0042234816713817248 0 0.03109910423914531 0.0040204933610916089 0 0.031598215321044523 0.0041334680196423437 0 0.03157271651410265 0.0038790472215324886 0 0.031335579017977309 0.0042234816713817248 0 0.03157271651410265 0.0038790472215324886 0 0.03109910423914531 0.0040204933610916089 0 0.031074919501208685 0.0036007285157291084 0 0.030732991745609714 0.0044368808582720435 0 0.03109910423914531 0.0040204933610916089 0 0.03076714048556688 0.0038538760391043244 0 0.030732991745609714 0.0044368808582720435 0 0.03076714048556688 0.0038538760391043244 0 0.030341002468485683 0.0038430425482474176 0 0.03109910423914531 0.0040204933610916089 0 0.03076714048556688 0.0038538760391043244 0 0.031074919501208685 0.0036007285157291084 0 0.03076714048556688 0.0038538760391043244 0 0.030587053279995301 0.0033727302118337467 0 0.030341002468485683 0.0038430425482474176 0 0.030587053279995301 0.0033727302118337467 0 0.031074919501208685 0.0036007285157291084 0 0.031147559064168082 0.0031158111109866912 0 0.03076714048556688 0.0038538760391043244 0 0.030587053279995301 0.0033727302118337467 0 0.031074919501208685 0.0036007285157291084 0 0.031540495285479433 0.0034721312798530919 0 0.031074919501208685 0.0036007285157291084 0 0.031147559064168082 0.0031158111109866912 0 0.031540495285479433 0.0034721312798530919 0 0.03157271651410265 0.0038790472215324886 0 0.031074919501208685 0.0036007285157291084 0 0.028983084491469045 0.0047266271475899175 0 0.028379720641945442 0.0040824504783288753 0 0.028417026596694896 0.0045176095112904593 0 0.029779655869446968 0.0048346776149638645 0 0.028766253564043723 0.0041398847658832847 0 0.029779655869446968 0.0048346776149638645 0 0.028766253564043723 0.0041398847658832847 0 0.029324564879041646 0.0039629576853541949 0 0.030073979008466287 0.0043303445200419963 0 0.030732991745609714 0.0044368808582720435 0 0.030341002468485683 0.0038430425482474176 0 0.029779655869446968 0.0048346776149638645 0 0.030177200751393862 0.0040841833978702002 0 0.029324564879041646 0.0039629576853541949 0 0.028379720641945442 0.0040824504783288753 0 0.03027455880070944 0.0039085777716103701 0 0.030177200751393862 0.0040841833978702002 0 0.029563166933238363 0.0033364623534828611 0 0.029324564879041646 0.0039629576853541949 0 0.030587053279995301 0.0033727302118337467 0 0.030177200751393862 0.0040841833978702002 0 0.029563166933238363 0.0033364623534828611 0 0.030536895785268834 0.0034513308146222059 0 0.03027455880070944 0.0039085777716103701 0 0.029563166933238363 0.0033364623534828611 0 0.029324564879041646 0.0039629576853541949 0 0.028972390868069145 0.0035800976714202765 0 0.029324564879041646 0.0039629576853541949 0 0.028813170517732866 0.0038594422127384335 0 0.028972390868069145 0.0035800976714202765 0 0.028766253564043723 0.0041398847658832847 0 0.029324564879041646 0.0039629576853541949 0 0.028813170517732866 0.0038594422127384335 0 0.028681077723760568 0.0034166268652334351 0 0.028972390868069145 0.0035800976714202765 0 0.029084206439762474 0.0032199814488753772 0 0.029563166933238363 0.0033364623534828611 0 0.028972390868069145 0.0035800976714202765 0 0.029084206439762474 0.0032199814488753772 0 0.030015614477536385 0.0028474601916443718 0 0.029593750353513606 0.0027671673446002945 0 0.029354786676772614 0.0031588071181482651 0 0.029790296121276726 0.0027996152873652471 0 0.029078965334173694 0.0030875148867816962 0 0.029084206439762474 0.0032199814488753772 0 0.029598255783398045 0.002715794973024628 0 0.028610777080199629 0.0030474143207537586 0 0.029563166933238363 0.0033364623534828611 0 0.029084206439762474 0.0032199814488753772 0 0.029598255783398045 0.002715794973024628 0 0.029563166933238363 0.0033364623534828611 0 0.029598255783398045 0.002715794973024628 0 0.030118366772800321 0.0030353508499982242 0 0.030587053279995301 0.0033727302118337467 0 0.030118366772800321 0.0030353508499982242 0 0.030582736691315466 0.0025620663951177102 0 0.030587053279995301 0.0033727302118337467 0 0.029563166933238363 0.0033364623534828611 0 0.030118366772800321 0.0030353508499982242 0 0.029598255783398045 0.002715794973024628 0 0.030118366772800321 0.0030353508499982242 0 0.030582736691315466 0.0025620663951177102 0 0.030015614477536385 0.0028474601916443718 0 0.030582736691315466 0.0025620663951177102 0 0.030044242921049673 0.0022463520435215523 0 0.029790296121276726 0.0027996152873652471 0 0.030496976783604954 0.0025694500925434018 0 0.029593750353513606 0.0027671673446002945 0 0.030044242921049673 0.0022463520435215523 0 0.029348565495260825 0.0023695934520049622 0 0.029948227417878361 0.0022693519493182644 0 0.029436986707139845 0.0024086502472206671 0 0.030015614477536385 0.0028474601916443718 0 0.029593750353513606 0.0027671673446002945 0 0.030044242921049673 0.0022463520435215523 0 0.031763750358998387 0.0029889177711568625 0 0.031540495285479433 0.0034721312798530919 0 0.031147559064168082 0.0031158111109866912 0 0.031763750358998387 0.0029889177711568625 0 0.031147559064168082 0.0031158111109866912 0 0.031430815063924027 0.0026276909670555648 0 0.030587053279995301 0.0033727302118337467 0 0.031147559064168082 0.0031158111109866912 0 0.030582736691315466 0.0025620663951177102 0 0.031147559064168082 0.0031158111109866912 0 0.030582736691315466 0.0025620663951177102 0 0.031430815063924027 0.0026276909670555648 0 0.030582736691315466 0.0025620663951177102 0 0.031430815063924027 0.0026276909670555648 0 0.031076139372999755 0.0022492028852557906 0 0.031430815063924027 0.0026276909670555648 0 0.031495638876240621 0.0019105196084019155 0 0.031076139372999755 0.0022492028852557906 0 0.031495638876240621 0.0019105196084019155 0 0.030744429385567471 0.0019473529003028662 0 0.031076139372999755 0.0022492028852557906 0 0.030582736691315466 0.0025620663951177102 0 0.030744429385567471 0.0019473529003028662 0 0.031076139372999755 0.0022492028852557906 0 0.030744429385567471 0.0019473529003028662 0 0.030934844531343198 0.0013895173446902655 0 0.030295124166162472 0.0015499128893403935 0 0.031495638876240621 0.0019105196084019155 0 0.030744429385567471 0.0019473529003028662 0 0.030934844531343198 0.0013895173446902655 0 0.032093602742485648 0.0013035082226787002 0 0.031495638876240621 0.0019105196084019155 0 0.031471287711911704 0.0011549169023406026 0 0.031495638876240621 0.0019105196084019155 0 0.030934844531343198 0.0013895173446902655 0 0.031471287711911704 0.0011549169023406026 0 0.030044242921049673 0.0022463520435215523 0 0.029818686884916477 0.0018703541214632796 0 0.030295124166162472 0.0015499128893403935 0 0.030044242921049673 0.0022463520435215523 0 0.029818686884916477 0.0018703541214632796 0 0.029366237747055719 0.0024633055583563497 0 0.030744429385567471 0.0019473529003028662 0 0.030044242921049673 0.0022463520435215523 0 0.030295124166162472 0.0015499128893403935 0 0.030582736691315466 0.0025620663951177102 0 0.030744429385567471 0.0019473529003028662 0 0.030044242921049673 0.0022463520435215523 0 0.030934844531343198 0.0013895173446902655 0 0.030295124166162472 0.0015499128893403935 0 0.030562958249625193 0.00099289291780987128 0 0.030295124166162472 0.0015499128893403935 0 0.029883571531059357 0.0014299575725913827 0 0.029955114132389531 0.00089588015778434044 0 0.029818686884916477 0.0018703541214632796 0 0.030295124166162472 0.0015499128893403935 0 0.029883571531059357 0.0014299575725913827 0 0.029818686884916477 0.0018703541214632796 0 0.029883571531059357 0.0014299575725913827 0 0.029382449684373375 0.0016884857080664895 0 0.029883571531059357 0.0014299575725913827 0 0.029508152944708464 0.0012282022040773085 0 0.029382449684373375 0.0016884857080664895 0 0.029010593824136687 0.0012640613884720888 0 0.029382449684373375 0.0016884857080664895 0 0.028601295110167492 0.0018702802577664089 0 0.029508152944708464 0.0012282022040773085 0 0.029010593824136687 0.0012640613884720888 0 0.029382449684373375 0.0016884857080664895 0 0.029010593824136687 0.0012640613884720888 0 0.028601295110167492 0.0018702802577664089 0 0.028493638946378234 0.00097155498614237177 0 0.028516292418112616 0.0017369729106769113 0 0.028486221496828418 0.0010144730265945288 0 0.028384945483326134 0.0016110603449335681 0 0.028182814426129122 0.0012777774994117321 0 0.028493638946378234 0.00097155498614237177 0 0.028516292418112616 0.0017369729106769113 0 0.028217776036987489 0.0024109729502328329 0 0.028384945483326134 0.0016110603449335681 0 0.028404533658314638 0.0023132012919872295 0 0.027833937857842401 0.0019410595315404915 0 0.028601295110167492 0.0018702802577664089 0 0.029366237747055719 0.0024633055583563497 0 0.028634809960000857 0.0026489709997553528 0 0.029818686884916477 0.0018703541214632796 0 0.029382449684373375 0.0016884857080664895 0 0.029366237747055719 0.0024633055583563497 0 0.029382449684373375 0.0016884857080664895 0 0.028601295110167492 0.0018702802577664089 0 0.029366237747055719 0.0024633055583563497 0 0.029348565495260825 0.0023695934520049622 0 0.028878317878830651 0.0028232126445443396 0 0.029187208312583753 0.0029829967839154052 0 0.029436986707139845 0.0024086502472206671 0 0.028217776036987489 0.0024109729502328329 0 0.029593750353513606 0.0027671673446002945 0 0.029348565495260825 0.0023695934520049622 0 0.029187208312583753 0.0029829967839154052 0 0.029348565495260825 0.0023695934520049622 0 0.028636919734041248 0.0025311489798275615 0 0.028878317878830651 0.0028232126445443396 0 0.028217776036987489 0.0024109729502328329 0 0.027739891015186216 0.0030816035615113045 0 0.028878317878830651 0.0028232126445443396 0 0.028654173318311101 0.0031890008773161095 0 0.029187208312583753 0.0029829967839154052 0 0.02721999916316474 0.0023783284295918927 0 0.027233653104894985 0.0030171166538600696 0 0.026768457037939491 0.002883913012699464 0 0.028636919734041248 0.0025311489798275615 0 0.028878317878830651 0.0028232126445443396 0 0.028654173318311101 0.0031890008773161095 0 0.027739891015186216 0.0030816035615113045 0 0.029319508486959342 0.0029011515555328864 0 0.028581117190854013 0.0034834267880439686 0 0.028573460450057628 0.0032098225261099947 0 0.029187208312583753 0.0029829967839154052 0 0.027559012219150324 0.0033046571446694504 0 0.027739891015186216 0.0030816035615113045 0 0.028145785788648348 0.0034623300004104625 0 0.027752316642223811 0.0034273051951247227 0 0.028610777080199629 0.0030474143207537586 0 0.027559012219150324 0.0033046571446694504 0 0.029078965334173694 0.0030875148867816962 0 0.028581117190854013 0.0034834267880439686 0 0.029354786676772614 0.0031588071181482651 0 0.029187208312583753 0.0029829967839154052 0 0.028681077723760568 0.0034166268652334351 0 0.029084206439762474 0.0032199814488753772 0 0.028610777080199629 0.0030474143207537586 0 0.029593750353513606 0.0027671673446002945 0 0.029354786676772614 0.0031588071181482651 0 0.029187208312583753 0.0029829967839154052 0 0.026328850608396254 0.002935586688994692 0 0.026523194669864258 0.0025523526936674611 0 0.025851738753513837 0.0027443387920353737 0 0.027050097726393402 0.0025377537870980658 0 0.026244234189869133 0.0027576652983347084 0 0.025990260509665224 0.0031262717137000426 0 0.026328850608396254 0.002935586688994692 0 0.025851738753513837 0.0027443387920353737 0 0.026479579234503368 0.0032894229150226863 0 0.025990260509665224 0.0031262717137000426 0 0.026328850608396254 0.002935586688994692 0 0.026215273978164047 0.0032484899286447442 0 0.027739891015186216 0.0030816035615113045 0 0.026479579234503368 0.0032894229150226863 0 0.026328850608396254 0.002935586688994692 0 0.026768457037939491 0.002883913012699464 0 0.026479579234503368 0.0032894229150226863 0 0.027233653104894985 0.0030171166538600696 0 0.026768457037939491 0.002883913012699464 0 0.026328850608396254 0.002935586688994692 0 0.026768457037939491 0.002883913012699464 0 0.026523194669864258 0.0025523526936674611 0 0.028217776036987489 0.0024109729502328329 0 0.027050097726393402 0.0025377537870980658 0 0.02721999916316474 0.0023783284295918927 0 0.026768457037939491 0.002883913012699464 0 0.026523194669864258 0.0025523526936674611 0 0.028404533658314638 0.0023132012919872295 0 0.02773862254888642 0.0024925903548774016 0 0.027833937857842401 0.0019410595315404915 0 0.02773862254888642 0.0024925903548774016 0 0.027333044512301511 0.0021818197845986306 0 0.027833937857842401 0.0019410595315404915 0 0.027333044512301511 0.0021818197845986306 0 0.027362374533276473 0.0018892204789492388 0 0.027833937857842401 0.0019410595315404915 0 0.02773862254888642 0.0024925903548774016 0 0.027333044512301511 0.0021818197845986306 0 0.026631600593089819 0.0028007386447187364 0 0.027333044512301511 0.0021818197845986306 0 0.027362374533276473 0.0018892204789492388 0 0.027045329040839432 0.0019636618392825161 0 0.027362374533276473 0.0018892204789492388 0 0.027322294655013395 0.0015950649344921349 0 0.027045329040839432 0.0019636618392825161 0 0.027322294655013395 0.0015950649344921349 0 0.027045329040839432 0.0019636618392825161 0 0.027090959853523625 0.0014075279347557804 0 0.027362374533276473 0.0018892204789492388 0 0.027833937857842401 0.0019410595315404915 0 0.027625181724805971 0.0016745081157964264 0 0.027322294655013395 0.0015950649344921349 0 0.027625181724805971 0.0016745081157964264 0 0.027614446873492834 0.0013773031038471547 0 0.027362374533276473 0.0018892204789492388 0 0.027322294655013395 0.0015950649344921349 0 0.027625181724805971 0.0016745081157964264 0 0.028384945483326134 0.0016110603449335681 0 0.027833937857842401 0.0019410595315404915 0 0.027931429702755868 0.0014960207357172775 0 0.027833937857842401 0.0019410595315404915 0 0.027625181724805971 0.0016745081157964264 0 0.027931429702755868 0.0014960207357172775 0 0.027625181724805971 0.0016745081157964264 0 0.027931429702755868 0.0014960207357172775 0 0.027614446873492834 0.0013773031038471547 0 0.028384945483326134 0.0016110603449335681 0 0.027931429702755868 0.0014960207357172775 0 0.028182814426129122 0.0012777774994117321 0 0.027931429702755868 0.0014960207357172775 0 0.027614446873492834 0.0013773031038471547 0 0.027896039337503301 0.0010014411383906401 0 0.027931429702755868 0.0014960207357172775 0 0.028182814426129122 0.0012777774994117321 0 0.027896039337503301 0.0010014411383906401 0 0.028182814426129122 0.0012777774994117321 0 0.027896039337503301 0.0010014411383906401 0 0.028493638946378234 0.00097155498614237177 0 0.028255067763652622 0.0010545005453716247 0 0.028390116980406992 0.00088483423503476978 0 0.028494858141527898 0.00095928954961253994 0 0.027614446873492834 0.0013773031038471547 0 0.027239447983657825 0.0012217295113325275 0 0.027896039337503301 0.0010014411383906401 0 0.028019062072638035 0.0011576485506399332 0 0.028137436571779792 0.00099846981231441786 0 0.027322294655013395 0.0015950649344921349 0 0.027239447983657825 0.0012217295113325275 0 0.027090959853523625 0.0014075279347557804 0 0.028019062072638035 0.0011576485506399332 0 0.027617930727792089 0.0014178284918569804 0 0.027950681222480237 0.0011227075968429398 0 0.027816493699225602 0.0011748071096509671 0 0.027808355615122182 0.0013022822123453181 0 0.027322294655013395 0.0015950649344921349 0 0.027614446873492834 0.0013773031038471547 0 0.027239447983657825 0.0012217295113325275 0 0.028019062072638035 0.0011576485506399332 0 0.029011286350171483 0.000802740956357583 0 0.029150887483361823 0.00088316769218686113 0 0.028081495549846004 0.0011998672687649368 0 0.028761181698859217 0.0011250484649399243 0 0.028651478901252678 0.00089088128460332392 0 0.028631076517140655 0.0011752665057597406 0 0.028761181698859217 0.0011250484649399243 0 0.028651478901252678 0.00089088128460332392 0 0.028749668017169723 0.00074207429890028268 0 0.028019062072638035 0.0011576485506399332 0 0.028081495549846004 0.0011998672687649368 0 0.029150887483361823 0.00088316769218686113 0 0.029759018347971202 0.00077968917110476162 0 0.029150887483361823 0.00088316769218686113 0 0.029767475718775267 0.00083184586578231628 0 0.030793961528074398 0.00099532862358983859 0 0.030881268406120228 0.00098999192478399218 0 0.030837625780826165 0.00047396097788046274 0 0.029759018347971202 0.00077968917110476162 0 0.030822407001647237 0.00039133060722053742 0 0.028761181698859217 0.0011250484649399243 0 0.028749668017169723 0.00074207429890028268 0 0.029083621293649838 0.00072054806446798575 0 0.029460806444829929 0.00087678876921050354 0 0.029469903355544991 0.00074248873495084305 0 0.029552938029035698 0.00073719324313381682 0 0.029759018347971202 0.00077968917110476162 0 0.029767475718775267 0.00083184586578231628 0 0.029767475718775267 0.00083184586578231628 0 0.029011286350171483 0.000802740956357583 0 0.029767475718775267 0.00083184586578231628 0 0.030690532093982027 0.00071801867949504439 0 0.030003507114796206 0.001192971861036958 0 0.030337927978614315 0.0011726605355227191 0 0.030281632909491898 0.00078000947706092626 0 0.030837625780826165 0.00047396097788046274 0 0.031156539085551216 0.00058240728738833607 0 0.031426958221719897 0.00017632700432651549 0 0.030881268406120228 0.00098999192478399218 0 0.030837625780826165 0.00047396097788046274 0 0.031156539085551216 0.00058240728738833607 0 0.030679416846542865 0.0007523649011422711 0 0.031014974681516903 0.00033820193582659211 0 0.03056181694535617 0.00037146948623006861 0 0.029656151334323061 0.00067062527577443757 0 0.030313974749012127 0.00045324241343424687 0 0.030281632909491898 0.00078000947706092626 0 0.030679416846542865 0.0007523649011422711 0 0.03056181694535617 0.00037146948623006861 0 0.030690532093982027 0.00071801867949504439 0 0.031693545783889845 0.00019752573863959479 0 0.028390116980406992 0.00088483423503476978 0 0.028494858141527898 0.00095928954961253994 0 0.028638625890224235 0.00086843617819719733 0 0.028436502410332267 0.00084096169940163653 0 0.028641753817593825 0.00057356047863906337 0 0.028801546898075729 0.0008264302365449006 0 0.029011286350171483 0.000802740956357583 0 0.028580829909328719 0.00085604668155250276 0 0.029011286350171483 0.000802740956357583 0 0.029656151334323061 0.00067062527577443757 0 0.030337927978614315 0.0011726605355227191 0 0.030281632909491898 0.00078000947706092626 0 0.030679416846542865 0.0007523649011422711 0 0.028494858141527898 0.00095928954961253994 0 0.028638625890224235 0.00086843617819719733 0 0.028730804325529276 0.0008619968180545827 0 0.028137436571779792 0.00099846981231441786 0 0.028783123597871354 0.00084047191288840687 0 0.027896039337503301 0.0010014411383906401 0 0.028493638946378234 0.00097155498614237177 0 0.028680626505843868 0.00078749477672037142 0 0.028580829909328719 0.00085604668155250276 0 0.028783123597871354 0.00084047191288840687 0 0.029010593824136687 0.0012640613884720888 0 0.028493638946378234 0.00097155498614237177 0 0.028680626505843868 0.00078749477672037142 0 0.028801546898075729 0.0008264302365449006 0 0.028979585849969011 0.00082479610128688657 0 0.029116605647635751 0.00065993049997137277 0 0.028801546898075729 0.0008264302365449006 0 0.028873109147316008 0.00067958797059431439 0 0.029116605647635751 0.00065993049997137277 0 0.028641753817593825 0.00057356047863906337 0 0.028801546898075729 0.0008264302365449006 0 0.028873109147316008 0.00067958797059431439 0 0.029010593824136687 0.0012640613884720888 0 0.028680626505843868 0.00078749477672037142 0 0.02927663213877553 0.0008352060525631471 0 0.029508152944708464 0.0012282022040773085 0 0.029010593824136687 0.0012640613884720888 0 0.02927663213877553 0.0008352060525631471 0 0.028783123597871354 0.00084047191288840687 0 0.029192314084515416 0.00081978716932526203 0 0.028979585849969011 0.00082479610128688657 0 0.02927663213877553 0.0008352060525631471 0 0.029116605647635751 0.00065993049997137277 0 0.02927663213877553 0.0008352060525631471 0 0.029116605647635751 0.00065993049997137277 0 0.029526961526074959 0.0005118856427846532 0 0.029526961526074959 0.0005118856427846532 0 0.029168229618821484 0.00038475573544704086 0 0.029472709229793125 -1.0653189607390006e-05 0 0.029116605647635751 0.00065993049997137277 0 0.029526961526074959 0.0005118856427846532 0 0.029168229618821484 0.00038475573544704086 0 0.028873109147316008 0.00067958797059431439 0 0.029168229618821484 0.00038475573544704086 0 0.028806224119741538 9.8574150161209498e-05 0 0.028748650887960074 0.00051549302329233616 0 0.030313974749012127 0.00045324241343424687 0 0.028641753817593825 0.00057356047863906337 0 0.028873109147316008 0.00067958797059431439 0 0.028865837592147628 0.00030443590503737749 0 0.028873109147316008 0.00067958797059431439 0 0.029116605647635751 0.00065993049997137277 0 0.029168229618821484 0.00038475573544704086 0 0.030313974749012127 0.00045324241343424687 0 0.032150060023547741 0.00013145873426622927 0 0.030313974749012127 0.00045324241343424687 0 0.030910436026719858 -0.00011219542730050724 0 0.028806224119741538 9.8574150161209498e-05 0 0.029472709229793125 -1.0653189607390006e-05 0 0.029358337988992459 -0.00062435692062349298 0 0.029168229618821484 0.00038475573544704086 0 0.028806224119741538 9.8574150161209498e-05 0 0.029472709229793125 -1.0653189607390006e-05 0 0.029472709229793125 -1.0653189607390006e-05 0 0.029358337988992459 -0.00062435692062349298 0 0.030003501330080746 -0.0005942761158463602 0 0.032218545404008252 0.00097212799756118376 0 0.032615078254679859 0.00051694246343960825 0 0.032213276519413435 0.00055265220807358098 0 0.032615078254679859 0.00051694246343960825 0 0.032213276519413435 0.00055265220807358098 0 0.032479361457736541 0.00018984026928195523 0 0.032883968914747159 8.228027194556216e-06 0 0.032807310571647007 6.4642504933247414e-06 0 0.032810767565530717 -7.1988472396938803e-05 0 0.032807310571647007 6.4642504933247414e-06 0 0.032732305423146743 2.9657923119817597e-05 0 0.032810767565530717 -7.1988472396938803e-05 0 0.033666105887473707 0.00018205820290790781 0 0.034055208165756128 0.00018484701682300442 0 0.035084062400758273 0.00047196695097290843 0 0.035074803834270196 0.00053855440226978487 0 0.035159821172980249 0.00040571107918212337 0 0.034640630737320328 0.00050599568054568932 0 0.033666105887473707 0.00018205820290790781 0 0.035084062400758273 0.00047196695097290843 0 0.035083237198323187 0.00054673738376498728 0 0.035039416257176784 0.00052785088373767761 0 0.032807310571647007 6.4642504933247414e-06 0 0.032732305423146743 2.9657923119817597e-05 0 0.032773109248090342 5.4179217309354062e-05 0 0.032773109248090342 5.4179217309354062e-05 0 0.032726134557079886 7.1622267781571859e-05 0 0.032809123078625713 0.0001084040060928551 0 0.032010132918769647 -9.9011413928591183e-05 0 0.031693545783889845 0.00019752573863959479 0 0.030837625780826165 0.00047396097788046274 0 0.030878115466239382 -4.3935004028289236e-05 0 0.031426958221719897 0.00017632700432651549 0 0.030808727830932369 0.00028078244633948933 0 0.030868691791381558 -0.00047029316226582907 0 0.030672652801795097 -0.00054910014194362088 0 0.030822407001647237 0.00039133060722053742 0 0.032010132918769647 -9.9011413928591183e-05 0 0.032732305423146743 2.9657923119817597e-05 0 0.032773109248090342 5.4179217309354062e-05 0 0.032726134557079886 7.1622267781571859e-05 0 0.03284219687344999 -3.6959031184957899e-05 0 0.032827770889403557 0.00013251163802773178 0 0.03274363421093851 9.8855521115858122e-05 0 0.033666105887473707 0.00018205820290790781 0 0.032010132918769647 -9.9011413928591183e-05 0 0.033666105887473707 0.00018205820290790781 0 0.032490583119096847 -0.00010995110030240278 0 0.032010132918769647 -9.9011413928591183e-05 0 0.032490583119096847 -0.00010995110030240278 0 0.032807310571647007 6.4642504933247414e-06 0 0.032773109248090342 5.4179217309354062e-05 0 0.032809123078625713 0.0001084040060928551 0 0.031014974681516903 0.00033820193582659211 0 0.03099167516085902 -0.00025810682062368627 0 0.03056181694535617 0.00037146948623006861 0 0.032150060023547741 0.00013145873426622927 0 0.031693545783889845 0.00019752573863959479 0 0.032883968914747159 8.228027194556216e-06 0 0.032807310571647007 6.4642504933247414e-06 0 0.032809123078625713 0.0001084040060928551 0 0.031942436794002264 0.00048366982868430569 0 0.031113900567498944 0.00066857509508265825 0 0.031516219536670109 2.3819706692323323e-05 0 0.031942436794002264 0.00048366982868430569 0 0.031471287711911704 0.0011549169023406026 0 0.031113900567498944 0.00066857509508265825 0 0.030934844531343198 0.0013895173446902655 0 0.031471287711911704 0.0011549169023406026 0 0.031113900567498944 0.00066857509508265825 0 0.030934844531343198 0.0013895173446902655 0 0.031113900567498944 0.00066857509508265825 0 0.030562958249625193 0.00099289291780987128 0 0.031113900567498944 0.00066857509508265825 0 0.030478311626968908 0.00047958487715027176 0 0.030562958249625193 0.00099289291780987128 0 0.031113900567498944 0.00066857509508265825 0 0.030965101672270803 0.00010705645187857366 0 0.031516219536670109 2.3819706692323323e-05 0 0.031113900567498944 0.00066857509508265825 0 0.030478311626968908 0.00047958487715027176 0 0.030965101672270803 0.00010705645187857366 0 0.030478311626968908 0.00047958487715027176 0 0.029955114132389531 0.00089588015778434044 0 0.030017753533244994 0.00012596041661587664 0 0.030478311626968908 0.00047958487715027176 0 0.030562958249625193 0.00099289291780987128 0 0.029955114132389531 0.00089588015778434044 0 0.030295124166162472 0.0015499128893403935 0 0.030562958249625193 0.00099289291780987128 0 0.029955114132389531 0.00089588015778434044 0 0.029508152944708464 0.0012282022040773085 0 0.02927663213877553 0.0008352060525631471 0 0.029955114132389531 0.00089588015778434044 0 0.02927663213877553 0.0008352060525631471 0 0.029526961526074959 0.0005118856427846532 0 0.029955114132389531 0.00089588015778434044 0 0.029883571531059357 0.0014299575725913827 0 0.029508152944708464 0.0012282022040773085 0 0.029955114132389531 0.00089588015778434044 0 0.029526961526074959 0.0005118856427846532 0 0.029955114132389531 0.00089588015778434044 0 0.030017753533244994 0.00012596041661587664 0 0.029526961526074959 0.0005118856427846532 0 0.029472709229793125 -1.0653189607390006e-05 0 0.030017753533244994 0.00012596041661587664 0 0.029472709229793125 -1.0653189607390006e-05 0 0.030017753533244994 0.00012596041661587664 0 0.030003501330080746 -0.0005942761158463602 0 0.030003501330080746 -0.0005942761158463602 0 0.030555073570349593 -0.00031665901158577277 0 0.030603047470881124 -0.0010189333754147736 0 0.030017753533244994 0.00012596041661587664 0 0.030003501330080746 -0.0005942761158463602 0 0.030555073570349593 -0.00031665901158577277 0 0.030478311626968908 0.00047958487715027176 0 0.030555073570349593 -0.00031665901158577277 0 0.030965101672270803 0.00010705645187857366 0 0.030478311626968908 0.00047958487715027176 0 0.030017753533244994 0.00012596041661587664 0 0.030555073570349593 -0.00031665901158577277 0 0.030965101672270803 0.00010705645187857366 0 0.031280174247350023 -0.00068280358838787277 0 0.031516219536670109 2.3819706692323323e-05 0 0.030555073570349593 -0.00031665901158577277 0 0.030965101672270803 0.00010705645187857366 0 0.031280174247350023 -0.00068280358838787277 0 0.033016121160817501 -4.4543620921953899e-05 0 0.03243103694503878 -0.00036488043459155013 0 0.030555073570349593 -0.00031665901158577277 0 0.031280174247350023 -0.00068280358838787277 0 0.030603047470881124 -0.0010189333754147736 0 0.033293509168774903 4.0381511807766292e-05 0 0.033016121160817501 -4.4543620921953899e-05 0 0.034936377980307902 0.00034840267573832428 0 0.034880075002123097 0.00064590295310002432 0 0.034656896740766358 0.00053032760079798171 0 0.032003915140497469 -0.00032217127989524094 0 0.031942436794002264 0.00048366982868430569 0 0.031516219536670109 2.3819706692323323e-05 0 0.032003915140497469 -0.00032217127989524094 0 0.031280174247350023 -0.00068280358838787277 0 0.031516219536670109 2.3819706692323323e-05 0 0.034936377980307902 0.00034840267573832428 0 0.0348471712189031 0.00011477103824026252 0 0.034765221819147235 0.00026726041381463979 0 0.0348471712189031 0.00011477103824026252 0 0.034765221819147235 0.00026726041381463979 0 0.034664727724429037 0.00014560785557199548 0 0.034765221819147235 0.00026726041381463979 0 0.034592500971975103 0.00031557712374773899 0 0.034664727724429037 0.00014560785557199548 0 0.034936377980307902 0.00034840267573832428 0 0.034656896740766358 0.00053032760079798171 0 0.034765221819147235 0.00026726041381463979 0 0.034656896740766358 0.00053032760079798171 0 0.034765221819147235 0.00026726041381463979 0 0.034592500971975103 0.00031557712374773899 0 0.034656896740766358 0.00053032760079798171 0 0.034592500971975103 0.00031557712374773899 0 0.034401361097031 0.00041497641634438579 0 0.034592500971975103 0.00031557712374773899 0 0.034452021275691094 0.00021986503579535303 0 0.034401361097031 0.00041497641634438579 0 0.034592500971975103 0.00031557712374773899 0 0.034664727724429037 0.00014560785557199548 0 0.034452021275691094 0.00021986503579535303 0 0.034664727724429037 0.00014560785557199548 0 0.034452021275691094 0.00021986503579535303 0 0.034526708677816813 3.5958451260127312e-05 0 0.034452021275691094 0.00021986503579535303 0 0.034125980098207193 0.0002789684603910535 0 0.034320607202804346 6.4450425511966057e-05 0 0.034452021275691094 0.00021986503579535303 0 0.034320607202804346 6.4450425511966057e-05 0 0.034526708677816813 3.5958451260127312e-05 0 0.03243103694503878 -0.00036488043459155013 0 0.032281862525119102 -0.00011193861080245932 0 0.030003501330080746 -0.0005942761158463602 0 0.030603047470881124 -0.0010189333754147736 0 0.029957852479117773 -0.0013574685217758583 0 0.034452021275691094 0.00021986503579535303 0 0.034401361097031 0.00041497641634438579 0 0.034125980098207193 0.0002789684603910535 0 0.029358337988992459 -0.00062435692062349298 0 0.030003501330080746 -0.0005942761158463602 0 0.029957852479117773 -0.0013574685217758583 0 0.032281862525119102 -0.00011193861080245932 0 0.032946688158389428 8.6250200570617714e-05 0 0.033052607840757017 8.1230019485921604e-05 0 0.033108999284878239 -0.0002655301081902038 0 0.033339161869761019 -0.00027607726510874611 0 0.032281862525119102 -0.00011193861080245932 0 0.033910685596591023 -0.00013815944831979863 0 0.033052607840757017 8.1230019485921604e-05 0 0.033108999284878239 -0.0002655301081902038 0 0.032952126517195854 -0.00019296162704925956 0 0.033052607840757017 8.1230019485921604e-05 0 0.032952126517195854 -0.00019296162704925956 0 0.032798198988477904 -5.231992334102753e-05 0 0.032952126517195854 -0.00019296162704925956 0 0.033065233161330893 -0.00053148670149634112 0 0.032751711535285742 -0.00017325877621445103 0 0.033108999284878239 -0.0002655301081902038 0 0.032952126517195854 -0.00019296162704925956 0 0.033065233161330893 -0.00053148670149634112 0 0.033039362302475436 -0.0005063481972055814 0 0.032847160717096438 -0.00025108578255918966 0 0.033108999284878239 -0.0002655301081902038 0 0.033065233161330893 -0.00053148670149634112 0 0.033248813363784414 -0.00046811091854746372 0 0.033065233161330893 -0.00053148670149634112 0 0.033144299090788434 -0.00065019303157328736 0 0.033248813363784414 -0.00046811091854746372 0 0.034996319624379969 -1.6605670206273404e-06 0 0.034999993081660082 -3.3475478439410999e-09 0 0.034999984232016466 -4.8510943496988593e-10 0 0.033065233161330893 -0.00053148670149634112 0 0.033144299090788434 -0.00065019303157328736 0 0.032860629137976501 -0.00066782839808664598 0 0.033965618805369274 -0.00036715858520700045 0 0.034205411320751368 -4.479175565076015e-05 0 0.034996319624379969 -1.6605670206273404e-06 0 0.034999993081660082 -3.3475478439410999e-09 0 0.034996593566534048 -2.1178429599280681e-06 0 0.033965618805369274 -0.00036715858520700045 0 0.034535974673778072 -0.00021985627432968065 0 0.033144299090788434 -0.00065019303157328736 0 0.033248813363784414 -0.00046811091854746372 0 0.033594596067803205 -0.00059568579629795237 0 0.033248813363784414 -0.00046811091854746372 0 0.033339161869761019 -0.00027607726510874611 0 0.033594596067803205 -0.00059568579629795237 0 0.034320607202804346 6.4450425511966057e-05 0 0.034526708677816813 3.5958451260127312e-05 0 0.034510305082323584 -0.0001559364637116765 0 0.033910685596591023 -0.00013815944831979863 0 0.034535974673778072 -0.00021985627432968065 0 0.033108999284878239 -0.0002655301081902038 0 0.033248813363784414 -0.00046811091854746372 0 0.033339161869761019 -0.00027607726510874611 0 0.034937176046628708 -2.4951961250609067e-05 0 0.034526708677816813 3.5958451260127312e-05 0 0.034510305082323584 -0.0001559364637116765 0 0.034999993081660082 -3.3475478439410999e-09 0 0.034996593566534048 -2.1178429599280681e-06 0 0.034999995557337946 -2.8967292597030441e-10 0 0.034535974673778072 -0.00021985627432968065 0 0.035000109492856223 -8.3279918709951764e-08 0 0.034937176046628708 -2.4951961250609067e-05 0 0.035019332107541983 -3.1364087803359398e-05 0 0.035000044245852888 4.373325294863345e-08 0 0.034937176046628708 -2.4951961250609067e-05 0 0.03498443989667719 -8.9976882217316169e-06 0 0.035000044245852888 4.373325294863345e-08 0 0.035029442615614352 7.565503906729576e-06 0 0.034535974673778072 -0.00021985627432968065 0 0.034937176046628708 -2.4951961250609067e-05 0 0.034664727724429037 0.00014560785557199548 0 0.034526708677816813 3.5958451260127312e-05 0 0.034937176046628708 -2.4951961250609067e-05 0 0.0348471712189031 0.00011477103824026252 0 0.034664727724429037 0.00014560785557199548 0 0.03514444349957354 0.00029728730238891569 0 0.035159821172980249 0.00040571107918212337 0 0.035235006221747169 0.00025974435738109408 0 0.03514444349957354 0.00029728730238891569 0 0.035235006221747169 0.00025974435738109408 0 0.035152192359889166 0.00021296379945943305 0 0.034055208165756128 0.00018484701682300442 0 0.033728696210797833 -0.00010127963863892384 0 0.03514444349957354 0.00029728730238891569 0 0.035079881996583503 0.00033184260524063197 0 0.035077031428467506 0.00021449917439831959 0 0.03514444349957354 0.00029728730238891569 0 0.035079881996583503 0.00033184260524063197 0 0.035107554110145718 0.00038757251230297357 0 0.03514444349957354 0.00029728730238891569 0 0.035107554110145718 0.00038757251230297357 0 0.035159821172980249 0.00040571107918212337 0 0.035079881996583503 0.00033184260524063197 0 0.035107554110145718 0.00038757251230297357 0 0.03506703283387675 0.00042598819099933758 0 0.035084062400758273 0.00047196695097290843 0 0.035107554110145718 0.00038757251230297357 0 0.03506703283387675 0.00042598819099933758 0 0.035084062400758273 0.00047196695097290843 0 0.035107554110145718 0.00038757251230297357 0 0.035159821172980249 0.00040571107918212337 0 0.032810767565530717 -7.1988472396938803e-05 0 0.03288841661917033 -8.3802341967161831e-05 0 0.032892810575357312 -0.00017612753421625599 0 0.032883968914747159 8.228027194556216e-06 0 0.032810767565530717 -7.1988472396938803e-05 0 0.03288841661917033 -8.3802341967161831e-05 0 0.032150060023547741 0.00013145873426622927 0 0.032758153675181992 -0.00015132028663562567 0 0.032658628221761452 0.00010084439225316316 0 0.032801514809801202 -0.00011321115471619906 0 0.032650440614094986 -0.00012742414294080853 0 0.032150060023547741 0.00013145873426622927 0 0.032655400893200751 5.3210227119643974e-05 0 0.032801514809801202 -0.00011321115471619906 0 0.032650440614094986 -0.00012742414294080853 0 0.032783302847462746 -0.00027626416079490362 0 0.033010368069522664 6.3873770880692725e-05 0 0.032479361457736541 0.00018984026928195523 0 0.032798198988477904 -5.231992334102753e-05 0 0.032615078254679859 0.00051694246343960825 0 0.033010368069522664 6.3873770880692725e-05 0 0.032479361457736541 0.00018984026928195523 0 0.030910436026719858 -0.00011219542730050724 0 0.032281862525119102 -0.00011193861080245932 0 0.032801514809801202 -0.00011321115471619906 0 0.032936390026559167 -0.00032458983182566962 0 0.032783302847462746 -0.00027626416079490362 0 0.032479361457736541 0.00018984026928195523 0 0.032798198988477904 -5.231992334102753e-05 0 0.032751711535285742 -0.00017325877621445103 0 0.032655400893200751 5.3210227119643974e-05 0 0.032847160717096438 -0.00025108578255918966 0 0.032936390026559167 -0.00032458983182566962 0 0.032783302847462746 -0.00027626416079490362 0 0.03280253874846855 -0.00038938218241299852 0 0.032952126517195854 -0.00019296162704925956 0 0.032798198988477904 -5.231992334102753e-05 0 0.032751711535285742 -0.00017325877621445103 0 0.032758153675181992 -0.00015132028663562567 0 0.033728696210797833 -0.00010127963863892384 0 0.032650440614094986 -0.00012742414294080853 0 0.032783302847462746 -0.00027626416079490362 0 0.032643559412444921 -0.00035035969967967478 0 0.032783302847462746 -0.00027626416079490362 0 0.032643559412444921 -0.00035035969967967478 0 0.03280253874846855 -0.00038938218241299852 0 0.033728696210797833 -0.00010127963863892384 0 0.034713336136905831 0.00010354563714543514 0 0.034262489177632229 -0.00010323176925890404 0 0.034203339555739454 -1.4226640473600449e-05 0 0.034273801007468553 -2.0878227425921199e-06 0 0.033728696210797833 -0.00010127963863892384 0 0.033470644585475329 -0.00021856709151937161 0 0.032643559412444921 -0.00035035969967967478 0 0.03280253874846855 -0.00038938218241299852 0 0.032753885385711244 -0.00050851891321522914 0 0.033065233161330893 -0.00053148670149634112 0 0.032936390026559167 -0.00032458983182566962 0 0.032896113613135262 -0.00048564364360565186 0 0.033065233161330893 -0.00053148670149634112 0 0.032896113613135262 -0.00048564364360565186 0 0.032860629137976501 -0.00066782839808664598 0 0.032936390026559167 -0.00032458983182566962 0 0.03280253874846855 -0.00038938218241299852 0 0.032896113613135262 -0.00048564364360565186 0 0.03280253874846855 -0.00038938218241299852 0 0.032753885385711244 -0.00050851891321522914 0 0.032896113613135262 -0.00048564364360565186 0 0.032753885385711244 -0.00050851891321522914 0 0.032896113613135262 -0.00048564364360565186 0 0.032860629137976501 -0.00066782839808664598 0 0.034998275224289686 1.8758659311385603e-07 0 0.034999993199077963 -3.5032671019325022e-10 0 0.034999997664336306 1.2147228709857523e-09 0 0.034996319624379969 -1.6605670206273404e-06 0 0.034996603630412348 -1.4309507825525805e-07 0 0.034999984232016466 -4.8510943496988593e-10 0 0.033470644585475329 -0.00021856709151937161 0 0.034205411320751368 -4.479175565076015e-05 0 0.034205411320751368 -4.479175565076015e-05 0 0.034999464534300716 -3.4283161109225356e-07 0 0.034998275224289686 1.8758659311385603e-07 0 0.034999997664336306 1.2147228709857523e-09 0 0.034999615647549387 1.3198898216238677e-07 0 0.034205411320751368 -4.479175565076015e-05 0 0.034883327785417688 0.00011117620248466674 0 0.034203339555739454 -1.4226640473600449e-05 0 0.034141441388257601 7.6243078555636329e-05 0 0.034283777630749183 0.00010071125838541714 0 0.034203339555739454 -1.4226640473600449e-05 0 0.034273801007468553 -2.0878227425921199e-06 0 0.034283777630749183 0.00010071125838541714 0 0.034713336136905831 0.00010354563714543514 0 0.034883327785417688 0.00011117620248466674 0 0.034999997664336306 1.2147228709857523e-09 0 0.034999930572619666 7.2333210154631831e-08 0 0.034999615647549387 1.3198898216238677e-07 0 0.034883327785417688 0.00011117620248466674 0 0.035000249028089514 1.8173124720594274e-08 0 0.035228757554348705 0.00015074644910617092 0 0.035216324273126945 2.4216007352685131e-05 0 0.035099602185047818 0.00012788740218359936 0 0.035216324273126945 2.4216007352685131e-05 0 0.035099602185047818 0.00012788740218359936 0 0.035000398398287787 6.7189756511834571e-08 0 0.034999997664336306 1.2147228709857523e-09 0 0.034999930572619666 7.2333210154631831e-08 0 0.03500000035966306 -1.4392509260409835e-10 0 0.034999930572619666 7.2333210154631831e-08 0 0.034999860051516042 1.6143202592383117e-07 0 0.03500000035966306 -1.4392509260409835e-10 0 0.034887459811011261 9.5035549915970183e-05 0 0.034883327785417688 0.00011117620248466674 0 0.035228757554348705 0.00015074644910617092 0 0.035099602185047818 0.00012788740218359936 0 0.035152192359889166 0.00021296379945943305 0 0.035235006221747169 0.00025974435738109408 0 0.035228757554348705 0.00015074644910617092 0 0.035152192359889166 0.00021296379945943305 0 0.03514444349957354 0.00029728730238891569 0 0.035152192359889166 0.00021296379945943305 0 0.035077031428467506 0.00021449917439831959 0 0.035099602185047818 0.00012788740218359936 0 0.035152192359889166 0.00021296379945943305 0 0.035077031428467506 0.00021449917439831959 0 0.035099602185047818 0.00012788740218359936 0 0.035077031428467506 0.00021449917439831959 0 0.03503305293586139 9.6324127182404766e-05 0 0.035099602185047818 0.00012788740218359936 0 0.03503305293586139 9.6324127182404766e-05 0 0.035000398398287787 6.7189756511834571e-08 0 0.03503305293586139 9.6324127182404766e-05 0 0.035000398398287787 6.7189756511834571e-08 0 0.034999919013170004 7.5804154591786978e-08 0 0.03503305293586139 9.6324127182404766e-05 0 0.034999919013170004 7.5804154591786978e-08 0 0.035017820076210328 0.00017245649872780531 0 0.034999919013170004 7.5804154591786978e-08 0 0.034991313572327418 9.4103145037624343e-05 0 0.035000055379549179 1.4564988589623687e-07 0 0.034999919013170004 7.5804154591786978e-08 0 0.034991313572327418 9.4103145037624343e-05 0 0.035017820076210328 0.00017245649872780531 0 0.034991313572327418 9.4103145037624343e-05 0 0.035017820076210328 0.00017245649872780531 0 0.034974809743896898 0.00029342765635134786 0 0.035077031428467506 0.00021449917439831959 0 0.035017820076210328 0.00017245649872780531 0 0.035044307858684592 0.00027156986894853795 0 0.035077031428467506 0.00021449917439831959 0 0.03503305293586139 9.6324127182404766e-05 0 0.035017820076210328 0.00017245649872780531 0 0.035079881996583503 0.00033184260524063197 0 0.035077031428467506 0.00021449917439831959 0 0.035044307858684592 0.00027156986894853795 0 0.035017820076210328 0.00017245649872780531 0 0.035044307858684592 0.00027156986894853795 0 0.03501260075968677 0.0003179007704214651 0 0.035079881996583503 0.00033184260524063197 0 0.035044307858684592 0.00027156986894853795 0 0.03503796378054462 0.00038372587357280667 0 0.035044307858684592 0.00027156986894853795 0 0.03501260075968677 0.0003179007704214651 0 0.03503796378054462 0.00038372587357280667 0 0.034974809743896898 0.00029342765635134786 0 0.034995357618928566 0.00042151714205402354 0 0.034924905271981978 0.00045687282599099672 0 0.035017820076210328 0.00017245649872780531 0 0.034974809743896898 0.00029342765635134786 0 0.03501260075968677 0.0003179007704214651 0 0.034974809743896898 0.00029342765635134786 0 0.03501260075968677 0.0003179007704214651 0 0.034995357618928566 0.00042151714205402354 0 0.03501260075968677 0.0003179007704214651 0 0.034995357618928566 0.00042151714205402354 0 0.03503796378054462 0.00038372587357280667 0 0.034995357618928566 0.00042151714205402354 0 0.03498232716764553 0.00050802146321809343 0 0.034924905271981978 0.00045687282599099672 0 0.034995357618928566 0.00042151714205402354 0 0.03498232716764553 0.00050802146321809343 0 0.035022102652834203 0.00047728585838524617 0 0.035022102652834203 0.00047728585838524617 0 0.03506703283387675 0.00042598819099933758 0 0.03503796378054462 0.00038372587357280667 0 0.035084062400758273 0.00047196695097290843 0 0.03506703283387675 0.00042598819099933758 0 0.035046135297814439 0.00048789401680224943 0 0.035022102652834203 0.00047728585838524617 0 0.03506703283387675 0.00042598819099933758 0 0.035046135297814439 0.00048789401680224943 0 0.035079881996583503 0.00033184260524063197 0 0.03506703283387675 0.00042598819099933758 0 0.03503796378054462 0.00038372587357280667 0 0.034995357618928566 0.00042151714205402354 0 0.035022102652834203 0.00047728585838524617 0 0.03503796378054462 0.00038372587357280667 0 0.034782144119868005 0.00048135476199514274 0 0.034330187455785699 0.00068584078295014 0 0.034939189923603738 0.00062807819034555736 0 0.034782144119868005 0.00048135476199514274 0 0.034924905271981978 0.00045687282599099672 0 0.034939189923603738 0.00062807819034555736 0 0.03498232716764553 0.00050802146321809343 0 0.034924905271981978 0.00045687282599099672 0 0.034939189923603738 0.00062807819034555736 0 0.034974809743896898 0.00029342765635134786 0 0.034924905271981978 0.00045687282599099672 0 0.034858763653152498 0.00038795880929408681 0 0.034974809743896898 0.00029342765635134786 0 0.034858763653152498 0.00038795880929408681 0 0.034941033089283792 0.00021719651323372647 0 0.034782144119868005 0.00048135476199514274 0 0.034924905271981978 0.00045687282599099672 0 0.034858763653152498 0.00038795880929408681 0 0.034782144119868005 0.00048135476199514274 0 0.034858763653152498 0.00038795880929408681 0 0.034780817324806916 0.00048967636550907221 0 0.034858763653152498 0.00038795880929408681 0 0.034930622556200754 8.2286679814646055e-05 0 0.034780817324806916 0.00048967636550907221 0 0.034858763653152498 0.00038795880929408681 0 0.034941033089283792 0.00021719651323372647 0 0.034930622556200754 8.2286679814646055e-05 0 0.034991313572327418 9.4103145037624343e-05 0 0.034974809743896898 0.00029342765635134786 0 0.034941033089283792 0.00021719651323372647 0 0.034991313572327418 9.4103145037624343e-05 0 0.034941033089283792 0.00021719651323372647 0 0.034930622556200754 8.2286679814646055e-05 0 0.034991313572327418 9.4103145037624343e-05 0 0.035000055379549179 1.4564988589623687e-07 0 0.034930622556200754 8.2286679814646055e-05 0 0.035000055379549179 1.4564988589623687e-07 0 0.034930622556200754 8.2286679814646055e-05 0 0.034999434629088742 -2.2331576976314439e-07 0 0.034999434629088742 -2.2331576976314439e-07 0 0.034826608389182341 -3.9060243504169182e-05 0 0.034892310685465229 -0.00022602527676011681 0 0.034930622556200754 8.2286679814646055e-05 0 0.034999434629088742 -2.2331576976314439e-07 0 0.034826608389182341 -3.9060243504169182e-05 0 0.034999434629088742 -2.2331576976314439e-07 0 0.034892310685465229 -0.00022602527676011681 0 0.034999351041349498 -8.5443911062706264e-07 0 0.03450986580299812 -8.0867480729846498e-05 0 0.033980616939928467 -5.3307255225770981e-05 0 0.033917305868708322 -0.0004523751457890388 0 0.034892310685465229 -0.00022602527676011681 0 0.03450986580299812 -8.0867480729846498e-05 0 0.033917305868708322 -0.0004523751457890388 0 0.034826608389182341 -3.9060243504169182e-05 0 0.034892310685465229 -0.00022602527676011681 0 0.03450986580299812 -8.0867480729846498e-05 0 0.03450986580299812 -8.0867480729846498e-05 0 0.034179015794730344 0.00034381744445795878 0 0.03471315924085492 0.00020172381580031758 0 0.03450986580299812 -8.0867480729846498e-05 0 0.033980616939928467 -5.3307255225770981e-05 0 0.034179015794730344 0.00034381744445795878 0 0.033980616939928467 -5.3307255225770981e-05 0 0.034179015794730344 0.00034381744445795878 0 0.033563069619392427 0.00019541716277664964 0 0.034179015794730344 0.00034381744445795878 0 0.033563069619392427 0.00019541716277664964 0 0.033492277764419778 0.00060775053542572546 0 0.034179015794730344 0.00034381744445795878 0 0.03471315924085492 0.00020172381580031758 0 0.034483915368320787 0.00061435753837356811 0 0.034930622556200754 8.2286679814646055e-05 0 0.034826608389182341 -3.9060243504169182e-05 0 0.03471315924085492 0.00020172381580031758 0 0.034930622556200754 8.2286679814646055e-05 0 0.03471315924085492 0.00020172381580031758 0 0.034780817324806916 0.00048967636550907221 0 0.034826608389182341 -3.9060243504169182e-05 0 0.03450986580299812 -8.0867480729846498e-05 0 0.03471315924085492 0.00020172381580031758 0 0.031110186455746702 -0.0022123047457012482 0 0.032043154628379852 -0.0011849327445333008 0 0.030924162853044831 -0.00063580406528534561 0 0.031110186455746702 -0.0022123047457012482 0 0.032043154628379852 -0.0011849327445333008 0 0.032999913957399568 -0.001704371274790455 0 0.032981331370220114 -0.00068848025503874066 0 0.033942941270107711 -0.00079100771208844543 0 0.032043154628379852 -0.0011849327445333008 0 0.032921594054583482 -0.00086448394040601812 0 0.032202102486217146 -0.00048349905290542941 0 0.034672041196599675 -0.00042080852052017303 0 0.033942941270107711 -0.00079100771208844543 0 0.034951545732466671 5.0092962097908213e-07 0 0.034999351041349498 -8.5443911062706264e-07 0 0.034997203845396598 1.884850306855005e-05 0 0.034892310685465229 -0.00022602527676011681 0 0.032999913957399568 -0.001704371274790455 0 0.033917305868708322 -0.0004523751457890388 0 0.034892310685465229 -0.00022602527676011681 0 0.034999351041349498 -8.5443911062706264e-07 0 0.034997203845396598 1.884850306855005e-05 0 0.032043154628379852 -0.0011849327445333008 0 0.032921594054583482 -0.00086448394040601812 0 0.032999913957399568 -0.001704371274790455 0 0.032921594054583482 -0.00086448394040601812 0 0.033917305868708322 -0.0004523751457890388 0 0.033293064351996943 -0.00023011220221765807 0 0.032921594054583482 -0.00086448394040601812 0 0.032999913957399568 -0.001704371274790455 0 0.033917305868708322 -0.0004523751457890388 0 0.033980616939928467 -5.3307255225770981e-05 0 0.033293064351996943 -0.00023011220221765807 0 0.033563069619392427 0.00019541716277664964 0 0.033980616939928467 -5.3307255225770981e-05 0 0.033917305868708322 -0.0004523751457890388 0 0.033293064351996943 -0.00023011220221765807 0 0.033563069619392427 0.00019541716277664964 0 0.032796738075344556 0.00022388985335755501 0 0.033492277764419778 0.00060775053542572546 0 0.033293064351996943 -0.00023011220221765807 0 0.033563069619392427 0.00019541716277664964 0 0.032796738075344556 0.00022388985335755501 0 0.032921594054583482 -0.00086448394040601812 0 0.033293064351996943 -0.00023011220221765807 0 0.032202102486217146 -0.00048349905290542941 0 0.033293064351996943 -0.00023011220221765807 0 0.032796738075344556 0.00022388985335755501 0 0.032202102486217146 -0.00048349905290542941 0 0.032202102486217146 -0.00048349905290542941 0 0.031570371056076185 0.00040257548897862334 0 0.030924162853044831 -0.00063580406528534561 0 0.032043154628379852 -0.0011849327445333008 0 0.032202102486217146 -0.00048349905290542941 0 0.030924162853044831 -0.00063580406528534561 0 0.032796738075344556 0.00022388985335755501 0 0.032202102486217146 -0.00048349905290542941 0 0.031570371056076185 0.00040257548897862334 0 0.031570371056076185 0.00040257548897862334 0 0.030924162853044831 -0.00063580406528534561 0 0.029748026739431232 0.00045415371808798556 0 0.030757100953409628 0.0010585825399221298 0 0.031733768320096438 0.0013487211014251072 0 0.029876971495788367 0.0021281494479677629 0 0.031733768320096438 0.0013487211014251072 0 0.032910181338778897 0.0019166813654607508 0 0.029876971495788367 0.0021281494479677629 0 0.031570371056076185 0.00040257548897862334 0 0.030757100953409628 0.0010585825399221298 0 0.031733768320096438 0.0013487211014251072 0 0.031570371056076185 0.00040257548897862334 0 0.030757100953409628 0.0010585825399221298 0 0.029748026739431232 0.00045415371808798556 0 0.031570371056076185 0.00040257548897862334 0 0.031733768320096438 0.0013487211014251072 0 0.032813464004248241 0.00093280675287467417 0 0.031733768320096438 0.0013487211014251072 0 0.032813464004248241 0.00093280675287467417 0 0.032910181338778897 0.0019166813654607508 0 0.032796738075344556 0.00022388985335755501 0 0.032813464004248241 0.00093280675287467417 0 0.033492277764419778 0.00060775053542572546 0 0.032796738075344556 0.00022388985335755501 0 0.031570371056076185 0.00040257548897862334 0 0.032813464004248241 0.00093280675287467417 0 0.032813464004248241 0.00093280675287467417 0 0.033492277764419778 0.00060775053542572546 0 0.033852208307971164 0.00098958353834983285 0 0.032813464004248241 0.00093280675287467417 0 0.032910181338778897 0.0019166813654607508 0 0.033852208307971164 0.00098958353834983285 0 0.032436157075978335 0.00014194421851210698 0 0.032110810358009979 0.00067107083543341392 0 0.033222068431855614 0.0011311413362061959 0 0.032899180262271489 0.0010327933348426249 0 0.029151073523150172 0.00088618774813315458 0 0.032436157075978335 0.00014194421851210698 0 0.032110810358009979 0.00067107083543341392 0 0.03090012602223249 9.317429822156219e-05 0 0.026893903951383406 0.00051970453756465236 0 0.026808973347830362 0.00061909864117963196 0 0.02678033297038078 0.00079381026576546003 0 0.029439947259355625 0.00054330559926253749 0 0.029151073523150172 0.00088618774813315458 0 0.026893903951383406 0.00051970453756465236 0 0.026808973347830362 0.00061909864117963196 0 0.026854384756128787 0.00058912883363495573 0 0.034782144119868005 0.00048135476199514274 0 0.034780817324806916 0.00048967636550907221 0 0.034556361899536668 0.0010969335785428679 0 0.034780817324806916 0.00048967636550907221 0 0.034483915368320787 0.00061435753837356811 0 0.034556361899536668 0.0010969335785428679 0 0.03471315924085492 0.00020172381580031758 0 0.034780817324806916 0.00048967636550907221 0 0.034483915368320787 0.00061435753837356811 0 0.032910181338778897 0.0019166813654607508 0 0.033852208307971164 0.00098958353834983285 0 0.034556361899536668 0.0010969335785428679 0 0.034179015794730344 0.00034381744445795878 0 0.034483915368320787 0.00061435753837356811 0 0.033852208307971164 0.00098958353834983285 0 0.034179015794730344 0.00034381744445795878 0 0.033492277764419778 0.00060775053542572546 0 0.033852208307971164 0.00098958353834983285 0 0.034483915368320787 0.00061435753837356811 0 0.033852208307971164 0.00098958353834983285 0 0.034556361899536668 0.0010969335785428679 0 0.033753620947499154 0.00024767916366174832 0 0.033853205046928507 0.00095729090642683546 0 0.033222068431855614 0.0011311413362061959 0 0.032899180262271489 0.0010327933348426249 0 0.034033212323493919 0.00068236812747762604 0 0.032436157075978335 0.00014194421851210698 0 0.033753620947499154 0.00024767916366174832 0 0.033222068431855614 0.0011311413362061959 0 0.034782144119868005 0.00048135476199514274 0 0.034330187455785699 0.00068584078295014 0 0.033753620947499154 0.00024767916366174832 0 0.034330187455785699 0.00068584078295014 0 0.033753620947499154 0.00024767916366174832 0 0.033853205046928507 0.00095729090642683546 0 0.034744533851829323 0.00051408137777859411 0 0.034033212323493919 0.00068236812747762604 0 0.034330187455785699 0.00068584078295014 0 0.033853205046928507 0.00095729090642683546 0 0.034091205436464642 0.0013727233478917271 0 0.033853205046928507 0.00095729090642683546 0 0.033222068431855614 0.0011311413362061959 0 0.034091205436464642 0.0013727233478917271 0 0.030237715798449704 0.00082332242980849666 0 0.030943613329977505 0.0010492513408773922 0 0.027260060136852674 0.00051746579901145535 0 0.02726157141667445 0.00080681199010129148 0 0.027119436539307994 0.00069046923839022377 0 0.02726157141667445 0.00080681199010129148 0 0.02767467924780696 0.00063735451081999115 0 0.02751229533451785 0.00087693592358639488 0 0.027260060136852674 0.00051746579901145535 0 0.02726157141667445 0.00080681199010129148 0 0.02767467924780696 0.00063735451081999115 0 0.02767467924780696 0.00063735451081999115 0 0.02751229533451785 0.00087693592358639488 0 0.027818499125061517 0.00097513989304438982 0 0.026808973347830362 0.00061909864117963196 0 0.026811241204683742 0.00062325420357446182 0 0.026854384756128787 0.00058912883363495573 0 0.026893903951383406 0.00051970453756465236 0 0.026854384756128787 0.00058912883363495573 0 0.026977257743597684 0.00062428004539346682 0 0.026811241204683742 0.00062325420357446182 0 0.026854384756128787 0.00058912883363495573 0 0.026977257743597684 0.00062428004539346682 0 0.029439947259355625 0.00054330559926253749 0 0.030237715798449704 0.00082332242980849666 0 0.027260060136852674 0.00051746579901145535 0 0.026977257743597684 0.00062428004539346682 0 0.027119436539307994 0.00069046923839022377 0 0.026893903951383406 0.00051970453756465236 0 0.027260060136852674 0.00051746579901145535 0 0.026977257743597684 0.00062428004539346682 0 0.02726157141667445 0.00080681199010129148 0 0.027119436539307994 0.00069046923839022377 0 0.027003350181555703 0.00079517514251448683 0 0.026977257743597684 0.00062428004539346682 0 0.027119436539307994 0.00069046923839022377 0 0.027003350181555703 0.00079517514251448683 0 0.02726157141667445 0.00080681199010129148 0 0.027003350181555703 0.00079517514251448683 0 0.027073787817664043 0.00095833196567150065 0 0.026977257743597684 0.00062428004539346682 0 0.027003350181555703 0.00079517514251448683 0 0.026807181394371948 0.00073319680364428109 0 0.026811241204683742 0.00062325420357446182 0 0.026977257743597684 0.00062428004539346682 0 0.026807181394371948 0.00073319680364428109 0 0.027003350181555703 0.00079517514251448683 0 0.026807181394371948 0.00073319680364428109 0 0.026870802932190734 0.00092168774301089362 0 0.026811241204683742 0.00062325420357446182 0 0.026807181394371948 0.00073319680364428109 0 0.026719558214730949 0.00063011296182894803 0 0.026870802932190734 0.00092168774301089362 0 0.026731861820315554 0.0010526220284200313 0 0.026693305757897766 0.00093869494909478628 0 0.026870802932190734 0.00092168774301089362 0 0.02669907637942669 0.00080902805048119046 0 0.026693305757897766 0.00093869494909478628 0 0.026807181394371948 0.00073319680364428109 0 0.026870802932190734 0.00092168774301089362 0 0.02669907637942669 0.00080902805048119046 0 0.026870802932190734 0.00092168774301089362 0 0.026952685707150075 0.0011300337577703076 0 0.026731861820315554 0.0010526220284200313 0 0.027073787817664043 0.00095833196567150065 0 0.026952685707150075 0.0011300337577703076 0 0.027312689543789986 0.0010739983033902988 0 0.026870802932190734 0.00092168774301089362 0 0.027073787817664043 0.00095833196567150065 0 0.026952685707150075 0.0011300337577703076 0 0.027003350181555703 0.00079517514251448683 0 0.026870802932190734 0.00092168774301089362 0 0.027073787817664043 0.00095833196567150065 0 0.026704727433038488 0.0011723955697372102 0 0.026167199479680155 0.0012357192000018728 0 0.027036817716502872 0.00082180747641055329 0 0.026564086366715166 0.0011896535522223257 0 0.027237579755962429 0.00091838630406130574 0 0.026882437998431014 0.00117286674560136 0 0.025114032401281756 0.0013357262609438388 0 0.026704727433038488 0.0011723955697372102 0 0.027152125917622099 0.0017344102557730317 0 0.025812332525251815 0.0017872612346844657 0 0.026704727433038488 0.0011723955697372102 0 0.026167199479680155 0.0012357192000018728 0 0.026120892407174565 0.0015088394473819135 0 0.026564086366715166 0.0011896535522223257 0 0.026211036278418542 0.0013798700407457261 0 0.026167199479680155 0.0012357192000018728 0 0.025854263809063457 0.0014914541593228296 0 0.025949439510746741 0.0015025022447939652 0 0.026952685707150075 0.0011300337577703076 0 0.026731861820315554 0.0010526220284200313 0 0.026571816654715939 0.0012854641540126447 0 0.026167199479680155 0.0012357192000018728 0 0.02604188806006304 0.0014927906363361074 0 0.026120892407174565 0.0015088394473819135 0 0.026167199479680155 0.0012357192000018728 0 0.025949439510746741 0.0015025022447939652 0 0.02604188806006304 0.0014927906363361074 0 0.02751229533451785 0.00087693592358639488 0 0.027312689543789986 0.0010739983033902988 0 0.027818499125061517 0.00097513989304438982 0 0.027036817716502872 0.00082180747641055329 0 0.027808943078633921 0.00113352481794398 0 0.028354346807084985 0.00024743179043984676 0 0.027237579755962429 0.00091838630406130574 0 0.027878212621465434 0.00074128364111658964 0 0.027808943078633921 0.00113352481794398 0 0.028535217452663561 0.00097978676502855034 0 0.028354346807084985 0.00024743179043984676 0 0.02726157141667445 0.00080681199010129148 0 0.027073787817664043 0.00095833196567150065 0 0.027312689543789986 0.0010739983033902988 0 0.02726157141667445 0.00080681199010129148 0 0.02751229533451785 0.00087693592358639488 0 0.027312689543789986 0.0010739983033902988 0 0.027036817716502872 0.00082180747641055329 0 0.027149077388428963 0.0012300191743966032 0 0.027808943078633921 0.00113352481794398 0 0.026704727433038488 0.0011723955697372102 0 0.027036817716502872 0.00082180747641055329 0 0.027149077388428963 0.0012300191743966032 0 0.026704727433038488 0.0011723955697372102 0 0.027149077388428963 0.0012300191743966032 0 0.027152125917622099 0.0017344102557730317 0 0.027149077388428963 0.0012300191743966032 0 0.027808943078633921 0.00113352481794398 0 0.027152125917622099 0.0017344102557730317 0 0.02747587929333576 0.00092113963081817739 0 0.025635062974468787 0.00094215231174966691 0 0.027808943078633921 0.00113352481794398 0 0.028649202203081182 0.0017295183798668224 0 0.027152125917622099 0.0017344102557730317 0 0.028649202203081182 0.0017295183798668224 0 0.028535217452663561 0.00097978676502855034 0 0.029346018142543961 0.00080164158014053117 0 0.027808943078633921 0.00113352481794398 0 0.028649202203081182 0.0017295183798668224 0 0.028535217452663561 0.00097978676502855034 0 0.028354346807084985 0.00024743179043984676 0 0.029346018142543961 0.00080164158014053117 0 0.029196741627676465 -8.8930739670267612e-05 0 0.028535217452663561 0.00097978676502855034 0 0.028354346807084985 0.00024743179043984676 0 0.029346018142543961 0.00080164158014053117 0 0.027878212621465434 0.00074128364111658964 0 0.031030822763995027 0.000894739486880933 0 0.029346018142543961 0.00080164158014053117 0 0.029196741627676465 -8.8930739670267612e-05 0 0.02977604319417216 -0.00031183870792418275 0 0.029346018142543961 0.00080164158014053117 0 0.030195622101307537 0.00048158057809220248 0 0.02977604319417216 -0.00031183870792418275 0 0.02747587929333576 0.00092113963081817739 0 0.028664593539713259 0.00073902371686738739 0 0.029346018142543961 0.00080164158014053117 0 0.030302257939257504 0.0016595385781220759 0 0.030195622101307537 0.00048158057809220248 0 0.028649202203081182 0.0017295183798668224 0 0.029346018142543961 0.00080164158014053117 0 0.030302257939257504 0.0016595385781220759 0 0.028664593539713259 0.00073902371686738739 0 0.030589570183022333 0.00044492407714377533 0 0.028939865624664309 0.00032239213037537094 0 0.027343534688773818 0.0004217008074639895 0 0.028062964634113445 0.00086219958073298407 0 0.028922497176445353 0.00057651429958509911 0 0.028939865624664309 0.00032239213037537094 0 0.028062964634113445 0.00086219958073298407 0 0.029759018347971202 0.00077968917110476162 0 0.028664593539713259 0.00073902371686738739 0 0.03075305857875835 0.0010332258695910383 0 0.029479482233229298 0.0011124304763552883 0 0.030073883356531179 0.00028065470689880991 0 0.03075305857875835 0.0010332258695910383 0 0.030808727830932369 0.00028078244633948933 0 0.030073883356531179 0.00028065470689880991 0 0.030808727830932369 0.00028078244633948933 0 0.030073883356531179 0.00028065470689880991 0 0.030672652801795097 -0.00054910014194362088 0 0.030302257939257504 0.0016595385781220759 0 0.031115760692768165 0.00055102005964410426 0 0.030195622101307537 0.00048158057809220248 0 0.031115760692768165 0.00055102005964410426 0 0.030195622101307537 0.00048158057809220248 0 0.030645216467842445 -0.00018046798259801133 0 0.030195622101307537 0.00048158057809220248 0 0.030645216467842445 -0.00018046798259801133 0 0.02977604319417216 -0.00031183870792418275 0 0.034020801267506 0.00060538113988639825 0 0.032117634100744495 0.00050440743945253264 0 0.030645216467842445 -0.00018046798259801133 0 0.031218143390972897 -0.00085716369982943158 0 0.02977604319417216 -0.00031183870792418275 0 0.035201888810405806 0.0012352271169080236 0 0.034798850918492559 0.001055288193503734 0 0.034793552800999876 0.0014194160559884543 0 0.031115760692768165 0.00055102005964410426 0 0.030645216467842445 -0.00018046798259801133 0 0.031929676565596525 -0.00057220720180203583 0 0.030645216467842445 -0.00018046798259801133 0 0.031218143390972897 -0.00085716369982943158 0 0.031929676565596525 -0.00057220720180203583 0 0.030589570183022333 0.00044492407714377533 0 0.032490583119096847 -0.00010995110030240278 0 0.034020801267506 0.00060538113988639825 0 0.032490583119096847 -0.00010995110030240278 0 0.034873664130920509 0.00058164223694610645 0 0.035031384029007177 0.00063591756142884856 0 0.035039416257176784 0.00052785088373767761 0 0.035083237198323187 0.00054673738376498728 0 0.035031384029007177 0.00063591756142884856 0 0.035039416257176784 0.00052785088373767761 0 0.035016921388018818 0.00054059218162000604 0 0.035039416257176784 0.00052785088373767761 0 0.035025053200891269 0.000517149658729681 0 0.035016921388018818 0.00054059218162000604 0 0.035025053200891269 0.000517149658729681 0 0.034999715466521066 0.00053477069575678796 0 0.034020801267506 0.00060538113988639825 0 0.035166746128876519 0.00040516537313985617 0 0.035022102652834203 0.00047728585838524617 0 0.035025053200891269 0.000517149658729681 0 0.035046135297814439 0.00048789401680224943 0 0.035022102652834203 0.00047728585838524617 0 0.035025053200891269 0.000517149658729681 0 0.034999715466521066 0.00053477069575678796 0 0.035084062400758273 0.00047196695097290843 0 0.035039416257176784 0.00052785088373767761 0 0.035046135297814439 0.00048789401680224943 0 0.035039416257176784 0.00052785088373767761 0 0.035025053200891269 0.000517149658729681 0 0.035046135297814439 0.00048789401680224943 0 0.034020801267506 0.00060538113988639825 0 0.035090222768808473 0.00091318190245275163 0 0.035016921388018818 0.00054059218162000604 0 0.034999715466521066 0.00053477069575678796 0 0.034939189923603738 0.00062807819034555736 0 0.03498232716764553 0.00050802146321809343 0 0.034999715466521066 0.00053477069575678796 0 0.034939189923603738 0.00062807819034555736 0 0.03498232716764553 0.00050802146321809343 0 0.035022102652834203 0.00047728585838524617 0 0.034999715466521066 0.00053477069575678796 0 0.034798850918492559 0.001055288193503734 0 0.034506122618480337 0.0011887914203381554 0 0.03465895231074638 0.0013062167322180069 0 0.034330187455785699 0.00068584078295014 0 0.034798850918492559 0.001055288193503734 0 0.034506122618480337 0.0011887914203381554 0 0.034238583314887487 0.00064313785184726678 0 0.035090222768808473 0.00091318190245275163 0 0.034330187455785699 0.00068584078295014 0 0.034091205436464642 0.0013727233478917271 0 0.034506122618480337 0.0011887914203381554 0 0.034091205436464642 0.0013727233478917271 0 0.034506122618480337 0.0011887914203381554 0 0.034602717078307317 0.0015256329227890237 0 0.030943613329977505 0.0010492513408773922 0 0.031030822763995027 0.000894739486880933 0 0.02767467924780696 0.00063735451081999115 0 0.027818499125061517 0.00097513989304438982 0 0.028170750622384933 0.00085398691718824651 0 0.034506122618480337 0.0011887914203381554 0 0.034602717078307317 0.0015256329227890237 0 0.03465895231074638 0.0013062167322180069 0 0.031030822763995027 0.000894739486880933 0 0.032117634100744495 0.00050440743945253264 0 0.034602717078307317 0.0015256329227890237 0 0.034793552800999876 0.0014194160559884543 0 0.03465895231074638 0.0013062167322180069 0 0.034798850918492559 0.001055288193503734 0 0.034793552800999876 0.0014194160559884543 0 0.03465895231074638 0.0013062167322180069 0 0.033406829196904006 -0.00021721259907184134 0 0.034998131250411617 -1.3059153590902529e-07 0 0.030348733499591697 -9.4448176222378826e-07 0 0.033406829196904006 -0.00021721259907184134 0 0.032692218016412998 -3.2885522294431338e-05 0 0.030348733499591697 -9.4448176222378826e-07 0 0.033406829196904006 -0.00021721259907184134 0 0.034998131250411617 -1.3059153590902529e-07 0 0.03499799942198719 -4.5871310985730662e-07 0 0.033406829196904006 -0.00021721259907184134 0 0.03499799942198719 -4.5871310985730662e-07 0 0.033927778083948319 -0.00016766665700456186 0 0.033406829196904006 -0.00021721259907184134 0 0.033927778083948319 -0.00016766665700456186 0 0.032692218016412998 -3.2885522294431338e-05 0 0.033927778083948319 -0.00016766665700456186 0 0.032692218016412998 -3.2885522294431338e-05 0 0.033703278759676325 0.00025054685692724806 0 0.033927778083948319 -0.00016766665700456186 0 0.034509141058226105 3.4174270934069622e-05 0 0.033703278759676325 0.00025054685692724806 0 0.030650856062910053 0.00036608372535383511 0 0.029924480217148847 0.00036278340868176089 0 0.026759786719928177 0.00071928763385781995 0 0.026632399548419061 0.00063987594779703382 0 0.026174824986575036 0.00047760120244066441 0 0.026759786719928177 0.00071928763385781995 0 0.026805997506370843 0.00068897881446622691 0 0.026174824986575036 0.00047760120244066441 0 0.033927778083948319 -0.00016766665700456186 0 0.034509141058226105 3.4174270934069622e-05 0 0.034600477489863508 -0.00012663468757218203 0 0.03499799942198719 -4.5871310985730662e-07 0 0.033927778083948319 -0.00016766665700456186 0 0.034600477489863508 -0.00012663468757218203 0 0.03499799942198719 -4.5871310985730662e-07 0 0.034999673505545489 -1.4756019854743219e-07 0 0.034600477489863508 -0.00012663468757218203 0 0.034999673505545489 -1.4756019854743219e-07 0 0.034600477489863508 -0.00012663468757218203 0 0.034880160739716115 -6.6042254636275812e-05 0 0.034509141058226105 3.4174270934069622e-05 0 0.034600477489863508 -0.00012663468757218203 0 0.034880160739716115 -6.6042254636275812e-05 0 0.034999673505545489 -1.4756019854743219e-07 0 0.03499984262217009 2.1660329368495168e-08 0 0.034880160739716115 -6.6042254636275812e-05 0 0.031110186455746702 -0.0022123047457012482 0 0.030924162853044831 -0.00063580406528534561 0 0.028815495521476643 -0.00061171343882139779 0 0.03495123158121434 -1.7270637713663497e-08 0 0.03499984262217009 2.1660329368495168e-08 0 0.034880160739716115 -6.6042254636275812e-05 0 0.032981331370220114 -0.00068848025503874066 0 0.031851047165607313 -0.00039483449718369894 0 0.030924162853044831 -0.00063580406528534561 0 0.028815495521476643 -0.00061171343882139779 0 0.029748026739431232 0.00045415371808798556 0 0.028815495521476643 -0.00061171343882139779 0 0.029748026739431232 0.00045415371808798556 0 0.027958454434214932 0.00085579949396965475 0 0.027958454434214932 0.00085579949396965475 0 0.027393471517455099 0.00097260390165111591 0 0.028713567422584432 0.0012375714532320942 0 0.030757100953409628 0.0010585825399221298 0 0.029748026739431232 0.00045415371808798556 0 0.029876971495788367 0.0021281494479677629 0 0.028333524538332936 0.0010097486328561026 0 0.029151073523150172 0.00088618774813315458 0 0.029748026739431232 0.00045415371808798556 0 0.027958454434214932 0.00085579949396965475 0 0.029876971495788367 0.0021281494479677629 0 0.030650856062910053 0.00036608372535383511 0 0.031851047165607313 -0.00039483449718369894 0 0.026805997506370843 0.00068897881446622691 0 0.028815495521476643 -0.00061171343882139779 0 0.027958454434214932 0.00085579949396965475 0 0.026805997506370843 0.00068897881446622691 0 0.027958454434214932 0.00085579949396965475 0 0.027393471517455099 0.00097260390165111591 0 0.026759786719928177 0.00071928763385781995 0 0.027393471517455099 0.00097260390165111591 0 0.026969899967555833 0.00071950828097454018 0 0.026759786719928177 0.00071928763385781995 0 0.026805997506370843 0.00068897881446622691 0 0.027393471517455099 0.00097260390165111591 0 0.026759786719928177 0.00071928763385781995 0 0.026969899967555833 0.00071950828097454018 0 0.026632399548419061 0.00063987594779703382 0 0.026969899967555833 0.00071950828097454018 0 0.026863202171634442 0.00065042515681439745 0 0.026778526268842869 0.00062128048499639145 0 0.027393471517455099 0.00097260390165111591 0 0.026969899967555833 0.00071950828097454018 0 0.026863202171634442 0.00065042515681439745 0 0.027034775153749302 0.00097103637356793135 0 0.029151073523150172 0.00088618774813315458 0 0.027393471517455099 0.00097260390165111591 0 0.026863202171634442 0.00065042515681439745 0 0.02678033297038078 0.00079381026576546003 0 0.026808973347830362 0.00061909864117963196 0 0.026863202171634442 0.00065042515681439745 0 0.026789738321010691 0.00061495880752937863 0 0.026808973347830362 0.00061909864117963196 0 0.026863202171634442 0.00065042515681439745 0 0.02678033297038078 0.00079381026576546003 0 0.026719558214730949 0.00063011296182894803 0 0.026789738321010691 0.00061495880752937863 0 0.026778526268842869 0.00062128048499639145 0 0.026719558214730949 0.00063011296182894803 0 0.026778526268842869 0.00062128048499639145 0 0.026568336366333947 0.00063059917352526081 0 0.026811241204683742 0.00062325420357446182 0 0.026719558214730949 0.00063011296182894803 0 0.026789738321010691 0.00061495880752937863 0 0.026808973347830362 0.00061909864117963196 0 0.026811241204683742 0.00062325420357446182 0 0.026789738321010691 0.00061495880752937863 0 0.026863202171634442 0.00065042515681439745 0 0.026789738321010691 0.00061495880752937863 0 0.026778526268842869 0.00062128048499639145 0 0.026969899967555833 0.00071950828097454018 0 0.026778526268842869 0.00062128048499639145 0 0.026632399548419061 0.00063987594779703382 0 0.026632399548419061 0.00063987594779703382 0 0.026568336366333947 0.00063059917352526081 0 0.026311676284141158 0.00060046213231047015 0 0.026778526268842869 0.00062128048499639145 0 0.026632399548419061 0.00063987594779703382 0 0.026568336366333947 0.00063059917352526081 0 0.026568336366333947 0.00063059917352526081 0 0.026307857696477623 0.0007030706608123485 0 0.026311676284141158 0.00060046213231047015 0 0.026568336366333947 0.00063059917352526081 0 0.026307857696477623 0.0007030706608123485 0 0.026626194949491151 0.00070712335674120476 0 0.026719558214730949 0.00063011296182894803 0 0.026568336366333947 0.00063059917352526081 0 0.026626194949491151 0.00070712335674120476 0 0.026807181394371948 0.00073319680364428109 0 0.026719558214730949 0.00063011296182894803 0 0.026626194949491151 0.00070712335674120476 0 0.026807181394371948 0.00073319680364428109 0 0.026626194949491151 0.00070712335674120476 0 0.02669907637942669 0.00080902805048119046 0 0.02669907637942669 0.00080902805048119046 0 0.026527959769079672 0.00084003603433065481 0 0.026693305757897766 0.00093869494909478628 0 0.026626194949491151 0.00070712335674120476 0 0.02669907637942669 0.00080902805048119046 0 0.026527959769079672 0.00084003603433065481 0 0.026527959769079672 0.00084003603433065481 0 0.026693305757897766 0.00093869494909478628 0 0.026535050154804115 0.001019851697224944 0 0.026527959769079672 0.00084003603433065481 0 0.026535050154804115 0.001019851697224944 0 0.026267412567925245 0.00092527490497539347 0 0.026731861820315554 0.0010526220284200313 0 0.026693305757897766 0.00093869494909478628 0 0.026535050154804115 0.001019851697224944 0 0.026731861820315554 0.0010526220284200313 0 0.026535050154804115 0.001019851697224944 0 0.026571816654715939 0.0012854641540126447 0 0.026535050154804115 0.001019851697224944 0 0.026571816654715939 0.0012854641540126447 0 0.02618878964079329 0.0011799078182956255 0 0.02618878964079329 0.0011799078182956255 0 0.026267412567925245 0.00092527490497539347 0 0.02563895104447592 0.00078209939281569823 0 0.026535050154804115 0.001019851697224944 0 0.02618878964079329 0.0011799078182956255 0 0.026267412567925245 0.00092527490497539347 0 0.026307857696477623 0.0007030706608123485 0 0.026267412567925245 0.00092527490497539347 0 0.02563895104447592 0.00078209939281569823 0 0.026307857696477623 0.0007030706608123485 0 0.026626194949491151 0.00070712335674120476 0 0.026527959769079672 0.00084003603433065481 0 0.026307857696477623 0.0007030706608123485 0 0.026527959769079672 0.00084003603433065481 0 0.026267412567925245 0.00092527490497539347 0 0.026307857696477623 0.0007030706608123485 0 0.02563895104447592 0.00078209939281569823 0 0.025778805033517593 0.00059200193792309519 0 0.02563895104447592 0.00078209939281569823 0 0.025185638975302526 0.00060504653106747269 0 0.024960261450452648 0.00051776261711230728 0 0.02618878964079329 0.0011799078182956255 0 0.02563895104447592 0.00078209939281569823 0 0.025850296938052797 0.001513903037387636 0 0.025783423681783959 0.00065811348681312182 0 0.024633379714743095 0.0012681812024448909 0 0.025185638975302526 0.00060504653106747269 0 0.025221282121739564 0.00057880220574086868 0 0.025019823396002571 0.00052257269051895724 0 0.02563895104447592 0.00078209939281569823 0 0.025185638975302526 0.00060504653106747269 0 0.025221282121739564 0.00057880220574086868 0 0.02563895104447592 0.00078209939281569823 0 0.025778805033517593 0.00059200193792309519 0 0.025221282121739564 0.00057880220574086868 0 0.025778805033517593 0.00059200193792309519 0 0.025436637909519246 0.00044148589722158634 0 0.025221282121739564 0.00057880220574086868 0 0.025778805033517593 0.00059200193792309519 0 0.026174824986575036 0.00047760120244066441 0 0.025436637909519246 0.00044148589722158634 0 0.026307857696477623 0.0007030706608123485 0 0.025778805033517593 0.00059200193792309519 0 0.026311676284141158 0.00060046213231047015 0 0.025778805033517593 0.00059200193792309519 0 0.026311676284141158 0.00060046213231047015 0 0.026174824986575036 0.00047760120244066441 0 0.026632399548419061 0.00063987594779703382 0 0.026311676284141158 0.00060046213231047015 0 0.026174824986575036 0.00047760120244066441 0 0.029924480217148847 0.00036278340868176089 0 0.028879010149558484 0.00046669309556967572 0 0.030348733499591697 -9.4448176222378826e-07 0 0.024602790690189311 3.4245263062703275e-06 0 0.027595702765702217 0.00036544531906554053 0 0.032692218016412998 -3.2885522294431338e-05 0 0.033703278759676325 0.00025054685692724806 0 0.032305228423899386 0.00055982815868966509 0 0.032692218016412998 -3.2885522294431338e-05 0 0.032305228423899386 0.00055982815868966509 0 0.030821026310725495 0.00022910238670480822 0 0.032305228423899386 0.00055982815868966509 0 0.030255351522695834 0.00062340211586456025 0 0.030821026310725495 0.00022910238670480822 0 0.025436637909519246 0.00044148589722158634 0 0.025221282121739564 0.00057880220574086868 0 0.02488963690450896 0.00040692865561185439 0 0.025221282121739564 0.00057880220574086868 0 0.024802314426792399 0.00042587528006275341 0 0.025019823396002571 0.00052257269051895724 0 0.025221282121739564 0.00057880220574086868 0 0.02488963690450896 0.00040692865561185439 0 0.024802314426792399 0.00042587528006275341 0 0.02488963690450896 0.00040692865561185439 0 0.024479045247072558 0.0003347175834325114 0 0.024802314426792399 0.00042587528006275341 0 0.028879010149558484 0.00046669309556967572 0 0.027594286605425455 0.00045685129469831407 0 0.030255351522695834 0.00062340211586456025 0 0.030821026310725495 0.00022910238670480822 0 0.027595702765702217 0.00036544531906554053 0 0.027594286605425455 0.00045685129469831407 0 0.026119211236547334 0.00025437083648250839 0 0.032692218016412998 -3.2885522294431338e-05 0 0.030348733499591697 -9.4448176222378826e-07 0 0.030821026310725495 0.00022910238670480822 0 0.030348733499591697 -9.4448176222378826e-07 0 0.030821026310725495 0.00022910238670480822 0 0.027595702765702217 0.00036544531906554053 0 0.022898577644957896 4.5747575657665593e-05 0 0.022838318597920338 1.1892128104635061e-07 0 0.021703362849296706 0.00012466344106410707 0 0.022898577644957896 4.5747575657665593e-05 0 0.02324143098812536 0.00037170440367717729 0 0.021703362849296706 0.00012466344106410707 0 0.022898577644957896 4.5747575657665593e-05 0 0.023694334305705288 0.00011498077400523363 0 0.02367700820107134 -5.2928242985074043e-05 0 0.022898577644957896 4.5747575657665593e-05 0 0.022838318597920338 1.1892128104635061e-07 0 0.02367700820107134 -5.2928242985074043e-05 0 0.022898577644957896 4.5747575657665593e-05 0 0.02324143098812536 0.00037170440367717729 0 0.023694334305705288 0.00011498077400523363 0 0.02324143098812536 0.00037170440367717729 0 0.023694334305705288 0.00011498077400523363 0 0.024006151979121988 0.00053985512834860876 0 0.023694334305705288 0.00011498077400523363 0 0.02367700820107134 -5.2928242985074043e-05 0 0.024093255662332752 5.1785267308751475e-05 0 0.023694334305705288 0.00011498077400523363 0 0.024093255662332752 5.1785267308751475e-05 0 0.024300008654666874 0.00024183555657694738 0 0.02367700820107134 -5.2928242985074043e-05 0 0.024595268137777487 -5.3403794687520424e-08 0 0.024093255662332752 5.1785267308751475e-05 0 0.022838318597920338 1.1892128104635061e-07 0 0.02367700820107134 -5.2928242985074043e-05 0 0.024595268137777487 -5.3403794687520424e-08 0 0.024595268137777487 -5.3403794687520424e-08 0 0.024479045247072558 0.0003347175834325114 0 0.024093255662332752 5.1785267308751475e-05 0 0.024598638284637757 -6.8343098401406614e-08 0 0.026119211236547334 0.00025437083648250839 0 0.024479045247072558 0.0003347175834325114 0 0.024093255662332752 5.1785267308751475e-05 0 0.024514687582799257 0.00024587895463108354 0 0.024093255662332752 5.1785267308751475e-05 0 0.024514687582799257 0.00024587895463108354 0 0.024493662385787457 0.00024538709924937311 0 0.024479045247072558 0.0003347175834325114 0 0.024514687582799257 0.00024587895463108354 0 0.024802314426792399 0.00042587528006275341 0 0.024802314426792399 0.00042587528006275341 0 0.025019823396002571 0.00052257269051895724 0 0.024821231061455992 0.00039740437828804793 0 0.024514687582799257 0.00024587895463108354 0 0.024802314426792399 0.00042587528006275341 0 0.024821231061455992 0.00039740437828804793 0 0.024514687582799257 0.00024587895463108354 0 0.024685913064806358 0.00031600202307283462 0 0.024493662385787457 0.00024538709924937311 0 0.024821231061455992 0.00039740437828804793 0 0.024685913064806358 0.00031600202307283462 0 0.024800681493472861 0.00037448320818513352 0 0.024514687582799257 0.00024587895463108354 0 0.024821231061455992 0.00039740437828804793 0 0.024685913064806358 0.00031600202307283462 0 0.024685913064806358 0.00031600202307283462 0 0.024567726038850997 0.00030981193274421461 0 0.024699268528086144 0.00033890787391479182 0 0.024567726038850997 0.00030981193274421461 0 0.024665551583767445 0.00042314402297482433 0 0.024699268528086144 0.00033890787391479182 0 0.024685913064806358 0.00031600202307283462 0 0.024567726038850997 0.00030981193274421461 0 0.024493662385787457 0.00024538709924937311 0 0.024093255662332752 5.1785267308751475e-05 0 0.024493662385787457 0.00024538709924937311 0 0.024300008654666874 0.00024183555657694738 0 0.024567726038850997 0.00030981193274421461 0 0.024493662385787457 0.00024538709924937311 0 0.024300008654666874 0.00024183555657694738 0 0.023694334305705288 0.00011498077400523363 0 0.024300008654666874 0.00024183555657694738 0 0.024006151979121988 0.00053985512834860876 0 0.024300008654666874 0.00024183555657694738 0 0.024006151979121988 0.00053985512834860876 0 0.024695053750398013 0.00064586992199026721 0 0.024793744175803843 0.00062220434484419195 0 0.021098880007196671 0.00098583611328056757 0 0.024567726038850997 0.00030981193274421461 0 0.024665551583767445 0.00042314402297482433 0 0.024463764640500336 0.00056379049586252313 0 0.024567726038850997 0.00030981193274421461 0 0.024300008654666874 0.00024183555657694738 0 0.024463764640500336 0.00056379049586252313 0 0.015419160455015938 0.0014833563318418666 0 0.015415478111038409 0.0011119068112680935 0 0.015860225318937493 0.0011939576079300798 0 0.020098120403084965 0.00091289015441154472 0 0.021098880007196671 0.00098583611328056757 0 0.015419160455015938 0.0014833563318418666 0 0.015000589968415084 0.0012789939364548592 0 0.01502684629694373 0.0017588342092591839 0 0.020098120403084965 0.00091289015441154472 0 0.018578827279842173 0.0011623301202566263 0 0.015419160455015938 0.0014833563318418666 0 0.015000589968415084 0.0012789939364548592 0 0.015415478111038409 0.0011119068112680935 0 0.014920775872031444 0.001576061711608565 0 0.018578827279842173 0.0011623301202566263 0 0.014622453450628221 0.0013625212168370115 0 0.01500648090240418 0.0017503321528427338 0 0.014501187552592103 0.0017006817186925366 0 0.015000589968415084 0.0012789939364548592 0 0.014622453450628221 0.0013625212168370115 0 0.01500648090240418 0.0017503321528427338 0 0.01500648090240418 0.0017503321528427338 0 0.014402950296661355 0.0021987076570593352 0 0.014501187552592103 0.0017006817186925366 0 0.018578827279842173 0.0011623301202566263 0 0.019910063248260827 0.0021001770257610183 0 0.024715193676052148 0.00035011044316626551 0 0.024699268528086144 0.00033890787391479182 0 0.024800681493472861 0.00037448320818513352 0 0.024665551583767445 0.00042314402297482433 0 0.024715193676052148 0.00035011044316626551 0 0.024699268528086144 0.00033890787391479182 0 0.024685913064806358 0.00031600202307283462 0 0.024699268528086144 0.00033890787391479182 0 0.024800681493472861 0.00037448320818513352 0 0.024715193676052148 0.00035011044316626551 0 0.024800681493472861 0.00037448320818513352 0 0.024811984172706608 0.00044201500773072755 0 0.024800681493472861 0.00037448320818513352 0 0.024995325783404281 0.00052103379247227417 0 0.024811984172706608 0.00044201500773072755 0 0.024821231061455992 0.00039740437828804793 0 0.024800681493472861 0.00037448320818513352 0 0.024995325783404281 0.00052103379247227417 0 0.025019823396002571 0.00052257269051895724 0 0.024821231061455992 0.00039740437828804793 0 0.024995325783404281 0.00052103379247227417 0 0.024799109663165408 0.00079897206028244994 0 0.024633379714743095 0.0012681812024448909 0 0.025185638975302526 0.00060504653106747269 0 0.024995325783404281 0.00052103379247227417 0 0.024960261450452648 0.00051776261711230728 0 0.025185638975302526 0.00060504653106747269 0 0.025019823396002571 0.00052257269051895724 0 0.024995325783404281 0.00052103379247227417 0 0.025642598592510942 0.0016253092844913297 0 0.025850296938052797 0.001513903037387636 0 0.025854754333111272 0.0015584547786115764 0 0.02563895104447592 0.00078209939281569823 0 0.025642598592510942 0.0016253092844913297 0 0.025850296938052797 0.001513903037387636 0 0.021150662219317787 0.0012824894571137728 0 0.021156525307354391 0.0018921182323645672 0 0.020655830385626277 0.0016430288148217643 0 0.018578827279842173 0.0011623301202566263 0 0.024633379714743095 0.0012681812024448909 0 0.024633379714743095 0.0012681812024448909 0 0.019910063248260827 0.0021001770257610183 0 0.025642598592510942 0.0016253092844913297 0 0.025867578581562897 0.0016313086463329185 0 0.025854754333111272 0.0015584547786115764 0 0.019910063248260827 0.0021001770257610183 0 0.023594785538766296 0.0013742822419959854 0 0.025867578581562897 0.0016313086463329185 0 0.025854754333111272 0.0015584547786115764 0 0.025893606512948864 0.0015849503549808541 0 0.025854263809063457 0.0014914541593228296 0 0.025850296938052797 0.001513903037387636 0 0.025855941704241988 0.0015170877907236193 0 0.026571816654715939 0.0012854641540126447 0 0.02618878964079329 0.0011799078182956255 0 0.025850296938052797 0.001513903037387636 0 0.025850296938052797 0.001513903037387636 0 0.025854754333111272 0.0015584547786115764 0 0.025855941704241988 0.0015170877907236193 0 0.026211036278418542 0.0013798700407457261 0 0.025874466754783935 0.0015091557520502499 0 0.025726390534453889 0.0019069245803468599 0 0.023594785538766296 0.0013742822419959854 0 0.025854754333111272 0.0015584547786115764 0 0.025855941704241988 0.0015170877907236193 0 0.025893606512948864 0.0015849503549808541 0 0.025854263809063457 0.0014914541593228296 0 0.025949439510746741 0.0015025022447939652 0 0.025871274094484469 0.0015503071153954177 0 0.025854263809063457 0.0014914541593228296 0 0.025855941704241988 0.0015170877907236193 0 0.025871274094484469 0.0015503071153954177 0 0.025871274094484469 0.0015503071153954177 0 0.025944406099456006 0.0015655178843580005 0 0.02584344477606032 0.0015995412365893333 0 0.025855941704241988 0.0015170877907236193 0 0.025871274094484469 0.0015503071153954177 0 0.02584344477606032 0.0015995412365893333 0 0.024283049507868925 0.0011524792572149573 0 0.023594785538766296 0.0013742822419959854 0 0.025949439510746741 0.0015025022447939652 0 0.025871274094484469 0.0015503071153954177 0 0.025944406099456006 0.0015655178843580005 0 0.022565400572942346 0.00074458333675444523 0 0.022440353815046356 0.0011844379249171359 0 0.02207628035126508 0.0010953283723283825 0 0.022440353815046356 0.0011844379249171359 0 0.02207628035126508 0.0010953283723283825 0 0.022290444643523821 0.0016298026982108488 0 0.021167566513348432 0.0017305632125177526 0 0.020671402984618455 0.0020842570341094002 0 0.020324195478404923 0.0012877930234170404 0 0.023594785538766296 0.0013742822419959854 0 0.01870112950988467 0.00139319381904193 0 0.019910063248260827 0.0021001770257610183 0 0.01870112950988467 0.00139319381904193 0 0.022440353815046356 0.0011844379249171359 0 0.022290444643523821 0.0016298026982108488 0 0.022832700099958705 0.0012676561241067928 0 0.013994189249889866 0.0019994490754096771 0 0.014195623892090843 0.001742137211739546 0 0.01365128281911843 0.0013167312929573678 0 0.01870112950988467 0.00139319381904193 0 0.015520714545658567 0.0012131750972496449 0 0.014402950296661355 0.0021987076570593352 0 0.013994189249889866 0.0019994490754096771 0 0.014195623892090843 0.001742137211739546 0 0.014402950296661355 0.0021987076570593352 0 0.014195623892090843 0.001742137211739546 0 0.014501187552592103 0.0017006817186925366 0 0.014622453450628221 0.0013625212168370115 0 0.014276623462818159 0.0014491113693719734 0 0.014148229999536636 0.0010400056135178965 0 0.014195623892090843 0.001742137211739546 0 0.014501187552592103 0.0017006817186925366 0 0.014276623462818159 0.0014491113693719734 0 0.014622453450628221 0.0013625212168370115 0 0.014501187552592103 0.0017006817186925366 0 0.014276623462818159 0.0014491113693719734 0 0.014195623892090843 0.001742137211739546 0 0.014276623462818159 0.0014491113693719734 0 0.01365128281911843 0.0013167312929573678 0 0.014276623462818159 0.0014491113693719734 0 0.014148229999536636 0.0010400056135178965 0 0.01365128281911843 0.0013167312929573678 0 0.014148229999536636 0.0010400056135178965 0 0.013787351395598918 0.00075254599406022766 0 0.01365128281911843 0.0013167312929573678 0 0.014148229999536636 0.0010400056135178965 0 0.014087429760436997 0.00073176415768358004 0 0.013787351395598918 0.00075254599406022766 0 0.014148229999536636 0.0010400056135178965 0 0.014308888897775205 0.00080850500761342806 0 0.014570096217755452 0.001002972062011906 0 0.014622453450628221 0.0013625212168370115 0 0.014148229999536636 0.0010400056135178965 0 0.014570096217755452 0.001002972062011906 0 0.014308888897775205 0.00080850500761342806 0 0.014541098633997496 0.00071180486203491374 0 0.014570096217755452 0.001002972062011906 0 0.014148229999536636 0.0010400056135178965 0 0.014308888897775205 0.00080850500761342806 0 0.014087429760436997 0.00073176415768358004 0 0.014308888897775205 0.00080850500761342806 0 0.014251340400308036 0.0005843637119766576 0 0.014087429760436997 0.00073176415768358004 0 0.014308888897775205 0.00080850500761342806 0 0.014251340400308036 0.0005843637119766576 0 0.014541098633997496 0.00071180486203491374 0 0.014251340400308036 0.0005843637119766576 0 0.014512880088754442 0.00038893338331616852 0 0.014541098633997496 0.00071180486203491374 0 0.014251340400308036 0.0005843637119766576 0 0.014150935508729822 0.00024650168113278656 0 0.014512880088754442 0.00038893338331616852 0 0.014251340400308036 0.0005843637119766576 0 0.013942929738779529 0.00047527832447722226 0 0.014150935508729822 0.00024650168113278656 0 0.014251340400308036 0.0005843637119766576 0 0.013942929738779529 0.00047527832447722226 0 0.014087429760436997 0.00073176415768358004 0 0.013942929738779529 0.00047527832447722226 0 0.014087429760436997 0.00073176415768358004 0 0.013787351395598918 0.00075254599406022766 0 0.013942929738779529 0.00047527832447722226 0 0.013787351395598918 0.00075254599406022766 0 0.013637620746407604 0.00038963516574641208 0 0.013942929738779529 0.00047527832447722226 0 0.013831591639877912 0.00019027232699004611 0 0.013637620746407604 0.00038963516574641208 0 0.013831591639877912 0.00019027232699004611 0 0.013637620746407604 0.00038963516574641208 0 0.013571967649900601 7.4230142599238758e-05 0 0.013942929738779529 0.00047527832447722226 0 0.013831591639877912 0.00019027232699004611 0 0.014150935508729822 0.00024650168113278656 0 0.013831591639877912 0.00019027232699004611 0 0.013912905208336329 -4.5212522061810062e-05 0 0.014150935508729822 0.00024650168113278656 0 0.013831591639877912 0.00019027232699004611 0 0.013705218520554232 -0.00019134307762170262 0 0.013912905208336329 -4.5212522061810062e-05 0 0.013831591639877912 0.00019027232699004611 0 0.013705218520554232 -0.00019134307762170262 0 0.013571967649900601 7.4230142599238758e-05 0 0.013705218520554232 -0.00019134307762170262 0 0.013912905208336329 -4.5212522061810062e-05 0 0.013975818676853595 -0.00026799800440593658 0 0.013705218520554232 -0.00019134307762170262 0 0.013975818676853595 -0.00026799800440593658 0 0.013805470747746459 -0.00047712917796598393 0 0.013975818676853595 -0.00026799800440593658 0 0.014320457840485223 -0.00015897372501202161 0 0.01415146238926413 -0.00043927188352834573 0 0.013975818676853595 -0.00026799800440593658 0 0.014320457840485223 -0.00015897372501202161 0 0.014154286363319071 -2.1641672773312099e-05 0 0.013912905208336329 -4.5212522061810062e-05 0 0.013975818676853595 -0.00026799800440593658 0 0.014154286363319071 -2.1641672773312099e-05 0 0.014435410728295395 0.0001315277761209671 0 0.014154286363319071 -2.1641672773312099e-05 0 0.014150935508729822 0.00024650168113278656 0 0.014320457840485223 -0.00015897372501202161 0 0.014435410728295395 0.0001315277761209671 0 0.014154286363319071 -2.1641672773312099e-05 0 0.013912905208336329 -4.5212522061810062e-05 0 0.014154286363319071 -2.1641672773312099e-05 0 0.014150935508729822 0.00024650168113278656 0 0.014435410728295395 0.0001315277761209671 0 0.014150935508729822 0.00024650168113278656 0 0.014512880088754442 0.00038893338331616852 0 0.014647113204602833 0.00020317595393851769 0 0.014793846283146918 0.00033521058175717191 0 0.014512880088754442 0.00038893338331616852 0 0.014435410728295395 0.0001315277761209671 0 0.014647113204602833 0.00020317595393851769 0 0.014512880088754442 0.00038893338331616852 0 0.014793846283146918 0.00033521058175717191 0 0.014936192117875825 0.00028130248962028836 0 0.014929511181963274 0.00044107520968852379 0 0.014647113204602833 0.00020317595393851769 0 0.014793846283146918 0.00033521058175717191 0 0.014828476571072564 0.00016357264337661876 0 0.014793846283146918 0.00033521058175717191 0 0.014828476571072564 0.00016357264337661876 0 0.014936192117875825 0.00028130248962028836 0 0.014665964747698016 7.1328959733935176e-08 0 0.014828476571072564 0.00016357264337661876 0 0.015034102353466755 9.9372819080095317e-05 0 0.014647113204602833 0.00020317595393851769 0 0.014665964747698016 7.1328959733935176e-08 0 0.014828476571072564 0.00016357264337661876 0 0.014320457840485223 -0.00015897372501202161 0 0.014435410728295395 0.0001315277761209671 0 0.014665964747698016 7.1328959733935176e-08 0 0.014435410728295395 0.0001315277761209671 0 0.014647113204602833 0.00020317595393851769 0 0.014665964747698016 7.1328959733935176e-08 0 0.014665964747698016 7.1328959733935176e-08 0 0.015034102353466755 9.9372819080095317e-05 0 0.014582316680316383 -0.00039535668979045449 0 0.014320457840485223 -0.00015897372501202161 0 0.014665964747698016 7.1328959733935176e-08 0 0.014582316680316383 -0.00039535668979045449 0 0.015826687779257803 -0.00027292457902932418 0 0.014498361055549632 -0.0002309055892824444 0 0.014320457840485223 -0.00015897372501202161 0 0.014582316680316383 -0.00039535668979045449 0 0.01415146238926413 -0.00043927188352834573 0 0.015171319268074877 3.1974788667502415e-05 0 0.01522281824646435 0.00045591745545818605 0 0.014582316680316383 -0.00039535668979045449 0 0.015263711063082695 -0.00037630353490835283 0 0.015496980133502179 0.0001533382840415589 0 0.01579885657398564 -0.00011565481914873725 0 0.015263711063082695 -0.00037630353490835283 0 0.01579885657398564 -0.00011565481914873725 0 0.015818743179950988 -0.00067108471820991695 0 0.015263711063082695 -0.00037630353490835283 0 0.015171319268074877 3.1974788667502415e-05 0 0.014582316680316383 -0.00039535668979045449 0 0.015263711063082695 -0.00037630353490835283 0 0.015171319268074877 3.1974788667502415e-05 0 0.015496980133502179 0.0001533382840415589 0 0.015171319268074877 3.1974788667502415e-05 0 0.015496980133502179 0.0001533382840415589 0 0.015335740451331462 0.00031273054136436447 0 0.015496980133502179 0.0001533382840415589 0 0.015714311987180027 0.00026956113032083488 0 0.01579885657398564 -0.00011565481914873725 0 0.015826687779257803 -0.00027292457902932418 0 0.016013295159968001 0.00026955542059664236 0 0.015496980133502179 0.0001533382840415589 0 0.015714311987180027 0.00026956113032083488 0 0.015498905720560533 0.00037173005429407647 0 0.015386220269832019 0.00043525719620883215 0 0.01522281824646435 0.00045591745545818605 0 0.015635355185186772 0.00054459508100013502 0 0.01522281824646435 0.00045591745545818605 0 0.015635355185186772 0.00054459508100013502 0 0.016319968807348217 0.00093484634600949539 0 0.015496980133502179 0.0001533382840415589 0 0.015498905720560533 0.00037173005429407647 0 0.015335740451331462 0.00031273054136436447 0 0.015498905720560533 0.00037173005429407647 0 0.015386220269832019 0.00043525719620883215 0 0.015335740451331462 0.00031273054136436447 0 0.015498905720560533 0.00037173005429407647 0 0.015386220269832019 0.00043525719620883215 0 0.015635355185186772 0.00054459508100013502 0 0.015714311987180027 0.00026956113032083488 0 0.015635355185186772 0.00054459508100013502 0 0.015838666310956206 0.00039478849672756888 0 0.015714311987180027 0.00026956113032083488 0 0.015498905720560533 0.00037173005429407647 0 0.015635355185186772 0.00054459508100013502 0 0.015171319268074877 3.1974788667502415e-05 0 0.015335740451331462 0.00031273054136436447 0 0.01522281824646435 0.00045591745545818605 0 0.015386220269832019 0.00043525719620883215 0 0.015335740451331462 0.00031273054136436447 0 0.015287596819075943 0.0004125193766848602 0 0.015386220269832019 0.00043525719620883215 0 0.015287596819075943 0.0004125193766848602 0 0.01522281824646435 0.00045591745545818605 0 0.015335740451331462 0.00031273054136436447 0 0.015287596819075943 0.0004125193766848602 0 0.01522281824646435 0.00045591745545818605 0 0.015034102353466755 9.9372819080095317e-05 0 0.014936192117875825 0.00028130248962028836 0 0.015103966182236713 0.00040718256397470127 0 0.014828476571072564 0.00016357264337661876 0 0.015034102353466755 9.9372819080095317e-05 0 0.014936192117875825 0.00028130248962028836 0 0.014936192117875825 0.00028130248962028836 0 0.015103966182236713 0.00040718256397470127 0 0.014929511181963274 0.00044107520968852379 0 0.015084478135530056 0.00063804386313154804 0 0.015103966182236713 0.00040718256397470127 0 0.015448314674625417 0.00062114785774354422 0 0.015034102353466755 9.9372819080095317e-05 0 0.015103966182236713 0.00040718256397470127 0 0.015448314674625417 0.00062114785774354422 0 0.015084478135530056 0.00063804386313154804 0 0.015161801836880201 0.00090923650215089422 0 0.015448314674625417 0.00062114785774354422 0 0.015084478135530056 0.00063804386313154804 0 0.015103966182236713 0.00040718256397470127 0 0.014929511181963274 0.00044107520968852379 0 0.014793846283146918 0.00033521058175717191 0 0.014929511181963274 0.00044107520968852379 0 0.014778572931397631 0.00056408390712172252 0 0.015084478135530056 0.00063804386313154804 0 0.014929511181963274 0.00044107520968852379 0 0.014778572931397631 0.00056408390712172252 0 0.014778572931397631 0.00056408390712172252 0 0.014512880088754442 0.00038893338331616852 0 0.014541098633997496 0.00071180486203491374 0 0.014793846283146918 0.00033521058175717191 0 0.014778572931397631 0.00056408390712172252 0 0.014512880088754442 0.00038893338331616852 0 0.014778572931397631 0.00056408390712172252 0 0.014541098633997496 0.00071180486203491374 0 0.014848275841166207 0.00085753076442645596 0 0.015084478135530056 0.00063804386313154804 0 0.014778572931397631 0.00056408390712172252 0 0.014848275841166207 0.00085753076442645596 0 0.014541098633997496 0.00071180486203491374 0 0.014848275841166207 0.00085753076442645596 0 0.014570096217755452 0.001002972062011906 0 0.015000589968415084 0.0012789939364548592 0 0.014622453450628221 0.0013625212168370115 0 0.014570096217755452 0.001002972062011906 0 0.015000589968415084 0.0012789939364548592 0 0.014848275841166207 0.00085753076442645596 0 0.014570096217755452 0.001002972062011906 0 0.015000589968415084 0.0012789939364548592 0 0.014848275841166207 0.00085753076442645596 0 0.015161801836880201 0.00090923650215089422 0 0.015415478111038409 0.0011119068112680935 0 0.015161801836880201 0.00090923650215089422 0 0.015448314674625417 0.00062114785774354422 0 0.015000589968415084 0.0012789939364548592 0 0.015415478111038409 0.0011119068112680935 0 0.015161801836880201 0.00090923650215089422 0 0.015084478135530056 0.00063804386313154804 0 0.014848275841166207 0.00085753076442645596 0 0.015161801836880201 0.00090923650215089422 0 0.015415478111038409 0.0011119068112680935 0 0.015860225318937493 0.0011939576079300798 0 0.015448314674625417 0.00062114785774354422 0 0.021098880007196671 0.00098583611328056757 0 0.016013295159968001 0.00026955542059664236 0 0.018550445748988533 0.0018931164274009263 0 0.018392242966362105 0.00061942161716055019 0 0.017530025127185152 0.00022105551009939575 0 0.018550445748988533 0.0018931164274009263 0 0.019047321398778884 0.00073830982142095289 0 0.018392242966362105 0.00061942161716055019 0 0.018550445748988533 0.0018931164274009263 0 0.019047321398778884 0.00073830982142095289 0 0.020312781851914478 0.00064561658233917201 0 0.024006151979121988 0.00053985512834860876 0 0.024695053750398013 0.00064586992199026721 0 0.023872233738112768 0.0015626409319256713 0 0.021098880007196671 0.00098583611328056757 0 0.020659483365089222 0.00071988677297883598 0 0.016319968807348217 0.00093484634600949539 0 0.016830769760761439 0.00073671399056765628 0 0.017405714545307843 0.0015328542089341334 0 0.017058626958691047 0.0002348552611295424 0 0.020659483365089222 0.00071988677297883598 0 0.016830769760761439 0.00073671399056765628 0 0.017222229122550361 0.00071320757649571671 0 0.017405714545307843 0.0015328542089341334 0 0.019047321398778884 0.00073830982142095289 0 0.018441939510520162 -0.00037738448667955037 0 0.020312781851914478 0.00064561658233917201 0 0.016562291823829085 -0.0013887786863782991 0 0.018441939510520162 -0.00037738448667955037 0 0.017530025127185152 0.00022105551009939575 0 0.019047321398778884 0.00073830982142095289 0 0.018441939510520162 -0.00037738448667955037 0 0.018392242966362105 0.00061942161716055019 0 0.018441939510520162 -0.00037738448667955037 0 0.018392242966362105 0.00061942161716055019 0 0.017530025127185152 0.00022105551009939575 0 0.015635355185186772 0.00054459508100013502 0 0.016319968807348217 0.00093484634600949539 0 0.01605939244797128 0.0006547420221059458 0 0.015826687779257803 -0.00027292457902932418 0 0.017058626958691047 0.0002348552611295424 0 0.015635355185186772 0.00054459508100013502 0 0.015974099667751783 0.00055640185412063467 0 0.01605939244797128 0.0006547420221059458 0 0.015974099667751783 0.00055640185412063467 0 0.01605939244797128 0.0006547420221059458 0 0.016324053254170388 0.00057646607169706179 0 0.016319968807348217 0.00093484634600949539 0 0.01605939244797128 0.0006547420221059458 0 0.016324053254170388 0.00057646607169706179 0 0.016319968807348217 0.00093484634600949539 0 0.016324053254170388 0.00057646607169706179 0 0.016830769760761439 0.00073671399056765628 0 0.015974099667751783 0.00055640185412063467 0 0.016324053254170388 0.00057646607169706179 0 0.016027791867053873 0.000210794512295677 0 0.015974099667751783 0.00055640185412063467 0 0.015838666310956206 0.00039478849672756888 0 0.016027791867053873 0.000210794512295677 0 0.015635355185186772 0.00054459508100013502 0 0.015974099667751783 0.00055640185412063467 0 0.015838666310956206 0.00039478849672756888 0 0.015714311987180027 0.00026956113032083488 0 0.015838666310956206 0.00039478849672756888 0 0.016027791867053873 0.000210794512295677 0 0.015714311987180027 0.00026956113032083488 0 0.016027791867053873 0.000210794512295677 0 0.01579885657398564 -0.00011565481914873725 0 0.016027791867053873 0.000210794512295677 0 0.01579885657398564 -0.00011565481914873725 0 0.016469272458453657 -0.00052958622424391377 0 0.016324053254170388 0.00057646607169706179 0 0.016027791867053873 0.000210794512295677 0 0.016469272458453657 -0.00052958622424391377 0 0.016250856220009109 0.00061810478970397557 0 0.017054118637690754 -0.00045809150084600252 0 0.016324053254170388 0.00057646607169706179 0 0.017105229696404992 0.00028635304002385607 0 0.01704751673194687 -0.00025841928322387086 0 0.017105229696404992 0.00028635304002385607 0 0.017487500725624515 -0.00011205281351739863 0 0.01704751673194687 -0.00025841928322387086 0 0.016324053254170388 0.00057646607169706179 0 0.017105229696404992 0.00028635304002385607 0 0.016830769760761439 0.00073671399056765628 0 0.017105229696404992 0.00028635304002385607 0 0.016830769760761439 0.00073671399056765628 0 0.017222229122550361 0.00071320757649571671 0 0.017105229696404992 0.00028635304002385607 0 0.017222229122550361 0.00071320757649571671 0 0.017681342948392433 0.00041799790314368064 0 0.017105229696404992 0.00028635304002385607 0 0.017681342948392433 0.00041799790314368064 0 0.017487500725624515 -0.00011205281351739863 0 0.017222229122550361 0.00071320757649571671 0 0.017681342948392433 0.00041799790314368064 0 0.018153431307244394 0.0010449306179402225 0 0.017487500725624515 -0.00011205281351739863 0 0.019312398238059664 1.8272097154626869e-06 0 0.017389372313557593 -1.0583992697926228e-06 0 0.017487500725624515 -0.00011205281351739863 0 0.017389372313557593 -1.0583992697926228e-06 0 0.017156441597907017 -0.00014804974252024565 0 0.017681342948392433 0.00041799790314368064 0 0.019312398238059664 1.8272097154626869e-06 0 0.018153431307244394 0.0010449306179402225 0 0.017681342948392433 0.00041799790314368064 0 0.017487500725624515 -0.00011205281351739863 0 0.019312398238059664 1.8272097154626869e-06 0 0.019316128812474607 5.8630255601867799e-08 0 0.019129009090324646 0.00056453572496933848 0 0.020554122172793149 -6.6857402371345146e-05 0 0.020489238177734344 5.1565458971822467e-05 0 0.021076476033504012 4.1714339597537524e-07 0 0.019317718848163263 8.8994777397825854e-08 0 0.020554122172793149 -6.6857402371345146e-05 0 0.021076476033504012 4.1714339597537524e-07 0 0.017222229122550361 0.00071320757649571671 0 0.018153431307244394 0.0010449306179402225 0 0.017405714545307843 0.0015328542089341334 0 0.019129009090324646 0.00056453572496933848 0 0.020659483365089222 0.00071988677297883598 0 0.02324143098812536 0.00037170440367717729 0 0.024006151979121988 0.00053985512834860876 0 0.023872233738112768 0.0015626409319256713 0 0.02324143098812536 0.00037170440367717729 0 0.023872233738112768 0.0015626409319256713 0 0.021703362849296706 0.00012466344106410707 0 0.020659483365089222 0.00071988677297883598 0 0.022300151595914967 0.00031016891900076762 0 0.022838318597920338 1.1892128104635061e-07 0 0.021076476033504012 4.1714339597537524e-07 0 0.021703362849296706 0.00012466344106410707 0 0.020489238177734344 5.1565458971822467e-05 0 0.021076476033504012 4.1714339597537524e-07 0 0.021703362849296706 0.00012466344106410707 0 0.024748291758512488 0.0023675861796390294 0 0.024418629196383539 0.0024994692258735888 0 0.024363888850770107 0.0019552412496912923 0 0.024748291758512488 0.0023675861796390294 0 0.024418629196383539 0.0024994692258735888 0 0.024667337110897698 0.0026711016648398749 0 0.024748291758512488 0.0023675861796390294 0 0.024667337110897698 0.0026711016648398749 0 0.02499200207364748 0.0025682024989765575 0 0.025418020006294593 0.0016855609283624032 0 0.024532931909629047 0.0019233870926963828 0 0.02403333769779346 0.0023877360805875307 0 0.025418020006294593 0.0016855609283624032 0 0.023964363368154586 0.0025734422119496904 0 0.024418629196383539 0.0024994692258735888 0 0.024363888850770107 0.0019552412496912923 0 0.024249172282891536 0.0020605870675455534 0 0.02478610375895406 0.0012748655933918559 0 0.024057843024935365 0.001964408038519494 0 0.023964363368154586 0.0025734422119496904 0 0.024418629196383539 0.0024994692258735888 0 0.024282410653990887 0.0029139010197217776 0 0.024282410653990887 0.0029139010197217776 0 0.02470546907985087 0.0029694016699093381 0 0.024558370806983598 0.003307609922771538 0 0.024418629196383539 0.0024994692258735888 0 0.024282410653990887 0.0029139010197217776 0 0.024667337110897698 0.0026711016648398749 0 0.024282410653990887 0.0029139010197217776 0 0.024667337110897698 0.0026711016648398749 0 0.02470546907985087 0.0029694016699093381 0 0.024759092767262569 0.0028796943818210981 0 0.02496766257805437 0.0026070709601410313 0 0.024667337110897698 0.0026711016648398749 0 0.02470546907985087 0.0029694016699093381 0 0.02499200207364748 0.0025682024989765575 0 0.02470546907985087 0.0029694016699093381 0 0.024991717548855198 0.002598932383100393 0 0.024961834750710853 0.0024679731760225664 0 0.02470546907985087 0.0029694016699093381 0 0.025010571904539963 0.0029409534657672981 0 0.024897600287503062 0.0032576358435899111 0 0.025010571904539963 0.0029409534657672981 0 0.025206344243046446 0.0031346831325266117 0 0.024897600287503062 0.0032576358435899111 0 0.025010571904539963 0.0029409534657672981 0 0.025206344243046446 0.0031346831325266117 0 0.025306514248184944 0.0029327664672169863 0 0.025206344243046446 0.0031346831325266117 0 0.025306514248184944 0.0029327664672169863 0 0.0255501674202166 0.0031392931486701227 0 0.025306514248184944 0.0029327664672169863 0 0.025304982817575209 0.0026237152579575156 0 0.025571755622011617 0.0023745403818689944 0 0.02470546907985087 0.0029694016699093381 0 0.025010571904539963 0.0029409534657672981 0 0.024991717548855198 0.002598932383100393 0 0.025010571904539963 0.0029409534657672981 0 0.025304982817575209 0.0026237152579575156 0 0.024991717548855198 0.002598932383100393 0 0.025010571904539963 0.0029409534657672981 0 0.025306514248184944 0.0029327664672169863 0 0.025304982817575209 0.0026237152579575156 0 0.0254052808690239 0.0029283619210510228 0 0.026244234189869133 0.0027576652983347084 0 0.025306514248184944 0.0029327664672169863 0 0.026631600593089819 0.0028007386447187364 0 0.025571755622011617 0.0023745403818689944 0 0.025306514248184944 0.0029327664672169863 0 0.0255501674202166 0.0031392931486701227 0 0.025851738753513837 0.0027443387920353737 0 0.025990260509665224 0.0031262717137000426 0 0.0255501674202166 0.0031392931486701227 0 0.025851738753513837 0.0027443387920353737 0 0.027333044512301511 0.0021818197845986306 0 0.026631600593089819 0.0028007386447187364 0 0.025652184264936199 0.0016970432833703162 0 0.027333044512301511 0.0021818197845986306 0 0.026678313059678951 0.0020088706643428883 0 0.027045329040839432 0.0019636618392825161 0 0.027248689550108576 0.00211764904697961 0 0.026205753577554183 0.0020069714693429774 0 0.026631600593089819 0.0028007386447187364 0 0.025571755622011617 0.0023745403818689944 0 0.025652184264936199 0.0016970432833703162 0 0.024748291758512488 0.0023675861796390294 0 0.02499200207364748 0.0025682024989765575 0 0.025264388830303457 0.0021613121203563645 0 0.024991717548855198 0.002598932383100393 0 0.024961834750710853 0.0024679731760225664 0 0.025498027343307299 0.0019936285527245106 0 0.024991717548855198 0.002598932383100393 0 0.025571755622011617 0.0023745403818689944 0 0.025652184264936199 0.0016970432833703162 0 0.025304982817575209 0.0026237152579575156 0 0.024991717548855198 0.002598932383100393 0 0.025571755622011617 0.0023745403818689944 0 0.024953951565475255 0.002573928447324951 0 0.026205753577554183 0.0020069714693429774 0 0.024961834750710853 0.0024679731760225664 0 0.025498027343307299 0.0019936285527245106 0 0.025316519882100163 0.0019504721178359872 0 0.026205753577554183 0.0020069714693429774 0 0.026243726646767752 0.0021059235861056115 0 0.02496766257805437 0.0026070709601410313 0 0.026243726646767752 0.0021059235861056115 0 0.027383009162488477 0.0021512523769029626 0 0.027225086907873421 0.0016694254962727588 0 0.027855687794767915 0.0014242814389126045 0 0.027383009162488477 0.0021512523769029626 0 0.027225086907873421 0.0016694254962727588 0 0.026591889405728444 0.001911179067824153 0 0.0270427060415456 0.0019360450325785375 0 0.027617930727792089 0.0014178284918569804 0 0.026826566509083945 0.0022982811412914383 0 0.026589428581671386 0.0022429958231265034 0 0.027288910216653962 0.0011864806737925456 0 0.026826566509083945 0.0022982811412914383 0 0.027667971846616096 0.0012494520688298876 0 0.027288910216653962 0.0011864806737925456 0 0.026205753577554183 0.0020069714693429774 0 0.027617930727792089 0.0014178284918569804 0 0.026243726646767752 0.0021059235861056115 0 0.028041192455376208 0.0013267070702558572 0 0.026678313059678951 0.0020088706643428883 0 0.027045329040839432 0.0019636618392825161 0 0.027076957105327423 0.0015156807330388392 0 0.028081495549846004 0.0011998672687649368 0 0.027617930727792089 0.0014178284918569804 0 0.027681945255359514 0.0010355254670932487 0 0.027667971846616096 0.0012494520688298876 0 0.027288910216653962 0.0011864806737925456 0 0.028081495549846004 0.0011998672687649368 0 0.028041192455376208 0.0013267070702558572 0 0.029150887483361823 0.00088316769218686113 0 0.028041192455376208 0.0013267070702558572 0 0.028633582831672132 0.00084660316629710903 0 0.02860392183361328 0.0012909125923714661 0 0.028251309260655069 0.0014267921689315921 0 0.028922497176445353 0.00057651429958509911 0 0.028486033990963819 0.0012337083798824719 0 0.028062964634113445 0.00086219958073298407 0 0.027389932916038216 0.0016243902837580185 0 0.028041192455376208 0.0013267070702558572 0 0.027539674369083951 0.0015893050376561265 0 0.028486033990963819 0.0012337083798824719 0 0.028062964634113445 0.00086219958073298407 0 0.027343534688773818 0.0004217008074639895 0 0.028062964634113445 0.00086219958073298407 0 0.027148000401999672 0.0010259981165213115 0 0.027539674369083951 0.0015893050376561265 0 0.028062964634113445 0.00086219958073298407 0 0.027148000401999672 0.0010259981165213115 0 0.027539674369083951 0.0015893050376561265 0 0.027148000401999672 0.0010259981165213115 0 0.026986897484928603 0.0015437142325401283 0 0.028664593539713259 0.00073902371686738739 0 0.02618702244891748 0.0014585214840909021 0 0.027343534688773818 0.0004217008074639895 0 0.027148000401999672 0.0010259981165213115 0 0.026388635550473764 0.0017700443657881493 0 0.026073463715138304 9.1686579264187265e-05 0 0.027719773494734895 -6.0018165573471104e-06 0 0.026692107839889935 0.0014301190071686249 0 0.027086809660974809 0.0011278517567266306 0 0.02618702244891748 0.0014585214840909021 0 0.027148000401999672 0.0010259981165213115 0 0.026986897484928603 0.0015437142325401283 0 0.026422515122929074 0.0017644224884309433 0 0.027389932916038216 0.0016243902837580185 0 0.026672632191762698 0.0018872194370665259 0 0.026243726646767752 0.0021059235861056115 0 0.025418020006294593 0.0016855609283624032 0 0.027383009162488477 0.0021512523769029626 0 0.026591889405728444 0.001911179067824153 0 0.026331054591472579 0.0019017243265808126 0 0.024748291758512488 0.0023675861796390294 0 0.025264388830303457 0.0021613121203563645 0 0.024363888850770107 0.0019552412496912923 0 0.027539674369083951 0.0015893050376561265 0 0.026986897484928603 0.0015437142325401283 0 0.026591889405728444 0.001911179067824153 0 0.026986897484928603 0.0015437142325401283 0 0.026422515122929074 0.0017644224884309433 0 0.026591889405728444 0.001911179067824153 0 0.026422515122929074 0.0017644224884309433 0 0.026591889405728444 0.001911179067824153 0 0.026331054591472579 0.0019017243265808126 0 0.026509431986781316 0.0016084728165488269 0 0.025880960854146103 0.0009639046204392331 0 0.025031316643869258 0.0012452632009790903 0 0.025418020006294593 0.0016855609283624032 0 0.024869715679999266 0.001143529600240892 0 0.026692107839889935 0.0014301190071686249 0 0.026509431986781316 0.0016084728165488269 0 0.025880960854146103 0.0009639046204392331 0 0.02618702244891748 0.0014585214840909021 0 0.025418020006294593 0.0016855609283624032 0 0.026073463715138304 9.1686579264187265e-05 0 0.026692107839889935 0.0014301190071686249 0 0.025880960854146103 0.0009639046204392331 0 0.025880960854146103 0.0009639046204392331 0 0.024438088071748621 0.00020587300639658549 0 0.025031316643869258 0.0012452632009790903 0 0.026073463715138304 9.1686579264187265e-05 0 0.025880960854146103 0.0009639046204392331 0 0.024438088071748621 0.00020587300639658549 0 0.024869715679999266 0.001143529600240892 0 0.023647584077839848 0.00087482172169936132 0 0.024438088071748621 0.00020587300639658549 0 0.025031316643869258 0.0012452632009790903 0 0.023630187194097943 0.00085110185650674741 0 0.024496830420724137 0.0010854950419881787 0 0.023754057234933713 0.0012193141847023832 0 0.023890861311859139 0.0015487449287963874 0 0.024496830420724137 0.0010854950419881787 0 0.023630187194097943 0.00085110185650674741 0 0.023754057234933713 0.0012193141847023832 0 0.024496830420724137 0.0010854950419881787 0 0.023890861311859139 0.0015487449287963874 0 0.024227967749555157 0.0019310074840033502 0 0.025404505817450889 0.0013025867895339795 0 0.024496830420724137 0.0010854950419881787 0 0.024778629780560311 0.0019191430878302918 0 0.022565400572942346 0.00074458333675444523 0 0.023046637570179437 0.00035603645620759243 0 0.023030422543274327 0.00087643643670008329 0 0.025944406099456006 0.0015655178843580005 0 0.02604188806006304 0.0014927906363361074 0 0.02609932989675403 0.0014934485240682448 0 0.025949439510746741 0.0015025022447939652 0 0.025944406099456006 0.0015655178843580005 0 0.02604188806006304 0.0014927906363361074 0 0.024283049507868925 0.0011524792572149573 0 0.025114032401281756 0.0013357262609438388 0 0.025718816373732103 0.001349117354446705 0 0.025114032401281756 0.0013357262609438388 0 0.025635062974468787 0.00094215231174966691 0 0.025114032401281756 0.0013357262609438388 0 0.024438088071748621 0.00020587300639658549 0 0.023046637570179437 0.00035603645620759243 0 0.023630187194097943 0.00085110185650674741 0 0.023046637570179437 0.00035603645620759243 0 0.023030422543274327 0.00087643643670008329 0 0.023630187194097943 0.00085110185650674741 0 0.023630187194097943 0.00085110185650674741 0 0.023754057234933713 0.0012193141847023832 0 0.023271460398791934 0.0011949818872121572 0 0.023754057234933713 0.0012193141847023832 0 0.023467343187341026 0.0014417135955866352 0 0.023890861311859139 0.0015487449287963874 0 0.023754057234933713 0.0012193141847023832 0 0.023467343187341026 0.0014417135955866352 0 0.023271460398791934 0.0011949818872121572 0 0.023467343187341026 0.0014417135955866352 0 0.023271460398791934 0.0011949818872121572 0 0.023059726476242732 0.0015176889060872195 0 0.023030422543274327 0.00087643643670008329 0 0.023630187194097943 0.00085110185650674741 0 0.023271460398791934 0.0011949818872121572 0 0.022290444643523821 0.0016298026982108488 0 0.023059726476242732 0.0015176889060872195 0 0.022832700099958705 0.0012676561241067928 0 0.023030422543274327 0.00087643643670008329 0 0.023271460398791934 0.0011949818872121572 0 0.022832700099958705 0.0012676561241067928 0 0.023271460398791934 0.0011949818872121572 0 0.023059726476242732 0.0015176889060872195 0 0.022832700099958705 0.0012676561241067928 0 0.022565400572942346 0.00074458333675444523 0 0.022440353815046356 0.0011844379249171359 0 0.022832700099958705 0.0012676561241067928 0 0.022565400572942346 0.00074458333675444523 0 0.023030422543274327 0.00087643643670008329 0 0.022832700099958705 0.0012676561241067928 0 0.018514077019281625 0.0014243254403674842 0 0.018466838446957835 0.0013967024021349791 0 0.018479840428018542 0.0013623167116891969 0 0.022290444643523821 0.0016298026982108488 0 0.023059726476242732 0.0015176889060872195 0 0.023194135171362412 0.0018971451141841875 0 0.022290444643523821 0.0016298026982108488 0 0.023194135171362412 0.0018971451141841875 0 0.02318354588678747 0.002081068052844639 0 0.01870112950988467 0.00139319381904193 0 0.021540419106166948 0.0016174847374625695 0 0.021858855087322507 0.0017846387387330329 0 0.021540419106166948 0.0016174847374625695 0 0.023194135171362412 0.0018971451141841875 0 0.02318871196355194 0.0020664572399958061 0 0.023671015476024678 0.0019537465226648833 0 0.023194135171362412 0.0018971451141841875 0 0.023460485491767789 0.001673093622150739 0 0.023671015476024678 0.0019537465226648833 0 0.023467343187341026 0.0014417135955866352 0 0.023059726476242732 0.0015176889060872195 0 0.023460485491767789 0.001673093622150739 0 0.023059726476242732 0.0015176889060872195 0 0.023194135171362412 0.0018971451141841875 0 0.023460485491767789 0.001673093622150739 0 0.023467343187341026 0.0014417135955866352 0 0.023460485491767789 0.001673093622150739 0 0.023890861311859139 0.0015487449287963874 0 0.023460485491767789 0.001673093622150739 0 0.023671015476024678 0.0019537465226648833 0 0.023890861311859139 0.0015487449287963874 0 0.020677088547418832 0.0012350662486332598 0 0.021255142293753297 0.0015364223816939919 0 0.020651180918974148 0.0016570658014918322 0 0.021540419106166948 0.0016174847374625695 0 0.022617948261690394 0.0020577675601209711 0 0.02318871196355194 0.0020664572399958061 0 0.023671015476024678 0.0019537465226648833 0 0.024141552274489414 0.0025468905251249284 0 0.018466838446957835 0.0013967024021349791 0 0.018479840428018542 0.0013623167116891969 0 0.018450639947655483 0.0013468261693519016 0 0.021540419106166948 0.0016174847374625695 0 0.019555626023533213 0.0015202394612491214 0 0.024496830420724137 0.0010854950419881787 0 0.024778629780560311 0.0019191430878302918 0 0.024227967749555157 0.0019310074840033502 0 0.023671015476024678 0.0019537465226648833 0 0.023890861311859139 0.0015487449287963874 0 0.024227967749555157 0.0019310074840033502 0 0.023671015476024678 0.0019537465226648833 0 0.024227967749555157 0.0019310074840033502 0 0.024141552274489414 0.0025468905251249284 0 0.022617948261690394 0.0020577675601209711 0 0.02329103492967589 0.0026446905754822329 0 0.02403333769779346 0.0023877360805875307 0 0.02329103492967589 0.0026446905754822329 0 0.024778629780560311 0.0019191430878302918 0 0.024227967749555157 0.0019310074840033502 0 0.024141552274489414 0.0025468905251249284 0 0.024532931909629047 0.0019233870926963828 0 0.022617948261690394 0.0020577675601209711 0 0.023964363368154586 0.0025734422119496904 0 0.024282410653990887 0.0029139010197217776 0 0.023551129892224285 0.0031645134503791366 0 0.024057843024935365 0.001964408038519494 0 0.023338941370115173 0.002656749824974105 0 0.023688268004386111 0.002840866293780166 0 0.024249172282891536 0.0020605870675455534 0 0.024057843024935365 0.001964408038519494 0 0.023688268004386111 0.002840866293780166 0 0.02317783268817419 0.0026783441414028292 0 0.023048256700760935 0.0023811247641716223 0 0.023600245721839365 0.0026716207798359597 0 0.02329103492967589 0.0026446905754822329 0 0.023834751365326222 0.0030574970548931631 0 0.02317783268817419 0.0026783441414028292 0 0.023222786485335982 0.0029853735885185108 0 0.023600245721839365 0.0026716207798359597 0 0.02317783268817419 0.0026783441414028292 0 0.022839728702144076 0.0026753877096848664 0 0.023222786485335982 0.0029853735885185108 0 0.02317783268817419 0.0026783441414028292 0 0.023048256700760935 0.0023811247641716223 0 0.022839728702144076 0.0026753877096848664 0 0.02329103492967589 0.0026446905754822329 0 0.022033895074273016 0.0022356333790902829 0 0.022617948261690394 0.0020577675601209711 0 0.022033895074273016 0.0022356333790902829 0 0.02124639648443569 0.0015369327400692619 0 0.021064964853793004 0.00193549640227265 0 0.020825911865859591 0.0019314693986420932 0 0.02124639648443569 0.0015369327400692619 0 0.021064964853793004 0.00193549640227265 0 0.021285547546068671 0.0018397874040416706 0 0.022555781369542265 0.0022814787194762932 0 0.022630977288086211 0.0023212927410180516 0 0.02257199324638607 0.0024014788188826469 0 0.022617948261690394 0.0020577675601209711 0 0.020457520578702433 0.001876860047631598 0 0.022033895074273016 0.0022356333790902829 0 0.02211681391813379 0.0028685472841803693 0 0.021343859879965458 0.0018746871757200669 0 0.021028747563202457 0.0023119637968834024 0 0.021427368575057532 0.0025230696945473742 0 0.022033895074273016 0.0022356333790902829 0 0.02106641049502684 0.0022137605870859115 0 0.021064964853793004 0.00193549640227265 0 0.021285547546068671 0.0018397874040416706 0 0.021039853911524676 0.0021676175877212568 0 0.022839728702144076 0.0026753877096848664 0 0.023222786485335982 0.0029853735885185108 0 0.022936180658787022 0.0033822394669952654 0 0.023222786485335982 0.0029853735885185108 0 0.022936180658787022 0.0033822394669952654 0 0.023591532960260075 0.003526081765365589 0 0.019555626023533213 0.0015202394612491214 0 0.017401147324660592 0.0012719194292585801 0 0.015520714545658567 0.0012131750972496449 0 0.017401147324660592 0.0012719194292585801 0 0.018479840428018542 0.0013623167116891969 0 0.018450639947655483 0.0013468261693519016 0 0.018436438332500648 0.0012937092314893545 0 0.013787351395598918 0.00075254599406022766 0 0.01365128281911843 0.0013167312929573678 0 0.0133393653382062 0.00064006134407524143 0 0.020651180918974148 0.0016570658014918322 0 0.020825911865859591 0.0019314693986420932 0 0.020621860585510323 0.0020723607418263556 0 0.021255142293753297 0.0015364223816939919 0 0.020651180918974148 0.0016570658014918322 0 0.020825911865859591 0.0019314693986420932 0 0.021039853911524676 0.0021676175877212568 0 0.020841814779261843 0.0021327031736794026 0 0.020792932108346641 0.002494619696075256 0 0.020841814779261843 0.0021327031736794026 0 0.020621860585510323 0.0020723607418263556 0 0.020792932108346641 0.002494619696075256 0 0.017401147324660592 0.0012719194292585801 0 0.019461785228317083 0.0021191226596074943 0 0.021064964853793004 0.00193549640227265 0 0.020825911865859591 0.0019314693986420932 0 0.020841814779261843 0.0021327031736794026 0 0.021064964853793004 0.00193549640227265 0 0.021039853911524676 0.0021676175877212568 0 0.020841814779261843 0.0021327031736794026 0 0.020825911865859591 0.0019314693986420932 0 0.020841814779261843 0.0021327031736794026 0 0.020621860585510323 0.0020723607418263556 0 0.013787351395598918 0.00075254599406022766 0 0.0133393653382062 0.00064006134407524143 0 0.013637620746407604 0.00038963516574641208 0 0.0133393653382062 0.00064006134407524143 0 0.013637620746407604 0.00038963516574641208 0 0.013341227709161074 0.00020593144817679867 0 0.017401147324660592 0.0012719194292585801 0 0.015280850189003757 0.00066601391800423071 0 0.015280850189003757 0.00066601391800423071 0 0.016104238206367364 0.0010211169062321959 0 0.013571967649900601 7.4230142599238758e-05 0 0.013341227709161074 0.00020593144817679867 0 0.013355816430113125 -0.00019997516900325293 0 0.013637620746407604 0.00038963516574641208 0 0.013571967649900601 7.4230142599238758e-05 0 0.013341227709161074 0.00020593144817679867 0 0.017103036224288277 0.0011997897095977605 0 0.017096500824425407 0.0013227063449698538 0 0.017167321581080568 0.0013469634031686563 0 0.017096500824425407 0.0013227063449698538 0 0.017167321581080568 0.0013469634031686563 0 0.01708608600649407 0.0014446446169646835 0 0.021028747563202457 0.0023119637968834024 0 0.020709539784342583 0.002751091494261608 0 0.02113335577459495 0.0028319909487159729 0 0.02106641049502684 0.0022137605870859115 0 0.019461785228317083 0.0021191226596074943 0 0.020709539784342583 0.002751091494261608 0 0.020890679434095831 0.0031841234919088423 0 0.02113335577459495 0.0028319909487159729 0 0.019461785228317083 0.0021191226596074943 0 0.019751208266876995 0.0025502113502087827 0 0.018640919600091652 0.001996610815282691 0 0.01821372749459391 0.0019559456078630001 0 0.018462891480902549 0.0022387267918699415 0 0.018474091782109441 0.0015988108551118628 0 0.018640919600091652 0.001996610815282691 0 0.01821372749459391 0.0019559456078630001 0 0.019461785228317083 0.0021191226596074943 0 0.016104238206367364 0.0010211169062321959 0 0.013705218520554232 -0.00019134307762170262 0 0.013355816430113125 -0.00019997516900325293 0 0.013589586598804907 -0.00055670785494608553 0 0.013705218520554232 -0.00019134307762170262 0 0.013571967649900601 7.4230142599238758e-05 0 0.013355816430113125 -0.00019997516900325293 0 0.016104238206367364 0.0010211169062321959 0 0.014434866383986602 0.00012608004176692907 0 0.02211681391813379 0.0028685472841803693 0 0.023058897481900435 0.004042417861315894 0 0.023058897481900435 0.004042417861315894 0 0.023801892999373072 0.0038458322074462719 0 0.022936180658787022 0.0033822394669952654 0 0.023033051530012436 0.004089557541561528 0 0.023591532960260075 0.003526081765365589 0 0.021427368575057532 0.0025230696945473742 0 0.02113335577459495 0.0028319909487159729 0 0.021516958785462136 0.0031788168495447745 0 0.021028747563202457 0.0023119637968834024 0 0.021427368575057532 0.0025230696945473742 0 0.02113335577459495 0.0028319909487159729 0 0.020890679434095831 0.0031841234919088423 0 0.021516958785462136 0.0031788168495447745 0 0.021072172043360239 0.0036181904178712969 0 0.020890679434095831 0.0031841234919088423 0 0.02113335577459495 0.0028319909487159729 0 0.021516958785462136 0.0031788168495447745 0 0.023543959759342141 0.0045556531112912217 0 0.024268476914484114 0.0045707664545429558 0 0.023898031361702366 0.0048548674381717885 0 0.023543959759342141 0.0045556531112912217 0 0.024268476914484114 0.0045707664545429558 0 0.023995181471323377 0.0041252423741803892 0 0.024268476914484114 0.0045707664545429558 0 0.024750689122309839 0.0044706962989013105 0 0.024568599188472658 0.0048533665380759558 0 0.024268476914484114 0.0045707664545429558 0 0.024626489882856022 0.0041338302390342158 0 0.024750689122309839 0.0044706962989013105 0 0.024268476914484114 0.0045707664545429558 0 0.024626489882856022 0.0041338302390342158 0 0.023995181471323377 0.0041252423741803892 0 0.024626489882856022 0.0041338302390342158 0 0.023995181471323377 0.0041252423741803892 0 0.024523138321370107 0.0039113247755992106 0 0.023591532960260075 0.003526081765365589 0 0.024152361227320365 0.0029629539376153859 0 0.023600245721839365 0.0026716207798359597 0 0.023801892999373072 0.0038458322074462719 0 0.024449040317095182 0.0034093338739497867 0 0.023222786485335982 0.0029853735885185108 0 0.023591532960260075 0.003526081765365589 0 0.023600245721839365 0.0026716207798359597 0 0.023995181471323377 0.0041252423741803892 0 0.024523138321370107 0.0039113247755992106 0 0.024502602933515742 0.003626520203332029 0 0.024626489882856022 0.0041338302390342158 0 0.024523138321370107 0.0039113247755992106 0 0.024815204821136753 0.0037836324802895671 0 0.024523138321370107 0.0039113247755992106 0 0.024502602933515742 0.003626520203332029 0 0.024815204821136753 0.0037836324802895671 0 0.024838489903831539 0.003645364388311533 0 0.024637312260511544 0.0036734206556145402 0 0.024815204821136753 0.0037836324802895671 0 0.024449040317095182 0.0034093338739497867 0 0.024806025327600619 0.0037115450711115144 0 0.024838489903831539 0.003645364388311533 0 0.024637312260511544 0.0036734206556145402 0 0.024775564418945562 0.0035343877596340245 0 0.024449040317095182 0.0034093338739497867 0 0.02460379878030804 0.0034716780674703281 0 0.024603574459792742 0.003711910683354839 0 0.024558370806983598 0.003307609922771538 0 0.02408239945095601 0.0034438762132297609 0 0.024603574459792742 0.003711910683354839 0 0.024775564418945562 0.0035343877596340245 0 0.024558370806983598 0.003307609922771538 0 0.024838489903831539 0.003645364388311533 0 0.024775564418945562 0.0035343877596340245 0 0.024964479244852959 0.0035077469102853549 0 0.02470546907985087 0.0029694016699093381 0 0.024558370806983598 0.003307609922771538 0 0.024897600287503062 0.0032576358435899111 0 0.024775564418945562 0.0035343877596340245 0 0.024558370806983598 0.003307609922771538 0 0.024897600287503062 0.0032576358435899111 0 0.024449040317095182 0.0034093338739497867 0 0.023834751365326222 0.0030574970548931631 0 0.024282410653990887 0.0029139010197217776 0 0.024558370806983598 0.003307609922771538 0 0.02408239945095601 0.0034438762132297609 0 0.024282410653990887 0.0029139010197217776 0 0.023551129892224285 0.0031645134503791366 0 0.02408239945095601 0.0034438762132297609 0 0.0255501674202166 0.0031392931486701227 0 0.025768507369388027 0.0035270938324527034 0 0.025220973306134285 0.0033750827650483291 0 0.025990260509665224 0.0031262717137000426 0 0.0255501674202166 0.0031392931486701227 0 0.025768507369388027 0.0035270938324527034 0 0.025206344243046446 0.0031346831325266117 0 0.0255501674202166 0.0031392931486701227 0 0.025220973306134285 0.0033750827650483291 0 0.025768507369388027 0.0035270938324527034 0 0.025220973306134285 0.0033750827650483291 0 0.025011200871780673 0.0037047404788059907 0 0.025206344243046446 0.0031346831325266117 0 0.025220973306134285 0.0033750827650483291 0 0.024897600287503062 0.0032576358435899111 0 0.024775564418945562 0.0035343877596340245 0 0.024897600287503062 0.0032576358435899111 0 0.024964479244852959 0.0035077469102853549 0 0.025220973306134285 0.0033750827650483291 0 0.024964479244852959 0.0035077469102853549 0 0.025011200871780673 0.0037047404788059907 0 0.025220973306134285 0.0033750827650483291 0 0.024897600287503062 0.0032576358435899111 0 0.024964479244852959 0.0035077469102853549 0 0.024838489903831539 0.003645364388311533 0 0.024964479244852959 0.0035077469102853549 0 0.025011200871780673 0.0037047404788059907 0 0.024838489903831539 0.003645364388311533 0 0.025011200871780673 0.0037047404788059907 0 0.024815204821136753 0.0037836324802895671 0 0.024626489882856022 0.0041338302390342158 0 0.025000790742055985 0.0039036826904901242 0 0.024815204821136753 0.0037836324802895671 0 0.025011200871780673 0.0037047404788059907 0 0.025000790742055985 0.0039036826904901242 0 0.024815204821136753 0.0037836324802895671 0 0.025000790742055985 0.0039036826904901242 0 0.02524333662845904 0.0038100786801316044 0 0.02512393300397851 0.004114289269751061 0 0.025011200871780673 0.0037047404788059907 0 0.025000790742055985 0.0039036826904901242 0 0.02524333662845904 0.0038100786801316044 0 0.025559078115937824 0.0034361723053048274 0 0.025011200871780673 0.0037047404788059907 0 0.02524333662845904 0.0038100786801316044 0 0.02524333662845904 0.0038100786801316044 0 0.025532351808891803 0.0038957561789441895 0 0.02512393300397851 0.004114289269751061 0 0.025559078115937824 0.0034361723053048274 0 0.02524333662845904 0.0038100786801316044 0 0.025532351808891803 0.0038957561789441895 0 0.025685171015527839 0.0034735482413730469 0 0.025059464705460718 0.0036923270706549684 0 0.025532351808891803 0.0038957561789441895 0 0.02537618737650792 0.0042344521866984914 0 0.025646500674561899 0.0043479195787200454 0 0.025532351808891803 0.0038957561789441895 0 0.02537618737650792 0.0042344521866984914 0 0.02512393300397851 0.004114289269751061 0 0.02537618737650792 0.0042344521866984914 0 0.025646500674561899 0.0043479195787200454 0 0.025224366208580089 0.0045158612622135394 0 0.02537618737650792 0.0042344521866984914 0 0.02512393300397851 0.004114289269751061 0 0.025224366208580089 0.0045158612622135394 0 0.024626489882856022 0.0041338302390342158 0 0.02512393300397851 0.004114289269751061 0 0.024750689122309839 0.0044706962989013105 0 0.024626489882856022 0.0041338302390342158 0 0.025000790742055985 0.0039036826904901242 0 0.02512393300397851 0.004114289269751061 0 0.02512393300397851 0.004114289269751061 0 0.024750689122309839 0.0044706962989013105 0 0.025224366208580089 0.0045158612622135394 0 0.024750689122309839 0.0044706962989013105 0 0.024917785134117861 0.0048710846476586259 0 0.024568599188472658 0.0048533665380759558 0 0.024750689122309839 0.0044706962989013105 0 0.025224366208580089 0.0045158612622135394 0 0.025107376563850269 0.0050533897105128926 0 0.024802610525186647 0.0044628904861219454 0 0.024648580478561416 0.0052373232258667475 0 0.025837350105004677 0.0046332629751507206 0 0.025646500674561899 0.0043479195787200454 0 0.02529719119068698 0.004961430483924216 0 0.025646500674561899 0.0043479195787200454 0 0.025224366208580089 0.0045158612622135394 0 0.025317083521834 0.0049238119320338027 0 0.025224366208580089 0.0045158612622135394 0 0.025317083521834 0.0049238119320338027 0 0.025107376563850269 0.0050533897105128926 0 0.025952735505423832 0.0055472223798028256 0 0.025376370177909707 0.0058932457540986499 0 0.025796961127667384 0.0059434759688543086 0 0.025687714716658289 0.004308393837217565 0 0.025080979978349065 0.0051119556924758081 0 0.025921374188602138 0.0050955628000395516 0 0.025080979978349065 0.0051119556924758081 0 0.025571140660722837 0.006175194848104036 0 0.025574266270114387 0.0067358110165988789 0 0.025950536375352027 0.0062150344989743136 0 0.025571140660722837 0.006175194848104036 0 0.025950536375352027 0.0062150344989743136 0 0.025796961127667384 0.0059434759688543086 0 0.025376370177909707 0.0058932457540986499 0 0.025571140660722837 0.006175194848104036 0 0.025796961127667384 0.0059434759688543086 0 0.025571140660722837 0.006175194848104036 0 0.02522251316043406 0.006152571070340656 0 0.025574266270114387 0.0067358110165988789 0 0.024717660277374702 0.0050536150978067861 0 0.024370983269335109 0.005262308570849133 0 0.024489646396534528 0.0054565810464114167 0 0.025376370177909707 0.0058932457540986499 0 0.025571140660722837 0.006175194848104036 0 0.02522251316043406 0.006152571070340656 0 0.025080979978349065 0.0051119556924758081 0 0.024024877216164156 0.0055033218791385851 0 0.025080979978349065 0.0051119556924758081 0 0.024648580478561416 0.0052373232258667475 0 0.024965382449744434 0.0049545309527238247 0 0.024524397659712021 0.0051611413448557743 0 0.024568599188472658 0.0048533665380759558 0 0.024917785134117861 0.0048710846476586259 0 0.024965382449744434 0.0049545309527238247 0 0.024568599188472658 0.0048533665380759558 0 0.024648580478561416 0.0052373232258667475 0 0.024024877216164156 0.0055033218791385851 0 0.021180198261843683 0.0045548041774975886 0 0.021200337825596056 0.00394863027562659 0 0.021623684391756898 0.0037038615988370677 0 0.024965382449744434 0.0049545309527238247 0 0.024594219483462521 0.0055548853845549442 0 0.024524397659712021 0.0051611413448557743 0 0.024024877216164156 0.0055033218791385851 0 0.020441953081635416 0.0030637001662980438 0 0.021200337825596056 0.00394863027562659 0 0.021034834870205469 0.0039119448815731657 0 0.021623684391756898 0.0037038615988370677 0 0.021180198261843683 0.0045548041774975886 0 0.021200337825596056 0.00394863027562659 0 0.021039506355454256 0.0039125317759930323 0 0.024024877216164156 0.0055033218791385851 0 0.021961980993802848 0.0039670217621070765 0 0.021180198261843683 0.0045548041774975886 0 0.021039506355454256 0.0039125317759930323 0 0.020823756684139036 0.0039892898074229341 0 0.02038834972471229 0.0034598453225149033 0 0.018977886774157616 0.003054481085580354 0 0.018977886774157616 0.003054481085580354 0 0.021961980993802848 0.0039670217621070765 0 0.019734416761079194 0.0028477625874521687 0 0.019854707585594225 0.0028020973554689029 0 0.019898802869381508 0.0028733051310163107 0 0.018977886774157616 0.003054481085580354 0 0.01782899817617746 0.0013195561905878211 0 0.021961980993802848 0.0039670217621070765 0 0.01782899817617746 0.0013195561905878211 0 0.015591526625376802 0.00077839356404311988 0 0.015347609648931193 0.00067584257684018473 0 0.015410265200237064 0.00036383461522348424 0 0.015591526625376802 0.00077839356404311988 0 0.015410265200237064 0.00036383461522348424 0 0.015767876996457382 0.00050572521877592842 0 0.015410265200237064 0.00036383461522348424 0 0.015767876996457382 0.00050572521877592842 0 0.015939033905772466 0.00020990174513717665 0 0.018977886774157616 0.003054481085580354 0 0.020441953081635416 0.0030637001662980438 0 0.015591526625376802 0.00077839356404311988 0 0.016150242514891441 0.00065404745265926971 0 0.015767876996457382 0.00050572521877592842 0 0.016150242514891441 0.00065404745265926971 0 0.015767876996457382 0.00050572521877592842 0 0.015939033905772466 0.00020990174513717665 0 0.015394584718426594 0.00024815982932758558 0 0.01540355366815444 0.00023891990334593745 0 0.015389973369903321 0.00022066507598895687 0 0.015402952071885322 0.00027778968772229748 0 0.015394584718426594 0.00024815982932758558 0 0.01540355366815444 0.00023891990334593745 0 0.015402952071885322 0.00027778968772229748 0 0.015394584718426594 0.00024815982932758558 0 0.015381391892034671 0.00025266710777143261 0 0.015410265200237064 0.00036383461522348424 0 0.015381391892034671 0.00025266710777143261 0 0.015292576738443531 0.00022158551305432683 0 0.015410265200237064 0.00036383461522348424 0 0.015402952071885322 0.00027778968772229748 0 0.015381391892034671 0.00025266710777143261 0 0.015469543479623342 0.00033046451302463383 0 0.015556711921055346 0.00027644494582040972 0 0.019133133546223438 0.0023914752236531577 0 0.019294320906736655 0.0023534536107590611 0 0.019230272216449733 0.0022409877354756529 0 0.019230272216449733 0.0022409877354756529 0 0.01904489139392317 0.0022997617769666408 0 0.019073461349701226 0.0023572392258962797 0 0.017411442835396869 0.0012568845443805864 0 0.016670360040093219 0.00057787586994284253 0 0.019133133546223438 0.0023914752236531577 0 0.019230272216449733 0.0022409877354756529 0 0.019073461349701226 0.0023572392258962797 0 0.015407773267140783 0.00022227687042281603 0 0.015410039016084703 0.00023133109650638756 0 0.015412241144013152 0.00023237919241536864 0 0.015407773267140783 0.00022227687042281603 0 0.015410039016084703 0.00023133109650638756 0 0.015402205330044647 0.00021827782185447083 0 0.015556711921055346 0.00027644494582040972 0 0.016670360040093219 0.00057787586994284253 0 0.015402952071885322 0.00027778968772229748 0 0.01540355366815444 0.00023891990334593745 0 0.015411718105537877 0.00023774081191645273 0 0.016502150682920894 0.00060837793675219307 0 0.016670360040093219 0.00057787586994284253 0 0.015410039016084703 0.00023133109650638756 0 0.01540355366815444 0.00023891990334593745 0 0.015400673920246898 0.00022000554133337405 0 0.015410039016084703 0.00023133109650638756 0 0.01540355366815444 0.00023891990334593745 0 0.015411718105537877 0.00023774081191645273 0 0.01940913699784776 0.0021849551074950425 0 0.019294320906736655 0.0023534536107590611 0 0.019230272216449733 0.0022409877354756529 0 0.024594219483462521 0.0055548853845549442 0 0.024151950068451201 0.0057143412013586532 0 0.024228588080516218 0.0053944313682149645 0 0.020441953081635416 0.0030637001662980438 0 0.016670360040093219 0.00057787586994284253 0 0.020441953081635416 0.0030637001662980438 0 0.02190811926055097 0.0039385753656666963 0 0.016150242514891441 0.00065404745265926971 0 0.015939033905772466 0.00020990174513717665 0 0.016475852515632841 9.3611413014105252e-05 0 0.024151950068451201 0.0057143412013586532 0 0.023837920892501092 0.0055934308417334815 0 0.023682708410741306 0.0058644368752165865 0 0.02190811926055097 0.0039385753656666963 0 0.021398622859061415 0.0042011528960097929 0 0.024151950068451201 0.0057143412013586532 0 0.023837920892501092 0.0055934308417334815 0 0.024228588080516218 0.0053944313682149645 0 0.023837920892501092 0.0055934308417334815 0 0.023924610574554153 0.0052572205000668941 0 0.024228588080516218 0.0053944313682149645 0 0.023924610574554153 0.0052572205000668941 0 0.024228588080516218 0.0053944313682149645 0 0.02424182511412817 0.0050555602320935386 0 0.024594219483462521 0.0055548853845549442 0 0.024228588080516218 0.0053944313682149645 0 0.024524397659712021 0.0051611413448557743 0 0.024228588080516218 0.0053944313682149645 0 0.024524397659712021 0.0051611413448557743 0 0.02424182511412817 0.0050555602320935386 0 0.024268476914484114 0.0045707664545429558 0 0.02424182511412817 0.0050555602320935386 0 0.024568599188472658 0.0048533665380759558 0 0.024524397659712021 0.0051611413448557743 0 0.02424182511412817 0.0050555602320935386 0 0.024568599188472658 0.0048533665380759558 0 0.023924610574554153 0.0052572205000668941 0 0.02424182511412817 0.0050555602320935386 0 0.023898031361702366 0.0048548674381717885 0 0.024268476914484114 0.0045707664545429558 0 0.02424182511412817 0.0050555602320935386 0 0.023898031361702366 0.0048548674381717885 0 0.023924610574554153 0.0052572205000668941 0 0.023898031361702366 0.0048548674381717885 0 0.02358881422400784 0.0051392269865451739 0 0.023543959759342141 0.0045556531112912217 0 0.023898031361702366 0.0048548674381717885 0 0.02358881422400784 0.0051392269865451739 0 0.023058897481900435 0.004042417861315894 0 0.023700398193134402 0.0052689386222936263 0 0.023463681786960774 0.0042627871134138153 0 0.022973906485034438 0.0047694534358919032 0 0.02358881422400784 0.0051392269865451739 0 0.023058897481900435 0.004042417861315894 0 0.020250565258746449 0.0032890593900663338 0 0.019751208266876995 0.0025502113502087827 0 0.020250565258746449 0.0032890593900663338 0 0.020250565258746449 0.0032890593900663338 0 0.02139072824448001 0.004475005690633407 0 0.022973906485034438 0.0047694534358919032 0 0.023294928297944908 0.005416329429867946 0 0.02358881422400784 0.0051392269865451739 0 0.018802565407291395 0.0024189144503818207 0 0.01902667607173358 0.0029599980040087444 0 0.018686892233595657 0.0028757531932455714 0 0.01902667607173358 0.0029599980040087444 0 0.018686892233595657 0.0028757531932455714 0 0.018632631470862207 0.0032214357199180153 0 0.023294928297944908 0.005416329429867946 0 0.023655233234587434 0.0054141762936752253 0 0.02358881422400784 0.0051392269865451739 0 0.023924610574554153 0.0052572205000668941 0 0.023655233234587434 0.0054141762936752253 0 0.02358881422400784 0.0051392269865451739 0 0.023837920892501092 0.0055934308417334815 0 0.023924610574554153 0.0052572205000668941 0 0.023655233234587434 0.0054141762936752253 0 0.01821372749459391 0.0019559456078630001 0 0.018462891480902549 0.0022387267918699415 0 0.018188072892383278 0.0026049556482818435 0 0.015554204966309002 0.00055673782098423976 0 0.015374487093249784 0.00079938538499148076 0 0.01553706477018413 0.00094327716017069416 0 0.016104238206367364 0.0010211169062321959 0 0.016929181083547504 0.0017875267866139333 0 0.018809233861182328 0.0023968311828878111 0 0.018462891480902549 0.0022387267918699415 0 0.018188072892383278 0.0026049556482818435 0 0.018640919600091652 0.001996610815282691 0 0.018809233861182328 0.0023968311828878111 0 0.018462891480902549 0.0022387267918699415 0 0.020250565258746449 0.0032890593900663338 0 0.017909573135077312 0.0027168517366128247 0 0.018802565407291395 0.0024189144503818207 0 0.018686892233595657 0.0028757531932455714 0 0.018285397560847554 0.0029046047203916949 0 0.018809233861182328 0.0023968311828878111 0 0.018188072892383278 0.0026049556482818435 0 0.018285397560847554 0.0029046047203916949 0 0.018686892233595657 0.0028757531932455714 0 0.018285397560847554 0.0029046047203916949 0 0.018632631470862207 0.0032214357199180153 0 0.015374487093249784 0.00079938538499148076 0 0.01553706477018413 0.00094327716017069416 0 0.015392214924307838 0.0011020315227753214 0 0.018188072892383278 0.0026049556482818435 0 0.018285397560847554 0.0029046047203916949 0 0.01815714293222024 0.0032400488230107344 0 0.01553706477018413 0.00094327716017069416 0 0.015392214924307838 0.0011020315227753214 0 0.015521767108579679 0.0013367023336051775 0 0.016929181083547504 0.0017875267866139333 0 0.016926523489711551 0.0024452164846685488 0 0.015392214924307838 0.0011020315227753214 0 0.015521767108579679 0.0013367023336051775 0 0.015337003682209693 0.0013911914317003798 0 0.01815714293222024 0.0032400488230107344 0 0.018632631470862207 0.0032214357199180153 0 0.01839685480024314 0.0035020523230064344 0 0.018285397560847554 0.0029046047203916949 0 0.01815714293222024 0.0032400488230107344 0 0.018632631470862207 0.0032214357199180153 0 0.01751934306633942 0.0027232347001887322 0 0.015804397388391941 0.0019991395972608827 0 0.016581093005946561 0.0017759245309863882 0 0.016588783470259501 0.0023385635852997289 0 0.015230604014969208 0.0022204393757043182 0 0.018632631470862207 0.0032214357199180153 0 0.018685868323812579 0.0036870883145166313 0 0.01839685480024314 0.0035020523230064344 0 0.018685868323812579 0.0036870883145166313 0 0.01839685480024314 0.0035020523230064344 0 0.018113672791128271 0.0038599951348900195 0 0.016926523489711551 0.0024452164846685488 0 0.015804397388391941 0.0019991395972608827 0 0.01361387569340255 -9.9937662300960306e-05 0 0.01362999324967664 -0.00038631462441006371 0 0.013519614797117638 -0.00024691567791234421 0 0.015480689306819995 0.0017359230784942975 0 0.01550499313937552 0.0017280525699553456 0 0.015337003682209693 0.0013911914317003798 0 0.01815714293222024 0.0032400488230107344 0 0.01839685480024314 0.0035020523230064344 0 0.018113672791128271 0.0038599951348900195 0 0.014990863234274922 0.0014321906745044931 0 0.014458223266257316 0.00044019413933682174 0 0.015521767108579679 0.0013367023336051775 0 0.01550499313937552 0.0017280525699553456 0 0.015337003682209693 0.0013911914317003798 0 0.01352287542673327 -6.8327695776133185e-05 0 0.01361387569340255 -9.9937662300960306e-05 0 0.013519614797117638 -0.00024691567791234421 0 0.02139072824448001 0.004475005690633407 0 0.020169309697815933 0.0038437794607278806 0 0.023294928297944908 0.005416329429867946 0 0.023599266893032891 0.0056434841624564509 0 0.02352445419690587 0.0059159111237356002 0 0.023837920892501092 0.0055934308417334815 0 0.023599266893032891 0.0056434841624564509 0 0.023677351405337176 0.0058675927267737597 0 0.023165458345361288 0.0054415922925284922 0 0.021398622859061415 0.0042011528960097929 0 0.023599266893032891 0.0056434841624564509 0 0.02352445419690587 0.0059159111237356002 0 0.023677351405337176 0.0058675927267737597 0 0.023837920892501092 0.0055934308417334815 0 0.023655233234587434 0.0054141762936752253 0 0.023599266893032891 0.0056434841624564509 0 0.023294928297944908 0.005416329429867946 0 0.023655233234587434 0.0054141762936752253 0 0.023599266893032891 0.0056434841624564509 0 0.01902667607173358 0.0029599980040087444 0 0.018632631470862207 0.0032214357199180153 0 0.019257606046635563 0.0035063518213456204 0 0.016581093005946561 0.0017759245309863882 0 0.017904046556535179 0.002049395160588826 0 0.017947690302703885 0.0013271916264778528 0 0.018632631470862207 0.0032214357199180153 0 0.018685868323812579 0.0036870883145166313 0 0.019257606046635563 0.0035063518213456204 0 0.01751934306633942 0.0027232347001887322 0 0.020169309697815933 0.0038437794607278806 0 0.016581093005946561 0.0017759245309863882 0 0.017904046556535179 0.002049395160588826 0 0.016588783470259501 0.0023385635852997289 0 0.017411442835396869 0.0012568845443805864 0 0.016683590035766926 0.0010756175541585243 0 0.017904046556535179 0.002049395160588826 0 0.01809374121540637 0.00168037433872292 0 0.017947690302703885 0.0013271916264778528 0 0.019133133546223438 0.0023914752236531577 0 0.018959120236580806 0.0024264123015490693 0 0.019007242163806844 0.0024035405151296191 0 0.016683590035766926 0.0010756175541585243 0 0.019203419469870548 0.0023858869449271641 0 0.018959120236580806 0.0024264123015490693 0 0.018990901951491442 0.0023653686126154779 0 0.019007242163806844 0.0024035405151296191 0 0.019203419469870548 0.0023858869449271641 0 0.020169309697815933 0.0038437794607278806 0 0.020169309697815933 0.0038437794607278806 0 0.021398622859061415 0.0042011528960097929 0 0.019203419469870548 0.0023858869449271641 0 0.021398622859061415 0.0042011528960097929 0 0.020227155626049535 0.0035406447504981601 0 0.020262013684058392 0.0036208870632118738 0 0.020179877720170773 0.0036516232231315463 0 0.018998094932730483 0.0023714213754819444 0 0.01904489139392317 0.0022997617769666408 0 0.019073461349701226 0.0023572392258962797 0 0.019133133546223438 0.0023914752236531577 0 0.019073461349701226 0.0023572392258962797 0 0.019007242163806844 0.0024035405151296191 0 0.018998094932730483 0.0023714213754819444 0 0.019073461349701226 0.0023572392258962797 0 0.019007242163806844 0.0024035405151296191 0 0.019203419469870548 0.0023858869449271641 0 0.01917008407495548 0.002368530392514417 0 0.015405635025455054 0.00022055904346344495 0 0.015393732680937182 0.00020394008376870069 0 0.015396151821842978 0.00021201244768146441 0 0.015407773267140783 0.00022227687042281603 0 0.015405635025455054 0.00022055904346344495 0 0.015396151821842978 0.00021201244768146441 0 0.016683590035766926 0.0010756175541585243 0 0.014882881466144242 0.0012550100894693943 0 0.016683590035766926 0.0010756175541585243 0 0.013549235026859719 0.00047283677907028568 0 0.013479326857735249 3.4572372373537997e-05 0 0.013698186834851852 0.00049446229594947845 0 0.013414655790943053 0.00011665303443654241 0 0.014019204712867913 -8.1930110331209768e-05 0 0.013479326857735249 3.4572372373537997e-05 0 0.013698186834851852 0.00049446229594947845 0 0.013549235026859719 0.00047283677907028568 0 0.013408658143366538 0.00011812574263722731 0 0.013438744193890002 0.0002173803769322653 0 0.013378613772182356 0.00020634336574122141 0 0.013324314647097144 0.00033278210244414621 0 0.013438744193890002 0.0002173803769322653 0 0.013414655790943053 0.00011665303443654241 0 0.013378613772182356 0.00020634336574122141 0 0.015393732680937182 0.00020394008376870069 0 0.015375784968905874 0.00018062641281371938 0 0.01537810289019732 0.0001956819701652379 0 0.015393732680937182 0.00020394008376870069 0 0.015396151821842978 0.00021201244768146441 0 0.01537810289019732 0.0001956819701652379 0 0.013461726133560442 4.6023803293943505e-05 0 0.013551331455717503 -1.500954687026176e-05 0 0.013403233585245177 0.00012524823295501975 0 0.013461726133560442 4.6023803293943505e-05 0 0.013459906414148322 -2.6396624659798782e-06 0 0.013389047312985698 8.1378231410724736e-05 0 0.013461726133560442 4.6023803293943505e-05 0 0.013496349157241325 -2.3694213360459744e-07 0 0.013459906414148322 -2.6396624659798782e-06 0 0.013461726133560442 4.6023803293943505e-05 0 0.013496349157241325 -2.3694213360459744e-07 0 0.013551331455717503 -1.500954687026176e-05 0 0.013496349157241325 -2.3694213360459744e-07 0 0.013459906414148322 -2.6396624659798782e-06 0 0.013517184433804487 -3.813314549217468e-05 0 0.013496349157241325 -2.3694213360459744e-07 0 0.013517184433804487 -3.813314549217468e-05 0 0.013551331455717503 -1.500954687026176e-05 0 0.013459906414148322 -2.6396624659798782e-06 0 0.01352287542673327 -6.8327695776133185e-05 0 0.013517184433804487 -3.813314549217468e-05 0 0.014160720105297399 0.001097665073541547 0 0.014990863234274922 0.0014321906745044931 0 0.01352287542673327 -6.8327695776133185e-05 0 0.013517184433804487 -3.813314549217468e-05 0 0.013538708288131899 -6.0239906851022488e-05 0 0.013517184433804487 -3.813314549217468e-05 0 0.013549794433713635 -4.1277080511119186e-05 0 0.013538708288131899 -6.0239906851022488e-05 0 0.013517184433804487 -3.813314549217468e-05 0 0.013549794433713635 -4.1277080511119186e-05 0 0.013551331455717503 -1.500954687026176e-05 0 0.01495661227023205 0.0012578589592334292 0 0.014304281624218295 0.00075808330789896674 0 0.01495661227023205 0.0012578589592334292 0 0.014990863234274922 0.0014321906745044931 0 0.015475291065404262 0.0012494485368642705 0 0.015773214137209592 0.0019706333817860627 0 0.015446202107008077 0.0020835997068961503 0 0.01495661227023205 0.0012578589592334292 0 0.015804397388391941 0.0019991395972608827 0 0.014990863234274922 0.0014321906745044931 0 0.015804397388391941 0.0019991395972608827 0 0.016588783470259501 0.0023385635852997289 0 0.015220503422262128 0.0024563461285899155 0 0.01521245867140616 0.0026388767119656783 0 0.016588783470259501 0.0023385635852997289 0 0.015220503422262128 0.0024563461285899155 0 0.015230604014969208 0.0022204393757043182 0 0.013229607187853517 0.00013209739822468285 0 0.013342849142812394 0.00017193358192450696 0 0.013414655790943053 0.00011665303443654241 0 0.014882881466144242 0.0012550100894693943 0 0.014304281624218295 0.00075808330789896674 0 0.013479326857735249 3.4572372373537997e-05 0 0.013229607187853517 0.00013209739822468285 0 0.013414655790943053 0.00011665303443654241 0 0.013342849142812394 0.00017193358192450696 0 0.013414655790943053 0.00011665303443654241 0 0.013378613772182356 0.00020634336574122141 0 0.013378613772182356 0.00020634336574122141 0 0.013316969732316107 0.00023039755437393361 0 0.013324314647097144 0.00033278210244414621 0 0.013229607187853517 0.00013209739822468285 0 0.013342849142812394 0.00017193358192450696 0 0.013316969732316107 0.00023039755437393361 0 0.013342849142812394 0.00017193358192450696 0 0.013378613772182356 0.00020634336574122141 0 0.013316969732316107 0.00023039755437393361 0 0.013362394889065205 0.00029719188355317256 0 0.013316969732316107 0.00023039755437393361 0 0.013354931453653502 0.00021587869218507531 0 0.013551331455717503 -1.500954687026176e-05 0 0.013354931453653502 0.00021587869218507531 0 0.013403233585245177 0.00012524823295501975 0 0.013316969732316107 0.00023039755437393361 0 0.013354931453653502 0.00021587869218507531 0 0.013235122259248909 0.00031826686903620464 0 0.014304281624218295 0.00075808330789896674 0 0.013120002675959194 -5.6890665806113204e-05 0 0.014304281624218295 0.00075808330789896674 0 0.013406276183610311 -8.9724357472309525e-07 0 0.013354931453653502 0.00021587869218507531 0 0.013250211091276384 0.00028743663607808009 0 0.013322908901498176 0.00018775031689568204 0 0.013354931453653502 0.00021587869218507531 0 0.013403233585245177 0.00012524823295501975 0 0.013322908901498176 0.00018775031689568204 0 0.013403233585245177 0.00012524823295501975 0 0.013389047312985698 8.1378231410724736e-05 0 0.013322908901498176 0.00018775031689568204 0 0.013461726133560442 4.6023803293943505e-05 0 0.013403233585245177 0.00012524823295501975 0 0.013389047312985698 8.1378231410724736e-05 0 0.013354931453653502 0.00021587869218507531 0 0.013235122259248909 0.00031826686903620464 0 0.013250211091276384 0.00028743663607808009 0 0.013235122259248909 0.00031826686903620464 0 0.013250211091276384 0.00028743663607808009 0 0.0131194013796125 0.00041032317597448122 0 0.013316969732316107 0.00023039755437393361 0 0.013235122259248909 0.00031826686903620464 0 0.013324314647097144 0.00033278210244414621 0 0.013235122259248909 0.00031826686903620464 0 0.013324314647097144 0.00033278210244414621 0 0.012990566086980829 0.00048285417565194704 0 0.01292654038720642 0.00073708696713467722 0 0.013041652689673618 0.00044520538797271841 0 0.012707883312994364 0.00097934653390466036 0 0.012612917296065696 0.00041463273975719979 0 0.012990566086980829 0.00048285417565194704 0 0.013250211091276384 0.00028743663607808009 0 0.0131194013796125 0.00041032317597448122 0 0.013155014202732815 0.00037240590586413254 0 0.013235122259248909 0.00031826686903620464 0 0.0131194013796125 0.00041032317597448122 0 0.012990566086980829 0.00048285417565194704 0 0.013549235026859719 0.00047283677907028568 0 0.013877676437334698 0.00060383565398263893 0 0.013549235026859719 0.00047283677907028568 0 0.01292654038720642 0.00073708696713467722 0 0.012505379547000817 0.001392371904320947 0 0.012707883312994364 0.00097934653390466036 0 0.01215324919282995 0.0010018297985788214 0 0.012707883312994364 0.00097934653390466036 0 0.012292654859443974 0.00057179717275825191 0 0.012612917296065696 0.00041463273975719979 0 0.012707883312994364 0.00097934653390466036 0 0.01215324919282995 0.0010018297985788214 0 0.012292654859443974 0.00057179717275825191 0 0.01215324919282995 0.0010018297985788214 0 0.011824361647010751 0.00061679617054820281 0 0.012292654859443974 0.00057179717275825191 0 0.013877676437334698 0.00060383565398263893 0 0.013212139982542243 0.00084820473575439737 0 0.015375784968905874 0.00018062641281371938 0 0.015343965796997648 0.00015086860348814983 0 0.015359405978705555 0.0001788712935717872 0 0.015343965796997648 0.00015086860348814983 0 0.015359405978705555 0.0001788712935717872 0 0.015345846175411838 0.00017396919826022538 0 0.015359405978705555 0.0001788712935717872 0 0.015357988922429934 0.00018609294909167608 0 0.015345846175411838 0.00017396919826022538 0 0.015359405978705555 0.0001788712935717872 0 0.015357988922429934 0.00018609294909167608 0 0.01537810289019732 0.0001956819701652379 0 0.015375784968905874 0.00018062641281371938 0 0.015359405978705555 0.0001788712935717872 0 0.01537810289019732 0.0001956819701652379 0 0.01532305279435075 0.00017867397156999952 0 0.015308438480652133 0.00018221769736663878 0 0.015378837399137063 0.00018552473640226808 0 0.015413360968752178 0.00024678029644350179 0 0.015352318553713506 0.00013159231778860816 0 0.015383948988710086 9.6407816264236813e-05 0 0.015369383701160004 0.00014967878022918458 0 0.015378837399137063 0.00018552473640226808 0 0.015357988922429934 0.00018609294909167608 0 0.01532305279435075 0.00017867397156999952 0 0.015378837399137063 0.00018552473640226808 0 0.015357988922429934 0.00018609294909167608 0 0.015345846175411838 0.00017396919826022538 0 0.01532305279435075 0.00017867397156999952 0 0.015289892447190381 0.00020512038131351721 0 0.01532305279435075 0.00017867397156999952 0 0.015249674060998551 0.00023134544578908451 0 0.015289892447190381 0.00020512038131351721 0 0.01532305279435075 0.00017867397156999952 0 0.01530381043551402 0.00019231054334801825 0 0.01532305279435075 0.00017867397156999952 0 0.01530381043551402 0.00019231054334801825 0 0.015308438480652133 0.00018221769736663878 0 0.01530381043551402 0.00019231054334801825 0 0.015295339636312726 0.00020732715062218488 0 0.015308438480652133 0.00018221769736663878 0 0.015289892447190381 0.00020512038131351721 0 0.01530381043551402 0.00019231054334801825 0 0.015295339636312726 0.00020732715062218488 0 0.015295339636312726 0.00020732715062218488 0 0.015275306729086141 0.00022968226311184621 0 0.015300498371872043 0.00023675697545659922 0 0.015146608064103922 0.00028147069657796114 0 0.01532305279435075 0.00017867397156999952 0 0.015249674060998551 0.00023134544578908451 0 0.015343965796997648 0.00015086860348814983 0 0.015345846175411838 0.00017396919826022538 0 0.01532305279435075 0.00017867397156999952 0 0.015295339636312726 0.00020732715062218488 0 0.015300498371872043 0.00023675697545659922 0 0.015308438480652133 0.00018221769736663878 0 0.013212139982542243 0.00084820473575439737 0 0.015999233842578561 -0.00021984321482030551 0 0.015289892447190381 0.00020512038131351721 0 0.015295339636312726 0.00020732715062218488 0 0.015275306729086141 0.00022968226311184621 0 0.015289892447190381 0.00020512038131351721 0 0.015275306729086141 0.00022968226311184621 0 0.015249674060998551 0.00023134544578908451 0 0.015275306729086141 0.00022968226311184621 0 0.015249674060998551 0.00023134544578908451 0 0.015250118319352584 0.00024767962891535865 0 0.015275306729086141 0.00022968226311184621 0 0.015263414626079363 0.00025306706649207952 0 0.015250118319352584 0.00024767962891535865 0 0.015275306729086141 0.00022968226311184621 0 0.015263414626079363 0.00025306706649207952 0 0.015300498371872043 0.00023675697545659922 0 0.015249674060998551 0.00023134544578908451 0 0.01521956261305334 0.0002604379991227493 0 0.015250118319352584 0.00024767962891535865 0 0.015146608064103922 0.00028147069657796114 0 0.015249674060998551 0.00023134544578908451 0 0.01521956261305334 0.0002604379991227493 0 0.015146608064103922 0.00028147069657796114 0 0.01521956261305334 0.0002604379991227493 0 0.015198509622687758 0.00028021778276622784 0 0.01521956261305334 0.0002604379991227493 0 0.015250118319352584 0.00024767962891535865 0 0.015243176005577203 0.0002678861459330469 0 0.01521956261305334 0.0002604379991227493 0 0.015225811230581112 0.00028614590804848831 0 0.015243176005577203 0.0002678861459330469 0 0.01521956261305334 0.0002604379991227493 0 0.015225811230581112 0.00028614590804848831 0 0.015198509622687758 0.00028021778276622784 0 0.015285563158221341 0.00026071480180384478 0 0.015263414626079363 0.00025306706649207952 0 0.015300498371872043 0.00023675697545659922 0 0.015285563158221341 0.00026071480180384478 0 0.015263414626079363 0.00025306706649207952 0 0.015262475871237835 0.00027474581866086134 0 0.015263414626079363 0.00025306706649207952 0 0.015250118319352584 0.00024767962891535865 0 0.015243176005577203 0.0002678861459330469 0 0.015263414626079363 0.00025306706649207952 0 0.015262475871237835 0.00027474581866086134 0 0.015243176005577203 0.0002678861459330469 0 0.015262475871237835 0.00027474581866086134 0 0.015243176005577203 0.0002678861459330469 0 0.01524562196547127 0.00029684468085863672 0 0.015225811230581112 0.00028614590804848831 0 0.015243176005577203 0.0002678861459330469 0 0.01524562196547127 0.00029684468085863672 0 0.015285563158221341 0.00026071480180384478 0 0.015262475871237835 0.00027474581866086134 0 0.015282151712175767 0.00028218867875417646 0 0.015262475871237835 0.00027474581866086134 0 0.015282151712175767 0.00028218867875417646 0 0.015266470873711843 0.00030667581376202143 0 0.015354741148777372 3.2682152922455504e-05 0 0.015352136467189715 7.3111506903536004e-05 0 0.015300329697824281 9.1843573102077969e-05 0 0.015285563158221341 0.00026071480180384478 0 0.015320228112359733 0.00028203129845429684 0 0.015300498371872043 0.00023675697545659922 0 0.015285563158221341 0.00026071480180384478 0 0.015282151712175767 0.00028218867875417646 0 0.015320228112359733 0.00028203129845429684 0 0.015320228112359733 0.00028203129845429684 0 0.015300498371872043 0.00023675697545659922 0 0.015308438480652133 0.00018221769736663878 0 0.014694113234033445 -0.00025293418349264275 0 0.015413360968752178 0.00024678029644350179 0 0.015354741148777372 3.2682152922455504e-05 0 0.015352136467189715 7.3111506903536004e-05 0 0.015383948988710086 9.6407816264236813e-05 0 0.015497768669029873 -0.00038267760629009446 0 0.015358151102846855 -0.00035057406620603917 0 0.015386436204179206 -0.00019650573277534762 0 0.014694113234033445 -0.00025293418349264275 0 0.015475010882339315 -6.5883630668176705e-05 0 0.015352136467189715 7.3111506903536004e-05 0 0.015300329697824281 9.1843573102077969e-05 0 0.015339252729012277 0.00010095715629768927 0 0.015300329697824281 9.1843573102077969e-05 0 0.015339252729012277 0.00010095715629768927 0 0.015309620863377249 0.00013306666949635355 0 0.015352136467189715 7.3111506903536004e-05 0 0.01535846828212591 9.7523897892679392e-05 0 0.015383948988710086 9.6407816264236813e-05 0 0.01535846828212591 9.7523897892679392e-05 0 0.015383948988710086 9.6407816264236813e-05 0 0.015361150512636593 0.00012046923430735588 0 0.015352136467189715 7.3111506903536004e-05 0 0.01535846828212591 9.7523897892679392e-05 0 0.015339252729012277 0.00010095715629768927 0 0.015339252729012277 0.00010095715629768927 0 0.015361150512636593 0.00012046923430735588 0 0.015354180207884281 0.00014460349806316982 0 0.01535846828212591 9.7523897892679392e-05 0 0.015339252729012277 0.00010095715629768927 0 0.015361150512636593 0.00012046923430735588 0 0.015383948988710086 9.6407816264236813e-05 0 0.015361150512636593 0.00012046923430735588 0 0.015369383701160004 0.00014967878022918458 0 0.015369383701160004 0.00014967878022918458 0 0.015354180207884281 0.00014460349806316982 0 0.015376157817034337 0.00018406501184249004 0 0.015361150512636593 0.00012046923430735588 0 0.015369383701160004 0.00014967878022918458 0 0.015354180207884281 0.00014460349806316982 0 0.015354180207884281 0.00014460349806316982 0 0.015376157817034337 0.00018406501184249004 0 0.015347462461610678 0.0001850631557403704 0 0.015369383701160004 0.00014967878022918458 0 0.015376157817034337 0.00018406501184249004 0 0.015378837399137063 0.00018552473640226808 0 0.015339252729012277 0.00010095715629768927 0 0.015354180207884281 0.00014460349806316982 0 0.015309620863377249 0.00013306666949635355 0 0.015354180207884281 0.00014460349806316982 0 0.015309620863377249 0.00013306666949635355 0 0.015347462461610678 0.0001850631557403704 0 0.015309620863377249 0.00013306666949635355 0 0.015286676633569586 0.00016598665752224793 0 0.015347462461610678 0.0001850631557403704 0 0.015286676633569586 0.00016598665752224793 0 0.015347462461610678 0.0001850631557403704 0 0.015292576738443531 0.00022158551305432683 0 0.015381391892034671 0.00025266710777143261 0 0.015347462461610678 0.0001850631557403704 0 0.015292576738443531 0.00022158551305432683 0 0.015376157817034337 0.00018406501184249004 0 0.015389973369903321 0.00022066507598895687 0 0.015389569957392647 0.0002023523875374834 0 0.015376157817034337 0.00018406501184249004 0 0.015347462461610678 0.0001850631557403704 0 0.015389973369903321 0.00022066507598895687 0 0.015381391892034671 0.00025266710777143261 0 0.015347462461610678 0.0001850631557403704 0 0.015389973369903321 0.00022066507598895687 0 0.015394584718426594 0.00024815982932758558 0 0.015381391892034671 0.00025266710777143261 0 0.015389973369903321 0.00022066507598895687 0 0.01540355366815444 0.00023891990334593745 0 0.015389973369903321 0.00022066507598895687 0 0.015400673920246898 0.00022000554133337405 0 0.015389973369903321 0.00022066507598895687 0 0.015389569957392647 0.0002023523875374834 0 0.015400673920246898 0.00022000554133337405 0 0.015389569957392647 0.0002023523875374834 0 0.015400673920246898 0.00022000554133337405 0 0.01539248440504799 0.00020499259795975615 0 0.015400673920246898 0.00022000554133337405 0 0.015402205330044647 0.00021827782185447083 0 0.01539248440504799 0.00020499259795975615 0 0.015410039016084703 0.00023133109650638756 0 0.015400673920246898 0.00022000554133337405 0 0.015402205330044647 0.00021827782185447083 0 0.015407773267140783 0.00022227687042281603 0 0.015402205330044647 0.00021827782185447083 0 0.015396151821842978 0.00021201244768146441 0 0.015402205330044647 0.00021827782185447083 0 0.015396151821842978 0.00021201244768146441 0 0.01539248440504799 0.00020499259795975615 0 0.015396151821842978 0.00021201244768146441 0 0.01539248440504799 0.00020499259795975615 0 0.01537810289019732 0.0001956819701652379 0 0.015357988922429934 0.00018609294909167608 0 0.01537810289019732 0.0001956819701652379 0 0.015378837399137063 0.00018552473640226808 0 0.01539248440504799 0.00020499259795975615 0 0.01537810289019732 0.0001956819701652379 0 0.015378837399137063 0.00018552473640226808 0 0.015376157817034337 0.00018406501184249004 0 0.015389569957392647 0.0002023523875374834 0 0.015378837399137063 0.00018552473640226808 0 0.015389569957392647 0.0002023523875374834 0 0.01539248440504799 0.00020499259795975615 0 0.015378837399137063 0.00018552473640226808 0 0.013533560309298571 -4.6476088559954836e-07 0 0.013917417025041063 -0.00010453567102663598 0 0.012724980331535799 -0.00026939273595410969 0 0.013053116207702843 -0.00020818886395986485 0 0.013917417025041063 -0.00010453567102663598 0 0.012724980331535799 -0.00026939273595410969 0 0.013053116207702843 -0.00020818886395986485 0 0.012489367709115583 -0.00030804759515347656 0 0.012724980331535799 -0.00026939273595410969 0 0.013053116207702843 -0.00020818886395986485 0 0.013555646684628655 9.8341196121830486e-05 0 0.013917417025041063 -0.00010453567102663598 0 0.013053116207702843 -0.00020818886395986485 0 0.013555646684628655 9.8341196121830486e-05 0 0.013158007422442551 0.00031218704420738527 0 0.013555646684628655 9.8341196121830486e-05 0 0.013917417025041063 -0.00010453567102663598 0 0.014065896785275322 0.000411640085435954 0 0.013015838829417396 0.00021433794156238591 0 0.01507350291271629 -0.00051470500779220391 0 0.013555646684628655 9.8341196121830486e-05 0 0.014065896785275322 0.000411640085435954 0 0.013158007422442551 0.00031218704420738527 0 0.013533560309298571 -4.6476088559954836e-07 0 0.013917417025041063 -0.00010453567102663598 0 0.0154609577553993 9.3039840430609002e-07 0 0.013917417025041063 -0.00010453567102663598 0 0.0154609577553993 9.3039840430609002e-07 0 0.014065896785275322 0.000411640085435954 0 0.0154609577553993 9.3039840430609002e-07 0 0.015937317958900136 0.00012501572596640271 0 0.014065896785275322 0.000411640085435954 0 0.0154609577553993 9.3039840430609002e-07 0 0.015937317958900136 0.00012501572596640271 0 0.017389372313557593 -1.0583992697926228e-06 0 0.015741754163362147 0.00018463483525500517 0 0.015538579760667241 0.0002585292026593534 0 0.015937317958900136 0.00012501572596640271 0 0.016790974875522377 -9.0946909845276668e-05 0 0.016958171475406573 0.00024939100572510204 0 0.015937317958900136 0.00012501572596640271 0 0.017389372313557593 -1.0583992697926228e-06 0 0.016790974875522377 -9.0946909845276668e-05 0 0.017389372313557593 -1.0583992697926228e-06 0 0.016790974875522377 -9.0946909845276668e-05 0 0.017156441597907017 -0.00014804974252024565 0 0.017156441597907017 -0.00014804974252024565 0 0.017102888948705514 -4.5104530266276418e-05 0 0.01704751673194687 -0.00025841928322387086 0 0.017487500725624515 -0.00011205281351739863 0 0.017156441597907017 -0.00014804974252024565 0 0.01704751673194687 -0.00025841928322387086 0 0.016790974875522377 -9.0946909845276668e-05 0 0.017156441597907017 -0.00014804974252024565 0 0.017102888948705514 -4.5104530266276418e-05 0 0.016790974875522377 -9.0946909845276668e-05 0 0.017102888948705514 -4.5104530266276418e-05 0 0.016958171475406573 0.00024939100572510204 0 0.017102888948705514 -4.5104530266276418e-05 0 0.016958171475406573 0.00024939100572510204 0 0.017208045681564883 0.00018062206499166376 0 0.015538579760667241 0.0002585292026593534 0 0.01507350291271629 -0.00051470500779220391 0 0.017054118637690754 -0.00045809150084600252 0 0.01507350291271629 -0.00051470500779220391 0 0.016469272458453657 -0.00052958622424391377 0 0.016051841703416534 -0.0013074607962810956 0 0.016805324700790929 -0.0016844676809404529 0 0.017102888948705514 -4.5104530266276418e-05 0 0.01704751673194687 -0.00025841928322387086 0 0.017208045681564883 0.00018062206499166376 0 0.016469272458453657 -0.00052958622424391377 0 0.015818743179950988 -0.00067108471820991695 0 0.016051841703416534 -0.0013074607962810956 0 0.01579885657398564 -0.00011565481914873725 0 0.016469272458453657 -0.00052958622424391377 0 0.015818743179950988 -0.00067108471820991695 0 0.015818743179950988 -0.00067108471820991695 0 0.016051841703416534 -0.0013074607962810956 0 0.015475459718972573 -0.0010458963579596339 0 0.016051841703416534 -0.0013074607962810956 0 0.01586320257033744 -0.0020579764809432553 0 0.016805324700790929 -0.0016844676809404529 0 0.016051841703416534 -0.0013074607962810956 0 0.01586320257033744 -0.0020579764809432553 0 0.015228936058121307 -0.0017183856738960681 0 0.013053116207702843 -0.00020818886395986485 0 0.012936428578605332 2.5197621166820769e-05 0 0.012660912295098383 -0.00026206727171088296 0 0.01263481352791207 -0.00015827561694334115 0 0.012936428578605332 2.5197621166820769e-05 0 0.012660912295098383 -0.00026206727171088296 0 0.014212904020703089 -0.0012044206997059049 0 0.01507350291271629 -0.00051470500779220391 0 0.013053116207702843 -0.00020818886395986485 0 0.012660912295098383 -0.00026206727171088296 0 0.012489367709115583 -0.00030804759515347656 0 0.01263481352791207 -0.00015827561694334115 0 0.012660912295098383 -0.00026206727171088296 0 0.012645700592694329 -0.00023615304980984623 0 0.012660912295098383 -0.00026206727171088296 0 0.012645700592694329 -0.00023615304980984623 0 0.012672499764229963 -0.00024950403555979388 0 0.012645700592694329 -0.00023615304980984623 0 0.012624924412192227 -0.00023119046811169856 0 0.012672499764229963 -0.00024950403555979388 0 0.013609387875921402 -0.00078454684919013879 0 0.012602083258061416 -2.0335736905570806e-05 0 0.01263481352791207 -0.00015827561694334115 0 0.012645700592694329 -0.00023615304980984623 0 0.012624924412192227 -0.00023119046811169856 0 0.013029699827258974 -0.00019312380173326199 0 0.013023992881620471 -0.00038025099526609941 0 0.012813737805162911 -8.500350516135174e-05 0 0.013247299684287419 -0.00029978593901321354 0 0.013161963596636753 -0.00034491412439150592 0 0.013417992117137534 -0.00040101042519523675 0 0.013029699827258974 -0.00019312380173326199 0 0.013247299684287419 -0.00029978593901321354 0 0.013090445758565925 -5.4729429794379466e-05 0 0.013247299684287419 -0.00029978593901321354 0 0.013306178319748951 -0.00017903522112999376 0 0.013090445758565925 -5.4729429794379466e-05 0 0.013212832678213894 -0.00048319308961857838 0 0.013609387875921402 -0.00078454684919013879 0 0.013029699827258974 -0.00019312380173326199 0 0.013247299684287419 -0.00029978593901321354 0 0.013023992881620471 -0.00038025099526609941 0 0.014864851396003435 -0.0024367472036779889 0 0.014451240527104066 -0.0016918670650333083 0 0.015228936058121307 -0.0017183856738960681 0 0.013609387875921402 -0.00078454684919013879 0 0.014004026861194091 -0.0012243497894359931 0 0.013161963596636753 -0.00034491412439150592 0 0.01340214577417251 -0.00056640301471285826 0 0.013417992117137534 -0.00040101042519523675 0 0.01586320257033744 -0.0020579764809432553 0 0.014864851396003435 -0.0024367472036779889 0 0.015228936058121307 -0.0017183856738960681 0 0.014212904020703089 -0.0012044206997059049 0 0.013609387875921402 -0.00078454684919013879 0 0.016051841703416534 -0.0013074607962810956 0 0.015228936058121307 -0.0017183856738960681 0 0.015475459718972573 -0.0010458963579596339 0 0.015228936058121307 -0.0017183856738960681 0 0.015475459718972573 -0.0010458963579596339 0 0.014791851967631877 -0.00098281765710981728 0 0.015263711063082695 -0.00037630353490835283 0 0.015475459718972573 -0.0010458963579596339 0 0.014791851967631877 -0.00098281765710981728 0 0.015263711063082695 -0.00037630353490835283 0 0.015818743179950988 -0.00067108471820991695 0 0.015475459718972573 -0.0010458963579596339 0 0.015263711063082695 -0.00037630353490835283 0 0.014791851967631877 -0.00098281765710981728 0 0.014582316680316383 -0.00039535668979045449 0 0.014791851967631877 -0.00098281765710981728 0 0.014582316680316383 -0.00039535668979045449 0 0.013957106410067992 -0.00079823873383202514 0 0.014451240527104066 -0.0016918670650333083 0 0.015228936058121307 -0.0017183856738960681 0 0.014791851967631877 -0.00098281765710981728 0 0.014004026861194091 -0.0012243497894359931 0 0.013885346102290851 -0.0007737426862495574 0 0.014451240527104066 -0.0016918670650333083 0 0.014791851967631877 -0.00098281765710981728 0 0.013957106410067992 -0.00079823873383202514 0 0.013776730185192048 -0.00069008046134604257 0 0.013957106410067992 -0.00079823873383202514 0 0.013822699947010195 -0.00071236386832682931 0 0.01340214577417251 -0.00056640301471285826 0 0.013776730185192048 -0.00069008046134604257 0 0.01365460512388271 -0.00050813946092195827 0 0.01340214577417251 -0.00056640301471285826 0 0.013776730185192048 -0.00069008046134604257 0 0.013957106410067992 -0.00079823873383202514 0 0.013957106410067992 -0.00079823873383202514 0 0.013932099915519745 -0.00056845096406485059 0 0.013822699947010195 -0.00071236386832682931 0 0.013975818676853595 -0.00026799800440593658 0 0.013932099915519745 -0.00056845096406485059 0 0.01415146238926413 -0.00043927188352834573 0 0.013957106410067992 -0.00079823873383202514 0 0.013932099915519745 -0.00056845096406485059 0 0.01415146238926413 -0.00043927188352834573 0 0.014582316680316383 -0.00039535668979045449 0 0.013957106410067992 -0.00079823873383202514 0 0.01415146238926413 -0.00043927188352834573 0 0.013705218520554232 -0.00019134307762170262 0 0.013589586598804907 -0.00055670785494608553 0 0.013805470747746459 -0.00047712917796598393 0 0.013975818676853595 -0.00026799800440593658 0 0.013932099915519745 -0.00056845096406485059 0 0.013805470747746459 -0.00047712917796598393 0 0.013932099915519745 -0.00056845096406485059 0 0.013805470747746459 -0.00047712917796598393 0 0.013822699947010195 -0.00071236386832682931 0 0.013589586598804907 -0.00055670785494608553 0 0.013822699947010195 -0.00071236386832682931 0 0.013777220875411948 -0.00082389103262705589 0 0.013589586598804907 -0.00055670785494608553 0 0.013805470747746459 -0.00047712917796598393 0 0.013822699947010195 -0.00071236386832682931 0 0.014434866383986602 0.00012608004176692907 0 0.014078474160439575 -5.8238078788245155e-05 0 0.015392214924307838 0.0011020315227753214 0 0.01519180719416641 0.0010434110818415636 0 0.015337003682209693 0.0013911914317003798 0 0.015374487093249784 0.00079938538499148076 0 0.015392214924307838 0.0011020315227753214 0 0.01519180719416641 0.0010434110818415636 0 0.013776730185192048 -0.00069008046134604257 0 0.013822699947010195 -0.00071236386832682931 0 0.013847071783953545 -0.00067915924699276536 0 0.013847612906669781 -0.00063286589647306097 0 0.014078474160439575 -5.8238078788245155e-05 0 0.013776730185192048 -0.00069008046134604257 0 0.013847071783953545 -0.00067915924699276536 0 0.01365460512388271 -0.00050813946092195827 0 0.014078474160439575 -5.8238078788245155e-05 0 0.013805068242677373 -0.00051643237013641386 0 0.014078474160439575 -5.8238078788245155e-05 0 0.014458223266257316 0.00044019413933682174 0 0.01365460512388271 -0.00050813946092195827 0 0.013456358461493808 -0.00029519332391678615 0 0.013519614797117638 -0.00024691567791234421 0 0.013670519979802084 -0.00052157964600275605 0 0.01362999324967664 -0.00038631462441006371 0 0.01365460512388271 -0.00050813946092195827 0 0.01362999324967664 -0.00038631462441006371 0 0.01365460512388271 -0.00050813946092195827 0 0.013519614797117638 -0.00024691567791234421 0 0.01365460512388271 -0.00050813946092195827 0 0.013417992117137534 -0.00040101042519523675 0 0.013456358461493808 -0.00029519332391678615 0 0.01340214577417251 -0.00056640301471285826 0 0.01365460512388271 -0.00050813946092195827 0 0.013417992117137534 -0.00040101042519523675 0 0.013417992117137534 -0.00040101042519523675 0 0.013456358461493808 -0.00029519332391678615 0 0.013358090875456358 -0.0002955458840333619 0 0.013247299684287419 -0.00029978593901321354 0 0.013417992117137534 -0.00040101042519523675 0 0.013358090875456358 -0.0002955458840333619 0 0.013247299684287419 -0.00029978593901321354 0 0.013358090875456358 -0.0002955458840333619 0 0.013306178319748951 -0.00017903522112999376 0 0.013456358461493808 -0.00029519332391678615 0 0.013358090875456358 -0.0002955458840333619 0 0.013306178319748951 -0.00017903522112999376 0 0.013456358461493808 -0.00029519332391678615 0 0.013306178319748951 -0.00017903522112999376 0 0.013383250368326995 -0.00017736060764813358 0 0.013456358461493808 -0.00029519332391678615 0 0.013383250368326995 -0.00017736060764813358 0 0.013436581891221456 -0.000165587613738014 0 0.013456358461493808 -0.00029519332391678615 0 0.013436581891221456 -0.000165587613738014 0 0.013519614797117638 -0.00024691567791234421 0 0.013436581891221456 -0.000165587613738014 0 0.013519614797117638 -0.00024691567791234421 0 0.013470400648051994 -0.00011082105629354886 0 0.01352287542673327 -6.8327695776133185e-05 0 0.013519614797117638 -0.00024691567791234421 0 0.013470400648051994 -0.00011082105629354886 0 0.01339419914429134 -1.983613392676247e-05 0 0.01333087976264819 -6.643265087640238e-05 0 0.013290782048265013 9.2401338164499033e-05 0 0.01339419914429134 -1.983613392676247e-05 0 0.013290782048265013 9.2401338164499033e-05 0 0.013389047312985698 8.1378231410724736e-05 0 0.013459906414148322 -2.6396624659798782e-06 0 0.01339419914429134 -1.983613392676247e-05 0 0.013389047312985698 8.1378231410724736e-05 0 0.013459906414148322 -2.6396624659798782e-06 0 0.01339419914429134 -1.983613392676247e-05 0 0.013470400648051994 -0.00011082105629354886 0 0.013436581891221456 -0.000165587613738014 0 0.01339419914429134 -1.983613392676247e-05 0 0.013470400648051994 -0.00011082105629354886 0 0.013459906414148322 -2.6396624659798782e-06 0 0.01352287542673327 -6.8327695776133185e-05 0 0.013470400648051994 -0.00011082105629354886 0 0.013383250368326995 -0.00017736060764813358 0 0.013436581891221456 -0.000165587613738014 0 0.01333087976264819 -6.643265087640238e-05 0 0.013436581891221456 -0.000165587613738014 0 0.01339419914429134 -1.983613392676247e-05 0 0.01333087976264819 -6.643265087640238e-05 0 0.013306178319748951 -0.00017903522112999376 0 0.013383250368326995 -0.00017736060764813358 0 0.01333087976264819 -6.643265087640238e-05 0 0.013306178319748951 -0.00017903522112999376 0 0.01333087976264819 -6.643265087640238e-05 0 0.013229800252989572 -6.3329996590205836e-06 0 0.013306178319748951 -0.00017903522112999376 0 0.013229800252989572 -6.3329996590205836e-06 0 0.013090445758565925 -5.4729429794379466e-05 0 0.013229800252989572 -6.3329996590205836e-06 0 0.013153908403086013 0.00012690834037422106 0 0.013090445758565925 -5.4729429794379466e-05 0 0.01333087976264819 -6.643265087640238e-05 0 0.013229800252989572 -6.3329996590205836e-06 0 0.013290782048265013 9.2401338164499033e-05 0 0.013229800252989572 -6.3329996590205836e-06 0 0.013153908403086013 0.00012690834037422106 0 0.013290782048265013 9.2401338164499033e-05 0 0.013153908403086013 0.00012690834037422106 0 0.013290782048265013 9.2401338164499033e-05 0 0.013234428135160041 0.00023667609256731453 0 0.013290782048265013 9.2401338164499033e-05 0 0.013389047312985698 8.1378231410724736e-05 0 0.013322908901498176 0.00018775031689568204 0 0.013290782048265013 9.2401338164499033e-05 0 0.013322908901498176 0.00018775031689568204 0 0.013234428135160041 0.00023667609256731453 0 0.013234428135160041 0.00023667609256731453 0 0.013155014202732815 0.00037240590586413254 0 0.013115558584787449 0.00030741575657056608 0 0.013250211091276384 0.00028743663607808009 0 0.013234428135160041 0.00023667609256731453 0 0.013155014202732815 0.00037240590586413254 0 0.013250211091276384 0.00028743663607808009 0 0.013322908901498176 0.00018775031689568204 0 0.013234428135160041 0.00023667609256731453 0 0.013155014202732815 0.00037240590586413254 0 0.013063032346731772 0.0004495522089752589 0 0.013083941545726513 0.00041275265700367863 0 0.0131194013796125 0.00041032317597448122 0 0.013155014202732815 0.00037240590586413254 0 0.013083941545726513 0.00041275265700367863 0 0.013155014202732815 0.00037240590586413254 0 0.013115558584787449 0.00030741575657056608 0 0.013063032346731772 0.0004495522089752589 0 0.013115558584787449 0.00030741575657056608 0 0.01297904996572768 0.00037991023533500204 0 0.013063032346731772 0.0004495522089752589 0 0.013153908403086013 0.00012690834037422106 0 0.013234428135160041 0.00023667609256731453 0 0.013115558584787449 0.00030741575657056608 0 0.013153908403086013 0.00012690834037422106 0 0.013115558584787449 0.00030741575657056608 0 0.01304301061588869 0.00023616780160902508 0 0.01304301061588869 0.00023616780160902508 0 0.01297904996572768 0.00037991023533500204 0 0.01291821627215042 0.00014288910005799931 0 0.013115558584787449 0.00030741575657056608 0 0.01304301061588869 0.00023616780160902508 0 0.01297904996572768 0.00037991023533500204 0 0.01297904996572768 0.00037991023533500204 0 0.012750130940041016 0.00043848395162043066 0 0.012866755201705431 0.00063747607956273519 0 0.012750130940041016 0.00043848395162043066 0 0.01291821627215042 0.00014288910005799931 0 0.012589990073161935 6.1023885434318518e-05 0 0.01297904996572768 0.00037991023533500204 0 0.012750130940041016 0.00043848395162043066 0 0.01291821627215042 0.00014288910005799931 0 0.01291821627215042 0.00014288910005799931 0 0.012813737805162911 -8.500350516135174e-05 0 0.012589990073161935 6.1023885434318518e-05 0 0.01291821627215042 0.00014288910005799931 0 0.013090445758565925 -5.4729429794379466e-05 0 0.012813737805162911 -8.500350516135174e-05 0 0.013153908403086013 0.00012690834037422106 0 0.01304301061588869 0.00023616780160902508 0 0.01291821627215042 0.00014288910005799931 0 0.013153908403086013 0.00012690834037422106 0 0.01291821627215042 0.00014288910005799931 0 0.013090445758565925 -5.4729429794379466e-05 0 0.013029699827258974 -0.00019312380173326199 0 0.013090445758565925 -5.4729429794379466e-05 0 0.012813737805162911 -8.500350516135174e-05 0 0.012660912295098383 -0.00026206727171088296 0 0.012672499764229963 -0.00024950403555979388 0 0.012489367709115583 -0.00030804759515347656 0 0.012489367709115583 -0.00030804759515347656 0 0.012589990073161935 6.1023885434318518e-05 0 0.011880988132326008 -0.00015623069605567765 0 0.012602083258061416 -2.0335736905570806e-05 0 0.012644466489191519 -3.9252854782069771e-06 0 0.012672499764229963 -0.00024950403555979388 0 0.012489367709115583 -0.00030804759515347656 0 0.012589990073161935 6.1023885434318518e-05 0 0.012750130940041016 0.00043848395162043066 0 0.012589990073161935 6.1023885434318518e-05 0 0.012295791093082166 0.00044546427276328593 0 0.012750130940041016 0.00043848395162043066 0 0.012295791093082166 0.00044546427276328593 0 0.012514734659252735 0.00079331147297700868 0 0.012295791093082166 0.00044546427276328593 0 0.011801594637614245 0.0010723526901320318 0 0.012514734659252735 0.00079331147297700868 0 0.012295791093082166 0.00044546427276328593 0 0.011417655593355617 0.00028774577678745218 0 0.011801594637614245 0.0010723526901320318 0 0.012589990073161935 6.1023885434318518e-05 0 0.012295791093082166 0.00044546427276328593 0 0.011880988132326008 -0.00015623069605567765 0 0.012295791093082166 0.00044546427276328593 0 0.011417655593355617 0.00028774577678745218 0 0.011880988132326008 -0.00015623069605567765 0 0.011417655593355617 0.00028774577678745218 0 0.010615725740908265 1.3740959787018043e-08 0 0.011880988132326008 -0.00015623069605567765 0 0.0079050082385852261 0.0015767417798524094 0 0.0088272435113968817 0.00077312311773707076 0 0.011417655593355617 0.00028774577678745218 0 0.011801594637614245 0.0010723526901320318 0 0.0091550204780171413 0.00056200612762557752 0 0.0096787606522379249 5.5717820883200391e-07 0 0.0071986885085880137 0.00064212572008789199 0 0.0041362354535493728 0.0024519675454757824 0 0.0091550204780171413 0.00056200612762557752 0 0.0074300052845634535 0.00092918789198043563 0 0.0096769741866117812 5.6116764694937873e-06 0 0.0061867087682873929 0.0012013044306777546 0 0.0074300052845634535 0.00092918789198043563 0 0.0096769741866117812 5.6116764694937873e-06 0 0.0091550204780171413 0.00056200612762557752 0 0.0074300052845634535 0.00092918789198043563 0 0.0096769741866117812 5.6116764694937873e-06 0 0.0091550204780171413 0.00056200612762557752 0 0.010615725740908265 1.3740959787018043e-08 0 0.011417655593355617 0.00028774577678745218 0 0.0091550204780171413 0.00056200612762557752 0 0.010615725740908265 1.3740959787018043e-08 0 0.0096769741866117812 5.6116764694937873e-06 0 0.010615725740908265 1.3740959787018043e-08 0 0.011608051912428419 -1.8826127758768996e-06 0 0.010615725740908265 1.3740959787018043e-08 0 0.011608051912428419 -1.8826127758768996e-06 0 0.011880988132326008 -0.00015623069605567765 0 0.011608051912428419 -1.8826127758768996e-06 0 0.011880988132326008 -0.00015623069605567765 0 0.012724980331535799 -0.00026939273595410969 0 0.012489367709115583 -0.00030804759515347656 0 0.011880988132326008 -0.00015623069605567765 0 0.012724980331535799 -0.00026939273595410969 0 0.013533560309298571 -4.6476088559954836e-07 0 0.011608051912428419 -1.8826127758768996e-06 0 0.012724980331535799 -0.00026939273595410969 0 0.0047073404554398325 7.2892629193672774e-06 0 0.0058713484528493624 -1.0943416911797115e-07 0 0.0039662177286413853 5.0925741903751335e-07 0 0.003417907523676825 0.00030623099322667549 0 0.0032946632010830137 0.00020594414368440154 0 0.0039489772391331345 0.0004843588235789482 0 0.003417907523676825 0.00030623099322667549 0 0.0030508605844248083 0.00021742753294406368 0 0.0033931021123209332 0.00040303615512221668 0 0.0032946632010830137 0.00020594414368440154 0 0.0030508605844248083 0.00021742753294406368 0 0.0027715251252538034 9.0875745285350104e-05 0 0.003417907523676825 0.00030623099322667549 0 0.0032946632010830137 0.00020594414368440154 0 0.0030508605844248083 0.00021742753294406368 0 0.0027060693491571326 0.00026346778421867674 0 0.0022399192037566521 0.00042999313046383796 0 0.0019498806475113516 3.2251298494574761e-05 0 0.0030508605844248083 0.00021742753294406368 0 0.0027060693491571326 0.00026346778421867674 0 0.0025120438169428613 8.4361845552677667e-05 0 0.0027060693491571326 0.00026346778421867674 0 0.0019498806475113516 3.2251298494574761e-05 0 0.0025120438169428613 8.4361845552677667e-05 0 0.0030508605844248083 0.00021742753294406368 0 0.0027060693491571326 0.00026346778421867674 0 0.0033931021123209332 0.00040303615512221668 0 0.0027060693491571326 0.00026346778421867674 0 0.0033931021123209332 0.00040303615512221668 0 0.0032592884124032673 0.00060329560478655266 0 0.0027060693491571326 0.00026346778421867674 0 0.0032592884124032673 0.00060329560478655266 0 0.0022399192037566521 0.00042999313046383796 0 0.0033931021123209332 0.00040303615512221668 0 0.0032592884124032673 0.00060329560478655266 0 0.004113816454006926 0.00065755656487399242 0 0.0047073404554398325 7.2892629193672774e-06 0 0.0058713484528493624 -1.0943416911797115e-07 0 0.0063467676938941111 -7.107284082293336e-07 0 0.0032946632010830137 0.00020594414368440154 0 0.0039489772391331345 0.0004843588235789482 0 0.0045160517176682131 0.0006119566351480794 0 0.0044220604822507691 0.00065719231096735226 0 0.004113816454006926 0.00065755656487399242 0 0.0039489772391331345 0.0004843588235789482 0 0.0040011886221213355 5.8081164117612548e-05 0 0.0054466506023323237 0.00029271192846492048 0 0.0033931021123209332 0.00040303615512221668 0 0.004113816454006926 0.00065755656487399242 0 0.0039489772391331345 0.0004843588235789482 0 0.003417907523676825 0.00030623099322667549 0 0.0033931021123209332 0.00040303615512221668 0 0.0039489772391331345 0.0004843588235789482 0 0.0044220604822507691 0.00065719231096735226 0 0.0039489772391331345 0.0004843588235789482 0 0.0045160517176682131 0.0006119566351480794 0 0.0044220604822507691 0.00065719231096735226 0 0.0045160517176682131 0.0006119566351480794 0 0.0051135919449432476 0.00090276616593829506 0 0.0045160517176682131 0.0006119566351480794 0 0.0051135919449432476 0.00090276616593829506 0 0.0061867087682873929 0.0012013044306777546 0 0.0063467676938941111 -7.107284082293336e-07 0 0.007775404101740796 3.7533746769434501e-08 0 0.0080144288025117763 2.9527571925047084e-07 0 0.0054466506023323237 0.00029271192846492048 0 0.0071986885085880137 0.00064212572008789199 0 0.0058713484528493624 -1.0943416911797115e-07 0 0.0063467676938941111 -7.107284082293336e-07 0 0.007775404101740796 3.7533746769434501e-08 0 0.0044220604822507691 0.00065719231096735226 0 0.004113816454006926 0.00065755656487399242 0 0.0051135919449432476 0.00090276616593829506 0 0.004113816454006926 0.00065755656487399242 0 0.0051135919449432476 0.00090276616593829506 0 0.0043315187888332256 0.00096760571064948876 0 0.0051135919449432476 0.00090276616593829506 0 0.0057485648973932485 0.0010796590200684395 0 0.0043315187888332256 0.00096760571064948876 0 0.0051135919449432476 0.00090276616593829506 0 0.0061867087682873929 0.0012013044306777546 0 0.0057485648973932485 0.0010796590200684395 0 0.0096798465568758291 -1.1409165055718718e-08 0 0.007775404101740796 3.7533746769434501e-08 0 0.0080144288025117763 2.9527571925047084e-07 0 0.0061867087682873929 0.0012013044306777546 0 0.0063986895379069047 0.0011057091349368888 0 0.0057485648973932485 0.0010796590200684395 0 0.0057485648973932485 0.0010796590200684395 0 0.0056412103759729262 0.0012219658055182693 0 0.0043315187888332256 0.00096760571064948876 0 0.0063986895379069047 0.0011057091349368888 0 0.0057485648973932485 0.0010796590200684395 0 0.0056412103759729262 0.0012219658055182693 0 0.0063986895379069047 0.0011057091349368888 0 0.0056412103759729262 0.0012219658055182693 0 0.0074300052845634535 0.00092918789198043563 0 0.0061867087682873929 0.0012013044306777546 0 0.0063986895379069047 0.0011057091349368888 0 0.0074300052845634535 0.00092918789198043563 0 0.0041362354535493728 0.0024519675454757824 0 0.0043315187888332256 0.00096760571064948876 0 0.0024531459371950528 0.0010488588005603025 0 0.0041362354535493728 0.0024519675454757824 0 0.0056412103759729262 0.0012219658055182693 0 0.0074300052845634535 0.00092918789198043563 0 0.0041362354535493728 0.0024519675454757824 0 0.0056412103759729262 0.0012219658055182693 0 0.0043315187888332256 0.00096760571064948876 0 0.0032592884124032673 0.00060329560478655266 0 0.004113816454006926 0.00065755656487399242 0 0.0043315187888332256 0.00096760571064948876 0 0.0032592884124032673 0.00060329560478655266 0 0.0043315187888332256 0.00096760571064948876 0 0.0024531459371950528 0.0010488588005603025 0 0.0041362354535493728 0.0024519675454757824 0 0.0024531459371950528 0.0010488588005603025 0 0.0015392203427529352 0.0024757162685805929 0 0.0079050082385852261 0.0015767417798524094 0 0.0069946819218687367 0.0016285841943790456 0 0.0024531459371950528 0.0010488588005603025 0 0.0015392203427529352 0.0024757162685805929 0 0.00046331053427735135 0.00094570010361540136 0 0.0024531459371950528 0.0010488588005603025 0 0.0012535929526371087 0.00047254818484061915 0 0.00046331053427735135 0.00094570010361540136 0 0.0024531459371950528 0.0010488588005603025 0 0.0022399192037566521 0.00042999313046383796 0 0.0012535929526371087 0.00047254818484061915 0 0.0032592884124032673 0.00060329560478655266 0 0.0024531459371950528 0.0010488588005603025 0 0.0022399192037566521 0.00042999313046383796 0 0.0022399192037566521 0.00042999313046383796 0 0.0012279107816129545 4.0597369342224283e-05 0 0.0019498806475113516 3.2251298494574761e-05 0 0.0022399192037566521 0.00042999313046383796 0 0.0012279107816129545 4.0597369342224283e-05 0 0.0012535929526371087 0.00047254818484061915 0 0.0012279107816129545 4.0597369342224283e-05 0 0.0012535929526371087 0.00047254818484061915 0 -0.00011850917983201606 -3.1534735479306147e-05 0 0.0012535929526371087 0.00047254818484061915 0 0.00046331053427735135 0.00094570010361540136 0 -0.00011850917983201606 -3.1534735479306147e-05 0 -0.00073723694459448016 0.00038033177166771451 0 0.00046331053427735135 0.00094570010361540136 0 -0.00011850917983201606 -3.1534735479306147e-05 0 -0.00073723694459448016 0.00038033177166771451 0 -0.0015918190431827772 0.00025666677434622409 0 -0.001329869582585286 -0.00013369605059126822 0 -0.00073723694459448016 0.00038033177166771451 0 -0.00091803730535135305 0.00099025789518872548 0 -0.0015918190431827772 0.00025666677434622409 0 -0.00073723694459448016 0.00038033177166771451 0 -0.00091803730535135305 0.00099025789518872548 0 0.00046331053427735135 0.00094570010361540136 0 -0.00091803730535135305 0.00099025789518872548 0 0.00046331053427735135 0.00094570010361540136 0 -0.00034141989620566787 0.002137552074981047 0 0.0015392203427529352 0.0024757162685805929 0 0.00046331053427735135 0.00094570010361540136 0 -0.00034141989620566787 0.002137552074981047 0 0.0069946819218687367 0.0016285841943790456 0 0.0062542416944620363 0.0013679219298053066 0 0.012750130940041016 0.00043848395162043066 0 0.012514734659252735 0.00079331147297700868 0 0.012866755201705431 0.00063747607956273519 0 0.01297904996572768 0.00037991023533500204 0 0.012866755201705431 0.00063747607956273519 0 0.013063032346731772 0.0004495522089752589 0 0.0062542416944620363 0.0013679219298053066 0 0.0056995688074808785 0.0010200947614634258 0 -0.00091803730535135305 0.00099025789518872548 0 -0.00034141989620566787 0.002137552074981047 0 -0.0016561170046405971 0.0015900210607163263 0 0.012866755201705431 0.00063747607956273519 0 0.01303864322578307 0.00045098557147409775 0 0.013063032346731772 0.0004495522089752589 0 0.01303864322578307 0.00045098557147409775 0 0.013063032346731772 0.0004495522089752589 0 0.013083941545726513 0.00041275265700367863 0 0.0056995688074808785 0.0010200947614634258 0 0.0052094887289565192 0.0006126182805705529 0 0.01303864322578307 0.00045098557147409775 0 0.013083941545726513 0.00041275265700367863 0 0.012976646804179667 0.00018332782900901416 0 -0.0016561170046405971 0.0015900210607163263 0 -0.0021546303276361702 0.00064760510655641006 0 -0.0024962989742881008 0.0010739942682620838 0 -0.00091803730535135305 0.00099025789518872548 0 -0.0016561170046405971 0.0015900210607163263 0 -0.0021546303276361702 0.00064760510655641006 0 -0.0015918190431827772 0.00025666677434622409 0 -0.0021546303276361702 0.00064760510655641006 0 -0.0022862224934611357 8.9700811374059477e-05 0 -0.00091803730535135305 0.00099025789518872548 0 -0.0015918190431827772 0.00025666677434622409 0 -0.0021546303276361702 0.00064760510655641006 0 -0.0021546303276361702 0.00064760510655641006 0 -0.0022862224934611357 8.9700811374059477e-05 0 -0.0025998255232072358 0.0002667123813040504 0 -0.0022862224934611357 8.9700811374059477e-05 0 -0.0024782021916193767 -0.00019450949224860485 0 -0.0026505783624315668 -6.6932005051302518e-05 0 -0.0022862224934611357 8.9700811374059477e-05 0 -0.0020844736476268184 -0.00017099287022631973 0 -0.0024782021916193767 -0.00019450949224860485 0 -0.0015918190431827772 0.00025666677434622409 0 -0.0022862224934611357 8.9700811374059477e-05 0 -0.0020844736476268184 -0.00017099287022631973 0 -0.0015918190431827772 0.00025666677434622409 0 -0.0020844736476268184 -0.00017099287022631973 0 -0.001329869582585286 -0.00013369605059126822 0 -0.0020844736476268184 -0.00017099287022631973 0 -0.0024425149816490127 -0.00034215111922544626 0 -0.0020493113853072417 -0.00033890564031650302 0 -0.0020844736476268184 -0.00017099287022631973 0 -0.0024425149816490127 -0.00034215111922544626 0 -0.0024782021916193767 -0.00019450949224860485 0 -0.0024782021916193767 -0.00019450949224860485 0 -0.0026505783624315668 -6.6932005051302518e-05 0 -0.0027412569615985331 -0.0002904955097711767 0 -0.0024425149816490127 -0.00034215111922544626 0 -0.0024782021916193767 -0.00019450949224860485 0 -0.0027412569615985331 -0.0002904955097711767 0 -0.0024425149816490127 -0.00034215111922544626 0 -0.003032503804947431 -0.00055929685036595206 0 -0.0027412569615985331 -0.0002904955097711767 0 -0.0024425149816490127 -0.00034215111922544626 0 -0.003032503804947431 -0.00055929685036595206 0 -0.0024298428888462711 -0.00061940969878518924 0 -0.0034698926923093457 -0.00097970733369451713 0 -0.0027639525102902871 -0.00061191918313675494 0 -0.0030955725037729673 -0.0010883641823094356 0 -0.003032503804947431 -0.00055929685036595206 0 -0.0024298428888462711 -0.00061940969878518924 0 -0.0038513785727878396 -0.00088082315504725789 0 -0.0033550509463526508 -0.00081441979358154134 0 -0.0031117182817606485 -0.00055353918271441828 0 -0.0031594090138138101 -0.00096076371247192131 0 -0.0033550509463526508 -0.00081441979358154134 0 -0.0025843695683468236 -0.00070757339422844337 0 -0.0033550509463526508 -0.00081441979358154134 0 -0.0031117182817606485 -0.00055353918271441828 0 -0.0025843695683468236 -0.00070757339422844337 0 -0.0031117182817606485 -0.00055353918271441828 0 -0.0025843695683468236 -0.00070757339422844337 0 -0.0020493113853072417 -0.00033890564031650302 0 -0.0027639525102902871 -0.00061191918313675494 0 -0.0021796971490874993 -0.0003460046151902314 0 -0.0024425149816490127 -0.00034215111922544626 0 -0.0024298428888462711 -0.00061940969878518924 0 -0.0020493113853072417 -0.00033890564031650302 0 -0.0025843695683468236 -0.00070757339422844337 0 -0.0013897275039649556 -0.00047012241765644432 0 -0.0020493113853072417 -0.00033890564031650302 0 -0.0029496977050713735 -0.0010240191820469278 0 -0.0025843695683468236 -0.00070757339422844337 0 -0.0021962596401081487 -0.00075360393592213584 0 -0.0013679318937703017 -0.00084167154496884674 0 -0.00071067310839764816 -0.00048843805989358987 0 -0.0025843695683468236 -0.00070757339422844337 0 -0.0021962596401081487 -0.00075360393592213584 0 -0.0013897275039649556 -0.00047012241765644432 0 -0.0020844736476268184 -0.00017099287022631973 0 -0.0020493113853072417 -0.00033890564031650302 0 -0.001329869582585286 -0.00013369605059126822 0 -0.0013897275039649556 -0.00047012241765644432 0 -0.0020493113853072417 -0.00033890564031650302 0 -0.001329869582585286 -0.00013369605059126822 0 -0.00071067310839764816 -0.00048843805989358987 0 -0.00023317156450071701 1.2032352365880143e-05 0 -0.00073723694459448016 0.00038033177166771451 0 -0.001329869582585286 -0.00013369605059126822 0 -0.00011850917983201606 -3.1534735479306147e-05 0 -0.0013897275039649556 -0.00047012241765644432 0 -0.001329869582585286 -0.00013369605059126822 0 -0.00011850917983201606 -3.1534735479306147e-05 0 0.0012279107816129545 4.0597369342224283e-05 0 -0.00011850917983201606 -3.1534735479306147e-05 0 0.00064157233800577471 -0.00044329864223059342 0 0.0012279107816129545 4.0597369342224283e-05 0 0.0014404986178548043 -0.00023463469501707027 0 0.00064157233800577471 -0.00044329864223059342 0 0.0012279107816129545 4.0597369342224283e-05 0 0.0019498806475113516 3.2251298494574761e-05 0 0.0014404986178548043 -0.00023463469501707027 0 0.00093671059634059821 -0.00053333840416528485 0 0.00064157233800577471 -0.00044329864223059342 0 0.0001563431043986063 -0.00077428896398539068 0 0.0014404986178548043 -0.00023463469501707027 0 0.00093671059634059821 -0.00053333840416528485 0 0.00064157233800577471 -0.00044329864223059342 0 -4.82617325786107e-05 -0.00061625257580421948 0 -0.00011850917983201606 -3.1534735479306147e-05 0 0.00064157233800577471 -0.00044329864223059342 0 -4.82617325786107e-05 -0.00061625257580421948 0 0.00064157233800577471 -0.00044329864223059342 0 0.0001563431043986063 -0.00077428896398539068 0 -0.00053687873789925078 -0.00093311347169378566 0 -4.82617325786107e-05 -0.00061625257580421948 0 0.0001563431043986063 -0.00077428896398539068 0 -0.00053687873789925078 -0.00093311347169378566 0 0.0001563431043986063 -0.00077428896398539068 0 -0.00025873967329149327 -0.00096597383181376963 0 -0.00063400192287296178 -0.0011229402579052445 0 -0.00053687873789925078 -0.00093311347169378566 0 -0.00025873967329149327 -0.00096597383181376963 0 0.0001563431043986063 -0.00077428896398539068 0 -0.00025873967329149327 -0.00096597383181376963 0 3.1160692955695571e-05 -0.0010329076877020791 0 0.0001563431043986063 -0.00077428896398539068 0 3.1160692955695571e-05 -0.0010329076877020791 0 0.00081921624283094719 -0.00072202390176709732 0 -0.00063400192287296178 -0.0011229402579052445 0 -0.00025873967329149327 -0.00096597383181376963 0 3.1160692955695571e-05 -0.0010329076877020791 0 0.00093671059634059821 -0.00053333840416528485 0 0.0001563431043986063 -0.00077428896398539068 0 0.00081921624283094719 -0.00072202390176709732 0 0.00093671059634059821 -0.00053333840416528485 0 0.00081921624283094719 -0.00072202390176709732 0 0.0016234559641235113 -0.00035084183773516223 0 0.00081921624283094719 -0.00072202390176709732 0 0.0016321504732535559 -0.00032610359110537564 0 0.0016234559641235113 -0.00035084183773516223 0 3.1160692955695571e-05 -0.0010329076877020791 0 0.00081921624283094719 -0.00072202390176709732 0 0.00041056968938946609 -0.0010466326474213676 0 0.00081921624283094719 -0.00072202390176709732 0 0.00076505334475528814 -0.00088063862127404327 0 0.0011172977891710774 -0.00070232605804521758 0 0.00081921624283094719 -0.00072202390176709732 0 0.00076505334475528814 -0.00088063862127404327 0 0.00041056968938946609 -0.0010466326474213676 0 0.00076505334475528814 -0.00088063862127404327 0 0.00041056968938946609 -0.0010466326474213676 0 0.00063920012844952264 -0.0010766064495420025 0 0.00025547089642804729 -0.0012382588065623446 0 0.00041056968938946609 -0.0010466326474213676 0 0.00063920012844952264 -0.0010766064495420025 0 -1.8863215553176818e-05 -0.0012744169034981786 0 3.1160692955695571e-05 -0.0010329076877020791 0 0.00041056968938946609 -0.0010466326474213676 0 0.00038715892012656313 -0.00064897230868030554 0 0.0020619695288100412 -2.3433831117864685e-07 0 0.00086130893128031271 -0.0011983500055850079 0 0.0011172977891710774 -0.00070232605804521758 0 0.0020624757469115134 -2.1035403418940864e-06 0 0.000339307715727993 -4.6906012327763542e-08 0 -4.1549437635303401e-05 4.5730286313893932e-06 0 0.0020622717314850844 4.0493550819721337e-08 0 0.00086130893128031271 -0.0011983500055850079 0 0.00063920012844952264 -0.0010766064495420025 0 0.0011172977891710774 -0.00070232605804521758 0 0.00076505334475528814 -0.00088063862127404327 0 0.00063920012844952264 -0.0010766064495420025 0 0.0011172977891710774 -0.00070232605804521758 0 0.0011172977891710774 -0.00070232605804521758 0 0.0016321504732535559 -0.00032610359110537564 0 0.0020624757469115134 -2.1035403418940864e-06 0 0.00081921624283094719 -0.00072202390176709732 0 0.0011172977891710774 -0.00070232605804521758 0 0.0016321504732535559 -0.00032610359110537564 0 0.0020624757469115134 -2.1035403418940864e-06 0 0.0028199290897481517 -2.8427933637198969e-05 0 0.0039662177286413853 5.0925741903751335e-07 0 0.0028199290897481517 -2.8427933637198969e-05 0 0.0016234559641235113 -0.00035084183773516223 0 0.0020478079604707628 -0.00013548239016029109 0 0.0016321504732535559 -0.00032610359110537564 0 0.0028199290897481517 -2.8427933637198969e-05 0 0.0016234559641235113 -0.00035084183773516223 0 0.0016321504732535559 -0.00032610359110537564 0 0.0020624757469115134 -2.1035403418940864e-06 0 0.0028199290897481517 -2.8427933637198969e-05 0 0.0014404986178548043 -0.00023463469501707027 0 0.00093671059634059821 -0.00053333840416528485 0 0.0020478079604707628 -0.00013548239016029109 0 0.00093671059634059821 -0.00053333840416528485 0 0.0016234559641235113 -0.00035084183773516223 0 0.0020478079604707628 -0.00013548239016029109 0 0.0020478079604707628 -0.00013548239016029109 0 0.0025120438169428613 8.4361845552677667e-05 0 0.0027715251252538034 9.0875745285350104e-05 0 0.0019498806475113516 3.2251298494574761e-05 0 0.0014404986178548043 -0.00023463469501707027 0 0.0020478079604707628 -0.00013548239016029109 0 0.0019498806475113516 3.2251298494574761e-05 0 0.0020478079604707628 -0.00013548239016029109 0 0.0025120438169428613 8.4361845552677667e-05 0 0.0028199290897481517 -2.8427933637198969e-05 0 0.0020478079604707628 -0.00013548239016029109 0 0.0027715251252538034 9.0875745285350104e-05 0 0.0047073404554398325 7.2892629193672774e-06 0 0.0028199290897481517 -2.8427933637198969e-05 0 0.0039662177286413853 5.0925741903751335e-07 0 0.0032946632010830137 0.00020594414368440154 0 0.0028199290897481517 -2.8427933637198969e-05 0 0.0027715251252538034 9.0875745285350104e-05 0 0.0030508605844248083 0.00021742753294406368 0 0.0025120438169428613 8.4361845552677667e-05 0 0.0027715251252538034 9.0875745285350104e-05 0 0.0040011886221213355 5.8081164117612548e-05 0 0.0030642119373488178 -0.00011059466266156354 0 0.0025018808062375842 -0.001294000570685076 0 0.0020162931592500473 -0.001571850159388017 0 0.0027311071612384089 -0.0017949817439983646 0 0.0025018808062375842 -0.001294000570685076 0 0.0028925383755216316 -0.0014571245755852934 0 0.0029546508552572037 -0.001021796504664325 0 0.0025018808062375842 -0.001294000570685076 0 0.0028925383755216316 -0.0014571245755852934 0 0.0027311071612384089 -0.0017949817439983646 0 0.0020162931592500473 -0.001571850159388017 0 0.0020481205917104008 -0.0010885884334322295 0 0.0015509097509599794 -0.00094820226535067696 0 0.0025018808062375842 -0.001294000570685076 0 0.0020162931592500473 -0.001571850159388017 0 0.0020481205917104008 -0.0010885884334322295 0 0.0020481205917104008 -0.0010885884334322295 0 0.0018694428221031176 -0.00079186143834547888 0 0.0023566937989708283 -0.00081145712572590367 0 0.0025018808062375842 -0.001294000570685076 0 0.0020481205917104008 -0.0010885884334322295 0 0.0023566937989708283 -0.00081145712572590367 0 0.0020481205917104008 -0.0010885884334322295 0 0.0018694428221031176 -0.00079186143834547888 0 0.0015509097509599794 -0.00094820226535067696 0 0.0018694428221031176 -0.00079186143834547888 0 0.0014552090463387877 -0.00053929424374786646 0 0.0019220261088389496 -0.00044098821974619234 0 0.0018694428221031176 -0.00079186143834547888 0 0.0023566937989708283 -0.00081145712572590367 0 0.0019220261088389496 -0.00044098821974619234 0 0.0023566937989708283 -0.00081145712572590367 0 0.0024420700611763432 -0.00032720135620360784 0 0.0019220261088389496 -0.00044098821974619234 0 0.0023566937989708283 -0.00081145712572590367 0 0.0027851411581658052 -0.00063829288053158075 0 0.0024420700611763432 -0.00032720135620360784 0 0.0025018808062375842 -0.001294000570685076 0 0.0023566937989708283 -0.00081145712572590367 0 0.0029546508552572037 -0.001021796504664325 0 0.0023566937989708283 -0.00081145712572590367 0 0.0027851411581658052 -0.00063829288053158075 0 0.0029546508552572037 -0.001021796504664325 0 0.0037787239997205476 -0.00096561428765038274 0 0.003354415290487404 -0.0010969736040208106 0 0.0031796075642111453 -0.00038007600933544867 0 0.0029546508552572037 -0.001021796504664325 0 0.003354415290487404 -0.0010969736040208106 0 0.0031796075642111453 -0.00038007600933544867 0 0.0027851411581658052 -0.00063829288053158075 0 0.0029546508552572037 -0.001021796504664325 0 0.0031796075642111453 -0.00038007600933544867 0 0.00042825462514946999 -0.002196340506653867 0 0.00027776851582073775 -0.0013883836367339227 0 0.0037787239997205476 -0.00096561428765038274 0 0.0038157141516847104 -0.00096034770888007862 0 0.0031796075642111453 -0.00038007600933544867 0 -0.0026327183027126202 -0.0025538236351212509 0 -0.0024002051175798541 -0.0027895196795460443 0 -0.0030277108820824655 -0.0023191100953264183 0 -0.0026327183027126202 -0.0025538236351212509 0 -0.0024002051175798541 -0.0027895196795460443 0 -0.0017953166401963514 -0.0021140725033438933 0 -0.0021345959021258905 -0.0031690590846131946 0 -0.0017953166401963514 -0.0021140725033438933 0 -0.0013195328952336704 -0.0027163532687297649 0 0.00042825462514946999 -0.002196340506653867 0 -0.0016820219875360589 -0.0027131480332662893 0 0.00042825462514946999 -0.002196340506653867 0 0.0014267878452524725 -0.0031119654506864191 0 0.0037787239997205476 -0.00096561428765038274 0 0.0038551596392187473 -0.00098756690210540345 0 0.0038205529056050836 -0.00096850244593626078 0 0.00042825462514946999 -0.002196340506653867 0 0.0057291497440035144 -0.0012848734218149506 0 0.0027172703163501587 -0.0033431212990932286 0 0.0036361842902844256 -0.00079501628184765064 0 0.0016072800348649881 -0.0024890231197608817 0 0.0057291497440035144 -0.0012848734218149506 0 0.0014267878452524725 -0.0031119654506864191 0 0.0037787239997205476 -0.00096561428765038274 0 0.0038157141516847104 -0.00096034770888007862 0 0.0038205529056050836 -0.00096850244593626078 0 0.0038259682446631317 -0.00093524274984591385 0 0.0034038831343755085 -0.0013865152050841064 0 0.0028925383755216316 -0.0014571245755852934 0 0.0033043622299588232 -0.0015368796502164875 0 0.0027311071612384089 -0.0017949817439983646 0 0.0029546508552572037 -0.001021796504664325 0 0.0031268037118051106 -0.0012788715458159441 0 0.003354415290487404 -0.0010969736040208106 0 0.0028925383755216316 -0.0014571245755852934 0 0.0029546508552572037 -0.001021796504664325 0 0.0031268037118051106 -0.0012788715458159441 0 0.0031268037118051106 -0.0012788715458159441 0 0.003354415290487404 -0.0010969736040208106 0 0.0033043622299588232 -0.0015368796502164875 0 0.0037787239997205476 -0.00096561428765038274 0 0.003354415290487404 -0.0010969736040208106 0 0.0033043622299588232 -0.0015368796502164875 0 0.0028925383755216316 -0.0014571245755852934 0 0.0031268037118051106 -0.0012788715458159441 0 0.0033043622299588232 -0.0015368796502164875 0 0.0038551596392187473 -0.00098756690210540345 0 0.0039257565820904261 -0.00087194419648561634 0 0.0038205529056050836 -0.00096850244593626078 0 0.0034038831343755085 -0.0013865152050841064 0 0.0049177075240777945 -0.0013232947475060224 0 0.0038551596392187473 -0.00098756690210540345 0 0.0039257565820904261 -0.00087194419648561634 0 0.0039986773206760707 -0.00087964366845012256 0 0.010228736056390414 -0.00081380298839487351 0 0.0057291497440035144 -0.0012848734218149506 0 0.007506515768603372 -0.00047938433953796265 0 0.008209103775014456 -0.00055822412869592291 0 0.007163913449462744 -0.0014396098157752712 0 0.010228736056390414 -0.00081380298839487351 0 0.0073675085009564439 -0.00098135738343887741 0 0.010228736056390414 -0.00081380298839487351 0 0.010414093772499845 -0.0007123441310253806 0 0.0073675085009564439 -0.00098135738343887741 0 0.0057291497440035144 -0.0012848734218149506 0 0.0073675085009564439 -0.00098135738343887741 0 0.0049177075240777945 -0.0013232947475060224 0 0.010468724170273003 -0.00064974814360929504 0 0.010339705019912738 -0.0006235907658149692 0 0.010331774917765553 -0.00067253707069672708 0 0.0071191304988746651 -0.002101665995136157 0 0.005676562293990166 -0.0032936954433136611 0 0.0055962062551690875 -0.0014896830692274858 0 0.010351285380184497 -0.001459934306808142 0 0.0098131093354372409 -0.0014434055821662462 0 0.0097763706477435961 -0.0015951885660527494 0 0.0074756844181464686 -0.0011279590835738156 0 0.0071191304988746651 -0.002101665995136157 0 0.0055962062551690875 -0.0014896830692274858 0 0.010228736056390414 -0.00081380298839487351 0 0.0077564055490145691 -0.0014945180339792274 0 0.010228736056390414 -0.00081380298839487351 0 0.012675306913017111 -0.00094904743774087595 0 0.015300537909418325 -0.00040762718767983172 0 0.013404567971194827 -0.00058815115257033134 0 0.014648531166487006 -0.00033391386760029599 0 0.014683333323177757 -0.00034682939179165451 0 0.014707586882777852 -0.0003736911722935761 0 0.014695365974305766 -0.00032551595825644096 0 0.014683333323177757 -0.00034682939179165451 0 0.014654188314324851 -0.00035508687138823518 0 0.014683333323177757 -0.00034682939179165451 0 0.014687479374163712 -0.00032535753901585709 0 0.014707586882777852 -0.0003736911722935761 0 0.014648531166487006 -0.00033391386760029599 0 0.014683333323177757 -0.00034682939179165451 0 0.014658919174164517 -0.00034231816566673731 0 0.014683333323177757 -0.00034682939179165451 0 0.014658919174164517 -0.00034231816566673731 0 0.014654188314324851 -0.00035508687138823518 0 0.014695365974305766 -0.00032551595825644096 0 0.014683333323177757 -0.00034682939179165451 0 0.014687479374163712 -0.00032535753901585709 0 0.015497768669029873 -0.00038267760629009446 0 0.015358151102846855 -0.00035057406620603917 0 0.015476803171547194 -0.00042867456671649441 0 0.013404567971194827 -0.00058815115257033134 0 0.010213647702550968 -0.0003665865612074468 0 0.013423580914095484 -0.00032273492505954028 0 0.011749277306441291 0.00023795815920747503 0 0.012043217205607987 0.00048636638234273756 0 0.010331774917765553 -0.00067253707069672708 0 0.010481315127080363 -0.00089229558380932725 0 0.01020521997110896 -0.00072300672337903213 0 0.0073675085009564439 -0.00098135738343887741 0 0.010213647702550968 -0.0003665865612074468 0 0.010339705019912738 -0.0006235907658149692 0 0.010331774917765553 -0.00067253707069672708 0 0.01020521997110896 -0.00072300672337903213 0 0.010228736056390414 -0.00081380298839487351 0 0.013404567971194827 -0.00058815115257033134 0 0.010572841826984992 -0.00062642468271582375 0 0.010331774917765553 -0.00067253707069672708 0 0.010481315127080363 -0.00089229558380932725 0 0.014648531166487006 -0.00033391386760029599 0 0.014658919174164517 -0.00034231816566673731 0 0.014654188314324851 -0.00035508687138823518 0 0.014694113234033445 -0.00025293418349264275 0 0.013404567971194827 -0.00058815115257033134 0 0.014694113234033445 -0.00025293418349264275 0 0.011751431392382987 -5.1420769528745019e-05 0 0.015320228112359733 0.00028203129845429684 0 0.015266470873711843 0.00030667581376202143 0 0.015249650548286236 0.00035565275124641797 0 0.015282151712175767 0.00028218867875417646 0 0.015320228112359733 0.00028203129845429684 0 0.015266470873711843 0.00030667581376202143 0 0.013116861597978839 -0.001209079017079338 0 0.013423580914095484 -0.00032273492505954028 0 0.011749277306441291 0.00023795815920747503 0 0.015225811230581112 0.00028614590804848831 0 0.01524562196547127 0.00029684468085863672 0 0.015249650548286236 0.00035565275124641797 0 0.015266470873711843 0.00030667581376202143 0 0.01524562196547127 0.00029684468085863672 0 0.015249650548286236 0.00035565275124641797 0 0.015146608064103922 0.00028147069657796114 0 0.015198509622687758 0.00028021778276622784 0 0.015249650548286236 0.00035565275124641797 0 0.013212139982542243 0.00084820473575439737 0 0.011751431392382987 -5.1420769528745019e-05 0 0.012400800361000391 0.001536927679749771 0 0.010031046835598349 -0.00011816434401841968 0 0.010521927623448992 -0.00064579229768932107 0 0.015262475871237835 0.00027474581866086134 0 0.015266470873711843 0.00030667581376202143 0 0.01524562196547127 0.00029684468085863672 0 0.013212139982542243 0.00084820473575439737 0 0.0083531651926196451 0.00021624033386576205 0 0.015225811230581112 0.00028614590804848831 0 0.015198509622687758 0.00028021778276622784 0 0.015249650548286236 0.00035565275124641797 0 0.010209927712887963 0.00097838140077443009 0 0.010373120435645422 0.00080530796762629691 0 0.010770454422764234 0.0010728318087973657 0 0.010813794568780828 0.0016604562958386162 0 0.010209927712887963 0.00097838140077443009 0 0.010770454422764234 0.0010728318087973657 0 0.010451255123946479 -0.00076512996831617748 0 0.0095815994550459346 0.00016355005410164682 0 0.011043975771942667 -0.00026556153589720328 0 0.0083531651926196451 0.00021624033386576205 0 0.010213647702550968 -0.0003665865612074468 0 0.0076791983275562147 -0.00064546025982118826 0 0.0075922335063584459 -0.00062288234103303238 0 0.0076217778812675439 -0.00071349983503099013 0 0.011751431392382987 -5.1420769528745019e-05 0 0.0083531651926196451 0.00021624033386576205 0 0.011751431392382987 -5.1420769528745019e-05 0 0.010213647702550968 -0.0003665865612074468 0 0.0020162931592500473 -0.001571850159388017 0 0.0025937361481277879 -0.0021169423638869697 0 0.0027311071612384089 -0.0017949817439983646 0 0.0028469749246147176 -0.0021017731061617599 0 0.0026863707440793888 -0.0020882707896737853 0 0.0027311071612384089 -0.0017949817439983646 0 0.0033043622299588232 -0.0015368796502164875 0 0.0028469749246147176 -0.0021017731061617599 0 0.0027311071612384089 -0.0017949817439983646 0 0.0074977332424696393 -0.00070635780030798884 0 0.0075922335063584459 -0.00062288234103303238 0 0.0076217778812675439 -0.00071349983503099013 0 0.0049177075240777945 -0.0013232947475060224 0 0.0037258463882786381 -0.0014033862273377543 0 0.0027627843103057068 -0.0023068452587988396 0 0.0029450059940072481 -0.0021049227124941014 0 0.0026863707440793888 -0.0020882707896737853 0 0.0083531651926196451 0.00021624033386576205 0 0.0049177075240777945 -0.0013232947475060224 0 0.010373120435645422 0.00080530796762629691 0 0.010614323115225994 0.00083256585157045224 0 0.010770454422764234 0.0010728318087973657 0 0.0027627843103057068 -0.0023068452587988396 0 0.0026863707440793888 -0.0020882707896737853 0 0.0025937361481277879 -0.0021169423638869697 0 0.0026863707440793888 -0.0020882707896737853 0 0.0025937361481277879 -0.0021169423638869697 0 0.0027311071612384089 -0.0017949817439983646 0 0.0083531651926196451 0.00021624033386576205 0 0.0070682718686662215 -8.8569889993704139e-05 0 0.011025950672541902 0.00012665933738866572 0 0.010924692004878256 0.0006558777925130513 0 0.01147822098708234 0.00070244927966513356 0 0.011025950672541902 0.00012665933738866572 0 0.010373120435645422 0.00080530796762629691 0 0.010924692004878256 0.0006558777925130513 0 0.0068464021182146487 -0.00096317292791838643 0 0.0070682718686662215 -8.8569889993704139e-05 0 0.010373120435645422 0.00080530796762629691 0 0.010924692004878256 0.0006558777925130513 0 0.010614323115225994 0.00083256585157045224 0 0.010924692004878256 0.0006558777925130513 0 0.010614323115225994 0.00083256585157045224 0 0.010770454422764234 0.0010728318087973657 0 0.010924692004878256 0.0006558777925130513 0 0.010770454422764234 0.0010728318087973657 0 0.01147822098708234 0.00070244927966513356 0 0.010813794568780828 0.0016604562958386162 0 0.010770454422764234 0.0010728318087973657 0 0.01147822098708234 0.00070244927966513356 0 0.013212139982542243 0.00084820473575439737 0 0.011464604763144393 0.00060405760338138692 0 0.012292654859443974 0.00057179717275825191 0 0.012437442597680932 0.00024734246221565492 0 0.012063546000377214 0.00022673425969099329 0 0.011824361647010751 0.00061679617054820281 0 0.012292654859443974 0.00057179717275825191 0 0.012063546000377214 0.00022673425969099329 0 0.012292654859443974 0.00057179717275825191 0 0.012612917296065696 0.00041463273975719979 0 0.012437442597680932 0.00024734246221565492 0 0.012437442597680932 0.00024734246221565492 0 0.012401850724813066 4.7150589731914589e-05 0 0.012811534391353237 0.00019895860896758884 0 0.012437442597680932 0.00024734246221565492 0 0.012401850724813066 4.7150589731914589e-05 0 0.012063546000377214 0.00022673425969099329 0 0.011025950672541902 0.00012665933738866572 0 0.01147822098708234 0.00070244927966513356 0 0.01159756188854622 1.4389456434491943e-05 0 0.013083941545726513 0.00041275265700367863 0 0.012990566086980829 0.00048285417565194704 0 0.012811534391353237 0.00019895860896758884 0 0.0131194013796125 0.00041032317597448122 0 0.013083941545726513 0.00041275265700367863 0 0.012990566086980829 0.00048285417565194704 0 0.012612917296065696 0.00041463273975719979 0 0.012990566086980829 0.00048285417565194704 0 0.012811534391353237 0.00019895860896758884 0 0.012612917296065696 0.00041463273975719979 0 0.012437442597680932 0.00024734246221565492 0 0.012811534391353237 0.00019895860896758884 0 0.013083941545726513 0.00041275265700367863 0 0.012811534391353237 0.00019895860896758884 0 0.012976646804179667 0.00018332782900901416 0 -0.0024962989742881008 0.0010739942682620838 0 -0.0029391891399398796 0.00067707166820117322 0 -0.002650595899067213 0.00060443807352932206 0 -0.0021546303276361702 0.00064760510655641006 0 -0.0024962989742881008 0.0010739942682620838 0 -0.002650595899067213 0.00060443807352932206 0 0.012811534391353237 0.00019895860896758884 0 0.012976646804179667 0.00018332782900901416 0 0.012630765297280785 -0.00015052967382146346 0 0.012401850724813066 4.7150589731914589e-05 0 0.012811534391353237 0.00019895860896758884 0 0.012630765297280785 -0.00015052967382146346 0 0.0052094887289565192 0.0006126182805705529 0 0.0049832130001627459 0.00036637663044049648 0 -0.0029391891399398796 0.00067707166820117322 0 -0.0028804292169842139 0.00037000627729344399 0 -0.0030398474416535931 0.00042449328053074481 0 -0.0029391891399398796 0.00067707166820117322 0 -0.0028804292169842139 0.00037000627729344399 0 -0.002650595899067213 0.00060443807352932206 0 -0.0028804292169842139 0.00037000627729344399 0 -0.0030398474416535931 0.00042449328053074481 0 -0.0029895411014720713 0.00026982954866264605 0 -0.0021546303276361702 0.00064760510655641006 0 -0.0025998255232072358 0.0002667123813040504 0 -0.002650595899067213 0.00060443807352932206 0 -0.0028804292169842139 0.00037000627729344399 0 -0.0025998255232072358 0.0002667123813040504 0 -0.002650595899067213 0.00060443807352932206 0 0.011464604763144393 0.00060405760338138692 0 0.012240761195143173 -0.00028905866596009455 0 0.01147822098708234 0.00070244927966513356 0 0.01159756188854622 1.4389456434491943e-05 0 0.012140222676848299 -0.00024364381817279382 0 0.0020162931592500473 -0.001571850159388017 0 0.001405915456291968 -0.0009990572987937671 0 0.0015509097509599794 -0.00094820226535067696 0 0.012401850724813066 4.7150589731914589e-05 0 0.012063546000377214 0.00022673425969099329 0 0.012140222676848299 -0.00024364381817279382 0 0.01159756188854622 1.4389456434491943e-05 0 0.012140222676848299 -0.00024364381817279382 0 0.011733653696830456 -0.0005116022252730771 0 0.0068464021182146487 -0.00096317292791838643 0 0.0036717729388282185 -0.00056929057096038365 0 0.011025950672541902 0.00012665933738866572 0 0.01159756188854622 1.4389456434491943e-05 0 0.011733653696830456 -0.0005116022252730771 0 0.0049832130001627459 0.00036637663044049648 0 0.0036717729388282185 -0.00056929057096038365 0 0.012630765297280785 -0.00015052967382146346 0 0.012140222676848299 -0.00024364381817279382 0 0.011733653696830456 -0.0005116022252730771 0 0.012401850724813066 4.7150589731914589e-05 0 0.012630765297280785 -0.00015052967382146346 0 0.012140222676848299 -0.00024364381817279382 0 -0.0030398474416535931 0.00042449328053074481 0 -0.0031990846205710646 0.00049297671451475954 0 -0.0030484946490690825 0.00017587598465203274 0 -0.0029391891399398796 0.00067707166820117322 0 -0.0030398474416535931 0.00042449328053074481 0 -0.0031990846205710646 0.00049297671451475954 0 0.0036717729388282185 -0.00056929057096038365 0 -0.0028709380181082119 0.00040882845173560793 0 0.0013785562458801521 -0.001011004539879515 0 0.0014552090463387877 -0.00053929424374786646 0 0.00046549371699658909 -0.00010595239773855782 0 0.0013785562458801521 -0.001011004539879515 0 0.0015509097509599794 -0.00094820226535067696 0 0.0014552090463387877 -0.00053929424374786646 0 0.0036717729388282185 -0.00056929057096038365 0 0.00272076886053301 -0.00084387068978956242 0 0.0018694428221031176 -0.00079186143834547888 0 0.0015509097509599794 -0.00094820226535067696 0 0.0014552090463387877 -0.00053929424374786646 0 0.0014552090463387877 -0.00053929424374786646 0 0.0014973136338170513 6.7345765773411614e-05 0 0.0019220261088389496 -0.00044098821974619234 0 0.0014552090463387877 -0.00053929424374786646 0 0.0014973136338170513 6.7345765773411614e-05 0 0.00046549371699658909 -0.00010595239773855782 0 -0.0030398474416535931 0.00042449328053074481 0 -0.0030484946490690825 0.00017587598465203274 0 -0.0029895411014720713 0.00026982954866264605 0 -0.0036752371941137516 -0.00012379363943478314 0 -0.0039891838814367885 -5.9733090164809896e-05 0 -0.0038857383843316448 -2.085097851739445e-05 0 -0.00066788121690908027 6.707240590819689e-05 0 -0.0028709380181082119 0.00040882845173560793 0 -0.004739111306088885 -0.00015032990942074887 0 -0.0039834104733833878 -3.1857330273189477e-05 0 -0.0043177810679368876 -0.0003403635565841079 0 -0.0042251942470244684 2.1712246932071814e-05 0 -0.0040238477745627972 -3.4819332607552157e-05 0 -0.0038857383843316448 -2.085097851739445e-05 0 -0.0038065398922727469 8.326703770205559e-05 0 -0.0039834104733833878 -3.1857330273189477e-05 0 -0.0039891838814367885 -5.9733090164809896e-05 0 -0.0038857383843316448 -2.085097851739445e-05 0 -0.0039834104733833878 -3.1857330273189477e-05 0 -0.0042251942470244684 2.1712246932071814e-05 0 -0.0045092141423592139 -0.00072135638467544041 0 -0.0036752371941137516 -0.00012379363943478314 0 -0.0038065398922727469 8.326703770205559e-05 0 -0.0035249812620400368 1.2605310717108866e-06 0 -0.0036752371941137516 -0.00012379363943478314 0 -0.0038857383843316448 -2.085097851739445e-05 0 -0.0038065398922727469 8.326703770205559e-05 0 -0.0022862224934611357 8.9700811374059477e-05 0 -0.0025998255232072358 0.0002667123813040504 0 -0.0026505783624315668 -6.6932005051302518e-05 0 -0.0025998255232072358 0.0002667123813040504 0 -0.0026505783624315668 -6.6932005051302518e-05 0 -0.0028381851442631292 0.0001034913060462228 0 -0.0028804292169842139 0.00037000627729344399 0 -0.0025998255232072358 0.0002667123813040504 0 -0.0028381851442631292 0.0001034913060462228 0 -0.0030484946490690825 0.00017587598465203274 0 -0.0028381851442631292 0.0001034913060462228 0 -0.0028580189463997788 -0.00022203095528379222 0 -0.0030484946490690825 0.00017587598465203274 0 -0.0028381851442631292 0.0001034913060462228 0 -0.0029369790769365224 0.00022834629723356533 0 -0.0028804292169842139 0.00037000627729344399 0 -0.0028381851442631292 0.0001034913060462228 0 -0.0029369790769365224 0.00022834629723356533 0 -0.0030484946490690825 0.00017587598465203274 0 -0.0029369790769365224 0.00022834629723356533 0 -0.0029895411014720713 0.00026982954866264605 0 -0.0028804292169842139 0.00037000627729344399 0 -0.0029369790769365224 0.00022834629723356533 0 -0.0029895411014720713 0.00026982954866264605 0 -0.0028709380181082119 0.00040882845173560793 0 -0.0034314658433649481 -0.000182686796506983 0 -0.0039891838814367885 -5.9733090164809896e-05 0 -0.0039834104733833878 -3.1857330273189477e-05 0 -0.0038686734869950094 -3.1033650428255783e-05 0 -0.0039834104733833878 -3.1857330273189477e-05 0 -0.004059016313352648 -0.00032910595251988811 0 -0.0043177810679368876 -0.0003403635565841079 0 -0.0039834104733833878 -3.1857330273189477e-05 0 -0.0038686734869950094 -3.1033650428255783e-05 0 -0.004059016313352648 -0.00032910595251988811 0 -0.0026505783624315668 -6.6932005051302518e-05 0 -0.0028580189463997788 -0.00022203095528379222 0 -0.0027412569615985331 -0.0002904955097711767 0 -0.0026505783624315668 -6.6932005051302518e-05 0 -0.0028381851442631292 0.0001034913060462228 0 -0.0028580189463997788 -0.00022203095528379222 0 -0.003032503804947431 -0.00055929685036595206 0 -0.0037678745274091225 -0.00039131817765200068 0 -0.0040030655953938845 -0.00067914879894461692 0 -0.003032503804947431 -0.00055929685036595206 0 -0.0038686734869950094 -3.1033650428255783e-05 0 -0.0037678745274091225 -0.00039131817765200068 0 -0.003032503804947431 -0.00055929685036595206 0 -0.0028580189463997788 -0.00022203095528379222 0 -0.0027412569615985331 -0.0002904955097711767 0 -0.0030002570890697985 -0.00055015810218496462 0 -0.0034314658433649481 -0.000182686796506983 0 -0.0037678745274091225 -0.00039131817765200068 0 -0.004059016313352648 -0.00032910595251988811 0 -0.0040030655953938845 -0.00067914879894461692 0 -0.0038686734869950094 -3.1033650428255783e-05 0 -0.0037678745274091225 -0.00039131817765200068 0 -0.004059016313352648 -0.00032910595251988811 0 -0.004059016313352648 -0.00032910595251988811 0 -0.0040030655953938845 -0.00067914879894461692 0 -0.0042879909920781611 -0.00065138214953906954 0 -0.0038289882108812354 -0.0010144829416099785 0 -0.0040030655953938845 -0.00067914879894461692 0 -0.0044329310938758084 -0.00087877175860593705 0 -0.0040030655953938845 -0.00067914879894461692 0 -0.0042879909920781611 -0.00065138214953906954 0 -0.0044329310938758084 -0.00087877175860593705 0 -0.0038289882108812354 -0.0010144829416099785 0 -0.0030955725037729673 -0.0010883641823094356 0 -0.003032503804947431 -0.00055929685036595206 0 -0.0038289882108812354 -0.0010144829416099785 0 -0.003032503804947431 -0.00055929685036595206 0 -0.0040030655953938845 -0.00067914879894461692 0 -0.004739111306088885 -0.00015032990942074887 0 -0.0049821427595779857 -0.00046393580554537824 0 -0.0054121434227851631 -0.00032528876967160739 0 -0.004695572302110442 -0.00083493212659848542 0 -0.0045431071564304617 -0.00064000699657243768 0 -0.0047273932053480509 -0.00086973451350238465 0 -0.004695572302110442 -0.00083493212659848542 0 -0.0047273932053480509 -0.00086973451350238465 0 -0.0046912000657681344 -0.00092644534120938586 0 -0.0048775557339048176 -0.00063403160252184412 0 -0.0045539756863820172 -0.00067810625253230598 0 -0.004739111306088885 -0.00015032990942074887 0 -0.0049821427595779857 -0.00046393580554537824 0 -0.0045431071564304617 -0.00064000699657243768 0 -0.004739111306088885 -0.00015032990942074887 0 -0.0043177810679368876 -0.0003403635565841079 0 -0.0045431071564304617 -0.00064000699657243768 0 -0.004059016313352648 -0.00032910595251988811 0 -0.0043177810679368876 -0.0003403635565841079 0 -0.0042879909920781611 -0.00065138214953906954 0 -0.0043177810679368876 -0.0003403635565841079 0 -0.0042879909920781611 -0.00065138214953906954 0 -0.0045431071564304617 -0.00064000699657243768 0 -0.0042879909920781611 -0.00065138214953906954 0 -0.0045431071564304617 -0.00064000699657243768 0 -0.0044329310938758084 -0.00087877175860593705 0 -0.0045431071564304617 -0.00064000699657243768 0 -0.0044329310938758084 -0.00087877175860593705 0 -0.0047273932053480509 -0.00086973451350238465 0 -0.0048031743790137044 -0.00088147180527205877 0 -0.0047273932053480509 -0.00086973451350238465 0 -0.0046366760042342216 -0.00093664771917194658 0 -0.0047273932053480509 -0.00086973451350238465 0 -0.0046366760042342216 -0.00093664771917194658 0 -0.0046912000657681344 -0.00092644534120938586 0 -0.0041332764002052031 -0.00053786702048642129 0 -0.0046366760042342216 -0.00093664771917194658 0 -0.0041842273557052114 -0.00096527533322211193 0 -0.0048031743790137044 -0.00088147180527205877 0 -0.0041332764002052031 -0.00053786702048642129 0 -0.0046366760042342216 -0.00093664771917194658 0 -0.0046366760042342216 -0.00093664771917194658 0 -0.0044028033155536 -0.0012242147217323474 0 -0.0046558072103791166 -0.0010828824436642339 0 -0.0046366760042342216 -0.00093664771917194658 0 -0.0044028033155536 -0.0012242147217323474 0 -0.0041842273557052114 -0.00096527533322211193 0 -0.0044667273294252329 -0.0014398780437318672 0 -0.0050479392941463292 -0.0015631665397501076 0 -0.0044353607018818349 -0.001785641645498074 0 -0.0044702079566574238 -0.0013159358384264267 0 -0.0045092141423592139 -0.00072135638467544041 0 -0.0046366760042342216 -0.00093664771917194658 0 -0.0046912000657681344 -0.00092644534120938586 0 -0.0046558072103791166 -0.0010828824436642339 0 -0.0048775557339048176 -0.00063403160252184412 0 -0.0045092141423592139 -0.00072135638467544041 0 -0.004695572302110442 -0.00083493212659848542 0 -0.0046912000657681344 -0.00092644534120938586 0 -0.0046558072103791166 -0.0010828824436642339 0 -0.0036752371941137516 -0.00012379363943478314 0 -0.0032779976263889489 -9.986823655579153e-05 0 -0.0033152393165624692 -6.9480927938776429e-05 0 -0.0036752371941137516 -0.00012379363943478314 0 -0.0035249812620400368 1.2605310717108866e-06 0 -0.0033152393165624692 -6.9480927938776429e-05 0 -0.0038065398922727469 8.326703770205559e-05 0 -0.0034370321106586416 0.00016321122841060653 0 -0.0035249812620400368 1.2605310717108866e-06 0 -0.0035249812620400368 1.2605310717108866e-06 0 -0.0033415412456223206 3.6943321155114724e-05 0 -0.0033152393165624692 -6.9480927938776429e-05 0 -0.0034370321106586416 0.00016321122841060653 0 -0.0035249812620400368 1.2605310717108866e-06 0 -0.0033415412456223206 3.6943321155114724e-05 0 -0.0030922765182975925 -0.002196646297621022 0 -0.0030287936172432375 -0.002224842841936791 0 -0.0029549077601098766 -0.0021733016015725321 0 -0.0032375400318844119 -7.5028381715573875e-06 0 -0.0032790270118923564 -9.8652343479110893e-05 0 -0.0029009536468258879 -4.899307286640764e-05 0 -0.0031626971088414783 5.8630616371384548e-05 0 -0.0032375400318844119 -7.5028381715573875e-06 0 -0.0029009536468258879 -4.899307286640764e-05 0 -0.0033415412456223206 3.6943321155114724e-05 0 -0.0031626971088414783 5.8630616371384548e-05 0 -0.0032375400318844119 -7.5028381715573875e-06 0 -0.0013551117153748724 -0.00093983131257474909 0 -0.0034870229341918777 -0.0015043268930826736 0 -0.0045092141423592139 -0.00072135638467544041 0 -0.0037609462139026164 -0.00088379294830739832 0 -0.0034370321106586416 0.00016321122841060653 0 -0.0033415412456223206 3.6943321155114724e-05 0 -0.0031626971088414783 5.8630616371384548e-05 0 -0.0044667273294252329 -0.0014398780437318672 0 -0.0044353607018818349 -0.001785641645498074 0 -0.0040203906562648693 -0.0016352402394044193 0 -0.0033415412456223206 3.6943321155114724e-05 0 -0.0032375400318844119 -7.5028381715573875e-06 0 -0.0033152393165624692 -6.9480927938776429e-05 0 -0.0032375400318844119 -7.5028381715573875e-06 0 -0.0032790270118923564 -9.8652343479110893e-05 0 -0.0033152393165624692 -6.9480927938776429e-05 0 -0.0013551117153748724 -0.00093983131257474909 0 -0.0017576327206903512 -0.00067219426109583027 0 -0.0013551117153748724 -0.00093983131257474909 0 0.00027776851582073775 -0.0013883836367339227 0 0.0027851411581658052 -0.00063829288053158075 0 0.0024420700611763432 -0.00032720135620360784 0 0.0031796075642111453 -0.00038007600933544867 0 0.0024331353788741602 0.00021445001232308841 0 0.0024420700611763432 -0.00032720135620360784 0 0.0031796075642111453 -0.00038007600933544867 0 -0.0030922765182975925 -0.002196646297621022 0 -0.0030277108820824655 -0.0023191100953264183 0 -0.0030287936172432375 -0.002224842841936791 0 -0.00066788121690908027 6.707240590819689e-05 0 -0.0013551117153748724 -0.00093983131257474909 0 0.0014973136338170513 6.7345765773411614e-05 0 0.0024331353788741602 0.00021445001232308841 0 0.0019220261088389496 -0.00044098821974619234 0 0.0024331353788741602 0.00021445001232308841 0 0.0024420700611763432 -0.00032720135620360784 0 0.0019220261088389496 -0.00044098821974619234 0 -0.0026327183027126202 -0.0025538236351212509 0 -0.0016108011514111089 -0.0009948844682690181 0 -0.0016491550737030289 -0.0016424114982575607 0 -0.0026293117073827306 -0.0024916754746322932 0 -0.0022673481061846147 -0.0016552291227020083 0 -0.0028452377123345056 -0.0022978458021807383 0 -0.0029549077601098766 -0.0021733016015725321 0 -0.002910156899804001 -0.0021965842589007582 0 -0.0026327183027126202 -0.0025538236351212509 0 -0.0028605836226335037 -0.0021887994388697174 0 -0.0028452377123345056 -0.0022978458021807383 0 -0.0028605836226335037 -0.0021887994388697174 0 -0.0028452377123345056 -0.0022978458021807383 0 -0.002910156899804001 -0.0021965842589007582 0 -0.0026327183027126202 -0.0025538236351212509 0 -0.0016491550737030289 -0.0016424114982575607 0 -0.0017953166401963514 -0.0021140725033438933 0 -0.0026327183027126202 -0.0025538236351212509 0 -0.0028452377123345056 -0.0022978458021807383 0 -0.0030277108820824655 -0.0023191100953264183 0 -0.0028452377123345056 -0.0022978458021807383 0 -0.0030277108820824655 -0.0023191100953264183 0 -0.0029708028130388002 -0.0022499901167655702 0 -0.0030287936172432375 -0.002224842841936791 0 -0.0029708028130388002 -0.0022499901167655702 0 -0.0029549077601098766 -0.0021733016015725321 0 -0.0030277108820824655 -0.0023191100953264183 0 -0.0030287936172432375 -0.002224842841936791 0 -0.0029708028130388002 -0.0022499901167655702 0 -0.0028452377123345056 -0.0022978458021807383 0 -0.0029708028130388002 -0.0022499901167655702 0 -0.0029549077601098766 -0.0021733016015725321 0 -0.0037609462139026164 -0.00088379294830739832 0 -0.0034870229341918777 -0.0015043268930826736 0 -0.0044353607018818349 -0.001785641645498074 0 -0.0037656970914960322 -0.0020415970882587372 0 -0.0040203906562648693 -0.0016352402394044193 0 -0.0037656970914960322 -0.0020415970882587372 0 -0.0040203906562648693 -0.0016352402394044193 0 -0.0035306468138867611 -0.0016007272462226264 0 -0.0037656970914960322 -0.0020415970882587372 0 -0.0030882006953213037 -0.0019041872513239093 0 -0.0035306468138867611 -0.0016007272462226264 0 -0.0030882006953213037 -0.0019041872513239093 0 -0.0032121231854351866 -0.0015652167775370054 0 -0.0035306468138867611 -0.0016007272462226264 0 -0.0034870229341918777 -0.0015043268930826736 0 -0.0028485310038567214 -0.0022111265720749559 0 -0.0036416780734042638 -0.0020081554896070591 0 -0.002910156899804001 -0.0021965842589007582 0 -0.0030882006953213037 -0.0019041872513239093 0 -0.0034870229341918777 -0.0015043268930826736 0 -0.0032818414290524968 -0.0018670925593150037 0 -0.002910156899804001 -0.0021965842589007582 0 -0.0028604896812195308 -0.0018682181953739272 0 -0.0030882006953213037 -0.0019041872513239093 0 -0.0028605836226335037 -0.0021887994388697174 0 -0.002910156899804001 -0.0021965842589007582 0 -0.0028604896812195308 -0.0018682181953739272 0 -0.0030882006953213037 -0.0019041872513239093 0 -0.0029493933334440933 -0.0015348542616909883 0 -0.0032121231854351866 -0.0015652167775370054 0 -0.0028604896812195308 -0.0018682181953739272 0 -0.0030882006953213037 -0.0019041872513239093 0 -0.0029493933334440933 -0.0015348542616909883 0 -0.0029493933334440933 -0.0015348542616909883 0 -0.0032121231854351866 -0.0015652167775370054 0 -0.0032876917085980849 -0.0012314330834267775 0 -0.0035306468138867611 -0.0016007272462226264 0 -0.0032876917085980849 -0.0012314330834267775 0 -0.0038582447876023347 -0.0012903755861225995 0 -0.0032121231854351866 -0.0015652167775370054 0 -0.0035306468138867611 -0.0016007272462226264 0 -0.0032876917085980849 -0.0012314330834267775 0 -0.0029493933334440933 -0.0015348542616909883 0 -0.0032876917085980849 -0.0012314330834267775 0 -0.0028499893083010126 -0.0011305285812164866 0 -0.0044702079566574238 -0.0013159358384264267 0 -0.0039117405755656242 -0.0012671623070653504 0 -0.0044667273294252329 -0.0014398780437318672 0 -0.0040203906562648693 -0.0016352402394044193 0 -0.0038582447876023347 -0.0012903755861225995 0 -0.0040203906562648693 -0.0016352402394044193 0 -0.0035306468138867611 -0.0016007272462226264 0 -0.0038582447876023347 -0.0012903755861225995 0 -0.0032876917085980849 -0.0012314330834267775 0 -0.0038582447876023347 -0.0012903755861225995 0 -0.0037260471327819913 -0.00090117310748051333 0 -0.0038582447876023347 -0.0012903755861225995 0 -0.0041842273557052114 -0.00096527533322211193 0 -0.0037260471327819913 -0.00090117310748051333 0 -0.0044028033155536 -0.0012242147217323474 0 -0.0038582447876023347 -0.0012903755861225995 0 -0.0041842273557052114 -0.00096527533322211193 0 -0.0041332764002052031 -0.00053786702048642129 0 -0.0041842273557052114 -0.00096527533322211193 0 -0.0037260471327819913 -0.00090117310748051333 0 -0.0041332764002052031 -0.00053786702048642129 0 -0.0037260471327819913 -0.00090117310748051333 0 -0.0030736212960530435 -0.00049927183044877227 0 -0.0045476502764197294 -0.00076205173541262557 0 -0.0043212302946275174 -0.00076558540891761521 0 -0.0032876917085980849 -0.0012314330834267775 0 -0.0037260471327819913 -0.00090117310748051333 0 -0.0030736212960530435 -0.00049927183044877227 0 -0.0032876917085980849 -0.0012314330834267775 0 -0.0030736212960530435 -0.00049927183044877227 0 -0.0028499893083010126 -0.0011305285812164866 0 -0.0030736212960530435 -0.00049927183044877227 0 -0.0025891381721227361 -0.0008574985800637125 0 -0.0020516799843704114 -0.00061700621717899226 0 -0.0052367923072640342 -0.0010324976668987633 0 -0.0052025042993577506 -0.00099627047530537909 0 -0.0052525798850529045 -0.0010173009943806545 0 -0.0030736212960530435 -0.00049927183044877227 0 -0.0025891381721227361 -0.0008574985800637125 0 -0.0028499893083010126 -0.0011305285812164866 0 -0.0043212302946275174 -0.00076558540891761521 0 -0.0027830086255033241 -0.00060208134729244824 0 -0.0025891381721227361 -0.0008574985800637125 0 -0.0020516799843704114 -0.00061700621717899226 0 -0.002506343190121052 -0.0014356743497546056 0 -0.00093530791660162958 -8.1346648571892064e-05 0 -0.00094792357906383804 -9.9478266438951562e-05 0 -0.001103508818462312 -0.00013233919665681486 0 -0.0027830086255033241 -0.00060208134729244824 0 -0.0016318026455978366 -0.00068687860402609274 0 -0.00093551290537826173 -9.7765218373108763e-05 0 -0.00093475325968380351 -0.00010084448643466232 0 -0.00095026945668406351 -0.00011355656121859369 0 -0.0027830086255033241 -0.00060208134729244824 0 -0.0023931400387567935 -0.00060512949110610938 0 -0.00093530791660162958 -8.1346648571892064e-05 0 -0.00093551290537826173 -9.7765218373108763e-05 0 -0.00093765473827734605 -9.4571914180828124e-05 0 -0.00093551290537826173 -9.7765218373108763e-05 0 -0.00093475325968380351 -0.00010084448643466232 0 -0.00093765473827734605 -9.4571914180828124e-05 0 -0.00093475325968380351 -0.00010084448643466232 0 -0.00092748232536563719 -0.00011129749380445596 0 -0.00093550001086997996 -0.00010919597726747966 0 -0.00093530791660162958 -8.1346648571892064e-05 0 -0.00093765473827734605 -9.4571914180828124e-05 0 -0.00094792357906383804 -9.9478266438951562e-05 0 -0.00093475325968380351 -0.00010084448643466232 0 -0.00093765473827734605 -9.4571914180828124e-05 0 -0.00094792357906383804 -9.9478266438951562e-05 0 -0.00093475325968380351 -0.00010084448643466232 0 -0.00094792357906383804 -9.9478266438951562e-05 0 -0.00092748232536563719 -0.00011129749380445596 0 -0.00053786215231165337 -7.2294709818582122e-05 0 0.00038823528175132644 4.2366259666913535e-07 0 -7.4086539066201096e-05 0.00015607273226543868 0 0.0011960145146991095 0.00089339509510734697 0 0.0010425892461180407 -0.00013097589655138009 0 -0.00094792357906383804 -9.9478266438951562e-05 0 -0.00093813066234867235 -0.00014104638073669456 0 -0.001103508818462312 -0.00013233919665681486 0 -0.00093813066234867235 -0.00014104638073669456 0 -0.00091786933701986967 -0.00025277325046523473 0 -0.00090278794847283581 -0.0001140052653710686 0 -0.00094792357906383804 -9.9478266438951562e-05 0 -0.00092748232536563719 -0.00011129749380445596 0 -0.00093813066234867235 -0.00014104638073669456 0 -0.00092748232536563719 -0.00011129749380445596 0 -0.00093813066234867235 -0.00014104638073669456 0 -0.00090278794847283581 -0.0001140052653710686 0 -0.00093813066234867235 -0.00014104638073669456 0 -0.00091786933701986967 -0.00025277325046523473 0 -0.001103508818462312 -0.00013233919665681486 0 -0.0029493933334440933 -0.0015348542616909883 0 -0.002506343190121052 -0.0014356743497546056 0 -0.0028499893083010126 -0.0011305285812164866 0 -0.0028604896812195308 -0.0018682181953739272 0 -0.0029493933334440933 -0.0015348542616909883 0 -0.002506343190121052 -0.0014356743497546056 0 -0.0025891381721227361 -0.0008574985800637125 0 -0.002506343190121052 -0.0014356743497546056 0 -0.0028499893083010126 -0.0011305285812164866 0 0.00096243593844473781 0.00036853613186684495 0 0.0013318027080823848 0.00051258268993780473 0 0.0010069404802990076 9.0982038678219347e-06 0 0.0019025608591139358 0.00032404785437904396 0 0.0032364226139712559 0.00066179998618825717 0 0.0013318027080823848 0.00051258268993780473 0 0.0010069404802990076 9.0982038678219347e-06 0 0.0017348777970000986 0.00030526238550396652 0 0.0010745608204720998 -8.089204933196398e-05 0 0.0010069404802990076 9.0982038678219347e-06 0 0.0017348777970000986 0.00030526238550396652 0 0.0019025608591139358 0.00032404785437904396 0 0.0017338803769068065 0.00033206276775687364 0 -3.2917941703238565e-05 9.9162515868639645e-05 0 0.00038823528175132644 4.2366259666913535e-07 0 0.00096243593844473781 0.00036853613186684495 0 0.0010069404802990076 9.0982038678219347e-06 0 0.00074601854853140431 -0.00027292124528925839 0 -0.00097916429890793836 -0.00011632689243210406 0 -0.00093550001086997996 -0.00010919597726747966 0 -0.00090278794847283581 -0.0001140052653710686 0 0.0010720200306058973 -7.8692639323380123e-05 0 0.0010069404802990076 9.0982038678219347e-06 0 0.00074601854853140431 -0.00027292124528925839 0 -0.00097916429890793836 -0.00011632689243210406 0 -0.00095026945668406351 -0.00011355656121859369 0 -0.00093550001086997996 -0.00010919597726747966 0 -0.00093475325968380351 -0.00010084448643466232 0 -0.00095026945668406351 -0.00011355656121859369 0 -0.00093550001086997996 -0.00010919597726747966 0 -0.00092748232536563719 -0.00011129749380445596 0 -0.00093550001086997996 -0.00010919597726747966 0 -0.00090278794847283581 -0.0001140052653710686 0 0.0021056191829344852 0.0014308606006717636 0 0.0011960145146991095 0.00089339509510734697 0 0.0020799882755822927 9.0912413896564144e-05 0 0.0011960145146991095 0.00089339509510734697 0 0.0020799882755822927 9.0912413896564144e-05 0 0.0010425892461180407 -0.00013097589655138009 0 0.0019025608591139358 0.00032404785437904396 0 0.00038823528175132644 4.2366259666913535e-07 0 0.0030529323016133254 0.00015673706943887349 0 0.0038835105494986906 -0.00096366134040066847 0 0.0042343971974617518 -7.0700955712131082e-05 0 0.0019025608591139358 0.00032404785437904396 0 0.0036275454446587961 -0.00052015111283725175 0 0.0021056191829344852 0.0014308606006717636 0 0.0020799882755822927 9.0912413896564144e-05 0 0.0033110873459642988 -0.00021238635259649796 0 0.0020799882755822927 9.0912413896564144e-05 0 0.0025604138624512195 -0.0006310410681521128 0 0.0033110873459642988 -0.00021238635259649796 0 0.0025604138624512195 -0.0006310410681521128 0 0.0032757491610734928 -0.0011782949119860178 0 0.0033110873459642988 -0.00021238635259649796 0 0.0025604138624512195 -0.0006310410681521128 0 0.0023781815638348105 -0.001335416891519783 0 0.0032757491610734928 -0.0011782949119860178 0 0.0025604138624512195 -0.0006310410681521128 0 0.00157643076335983 -0.00095329973664137334 0 0.0023781815638348105 -0.001335416891519783 0 0.0020799882755822927 9.0912413896564144e-05 0 0.0025604138624512195 -0.0006310410681521128 0 0.00157643076335983 -0.00095329973664137334 0 0.0020799882755822927 9.0912413896564144e-05 0 0.00157643076335983 -0.00095329973664137334 0 0.0010425892461180407 -0.00013097589655138009 0 0.00157643076335983 -0.00095329973664137334 0 0.0010425892461180407 -0.00013097589655138009 0 0.00041923340320428883 -0.00084438632070266411 0 0.00157643076335983 -0.00095329973664137334 0 0.00088400132953008088 -0.0021107492870238655 0 0.00041923340320428883 -0.00084438632070266411 0 0.00157643076335983 -0.00095329973664137334 0 0.00088400132953008088 -0.0021107492870238655 0 0.0018721970994227581 -0.0019367505257935681 0 0.00157643076335983 -0.00095329973664137334 0 0.0018721970994227581 -0.0019367505257935681 0 0.0023781815638348105 -0.001335416891519783 0 0.0018721970994227581 -0.0019367505257935681 0 0.0023781815638348105 -0.001335416891519783 0 0.0026850577053301153 -0.0021438393620204703 0 0.0023781815638348105 -0.001335416891519783 0 0.0026850577053301153 -0.0021438393620204703 0 0.0032757491610734928 -0.0011782949119860178 0 -0.0022673481061846147 -0.0016552291227020083 0 -0.0016318026455978366 -0.00068687860402609274 0 -7.4086539066201096e-05 0.00015607273226543868 0 -0.00049071931283447407 -0.000834772695197923 0 -0.0013984301336567491 -0.00072854223328734224 0 -0.00053786215231165337 -7.2294709818582122e-05 0 -0.0013165725717687133 -0.00063856451529531422 0 -0.00091786933701986967 -0.00025277325046523473 0 -0.001103508818462312 -0.00013233919665681486 0 -0.0013984301336567491 -0.00072854223328734224 0 -0.0016108011514111089 -0.0009948844682690181 0 -0.001103508818462312 -0.00013233919665681486 0 -0.0013984301336567491 -0.00072854223328734224 0 -0.0028605836226335037 -0.0021887994388697174 0 -0.0028604896812195308 -0.0018682181953739272 0 -0.002506343190121052 -0.0014356743497546056 0 -0.00049071931283447407 -0.000834772695197923 0 -0.0013984301336567491 -0.00072854223328734224 0 -0.0010721111662645223 -0.0011635953449794275 0 -0.0016108011514111089 -0.0009948844682690181 0 -0.0013984301336567491 -0.00072854223328734224 0 -0.0010721111662645223 -0.0011635953449794275 0 -7.4086539066201096e-05 0.00015607273226543868 0 0.0010425892461180407 -0.00013097589655138009 0 0.00041923340320428883 -0.00084438632070266411 0 -7.4086539066201096e-05 0.00015607273226543868 0 -0.00049071931283447407 -0.000834772695197923 0 0.00041923340320428883 -0.00084438632070266411 0 -0.00049071931283447407 -0.000834772695197923 0 0.00041923340320428883 -0.00084438632070266411 0 -0.00028446024033168418 -0.0015347349642786422 0 0.00088400132953008088 -0.0021107492870238655 0 -0.00028446024033168418 -0.0015347349642786422 0 -0.0001530117346613999 -0.0027434917018219489 0 0.00088400132953008088 -0.0021107492870238655 0 0.00041923340320428883 -0.00084438632070266411 0 -0.00028446024033168418 -0.0015347349642786422 0 -0.00028446024033168418 -0.0015347349642786422 0 -0.0011315349214934918 -0.0018433923165325355 0 -0.0001530117346613999 -0.0027434917018219489 0 -0.00049071931283447407 -0.000834772695197923 0 -0.00028446024033168418 -0.0015347349642786422 0 -0.0010721111662645223 -0.0011635953449794275 0 -0.00028446024033168418 -0.0015347349642786422 0 -0.0010721111662645223 -0.0011635953449794275 0 -0.0011315349214934918 -0.0018433923165325355 0 -0.0016491550737030289 -0.0016424114982575607 0 -0.0010721111662645223 -0.0011635953449794275 0 -0.0011315349214934918 -0.0018433923165325355 0 -0.0016108011514111089 -0.0009948844682690181 0 -0.0016491550737030289 -0.0016424114982575607 0 -0.0010721111662645223 -0.0011635953449794275 0 -0.0016491550737030289 -0.0016424114982575607 0 -0.0017953166401963514 -0.0021140725033438933 0 -0.0011315349214934918 -0.0018433923165325355 0 -0.0012075644824765482 -0.0036801008924470017 0 -9.1483698126083671e-07 -0.0037693696656656383 0 -0.0001530117346613999 -0.0027434917018219489 0 -0.0017953166401963514 -0.0021140725033438933 0 -0.0011315349214934918 -0.0018433923165325355 0 -0.0013195328952336704 -0.0027163532687297649 0 -0.0011315349214934918 -0.0018433923165325355 0 -0.0013195328952336704 -0.0027163532687297649 0 -0.0001530117346613999 -0.0027434917018219489 0 -0.0013195328952336704 -0.0027163532687297649 0 -0.0013611873674902436 -0.0037602333393373694 0 -0.0001530117346613999 -0.0027434917018219489 0 0.0014267878452524725 -0.0031119654506864191 0 -0.001010815526346345 -0.0033330923448920999 0 -0.0021345959021258905 -0.0031690590846131946 0 -0.0013195328952336704 -0.0027163532687297649 0 -0.0013611873674902436 -0.0037602333393373694 0 0.0014267878452524725 -0.0031119654506864191 0 0.0048570972832874849 -0.0027699362567291611 0 -9.1483698126083671e-07 -0.0037693696656656383 0 0.00083956102052259811 -0.0036344200706950229 0 0.00052590260883337669 -0.0050134251173953818 0 -0.0012075644824765482 -0.0036801008924470017 0 -9.1483698126083671e-07 -0.0037693696656656383 0 0.00052590260883337669 -0.0050134251173953818 0 0.00088400132953008088 -0.0021107492870238655 0 0.00083956102052259811 -0.0036344200706950229 0 -0.0001530117346613999 -0.0027434917018219489 0 -9.1483698126083671e-07 -0.0037693696656656383 0 0.00083956102052259811 -0.0036344200706950229 0 -0.0001530117346613999 -0.0027434917018219489 0 0.00088400132953008088 -0.0021107492870238655 0 0.00083956102052259811 -0.0036344200706950229 0 0.0019769437443406682 -0.0029567423038569436 0 0.00088400132953008088 -0.0021107492870238655 0 0.0018721970994227581 -0.0019367505257935681 0 0.0019769437443406682 -0.0029567423038569436 0 0.0019769437443406682 -0.0029567423038569436 0 0.0028861956137837628 -0.0028413658019511103 0 0.0031874354772790671 -0.0036123411334986017 0 0.0026850577053301153 -0.0021438393620204703 0 0.0028861956137837628 -0.0028413658019511103 0 0.0036927420239281565 -0.0026526017729152042 0 0.0026850577053301153 -0.0021438393620204703 0 0.0019769437443406682 -0.0029567423038569436 0 0.0028861956137837628 -0.0028413658019511103 0 0.0018721970994227581 -0.0019367505257935681 0 0.0026850577053301153 -0.0021438393620204703 0 0.0019769437443406682 -0.0029567423038569436 0 0.0019769437443406682 -0.0029567423038569436 0 0.0031874354772790671 -0.0036123411334986017 0 0.0022980403121980434 -0.0047002032223257845 0 0.0041426831500611799 -0.0039213989737088024 0 0.0062609371488497089 -0.0035996610610653746 0 0.0031874354772790671 -0.0036123411334986017 0 0.0022980403121980434 -0.0047002032223257845 0 0.0040847361260794917 -0.0043714485389907028 0 0.00083956102052259811 -0.0036344200706950229 0 0.0022980403121980434 -0.0047002032223257845 0 0.00052590260883337669 -0.0050134251173953818 0 0.00083956102052259811 -0.0036344200706950229 0 0.0019769437443406682 -0.0029567423038569436 0 0.0022980403121980434 -0.0047002032223257845 0 0.0041426831500611799 -0.0039213989737088024 0 0.0048570972832874849 -0.0027699362567291611 0 0.0068338248078322053 -0.0028354756153087892 0 0.0067284209625318187 -0.0032522991333657869 0 0.0062790903747634384 -0.0029259975074960583 0 0.010227942352500704 -0.0017756306207799392 0 0.0048570972832874849 -0.0027699362567291611 0 0.0088616395457099626 -0.0013925359878625304 0 0.0093132296153026432 -0.001421284214113654 0 0.0092420307904880952 -0.0017009330445635653 0 0.0068338248078322053 -0.0028354756153087892 0 0.0070935662230512241 -0.0030232484097933339 0 0.0067284209625318187 -0.0032522991333657869 0 0.0068338248078322053 -0.0028354756153087892 0 0.0070935662230512241 -0.0030232484097933339 0 0.0073602488329220107 -0.0027497862195090647 0 0.010227942352500704 -0.0017756306207799392 0 0.012224837691254336 -0.00070466750532815407 0 0.01020568972448303 -0.0017176764567211394 0 0.010208137498080439 -0.0017175859980176436 0 0.010212404640259307 -0.0017066603193638724 0 0.0070935662230512241 -0.0030232484097933339 0 0.0070666420305207315 -0.0032791266722423471 0 0.0067284209625318187 -0.0032522991333657869 0 0.010208137498080439 -0.0017175859980176436 0 0.010209262294773749 -0.0017193138008724013 0 0.010212404640259307 -0.0017066603193638724 0 0.0090596021841910668 -0.0021171080575022056 0 0.010248362947658353 -0.0018251707971826772 0 0.0090596021841910668 -0.0021171080575022056 0 0.0095876949454942774 -0.0020881439186188296 0 0.010200146197006064 -0.0017205105966328889 0 0.010208137498080439 -0.0017175859980176436 0 0.010209262294773749 -0.0017193138008724013 0 0.0090596021841910668 -0.0021171080575022056 0 0.010227942352500704 -0.0017756306207799392 0 0.013761466076120065 -0.0005487061977603897 0 0.014182536772653241 -0.0003560333681858721 0 0.013868805394947871 -6.1582361525742171e-05 0 0.010227942352500704 -0.0017756306207799392 0 0.011974077947172387 -0.00092016660256024957 0 0.013761466076120065 -0.0005487061977603897 0 0.014182536772653241 -0.0003560333681858721 0 0.014433946340401823 -0.00051729620750735525 0 0.014182536772653241 -0.0003560333681858721 0 0.01463413360247405 -0.00031358450577780912 0 0.013868805394947871 -6.1582361525742171e-05 0 0.014182536772653241 -0.0003560333681858721 0 0.014433946340401823 -0.00051729620750735525 0 0.01463413360247405 -0.00031358450577780912 0 0.014433946340401823 -0.00051729620750735525 0 0.01463413360247405 -0.00031358450577780912 0 0.014707586882777852 -0.0003736911722935761 0 0.011974077947172387 -0.00092016660256024957 0 0.012675306913017111 -0.00094904743774087595 0 0.01463413360247405 -0.00031358450577780912 0 0.014687479374163712 -0.00032535753901585709 0 0.014707586882777852 -0.0003736911722935761 0 0.0093132296153026432 -0.001421284214113654 0 0.0098131093354372409 -0.0014434055821662462 0 0.0097763706477435961 -0.0015951885660527494 0 0.005676562293990166 -0.0032936954433136611 0 0.0055962062551690875 -0.0014896830692274858 0 0.0038018147912371597 -0.0018337279911217236 0 0.0077564055490145691 -0.0014945180339792274 0 0.0048570972832874849 -0.0027699362567291611 0 0.0093132296153026432 -0.001421284214113654 0 0.0097763706477435961 -0.0015951885660527494 0 0.0092420307904880952 -0.0017009330445635653 0 0.0085807368500258382 -0.0038034587587152239 0 0.0083474829762897971 -0.0038345102961485945 0 0.0083597781074706366 -0.0035099810850763693 0 0.0086600903847586855 -0.004107261819520037 0 0.0070718475497356355 -0.0033769059627865574 0 0.0083474829762897971 -0.0038345102961485945 0 0.0082057067915606175 -0.0036891284142337236 0 0.0083597781074706366 -0.0035099810850763693 0 0.0086600903847586855 -0.004107261819520037 0 0.0097496225543552782 -0.0041054090535677223 0 0.0066517353405220097 -0.004495970479041482 0 0.0058464523036434127 -0.0033957042046640806 0 0.0064954056870518235 -0.0037701459912080851 0 0.0066517353405220097 -0.004495970479041482 0 0.0069589662995724411 -0.0037745795650993359 0 0.0064954056870518235 -0.0037701459912080851 0 0.0066517353405220097 -0.004495970479041482 0 0.0069589662995724411 -0.0037745795650993359 0 0.007328611713117641 -0.0040988270999888247 0 0.0099285110315530493 -0.0043262553200109737 0 0.0094663358463982078 -0.0042373049375653785 0 0.0097090337989113526 -0.0038986074742582257 0 0.010153485536368112 -0.0045195312731922841 0 0.01017839949448382 -0.0038593485441386749 0 0.010640659288614105 -0.0038562534404304643 0 0.0086600903847586855 -0.004107261819520037 0 0.0098910171433365078 -0.0042618612353527681 0 0.010153485536368112 -0.0045195312731922841 0 0.01017839949448382 -0.0038593485441386749 0 0.0097090337989113526 -0.0038986074742582257 0 0.01017839949448382 -0.0038593485441386749 0 0.0097090337989113526 -0.0038986074742582257 0 0.010023032090652449 -0.0034235847708473295 0 0.01017839949448382 -0.0038593485441386749 0 0.010640659288614105 -0.0038562534404304643 0 0.01040565673453921 -0.0034174482371837427 0 0.010153485536368112 -0.0045195312731922841 0 0.010640659288614105 -0.0038562534404304643 0 0.010998731860333358 -0.0043972292053026107 0 0.010640659288614105 -0.0038562534404304643 0 0.010998731860333358 -0.0043972292053026107 0 0.011181053556220327 -0.0038083552232413154 0 0.0097496225543552782 -0.0041054090535677223 0 0.010091595925475233 -0.0032538601712958589 0 0.010998731860333358 -0.0043972292053026107 0 0.011181053556220327 -0.0038083552232413154 0 0.011835381990174813 -0.0042687383313992919 0 0.010091595925475233 -0.0032538601712958589 0 0.011711645530545418 -0.0018807990105377472 0 0.011181053556220327 -0.0038083552232413154 0 0.011835381990174813 -0.0042687383313992919 0 0.011589421623733734 -0.0033087859611443775 0 0.012091695312893912 -0.0018201655564197233 0 0.012449930746423728 -0.00095727134227890367 0 0.011749731530817164 -0.00047184984241410092 0 0.0097291787540263585 -0.0023389611392785289 0 0.012224837691254336 -0.00070466750532815407 0 0.012449930746423728 -0.00095727134227890367 0 0.012865739909408896 -0.0017099441733871271 0 0.013075646024857874 -0.00052226277797589151 0 0.010202377722500719 -0.0017193615487393942 0 0.010203694714146016 -0.0017178827189904434 0 0.010212404640259307 -0.0017066603193638724 0 0.01020568972448303 -0.0017176764567211394 0 0.010203694714146016 -0.0017178827189904434 0 0.010212404640259307 -0.0017066603193638724 0 0.010091595925475233 -0.0032538601712958589 0 0.0097291787540263585 -0.0023389611392785289 0 0.012091695312893912 -0.0018201655564197233 0 0.012449930746423728 -0.00095727134227890367 0 0.012865739909408896 -0.0017099441733871271 0 0.0070935662230512241 -0.0030232484097933339 0 0.0070666420305207315 -0.0032791266722423471 0 0.0072961192827106884 -0.0032429763060096944 0 0.0090596021841910668 -0.0021171080575022056 0 0.0097291787540263585 -0.0023389611392785289 0 0.010203294340211198 -0.0017177908624046018 0 0.010202377722500719 -0.0017193615487393942 0 0.010203694714146016 -0.0017178827189904434 0 0.0083677063959558817 -0.0029162291507484226 0 0.0086622255228838516 -0.0028726027251271928 0 0.0085420985693942901 -0.0034707008994790951 0 0.0070935662230512241 -0.0030232484097933339 0 0.0072961192827106884 -0.0032429763060096944 0 0.0073602488329220107 -0.0027497862195090647 0 0.0097291787540263585 -0.0023389611392785289 0 0.0062609371488497089 -0.0035996610610653746 0 0.0083677063959558817 -0.0029162291507484226 0 0.0085420985693942901 -0.0034707008994790951 0 0.0085040193515412647 -0.0034778350803227531 0 0.010091595925475233 -0.0032538601712958589 0 0.0066361207790090653 -0.0036046337447842493 0 0.0083474829762897971 -0.0038345102961485945 0 0.0081178495989623813 -0.0038638370575686132 0 0.0082057067915606175 -0.0036891284142337236 0 0.0081178495989623813 -0.0038638370575686132 0 0.0082057067915606175 -0.0036891284142337236 0 0.0080176420969158523 -0.0035733037180439627 0 0.0059576433381915749 -0.0032122166399602419 0 0.0055815489080684871 -0.0036371594957809272 0 0.0067582087018450776 -0.0034180849084782003 0 0.0082057067915606175 -0.0036891284142337236 0 0.0080176420969158523 -0.0035733037180439627 0 0.0083597781074706366 -0.0035099810850763693 0 0.0059576433381915749 -0.0032122166399602419 0 0.0062613349585139092 -0.0027396843861299059 0 0.0067582087018450776 -0.0034180849084782003 0 0.0066361207790090653 -0.0036046337447842493 0 0.0070718475497356355 -0.0033769059627865574 0 0.0059576433381915749 -0.0032122166399602419 0 0.0055384876966400138 -0.0034890465822741039 0 0.0056486064686007073 -0.0027754103556979271 0 0.0031874354772790671 -0.0036123411334986017 0 0.0041249004898724481 -0.0041143249550791208 0 0.0036927420239281565 -0.0026526017729152042 0 0.0031874354772790671 -0.0036123411334986017 0 0.0040847361260794917 -0.0043714485389907028 0 0.0041249004898724481 -0.0041143249550791208 0 0.0059576433381915749 -0.0032122166399602419 0 0.0055815489080684871 -0.0036371594957809272 0 0.0055384876966400138 -0.0034890465822741039 0 0.0062609371488497089 -0.0035996610610653746 0 0.0056635655990817822 -0.0036860176454540741 0 0.0062609371488497089 -0.0035996610610653746 0 0.0066361207790090653 -0.0036046337447842493 0 0.0060465312844837325 -0.0033031337629983813 0 0.0058393029234684278 -0.0033416708224632457 0 0.0059655780014092876 -0.0037894365099902087 0 0.0066361207790090653 -0.0036046337447842493 0 0.0056635655990817822 -0.0036860176454540741 0 0.0056635655990817822 -0.0036860176454540741 0 0.0050074445165624246 -0.0029061467367116592 0 0.0056635655990817822 -0.0036860176454540741 0 0.0036230044503468978 -0.0026413464375871607 0 0.0041584695801074323 -0.0040816926833758503 0 0.0043234504277766851 -0.0029718680813015852 0 0.0037212321030507278 -0.0026493343083861627 0 0.0028861956137837628 -0.0028413658019511103 0 0.0031874354772790671 -0.0036123411334986017 0 0.0036927420239281565 -0.0026526017729152042 0 0.0043234504277766851 -0.0029718680813015852 0 0.0037212321030507278 -0.0026493343083861627 0 0.0045087137170488093 -0.0018426450200894457 0 0.0053106442238079702 -0.0026565825587811821 0 0.0057710598560940934 -0.0021579098350401568 0 0.0047858077443186662 -0.0019304341257473723 0 0.0059576433381915749 -0.0032122166399602419 0 0.0056486064686007073 -0.0027754103556979271 0 0.0062613349585139092 -0.0027396843861299059 0 0.0057637172912298144 -0.0026737945093308021 0 0.004939861401029544 -0.0019496864020490004 0 0.0056486064686007073 -0.0027754103556979271 0 0.0062613349585139092 -0.0027396843861299059 0 0.0057596789787087346 -0.0020572729906583012 0 0.0050074445165624246 -0.0029061467367116592 0 0.004939861401029544 -0.0019496864020490004 0 0.0053106442238079702 -0.0026565825587811821 0 0.0059183013294128494 -0.0027728675652337023 0 0.0057710598560940934 -0.0021579098350401568 0 0.0059183013294128494 -0.0027728675652337023 0 0.0065069440645519954 -0.0023858245264072541 0 0.0057710598560940934 -0.0021579098350401568 0 0.0059183013294128494 -0.0027728675652337023 0 0.0064560735117904595 -0.0030917897533407632 0 0.0065069440645519954 -0.0023858245264072541 0 0.0053106442238079702 -0.0026565825587811821 0 0.0059183013294128494 -0.0027728675652337023 0 0.0058464523036434127 -0.0033957042046640806 0 0.0057637172912298144 -0.0026737945093308021 0 0.0070718475497356355 -0.0033769059627865574 0 0.0059183013294128494 -0.0027728675652337023 0 0.0060291855388123839 -0.0031961126493759073 0 0.0064560735117904595 -0.0030917897533407632 0 0.0061461843236243737 -0.0032871426639181898 0 0.0060291855388123839 -0.0031961126493759073 0 0.0064560735117904595 -0.0030917897533407632 0 0.0059183013294128494 -0.0027728675652337023 0 0.0060291855388123839 -0.0031961126493759073 0 0.0058464523036434127 -0.0033957042046640806 0 0.0061461843236243737 -0.0032871426639181898 0 0.0062420963218672654 -0.0034665962237056215 0 0.0064560735117904595 -0.0030917897533407632 0 0.0061461843236243737 -0.0032871426639181898 0 0.0062420963218672654 -0.0034665962237056215 0 0.0058464523036434127 -0.0033957042046640806 0 0.0061461843236243737 -0.0032871426639181898 0 0.0060291855388123839 -0.0031961126493759073 0 0.0058464523036434127 -0.0033957042046640806 0 0.0062420963218672654 -0.0034665962237056215 0 0.0058464523036434127 -0.0033957042046640806 0 0.0064954056870518235 -0.0037701459912080851 0 0.0069589662995724411 -0.0037745795650993359 0 0.0066243050842861974 -0.0034539630516257111 0 0.0070176906504526527 -0.0032086202165190337 0 0.0069589662995724411 -0.0037745795650993359 0 0.0064954056870518235 -0.0037701459912080851 0 0.0066243050842861974 -0.0034539630516257111 0 0.0062420963218672654 -0.0034665962237056215 0 0.0064954056870518235 -0.0037701459912080851 0 0.0066243050842861974 -0.0034539630516257111 0 0.0066243050842861974 -0.0034539630516257111 0 0.0064560735117904595 -0.0030917897533407632 0 0.0070176906504526527 -0.0032086202165190337 0 0.0062420963218672654 -0.0034665962237056215 0 0.0066243050842861974 -0.0034539630516257111 0 0.0064560735117904595 -0.0030917897533407632 0 0.0064560735117904595 -0.0030917897533407632 0 0.0070176906504526527 -0.0032086202165190337 0 0.0069400594806202877 -0.0027396119125784823 0 0.0064560735117904595 -0.0030917897533407632 0 0.0069400594806202877 -0.0027396119125784823 0 0.0065069440645519954 -0.0023858245264072541 0 0.0069400594806202877 -0.0027396119125784823 0 0.0065069440645519954 -0.0023858245264072541 0 0.0071385962614907471 -0.0022879010987661755 0 0.0065069440645519954 -0.0023858245264072541 0 0.0068347369024103983 -0.0018734635369192217 0 0.0071385962614907471 -0.0022879010987661755 0 0.006329191113537449 -0.0018137200646083668 0 0.0057915005215142994 -0.0014150284985827756 0 0.006743398534578446 -0.001242490244893936 0 0.0068347369024103983 -0.0018734635369192217 0 0.006743398534578446 -0.001242490244893936 0 0.0073909966100717678 -0.0016559650419930405 0 0.0068347369024103983 -0.0018734635369192217 0 0.006329191113537449 -0.0018137200646083668 0 0.006743398534578446 -0.001242490244893936 0 0.0065069440645519954 -0.0023858245264072541 0 0.0068347369024103983 -0.0018734635369192217 0 0.006329191113537449 -0.0018137200646083668 0 0.0065069440645519954 -0.0023858245264072541 0 0.006329191113537449 -0.0018137200646083668 0 0.0057710598560940934 -0.0021579098350401568 0 0.006329191113537449 -0.0018137200646083668 0 0.0057710598560940934 -0.0021579098350401568 0 0.0057915005215142994 -0.0014150284985827756 0 0.0057915005215142994 -0.0014150284985827756 0 0.0060864473933749923 -0.00067125598522922226 0 0.006743398534578446 -0.001242490244893936 0 0.0057915005215142994 -0.0014150284985827756 0 0.0060864473933749923 -0.00067125598522922226 0 0.0049906691824442616 -0.00065732987246348428 0 0.006743398534578446 -0.001242490244893936 0 0.0069594783917697797 -0.00027511487785408399 0 0.0073254059297147827 -0.00093858931459924822 0 0.0060864473933749923 -0.00067125598522922226 0 0.006743398534578446 -0.001242490244893936 0 0.0069594783917697797 -0.00027511487785408399 0 0.0026850577053301153 -0.0021438393620204703 0 0.0036927420239281565 -0.0026526017729152042 0 0.0032757491610734928 -0.0011782949119860178 0 0.0032757491610734928 -0.0011782949119860178 0 0.0045087137170488093 -0.0018426450200894457 0 0.0033110873459642988 -0.00021238635259649796 0 0.0037212321030507278 -0.0026493343083861627 0 0.0032757491610734928 -0.0011782949119860178 0 0.0045087137170488093 -0.0018426450200894457 0 0.0036230044503468978 -0.0026413464375871607 0 0.0033240028979170146 -0.0013075106485521497 0 0.0057710598560940934 -0.0021579098350401568 0 0.0057915005215142994 -0.0014150284985827756 0 0.0047858077443186662 -0.0019304341257473723 0 0.0057915005215142994 -0.0014150284985827756 0 0.0047858077443186662 -0.0019304341257473723 0 0.0049906691824442616 -0.00065732987246348428 0 0.004939861401029544 -0.0019496864020490004 0 0.0049312454387434763 -0.00069935763782689509 0 0.0046978530821998364 -0.002073839863099957 0 0.0049182395613988949 -0.00074453075176601812 0 0.0038835105494986906 -0.00096366134040066847 0 0.004939861401029544 -0.0019496864020490004 0 0.0036275454446587961 -0.00052015111283725175 0 0.0049182395613988949 -0.00074453075176601812 0 0.0038835105494986906 -0.00096366134040066847 0 0.0042343971974617518 -7.0700955712131082e-05 0 0.0049906691824442616 -0.00065732987246348428 0 0.0051555656992382237 0.00059581233197243872 0 0.0056039360062553108 -8.5741026555394918e-05 0 0.0049182395613988949 -0.00074453075176601812 0 0.0042343971974617518 -7.0700955712131082e-05 0 0.0051555656992382237 0.00059581233197243872 0 0.0049312454387434763 -0.00069935763782689509 0 0.0051526082956408134 0.00053152667008543868 0 0.0042343971974617518 -7.0700955712131082e-05 0 0.0051555656992382237 0.00059581233197243872 0 0.0042978241462468822 0.00088979007327711073 0 0.0030529323016133254 0.00015673706943887349 0 0.0042343971974617518 -7.0700955712131082e-05 0 0.0042978241462468822 0.00088979007327711073 0 0.0060864473933749923 -0.00067125598522922226 0 0.0069594783917697797 -0.00027511487785408399 0 0.006271642251213432 0.00011894079380455545 0 0.0060864473933749923 -0.00067125598522922226 0 0.0049906691824442616 -0.00065732987246348428 0 0.0056039360062553108 -8.5741026555394918e-05 0 0.0060864473933749923 -0.00067125598522922226 0 0.006271642251213432 0.00011894079380455545 0 0.0056039360062553108 -8.5741026555394918e-05 0 0.006271642251213432 0.00011894079380455545 0 0.0057633845119124212 0.00055112438367244858 0 0.0062015038766341218 0.00072411650612911021 0 0.006271642251213432 0.00011894079380455545 0 0.0056039360062553108 -8.5741026555394918e-05 0 0.0057633845119124212 0.00055112438367244858 0 0.0051555656992382237 0.00059581233197243872 0 0.0056039360062553108 -8.5741026555394918e-05 0 0.0057633845119124212 0.00055112438367244858 0 0.0057159524079595089 0.0011935073111405002 0 0.0051555656992382237 0.00059581233197243872 0 0.0057633845119124212 0.00055112438367244858 0 0.0057159524079595089 0.0011935073111405002 0 0.0057633845119124212 0.00055112438367244858 0 0.0062015038766341218 0.00072411650612911021 0 0.0069594783917697797 -0.00027511487785408399 0 0.006271642251213432 0.00011894079380455545 0 0.0068152077530661079 0.00057450929594587627 0 0.006271642251213432 0.00011894079380455545 0 0.0062015038766341218 0.00072411650612911021 0 0.0068152077530661079 0.00057450929594587627 0 0.0079342387032052576 0.00081133668636997123 0 0.0071420337840629941 0.0010958493144135363 0 0.0074207344510314526 0.00037114618151687883 0 0.0071420337840629941 0.0010958493144135363 0 0.0068152077530661079 0.00057450929594587627 0 0.0074207344510314526 0.00037114618151687883 0 0.0069594783917697797 -0.00027511487785408399 0 0.0068152077530661079 0.00057450929594587627 0 0.0074207344510314526 0.00037114618151687883 0 0.0069594783917697797 -0.00027511487785408399 0 0.0079946199385983654 -0.00019179857390588353 0 0.0073254059297147827 -0.00093858931459924822 0 0.0069594783917697797 -0.00027511487785408399 0 0.0074207344510314526 0.00037114618151687883 0 0.0079946199385983654 -0.00019179857390588353 0 0.0079946199385983654 -0.00019179857390588353 0 0.008462900913202856 0.0007095223659834924 0 0.0090281401604698636 0.00033564995312536209 0 0.0079076881759977229 -0.00031932499934827704 0 0.0087095634219889941 0.0011426688465328494 0 0.0079946199385983654 -0.00019179857390588353 0 0.0078804596122789648 0.00037401355561193881 0 0.0082480658490953207 0.00056799973652879761 0 0.0074207344510314526 0.00037114618151687883 0 0.0079946199385983654 -0.00019179857390588353 0 0.0078804596122789648 0.00037401355561193881 0 0.0079342387032052576 0.00081133668636997123 0 0.0078804596122789648 0.00037401355561193881 0 0.0082480658490953207 0.00056799973652879761 0 0.0079342387032052576 0.00081133668636997123 0 0.0074207344510314526 0.00037114618151687883 0 0.0078804596122789648 0.00037401355561193881 0 0.0079342387032052576 0.00081133668636997123 0 0.0081609852957209676 0.0010801717586402541 0 0.0082480658490953207 0.00056799973652879761 0 0.008462900913202856 0.0007095223659834924 0 0.0092568089786275957 0.00075826265241547006 0 0.0090281401604698636 0.00033564995312536209 0 0.0092568089786275957 0.00075826265241547006 0 0.0090281401604698636 0.00033564995312536209 0 0.0097355698589652612 0.00028222475451949552 0 0.0092568089786275957 0.00075826265241547006 0 0.0097355698589652612 0.00028222475451949552 0 0.010124796942805797 0.000942161706480761 0 0.0090281401604698636 0.00033564995312536209 0 0.0097355698589652612 0.00028222475451949552 0 0.0093983051503048441 -0.00066505666092650474 0 0.0097355698589652612 0.00028222475451949552 0 0.0093983051503048441 -0.00066505666092650474 0 0.010391444181608502 -0.00014408704959445107 0 0.0090631746828233103 0.00026074053464179468 0 0.0094393638056264762 -0.00072749665399386829 0 0.0079946199385983654 -0.00019179857390588353 0 0.0090281401604698636 0.00033564995312536209 0 0.0087865131749276393 -0.00043096630003803621 0 0.0090281401604698636 0.00033564995312536209 0 0.0087865131749276393 -0.00043096630003803621 0 0.0094932087035962866 -0.00081483447974200996 0 0.0087865131749276393 -0.00043096630003803621 0 0.008722758545571559 -0.0012234375520052305 0 0.0094932087035962866 -0.00081483447974200996 0 0.008722758545571559 -0.0012234375520052305 0 0.0094932087035962866 -0.00081483447974200996 0 0.0099438834949454533 -0.0019507457304492645 0 0.0093983051503048441 -0.00066505666092650474 0 0.0097654750663369611 -0.0017064459913914947 0 0.010221019182970133 -0.00097756454700573801 0 0.0094393638056264762 -0.00072749665399386829 0 0.0098541035071545192 -0.0018329934989303762 0 0.0093983051503048441 -0.00066505666092650474 0 0.010391444181608502 -0.00014408704959445107 0 0.010221019182970133 -0.00097756454700573801 0 0.008722758545571559 -0.0012234375520052305 0 0.0099438834949454533 -0.0019507457304492645 0 0.0088090857359776949 -0.0022395733467793695 0 0.008722758545571559 -0.0012234375520052305 0 0.0081147660993338318 -0.0018441873368806015 0 0.0088090857359776949 -0.0022395733467793695 0 0.008722758545571559 -0.0012234375520052305 0 0.0081147660993338318 -0.0018441873368806015 0 0.0079293435421010847 -0.0011660296801200402 0 0.0081147660993338318 -0.0018441873368806015 0 0.0073909966100717678 -0.0016559650419930405 0 0.0076621492650742074 -0.00224118618253387 0 0.0068347369024103983 -0.0018734635369192217 0 0.0073909966100717678 -0.0016559650419930405 0 0.0071385962614907471 -0.0022879010987661755 0 0.0073909966100717678 -0.0016559650419930405 0 0.0071385962614907471 -0.0022879010987661755 0 0.0076621492650742074 -0.00224118618253387 0 0.0081147660993338318 -0.0018441873368806015 0 0.0073909966100717678 -0.0016559650419930405 0 0.0079293435421010847 -0.0011660296801200402 0 0.0079946199385983654 -0.00019179857390588353 0 0.0073254059297147827 -0.00093858931459924822 0 0.0079293435421010847 -0.0011660296801200402 0 0.0073909966100717678 -0.0016559650419930405 0 0.0073254059297147827 -0.00093858931459924822 0 0.0079293435421010847 -0.0011660296801200402 0 0.006743398534578446 -0.001242490244893936 0 0.0073909966100717678 -0.0016559650419930405 0 0.0073254059297147827 -0.00093858931459924822 0 0.0079946199385983654 -0.00019179857390588353 0 0.008722758545571559 -0.0012234375520052305 0 0.0079293435421010847 -0.0011660296801200402 0 0.0079946199385983654 -0.00019179857390588353 0 0.0087865131749276393 -0.00043096630003803621 0 0.008722758545571559 -0.0012234375520052305 0 0.000804102400854119 -0.0022955323891764245 0 0.00074212438258360904 -0.0020178355257286654 0 0.00061424723641121401 -0.0022151398780763023 0 0.000804102400854119 -0.0022955323891764245 0 0.00074212438258360904 -0.0020178355257286654 0 0.0010449726427717147 -0.0020817621668839273 0 0.000804102400854119 -0.0022955323891764245 0 0.0010981540317957694 -0.0022947814219361684 0 0.0010449726427717147 -0.0020817621668839273 0 0.012585177310214701 -0.00023969458731114813 0 0.011389727893804531 0.00036632029528445677 0 0.012060992912079604 -0.0009407274980168048 0 0.0062108974022691216 -0.0010479807136074312 0 0.0063173474750735812 -0.00088853809205976966 0 0.011389727893804531 0.00036632029528445677 0 0.010391444181608502 -0.00014408704959445107 0 0.011064827153389804 -0.00085038535307714505 0 0.0010981540317957694 -0.0022947814219361684 0 0.0010449726427717147 -0.0020817621668839273 0 0.0014245512365166485 -0.002173309666002723 0 0.0063173474750735812 -0.00088853809205976966 0 0.0057638872226403078 -0.00060687685626521857 0 0.011389727893804531 0.00036632029528445677 0 0.010124796942805797 0.000942161706480761 0 0.010391444181608502 -0.00014408704959445107 0 0.0097355698589652612 0.00028222475451949552 0 0.010124796942805797 0.000942161706480761 0 0.010391444181608502 -0.00014408704959445107 0 0.010391444181608502 -0.00014408704959445107 0 0.010221019182970133 -0.00097756454700573801 0 0.011064827153389804 -0.00085038535307714505 0 0.0097654750663369611 -0.0017064459913914947 0 0.010221019182970133 -0.00097756454700573801 0 0.010685642953107657 -0.001777670896106216 0 0.010221019182970133 -0.00097756454700573801 0 0.010685642953107657 -0.001777670896106216 0 0.011064827153389804 -0.00085038535307714505 0 0.010685642953107657 -0.001777670896106216 0 0.011537402770406886 -0.0015569153080984984 0 0.011458986811208738 -0.0024449221713846022 0 0.010685642953107657 -0.001777670896106216 0 0.011537402770406886 -0.0015569153080984984 0 0.011064827153389804 -0.00085038535307714505 0 0.011537402770406886 -0.0015569153080984984 0 0.011064827153389804 -0.00085038535307714505 0 0.012060992912079604 -0.0009407274980168048 0 0.011389727893804531 0.00036632029528445677 0 0.011064827153389804 -0.00085038535307714505 0 0.012060992912079604 -0.0009407274980168048 0 0.011537402770406886 -0.0015569153080984984 0 0.012060992912079604 -0.0009407274980168048 0 0.012381366682107273 -0.0018528611513492848 0 0.012966114050523553 -0.0012752120440279659 0 0.012060992912079604 -0.0009407274980168048 0 0.012381366682107273 -0.0018528611513492848 0 0.013630982986564861 -0.00085251676146306935 0 0.013908007942725798 -0.0022907845581511439 0 0.012381366682107273 -0.0018528611513492848 0 0.014220033747585958 -0.00061062277847506513 0 0.012094474255816751 -0.0019943704750654506 0 0.012966114050523553 -0.0012752120440279659 0 0.012585177310214701 -0.00023969458731114813 0 0.012060992912079604 -0.0009407274980168048 0 0.013908007942725798 -0.0022907845581511439 0 0.014125724575142176 -0.0036542291021006037 0 0.012545173849762453 -0.0032009117873591109 0 0.013908007942725798 -0.0022907845581511439 0 0.012381366682107273 -0.0018528611513492848 0 0.012545173849762453 -0.0032009117873591109 0 0.011537402770406886 -0.0015569153080984984 0 0.012381366682107273 -0.0018528611513492848 0 0.011458986811208738 -0.0024449221713846022 0 0.012381366682107273 -0.0018528611513492848 0 0.012545173849762453 -0.0032009117873591109 0 0.011458986811208738 -0.0024449221713846022 0 0.012545173849762453 -0.0032009117873591109 0 0.011443208225353682 -0.0034494090697154609 0 0.011458986811208738 -0.0024449221713846022 0 0.012545173849762453 -0.0032009117873591109 0 0.011443208225353682 -0.0034494090697154609 0 0.012218428426073541 -0.0039072744982301851 0 0.011443208225353682 -0.0034494090697154609 0 0.011458986811208738 -0.0024449221713846022 0 0.010157686384276155 -0.0028248800578555998 0 0.0097654750663369611 -0.0017064459913914947 0 0.010685642953107657 -0.001777670896106216 0 0.010157686384276155 -0.0028248800578555998 0 0.010685642953107657 -0.001777670896106216 0 0.011458986811208738 -0.0024449221713846022 0 0.010157686384276155 -0.0028248800578555998 0 0.010260947792781784 -0.002962158653944029 0 0.010611400655696877 -0.0039272535881479118 0 0.011443208225353682 -0.0034494090697154609 0 0.010157686384276155 -0.0028248800578555998 0 0.010642356703520308 -0.0040047381833136671 0 0.010642356703520308 -0.0040047381833136671 0 0.010529686951323261 -0.004730327160372764 0 0.010015139250789781 -0.0045364056338631749 0 0.010642356703520308 -0.0040047381833136671 0 0.010529686951323261 -0.004730327160372764 0 0.011056343874627067 -0.0046728290723726399 0 0.010529686951323261 -0.004730327160372764 0 0.011056343874627067 -0.0046728290723726399 0 0.010699657608399013 -0.0052475239171593541 0 0.011056343874627067 -0.0046728290723726399 0 0.011257143040954182 -0.0049589019376807351 0 0.011579730591529409 -0.0047116191683998845 0 0.011257143040954182 -0.0049589019376807351 0 0.011579730591529409 -0.0047116191683998845 0 0.01171015573740404 -0.0051853235252154644 0 0.011056343874627067 -0.0046728290723726399 0 0.011579730591529409 -0.0047116191683998845 0 0.011621330844738273 -0.0042064042792434126 0 0.010642356703520308 -0.0040047381833136671 0 0.011056343874627067 -0.0046728290723726399 0 0.011621330844738273 -0.0042064042792434126 0 0.011443208225353682 -0.0034494090697154609 0 0.010642356703520308 -0.0040047381833136671 0 0.011621330844738273 -0.0042064042792434126 0 0.012545173849762453 -0.0032009117873591109 0 0.012218428426073541 -0.0039072744982301851 0 0.012794632782372911 -0.0044833705013570015 0 0.011621330844738273 -0.0042064042792434126 0 0.012218428426073541 -0.0039072744982301851 0 0.012794632782372911 -0.0044833705013570015 0 0.011443208225353682 -0.0034494090697154609 0 0.011621330844738273 -0.0042064042792434126 0 0.012218428426073541 -0.0039072744982301851 0 0.015513373316595032 -0.0031568516607680341 0 0.015355267764359842 -0.0032092962739552295 0 0.011579730591529409 -0.0047116191683998845 0 0.011621330844738273 -0.0042064042792434126 0 0.012794632782372911 -0.0044833705013570015 0 0.018412569694829416 -0.0016990944626728839 0 0.018354131577926831 -0.0017892754770582641 0 0.018190386192924776 -0.0018192613480556717 0 0.011579730591529409 -0.0047116191683998845 0 0.012794632782372911 -0.0044833705013570015 0 0.01171015573740404 -0.0051853235252154644 0 0.018412569694829416 -0.0016990944626728839 0 0.018190386192924776 -0.0018192613480556717 0 0.018123485212675382 -0.0018219794012363192 0 0.018380348291209148 -0.0017259083900013144 0 0.018412569694829416 -0.0016990944626728839 0 0.018501895890044053 -0.0017337036447499659 0 0.018412569694829416 -0.0016990944626728839 0 0.018501895890044053 -0.0017337036447499659 0 0.018354131577926831 -0.0017892754770582641 0 0.014125724575142176 -0.0036542291021006037 0 0.012545173849762453 -0.0032009117873591109 0 0.012794632782372911 -0.0044833705013570015 0 0.016235572175336534 -0.0026891864106770463 0 0.015513373316595032 -0.0031568516607680341 0 0.0080646540956053735 -0.0032763192996428901 0 0.0085618724173532161 -0.0036988687028780215 0 0.0085804522515496515 -0.0029492878728226502 0 0.0080646540956053735 -0.0032763192996428901 0 0.0077817048710934452 -0.0037392846976381307 0 0.0081094202382122893 -0.0038644996248834093 0 0.0080646540956053735 -0.0032763192996428901 0 0.0085618724173532161 -0.0036988687028780215 0 0.0081094202382122893 -0.0038644996248834093 0 0.0080646540956053735 -0.0032763192996428901 0 0.0077817048710934452 -0.0037392846976381307 0 0.0074403649478000629 -0.0034831716531748581 0 0.0077817048710934452 -0.0037392846976381307 0 0.0074403649478000629 -0.0034831716531748581 0 0.007328611713117641 -0.0040988270999888247 0 0.0069589662995724411 -0.0037745795650993359 0 0.0074403649478000629 -0.0034831716531748581 0 0.007328611713117641 -0.0040988270999888247 0 0.0069589662995724411 -0.0037745795650993359 0 0.0070176906504526527 -0.0032086202165190337 0 0.0074403649478000629 -0.0034831716531748581 0 0.0070176906504526527 -0.0032086202165190337 0 0.0074403649478000629 -0.0034831716531748581 0 0.0074985735307983581 -0.0028070858283950279 0 0.0080646540956053735 -0.0032763192996428901 0 0.0074403649478000629 -0.0034831716531748581 0 0.0074985735307983581 -0.0028070858283950279 0 0.0080646540956053735 -0.0032763192996428901 0 0.0074985735307983581 -0.0028070858283950279 0 0.0081157731642288074 -0.0025632549927749665 0 0.0069400594806202877 -0.0027396119125784823 0 0.0074985735307983581 -0.0028070858283950279 0 0.0071385962614907471 -0.0022879010987661755 0 0.0070176906504526527 -0.0032086202165190337 0 0.0069400594806202877 -0.0027396119125784823 0 0.0074985735307983581 -0.0028070858283950279 0 0.0074985735307983581 -0.0028070858283950279 0 0.0071385962614907471 -0.0022879010987661755 0 0.0076621492650742074 -0.00224118618253387 0 0.0074985735307983581 -0.0028070858283950279 0 0.0076621492650742074 -0.00224118618253387 0 0.0081157731642288074 -0.0025632549927749665 0 0.0081147660993338318 -0.0018441873368806015 0 0.0076621492650742074 -0.00224118618253387 0 0.0081157731642288074 -0.0025632549927749665 0 0.0080646540956053735 -0.0032763192996428901 0 0.0081157731642288074 -0.0025632549927749665 0 0.0085804522515496515 -0.0029492878728226502 0 0.0081147660993338318 -0.0018441873368806015 0 0.0081157731642288074 -0.0025632549927749665 0 0.0088090857359776949 -0.0022395733467793695 0 0.0081157731642288074 -0.0025632549927749665 0 0.0085804522515496515 -0.0029492878728226502 0 0.0088090857359776949 -0.0022395733467793695 0 0.0099438834949454533 -0.0019507457304492645 0 0.0088090857359776949 -0.0022395733467793695 0 0.0093486602894784221 -0.0029694440862110009 0 0.0085804522515496515 -0.0029492878728226502 0 0.0088090857359776949 -0.0022395733467793695 0 0.0093486602894784221 -0.0029694440862110009 0 0.0098541035071545192 -0.0018329934989303762 0 0.010260947792781784 -0.002962158653944029 0 0.0099438834949454533 -0.0019507457304492645 0 0.010354349886195869 -0.0030807595166894874 0 0.0093486602894784221 -0.0029694440862110009 0 0.010354349886195869 -0.0030807595166894874 0 0.010642356703520308 -0.0040047381833136671 0 0.0096753125854930865 -0.0040289302805489799 0 0.010354349886195869 -0.0030807595166894874 0 0.0093486602894784221 -0.0029694440862110009 0 0.0096753125854930865 -0.0040289302805489799 0 0.0085618724173532161 -0.0036988687028780215 0 0.0093486602894784221 -0.0029694440862110009 0 0.0096753125854930865 -0.0040289302805489799 0 0.0085618724173532161 -0.0036988687028780215 0 0.0085804522515496515 -0.0029492878728226502 0 0.0093486602894784221 -0.0029694440862110009 0 0.0096645252155822987 -0.0040455263649245045 0 0.0085658956395950527 -0.0043457345077962542 0 0.0096753125854930865 -0.0040289302805489799 0 0.010015139250789781 -0.0045364056338631749 0 0.0095081213087729096 -0.0043671255271231346 0 0.0096753125854930865 -0.0040289302805489799 0 0.0095081213087729096 -0.0043671255271231346 0 0.0091430025480048072 -0.0043177388417578602 0 0.010642356703520308 -0.0040047381833136671 0 0.0096753125854930865 -0.0040289302805489799 0 0.010015139250789781 -0.0045364056338631749 0 0.010529686951323261 -0.004730327160372764 0 0.010015139250789781 -0.0045364056338631749 0 0.010279743897498165 -0.0051217999736017077 0 0.010015139250789781 -0.0045364056338631749 0 0.0096021116173356166 -0.004646309395551264 0 0.009864300790112553 -0.0049001549350489683 0 0.010015139250789781 -0.0045364056338631749 0 0.0095081213087729096 -0.0043671255271231346 0 0.0096021116173356166 -0.004646309395551264 0 0.0095081213087729096 -0.0043671255271231346 0 0.0096021116173356166 -0.004646309395551264 0 0.0093186152632488643 -0.0044538567211413367 0 0.0096021116173356166 -0.004646309395551264 0 0.0093186152632488643 -0.0044538567211413367 0 0.0093251948535483312 -0.004773751481692355 0 0.0092160698716637138 -0.0045389561446657458 0 0.0093186152632488643 -0.0044538567211413367 0 0.0093251948535483312 -0.004773751481692355 0 0.0091273804960965727 -0.0046638635296100675 0 0.0091705997748565537 -0.0043458757637294355 0 0.0089423718329540696 -0.0047372797120427117 0 0.0091273804960965727 -0.0046638635296100675 0 0.0092160698716637138 -0.0045389561446657458 0 0.0093251948535483312 -0.004773751481692355 0 0.0091273804960965727 -0.0046638635296100675 0 0.0092160698716637138 -0.0045389561446657458 0 0.0091705997748565537 -0.0043458757637294355 0 0.0092160698716637138 -0.0045389561446657458 0 0.0093186152632488643 -0.0044538567211413367 0 0.0091705997748565537 -0.0043458757637294355 0 0.0095081213087729096 -0.0043671255271231346 0 0.0093186152632488643 -0.0044538567211413367 0 0.0091430025480048072 -0.0043177388417578602 0 0.0085618724173532161 -0.0036988687028780215 0 0.0096753125854930865 -0.0040289302805489799 0 0.0081003747112749786 -0.0043093100363994323 0 0.0093186152632488643 -0.0044538567211413367 0 0.0091705997748565537 -0.0043458757637294355 0 0.0091430025480048072 -0.0043177388417578602 0 0.0091705997748565537 -0.0043458757637294355 0 0.0091430025480048072 -0.0043177388417578602 0 0.0092980434692215737 -0.0042527242788850325 0 0.0085618724173532161 -0.0036988687028780215 0 0.0081003747112749786 -0.0043093100363994323 0 0.0081094202382122893 -0.0038644996248834093 0 0.0081003747112749786 -0.0043093100363994323 0 0.0081094202382122893 -0.0038644996248834093 0 0.0078285663758488177 -0.0040034115075895929 0 0.0086600903847586855 -0.004107261819520037 0 0.0085658956395950527 -0.0043457345077962542 0 0.0066517353405220097 -0.004495970479041482 0 0.0081003747112749786 -0.0043093100363994323 0 0.007328611713117641 -0.0040988270999888247 0 0.0099285110315530493 -0.0043262553200109737 0 0.0091430025480048072 -0.0043177388417578602 0 0.0094663358463982078 -0.0042373049375653785 0 0.0081003747112749786 -0.0043093100363994323 0 0.007328611713117641 -0.0040988270999888247 0 0.0078285663758488177 -0.0040034115075895929 0 0.0077817048710934452 -0.0037392846976381307 0 0.007328611713117641 -0.0040988270999888247 0 0.0078285663758488177 -0.0040034115075895929 0 0.0077817048710934452 -0.0037392846976381307 0 0.0081094202382122893 -0.0038644996248834093 0 0.0078285663758488177 -0.0040034115075895929 0 0.0091430025480048072 -0.0043177388417578602 0 0.0092980434692215737 -0.0042527242788850325 0 0.0094663358463982078 -0.0042373049375653785 0 0.0094663358463982078 -0.0042373049375653785 0 0.0093797385095142384 -0.0040988356601645484 0 0.0097090337989113526 -0.0038986074742582257 0 0.0093608028920819202 -0.0037587777626839755 0 0.0097090337989113526 -0.0038986074742582257 0 0.010023032090652449 -0.0034235847708473295 0 0.0091705997748565537 -0.0043458757637294355 0 0.0093797385095142384 -0.0040988356601645484 0 0.0093608028920819202 -0.0037587777626839755 0 0.0092074099461804601 -0.0042590997888909219 0 0.009040718258763715 -0.0043860350044140914 0 0.0091705997748565537 -0.0043458757637294355 0 0.0092980434692215737 -0.0042527242788850325 0 0.0093797385095142384 -0.0040988356601645484 0 0.0092980434692215737 -0.0042527242788850325 0 0.0094663358463982078 -0.0042373049375653785 0 0.0093797385095142384 -0.0040988356601645484 0 0.0093797385095142384 -0.0040988356601645484 0 0.0093608028920819202 -0.0037587777626839755 0 0.0097090337989113526 -0.0038986074742582257 0 0.009040718258763715 -0.0043860350044140914 0 0.010669717443043165 -0.003772146858458432 0 0.0093608028920819202 -0.0037587777626839755 0 0.010023032090652449 -0.0034235847708473295 0 0.0098254817734965399 -0.0030730352835425471 0 0.0089423718329540696 -0.0047372797120427117 0 0.0090249818415977547 -0.0050315372479319423 0 0.0091333593136503962 -0.0048758177032129273 0 0.0091273804960965727 -0.0046638635296100675 0 0.0089423718329540696 -0.0047372797120427117 0 0.0091333593136503962 -0.0048758177032129273 0 0.0089423718329540696 -0.0047372797120427117 0 0.0090249818415977547 -0.0050315372479319423 0 0.0087656731117464557 -0.0050465319991914517 0 0.015072193717187191 -0.0031156786610212869 0 0.013929451162635392 -0.0033824351762493775 0 0.014751401938874774 -0.0025218897845810423 0 0.013517547904067617 -0.0031363626879604639 0 0.010669717443043165 -0.003772146858458432 0 0.0090249818415977547 -0.0050315372479319423 0 0.0088830702784500493 -0.0052382339998203568 0 0.0087656731117464557 -0.0050465319991914517 0 0.013517547904067617 -0.0031363626879604639 0 0.010985606320561211 -0.0045033402419087983 0 0.0090249818415977547 -0.0050315372479319423 0 0.0088830702784500493 -0.0052382339998203568 0 0.0093243601306635792 -0.0051941257684139678 0 0.017546430718334012 -0.0018182710420133372 0 0.017418118117832792 -0.0015754996096022428 0 0.017678836099516551 -0.0016206912891611324 0 0.013517547904067617 -0.0031363626879604639 0 0.016937209508636336 -0.0018703602544484273 0 0.016369328349618073 -0.0024257898912331418 0 0.016937209508636336 -0.0018703602544484273 0 0.013768428432651972 -0.003085132551478284 0 0.013929451162635392 -0.0033824351762493775 0 0.014751401938874774 -0.0025218897845810423 0 0.0093243601306635792 -0.0051941257684139678 0 0.0093251948535483312 -0.004773751481692355 0 0.009595332468274341 -0.0049456484991637481 0 0.0093243601306635792 -0.0051941257684139678 0 0.0091333593136503962 -0.0048758177032129273 0 0.0093251948535483312 -0.004773751481692355 0 0.0090249818415977547 -0.0050315372479319423 0 0.0093243601306635792 -0.0051941257684139678 0 0.0091333593136503962 -0.0048758177032129273 0 0.0091273804960965727 -0.0046638635296100675 0 0.0091333593136503962 -0.0048758177032129273 0 0.0093251948535483312 -0.004773751481692355 0 0.0093243601306635792 -0.0051941257684139678 0 0.009595332468274341 -0.0049456484991637481 0 0.0098976396542698724 -0.005195000203105979 0 0.0096021116173356166 -0.004646309395551264 0 0.0093251948535483312 -0.004773751481692355 0 0.009595332468274341 -0.0049456484991637481 0 0.009595332468274341 -0.0049456484991637481 0 0.009864300790112553 -0.0049001549350489683 0 0.0098976396542698724 -0.005195000203105979 0 0.0096021116173356166 -0.004646309395551264 0 0.009595332468274341 -0.0049456484991637481 0 0.009864300790112553 -0.0049001549350489683 0 0.017633820706537684 -0.0026289652060199663 0 0.016616375695034703 -0.0029285416259989131 0 0.016977407043297647 -0.0024443482748506907 0 0.010279743897498165 -0.0051217999736017077 0 0.0098768692763510756 -0.0052747780701087564 0 0.010699657608399013 -0.0052475239171593541 0 0.010015139250789781 -0.0045364056338631749 0 0.010279743897498165 -0.0051217999736017077 0 0.009864300790112553 -0.0049001549350489683 0 0.012946947939699022 -0.0039885518103905905 0 0.013464511816492676 -0.0041865877247526289 0 0.010279743897498165 -0.0051217999736017077 0 0.009864300790112553 -0.0049001549350489683 0 0.0098976396542698724 -0.005195000203105979 0 0.0096194409198403271 -0.0055489916567266952 0 0.012946947939699022 -0.0039885518103905905 0 0.017633820706537684 -0.0026289652060199663 0 0.01739435637950339 -0.0021486102936845572 0 0.016977407043297647 -0.0024443482748506907 0 0.017633820706537684 -0.0026289652060199663 0 0.01739435637950339 -0.0021486102936845572 0 0.017877403360787802 -0.0020127553457814549 0 0.01739435637950339 -0.0021486102936845572 0 0.017877403360787802 -0.0020127553457814549 0 0.017618067531824058 -0.0017218701635040824 0 0.01739435637950339 -0.0021486102936845572 0 0.016977407043297647 -0.0024443482748506907 0 0.016950915945515257 -0.0019617005246156819 0 0.01739435637950339 -0.0021486102936845572 0 0.017618067531824058 -0.0017218701635040824 0 0.016950915945515257 -0.0019617005246156819 0 0.013768428432651972 -0.003085132551478284 0 0.013929451162635392 -0.0033824351762493775 0 0.012792150960999176 -0.0036630389831653356 0 0.018288448507745591 -0.0020647400595733265 0 0.017633820706537684 -0.0026289652060199663 0 0.017877403360787802 -0.0020127553457814549 0 0.016369328349618073 -0.0024257898912331418 0 0.012946947939699022 -0.0039885518103905905 0 0.010985606320561211 -0.0045033402419087983 0 0.012946947939699022 -0.0039885518103905905 0 0.018288448507745591 -0.0020647400595733265 0 0.017877403360787802 -0.0020127553457814549 0 0.018230468714748569 -0.0016048388405329561 0 0.017877403360787802 -0.0020127553457814549 0 0.018230468714748569 -0.0016048388405329561 0 0.017618067531824058 -0.0017218701635040824 0 0.018230468714748569 -0.0016048388405329561 0 0.018441956152904823 -0.0014543340988417074 0 0.018355169734759581 -0.0016068356000234524 0 0.018190886006406143 -0.0015825044888152443 0 0.01800939949205841 -0.0016161925576713325 0 0.018441956152904823 -0.0014543340988417074 0 0.018466023775264892 -0.0014940813422726542 0 0.018553188311483445 -0.0014038512945548063 0 0.01800939949205841 -0.0016161925576713325 0 0.017930528190812412 -0.0018045427974044165 0 0.018660681730466411 -0.0013275875605179663 0 0.017930528190812412 -0.0018045427974044165 0 0.018466023775264892 -0.0014940813422726542 0 0.018648165371432251 -0.0014170828493931243 0 0.018645895175019762 -0.0015136985175186199 0 0.018466023775264892 -0.0014940813422726542 0 0.018515017093178654 -0.0015860329740864719 0 0.018355169734759581 -0.0016068356000234524 0 0.018441956152904823 -0.0014543340988417074 0 0.018466023775264892 -0.0014940813422726542 0 0.018355169734759581 -0.0016068356000234524 0 0.018466023775264892 -0.0014940813422726542 0 0.018515017093178654 -0.0015860329740864719 0 0.018645895175019762 -0.0015136985175186199 0 0.018515017093178654 -0.0015860329740864719 0 0.01843552440734161 -0.0016672809595369492 0 0.018639977000945007 -0.00161385184817885 0 0.018515017093178654 -0.0015860329740864719 0 0.01843552440734161 -0.0016672809595369492 0 0.018355169734759581 -0.0016068356000234524 0 0.01843552440734161 -0.0016672809595369492 0 0.018355169734759581 -0.0016068356000234524 0 0.018271419402527536 -0.0016043347086152728 0 0.018230468714748569 -0.0016048388405329561 0 0.018355169734759581 -0.0016068356000234524 0 0.018271419402527536 -0.0016043347086152728 0 0.018014271113240034 -0.0014085403874737606 0 0.016937209508636336 -0.0018703602544484273 0 0.017654888704096289 -0.0012621088936458969 0 0.017771072038438081 -0.0013256631521371197 0 0.017812087034837585 -0.0012149365502777186 0 0.017654888704096289 -0.0012621088936458969 0 0.017771072038438081 -0.0013256631521371197 0 0.017742572738385372 -0.0014417168948559714 0 0.016937209508636336 -0.0018703602544484273 0 0.018107968417344765 -0.0012366052608580769 0 0.017771072038438081 -0.0013256631521371197 0 0.017742572738385372 -0.0014417168948559714 0 0.017871650392098527 -0.0013769404123044923 0 0.018288448507745591 -0.0020647400595733265 0 0.018230468714748569 -0.0016048388405329561 0 0.018515295372306815 -0.0017783226262278837 0 0.018230468714748569 -0.0016048388405329561 0 0.018271419402527536 -0.0016043347086152728 0 0.018515295372306815 -0.0017783226262278837 0 0.018772748665082602 -0.0015271048375942941 0 0.018661312814371483 -0.0015638723302708788 0 0.018763666466491746 -0.001519253351760539 0 0.018772748665082602 -0.0015271048375942941 0 0.018661312814371483 -0.0015638723302708788 0 0.018742761064194015 -0.0015559615855346828 0 0.018661312814371483 -0.0015638723302708788 0 0.018620148733152712 -0.001623462407349561 0 0.018742761064194015 -0.0015559615855346828 0 0.018468244597861446 -0.0016561567260165748 0 0.018661312814371483 -0.0015638723302708788 0 0.018620148733152712 -0.001623462407349561 0 0.018501895890044053 -0.0017337036447499659 0 0.018354131577926831 -0.0017892754770582641 0 0.01826089137927335 -0.0019373961560510613 0 0.018620148733152712 -0.001623462407349561 0 0.018501895890044053 -0.0017337036447499659 0 0.018795485080276071 -0.0016218316477749674 0 0.018512164683418299 -0.0017455807907593576 0 0.018504250391395232 -0.0017733493372387192 0 0.018468244597861446 -0.0016561567260165748 0 0.018620148733152712 -0.001623462407349561 0 0.018501895890044053 -0.0017337036447499659 0 0.018620148733152712 -0.001623462407349561 0 0.018795485080276071 -0.0016218316477749674 0 0.018742761064194015 -0.0015559615855346828 0 0.018354131577926831 -0.0017892754770582641 0 0.01826089137927335 -0.0019373961560510613 0 0.018190386192924776 -0.0018192613480556717 0 0.01826089137927335 -0.0019373961560510613 0 0.018190386192924776 -0.0018192613480556717 0 0.018119129266700739 -0.0019248727308868036 0 0.017116209743614871 -0.0026502141457073066 0 0.015355267764359842 -0.0032092962739552295 0 0.018190386192924776 -0.0018192613480556717 0 0.018119129266700739 -0.0019248727308868036 0 0.018096974073928299 -0.0018377005532389313 0 0.018811187982264953 -0.0015193689918795879 0 0.018791576028729336 -0.0015603085344394983 0 0.018817119039886119 -0.0015110272306729023 0 0.018795485080276071 -0.0016218316477749674 0 0.018811187982264953 -0.0015193689918795879 0 0.018791576028729336 -0.0015603085344394983 0 0.018742761064194015 -0.0015559615855346828 0 0.018791576028729336 -0.0015603085344394983 0 0.018817119039886119 -0.0015110272306729023 0 0.018795485080276071 -0.0016218316477749674 0 0.018742761064194015 -0.0015559615855346828 0 0.018791576028729336 -0.0015603085344394983 0 0.018772748665082602 -0.0015271048375942941 0 0.018742761064194015 -0.0015559615855346828 0 0.018817119039886119 -0.0015110272306729023 0 0.018795485080276071 -0.0016218316477749674 0 0.018811187982264953 -0.0015193689918795879 0 0.018815658560674266 -0.00147285640773752 0 0.018811187982264953 -0.0015193689918795879 0 0.018817119039886119 -0.0015110272306729023 0 0.018815745023326735 -0.0014846105376428304 0 0.018811187982264953 -0.0015193689918795879 0 0.018815745023326735 -0.0014846105376428304 0 0.018815658560674266 -0.00147285640773752 0 0.018815745023326735 -0.0014846105376428304 0 0.018815658560674266 -0.00147285640773752 0 0.018749348420157769 -0.0014692216381979955 0 0.017877356437456093 -0.0020381126792640234 0 0.017946568874507313 -0.0020841949103679413 0 0.018009734976711354 -0.0019713262590534829 0 0.015355267764359842 -0.0032092962739552295 0 0.013464511816492676 -0.0041865877247526289 0 0.01826089137927335 -0.0019373961560510613 0 0.018119129266700739 -0.0019248727308868036 0 0.017946568874507313 -0.0020841949103679413 0 0.018119129266700739 -0.0019248727308868036 0 0.018009734976711354 -0.0019713262590534829 0 0.018096974073928299 -0.0018377005532389313 0 0.018504250391395232 -0.0017733493372387192 0 0.018413583938160446 -0.0017704242081360321 0 0.018119129266700739 -0.0019248727308868036 0 0.017946568874507313 -0.0020841949103679413 0 0.018009734976711354 -0.0019713262590534829 0 0.017877356437456093 -0.0020381126792640234 0 0.018009734976711354 -0.0019713262590534829 0 0.018096974073928299 -0.0018377005532389313 0 0.01623873969728732 -0.0025463450395700631 0 0.015519381682473124 -0.0031883263172208659 0 0.016616375695034703 -0.0029285416259989131 0 0.011257143040954182 -0.0049589019376807351 0 0.01171015573740404 -0.0051853235252154644 0 0.010699657608399013 -0.0052475239171593541 0 0.017185079986109731 -0.0021914494510808518 0 0.015355267764359842 -0.0032092962739552295 0 0.011056343874627067 -0.0046728290723726399 0 0.011257143040954182 -0.0049589019376807351 0 0.010699657608399013 -0.0052475239171593541 0 0.01623873969728732 -0.0025463450395700631 0 0.016616375695034703 -0.0029285416259989131 0 0.016977407043297647 -0.0024443482748506907 0 0.010529686951323261 -0.004730327160372764 0 0.010279743897498165 -0.0051217999736017077 0 0.010699657608399013 -0.0052475239171593541 0 0.018815658560674266 -0.00147285640773752 0 0.018648165371432251 -0.0014170828493931243 0 0.018749348420157769 -0.0014692216381979955 0 0.01623873969728732 -0.0025463450395700631 0 0.016977407043297647 -0.0024443482748506907 0 0.016950915945515257 -0.0019617005246156819 0 0.017877356437456093 -0.0020381126792640234 0 0.017946568874507313 -0.0020841949103679413 0 0.017688315238893821 -0.0021939051833364713 0 0.018413583938160446 -0.0017704242081360321 0 0.017930528190812412 -0.0018045427974044165 0 0.017185079986109731 -0.0021914494510808518 0 0.017930528190812412 -0.0018045427974044165 0 0.018648165371432251 -0.0014170828493931243 0 0.018749348420157769 -0.0014692216381979955 0 0.018645895175019762 -0.0015136985175186199 0 0.018749348420157769 -0.0014692216381979955 0 0.018645895175019762 -0.0015136985175186199 0 0.01878622251004735 -0.0015094534600035552 0 0.018639977000945007 -0.00161385184817885 0 0.018821277823945326 -0.0015797421789704592 0 0.018768599179082759 -0.001750458858243312 0 0.018515017093178654 -0.0015860329740864719 0 0.018645895175019762 -0.0015136985175186199 0 0.018639977000945007 -0.00161385184817885 0 0.018639977000945007 -0.00161385184817885 0 0.018821277823945326 -0.0015797421789704592 0 0.01878622251004735 -0.0015094534600035552 0 0.018645895175019762 -0.0015136985175186199 0 0.018639977000945007 -0.00161385184817885 0 0.01878622251004735 -0.0015094534600035552 0 0.018821277823945326 -0.0015797421789704592 0 0.018905332749456414 -0.0015227717681907836 0 0.019049396942208485 -0.0015624599400817531 0 0.018821277823945326 -0.0015797421789704592 0 0.01878622251004735 -0.0015094534600035552 0 0.018905332749456414 -0.0015227717681907836 0 0.018847619189075338 -0.0015008723710148724 0 0.01878622251004735 -0.0015094534600035552 0 0.018905332749456414 -0.0015227717681907836 0 0.018815745023326735 -0.0014846105376428304 0 0.018749348420157769 -0.0014692216381979955 0 0.01878622251004735 -0.0015094534600035552 0 0.018817119039886119 -0.0015110272306729023 0 0.018815745023326735 -0.0014846105376428304 0 0.018847619189075338 -0.0015008723710148724 0 0.018815745023326735 -0.0014846105376428304 0 0.018847619189075338 -0.0015008723710148724 0 0.01878622251004735 -0.0015094534600035552 0 0.018817119039886119 -0.0015110272306729023 0 0.018847619189075338 -0.0015008723710148724 0 0.018844570040317966 -0.0015066784435596326 0 0.018772748665082602 -0.0015271048375942941 0 0.018817119039886119 -0.0015110272306729023 0 0.018844570040317966 -0.0015066784435596326 0 0.018847619189075338 -0.0015008723710148724 0 0.018844570040317966 -0.0015066784435596326 0 0.018905332749456414 -0.0015227717681907836 0 0.018905332749456414 -0.0015227717681907836 0 0.018912348240108921 -0.0015083038173336319 0 0.019049396942208485 -0.0015624599400817531 0 0.018844570040317966 -0.0015066784435596326 0 0.018905332749456414 -0.0015227717681907836 0 0.018912348240108921 -0.0015083038173336319 0 0.01875901176905731 -0.0014994902505769936 0 0.018912348240108921 -0.0015083038173336319 0 0.018973217831523545 -0.0014686612260914034 0 0.01875901176905731 -0.0014994902505769936 0 0.018912348240108921 -0.0015083038173336319 0 0.018763666466491746 -0.001519253351760539 0 0.018844570040317966 -0.0015066784435596326 0 0.018912348240108921 -0.0015083038173336319 0 0.018763666466491746 -0.001519253351760539 0 0.018772748665082602 -0.0015271048375942941 0 0.018844570040317966 -0.0015066784435596326 0 0.018763666466491746 -0.001519253351760539 0 0.019109934523693129 -0.0013464241758772378 0 0.018973217831523545 -0.0014686612260914034 0 0.019167009693147153 -0.0014196851558383485 0 0.019109934523693129 -0.0013464241758772378 0 0.019167009693147153 -0.0014196851558383485 0 0.019356591822057109 -0.0013597336060400585 0 0.018912348240108921 -0.0015083038173336319 0 0.018973217831523545 -0.0014686612260914034 0 0.019049396942208485 -0.0015624599400817531 0 0.018973217831523545 -0.0014686612260914034 0 0.019049396942208485 -0.0015624599400817531 0 0.019167009693147153 -0.0014196851558383485 0 0.019049396942208485 -0.0015624599400817531 0 0.019167009693147153 -0.0014196851558383485 0 0.0192204949303201 -0.0014663886547031746 0 0.019167009693147153 -0.0014196851558383485 0 0.0192204949303201 -0.0014663886547031746 0 0.019277026089856427 -0.0013875950075060782 0 0.019167009693147153 -0.0014196851558383485 0 0.019277026089856427 -0.0013875950075060782 0 0.019356591822057109 -0.0013597336060400585 0 0.0192204949303201 -0.0014663886547031746 0 0.019340135028380549 -0.0015605543420830485 0 0.019356082814083544 -0.0014438119811698853 0 0.0192204949303201 -0.0014663886547031746 0 0.019356082814083544 -0.0014438119811698853 0 0.019277026089856427 -0.0013875950075060782 0 0.019049396942208485 -0.0015624599400817531 0 0.0192204949303201 -0.0014663886547031746 0 0.019340135028380549 -0.0015605543420830485 0 0.018821277823945326 -0.0015797421789704592 0 0.019049396942208485 -0.0015624599400817531 0 0.018768599179082759 -0.001750458858243312 0 0.019054989394040135 -0.0015857408249903289 0 0.0190464128755993 -0.001646763407195224 0 0.018639977000945007 -0.00161385184817885 0 0.018768599179082759 -0.001750458858243312 0 0.018544597529110991 -0.0018178947711735758 0 0.0190464128755993 -0.001646763407195224 0 0.019062495543307766 -0.0017004787207738038 0 0.019356082814083544 -0.0014438119811698853 0 0.019508856911938786 -0.0015653282769156746 0 0.01953842881052913 -0.0014681570222058471 0 0.019340135028380549 -0.0015605543420830485 0 0.019356082814083544 -0.0014438119811698853 0 0.019508856911938786 -0.0015653282769156746 0 0.019356082814083544 -0.0014438119811698853 0 0.019432551408546855 -0.0013588730813273286 0 0.01953842881052913 -0.0014681570222058471 0 0.019356082814083544 -0.0014438119811698853 0 0.019432551408546855 -0.0013588730813273286 0 0.019297268976601348 -0.0013896168771147029 0 0.019432551408546855 -0.0013588730813273286 0 0.019342261810641609 -0.0013079679378274023 0 0.019624852906258303 -0.0011426582741297434 0 0.021244925285396895 -0.00065648608780604918 0 0.022147697449688575 -0.00052840127647058781 0 0.019432551408546855 -0.0013588730813273286 0 0.019342261810641609 -0.0013079679378274023 0 0.019297268976601348 -0.0013896168771147029 0 0.019342261810641609 -0.0013079679378274023 0 0.019297268976601348 -0.0013896168771147029 0 0.019315415522274535 -0.0016634103922186394 0 0.026151480133912892 -0.00062003150482334562 0 0.022381719669718893 -0.0011280798848473069 0 0.023646325447232643 0.00016781581037952995 0 0.023717274411789484 -3.7378434483584826e-05 0 0.022783913122065184 -0.00012338459265193538 0 0.021244925285396895 -0.00065648608780604918 0 0.022381719669718893 -0.0011280798848473069 0 0.019356082814083544 -0.0014438119811698853 0 0.019297268976601348 -0.0013896168771147029 0 0.019277026089856427 -0.0013875950075060782 0 0.019356591822057109 -0.0013597336060400585 0 0.019357405131362273 -0.0014048381553808051 0 0.019860903345631425 -0.0014870019996868732 0 0.019277026089856427 -0.0013875950075060782 0 0.019356591822057109 -0.0013597336060400585 0 0.019357405131362273 -0.0014048381553808051 0 0.019297268976601348 -0.0013896168771147029 0 0.019277026089856427 -0.0013875950075060782 0 0.019357405131362273 -0.0014048381553808051 0 0.019297268976601348 -0.0013896168771147029 0 0.019357405131362273 -0.0014048381553808051 0 0.019315415522274535 -0.0016634103922186394 0 0.019357405131362273 -0.0014048381553808051 0 0.019315415522274535 -0.0016634103922186394 0 0.019860903345631425 -0.0014870019996868732 0 0.021434629981625299 -0.0015548383020386842 0 0.025139260520165331 -0.0019839221611764194 0 0.022907549694510712 -0.0011553982229975052 0 0.024707991497148488 -0.00087086388109186054 0 0.025139260520165331 -0.0019839221611764194 0 0.022907549694510712 -0.0011553982229975052 0 0.021499742305398677 -0.0017883770859842398 0 0.022381719669718893 -0.0011280798848473069 0 0.021434629981625299 -0.0015548383020386842 0 0.021142068315968456 -0.0010125036164199612 0 0.019860903345631425 -0.0014870019996868732 0 0.021434629981625299 -0.0015548383020386842 0 0.019315415522274535 -0.0016634103922186394 0 0.019860903345631425 -0.0014870019996868732 0 0.021142068315968456 -0.0010125036164199612 0 0.02104098101953351 -0.00057819108879089568 0 0.019860903345631425 -0.0014870019996868732 0 0.020052696767512587 -0.0010182017415536462 0 0.019836501921014178 -0.0015139004727329226 0 0.019109934523693129 -0.0013464241758772378 0 0.019356591822057109 -0.0013597336060400585 0 0.019860903345631425 -0.0014870019996868732 0 0.017654888704096289 -0.0012621088936458969 0 0.017747493954192447 -0.0010062634198252213 0 0.017812087034837585 -0.0012149365502777186 0 0.017654888704096289 -0.0012621088936458969 0 0.017747493954192447 -0.0010062634198252213 0 0.017568882056020623 -0.0010722646140550252 0 0.017747493954192447 -0.0010062634198252213 0 0.017812087034837585 -0.0012149365502777186 0 0.017955268798732379 -0.00092875003191326391 0 0.018794584575974022 -0.0014472999660920683 0 0.018826680634607011 -0.0014324627963066606 0 0.020181067402082652 -0.0015151579619435784 0 0.019760313206014162 -0.0016253916347276313 0 0.019943533374287489 -0.0014163409659210895 0 0.018014271113240034 -0.0014085403874737606 0 0.018826680634607011 -0.0014324627963066606 0 0.01843552440734161 -0.0016672809595369492 0 0.018271419402527536 -0.0016043347086152728 0 0.018396467392189385 -0.0017332451601958126 0 0.018271419402527536 -0.0016043347086152728 0 0.018396467392189385 -0.0017332451601958126 0 0.018358583764473514 -0.0018525842075114932 0 0.01843552440734161 -0.0016672809595369492 0 0.018639977000945007 -0.00161385184817885 0 0.018544597529110991 -0.0018178947711735758 0 0.01843552440734161 -0.0016672809595369492 0 0.018396467392189385 -0.0017332451601958126 0 0.018544597529110991 -0.0018178947711735758 0 0.019508856911938786 -0.0015653282769156746 0 0.01953842881052913 -0.0014681570222058471 0 0.019718070556336349 -0.0015462254678588151 0 0.019062495543307766 -0.0017004787207738038 0 0.018826680634607011 -0.0014324627963066606 0 0.018396467392189385 -0.0017332451601958126 0 0.018544597529110991 -0.0018178947711735758 0 0.018358583764473514 -0.0018525842075114932 0 0.01953842881052913 -0.0014681570222058471 0 0.019718070556336349 -0.0015462254678588151 0 0.019680800726818815 -0.0014686256553105878 0 0.019760313206014162 -0.0016253916347276313 0 0.019680800726818815 -0.0014686256553105878 0 0.019943533374287489 -0.0014163409659210895 0 0.018826680634607011 -0.0014324627963066606 0 0.019479861733650291 -0.001689183547234394 0 0.019680800726818815 -0.0014686256553105878 0 0.019772695188764133 -0.001278752368339735 0 0.019943533374287489 -0.0014163409659210895 0 0.019680800726818815 -0.0014686256553105878 0 0.019772695188764133 -0.001278752368339735 0 0.01960285640712929 -0.0013489943918874598 0 0.019432551408546855 -0.0013588730813273286 0 0.01953842881052913 -0.0014681570222058471 0 0.01960285640712929 -0.0013489943918874598 0 0.01953842881052913 -0.0014681570222058471 0 0.019680800726818815 -0.0014686256553105878 0 0.01960285640712929 -0.0013489943918874598 0 0.019432551408546855 -0.0013588730813273286 0 0.01960285640712929 -0.0013489943918874598 0 0.019624852906258303 -0.0011426582741297434 0 0.019772695188764133 -0.001278752368339735 0 0.01960285640712929 -0.0013489943918874598 0 0.019624852906258303 -0.0011426582741297434 0 0.02502217001749912 0.00023332821712567477 0 0.024539182054037711 4.4113680167724588e-05 0 0.025178608685040842 0.00013441808076777433 0 0.022147697449688575 -0.00052840127647058781 0 0.022609265338160833 -0.00064754835414030482 0 0.019772695188764133 -0.001278752368339735 0 0.019624852906258303 -0.0011426582741297434 0 0.020049598253553427 -0.0010396080225532538 0 0.019772695188764133 -0.001278752368339735 0 0.020049598253553427 -0.0010396080225532538 0 0.019943533374287489 -0.0014163409659210895 0 0.020049598253553427 -0.0010396080225532538 0 0.019943533374287489 -0.0014163409659210895 0 0.020324426317192296 -0.0012580613292186478 0 0.020181067402082652 -0.0015151579619435784 0 0.020324426317192296 -0.0012580613292186478 0 0.020617922839565549 -0.0013753563527887629 0 0.018794584575974022 -0.0014472999660920683 0 0.019786166345766621 0.00033084500487814641 0 0.020181067402082652 -0.0015151579619435784 0 0.019943533374287489 -0.0014163409659210895 0 0.020324426317192296 -0.0012580613292186478 0 0.022609265338160833 -0.00064754835414030482 0 0.023041804765005815 0.0010976331172345779 0 0.020049598253553427 -0.0010396080225532538 0 0.020324426317192296 -0.0012580613292186478 0 0.020524737029731725 -0.00098800006459326167 0 0.020324426317192296 -0.0012580613292186478 0 0.020524737029731725 -0.00098800006459326167 0 0.020617922839565549 -0.0013753563527887629 0 0.020534571104706877 0.0027375239204003037 0 0.021686283454348504 0.0027937999046437098 0 0.020840248583856563 0.0015819799788286096 0 0.023041804765005815 0.0010976331172345779 0 0.019786166345766621 0.00033084500487814641 0 0.021686283454348504 0.0027937999046437098 0 0.020840248583856563 0.0015819799788286096 0 0.021983726265839002 0.0019251375883431216 0 0.023041804765005815 0.0010976331172345779 0 0.022952523284032238 0.0030311069720829853 0 0.019786166345766621 0.00033084500487814641 0 0.022346036902349885 0.0021987894440057025 0 0.021691297800825675 0.0013033854375880114 0 0.020643026153187281 0.0015378804428428923 0 0.021983726265839002 0.0019251375883431216 0 0.017812087034837585 -0.0012149365502777186 0 0.017955268798732379 -0.00092875003191326391 0 0.017996564410333812 -0.0011398107537520549 0 0.019786166345766621 0.00033084500487814641 0 0.019689717452061672 -0.00071907350089069695 0 0.021691297800825675 0.0013033854375880114 0 0.020643026153187281 0.0015378804428428923 0 0.021592752746097697 0.00063340646882993168 0 0.020643026153187281 0.0015378804428428923 0 0.021592752746097697 0.00063340646882993168 0 0.021069293413550166 1.9878702218258946e-05 0 0.021069293413550166 1.9878702218258946e-05 0 0.021720650767135818 -0.00015100411924307268 0 0.021577490208050585 -0.0010183767838904685 0 0.021592752746097697 0.00063340646882993168 0 0.021069293413550166 1.9878702218258946e-05 0 0.021720650767135818 -0.00015100411924307268 0 0.015637507924647256 0.00017818240982324721 0 0.015869158895187179 0.00036392916469510221 0 0.015630534526620096 0.00043816412685837629 0 0.015637507924647256 0.00017818240982324721 0 0.015393285238931883 0.00030905927949246442 0 0.015630534526620096 0.00043816412685837629 0 0.020463824345704845 0.0005705621527618064 0 0.020746379825656219 0.00063670376267556427 0 0.019954125920198844 -0.00013340912759277022 0 0.021990497781732888 0.00042888463572256013 0 0.019632995482872725 0.00061641223396333134 0 0.021720650767135818 -0.00015100411924307268 0 0.022220745349550746 -0.00045595132274031875 0 0.021577490208050585 -0.0010183767838904685 0 0.021720650767135818 -0.00015100411924307268 0 0.022220745349550746 -0.00045595132274031875 0 0.022145225326202968 8.881638130419934e-05 0 0.021592752746097697 0.00063340646882993168 0 0.021720650767135818 -0.00015100411924307268 0 0.022145225326202968 8.881638130419934e-05 0 0.02272147286491101 0.00021946343770559961 0 0.022220745349550746 -0.00045595132274031875 0 0.022145225326202968 8.881638130419934e-05 0 0.021990497781732888 0.00042888463572256013 0 0.02236401883672515 0.00026074700462603944 0 0.021990497781732888 0.00042888463572256013 0 0.019847072244527333 -0.00028889378675904298 0 0.019632995482872725 0.00061641223396333134 0 0.019847072244527333 -0.00028889378675904298 0 0.022790619117022855 0.00023532536366471362 0 0.022145225326202968 8.881638130419934e-05 0 0.022357296817498519 0.00061055697567765786 0 0.022790619117022855 0.00023532536366471362 0 0.022357296817498519 0.00061055697567765786 0 0.022826413483892534 0.00095126493703950312 0 0.021592752746097697 0.00063340646882993168 0 0.022145225326202968 8.881638130419934e-05 0 0.022357296817498519 0.00061055697567765786 0 0.021592752746097697 0.00063340646882993168 0 0.022357296817498519 0.00061055697567765786 0 0.022369088140865238 0.0012500954976139653 0 0.021691297800825675 0.0013033854375880114 0 0.021592752746097697 0.00063340646882993168 0 0.022369088140865238 0.0012500954976139653 0 0.022357296817498519 0.00061055697567765786 0 0.022826413483892534 0.00095126493703950312 0 0.022369088140865238 0.0012500954976139653 0 0.021990497781732888 0.00042888463572256013 0 0.023621151113542693 0.0012078413356306978 0 0.022691972327197919 0.00019210330291903391 0 0.023002399825314934 0.00025838859205038335 0 0.023524642218774431 0.0012638287610286928 0 0.022790619117022855 0.00023532536366471362 0 0.022826413483892534 0.00095126493703950312 0 0.023524642218774431 0.0012638287610286928 0 0.023524642218774431 0.0012638287610286928 0 0.023054090458244487 0.0014832521553407442 0 0.023760556086194328 0.0021118632430865564 0 0.023054090458244487 0.0014832521553407442 0 0.022836438741384479 0.0019963047132413735 0 0.023760556086194328 0.0021118632430865564 0 0.022826413483892534 0.00095126493703950312 0 0.023524642218774431 0.0012638287610286928 0 0.023054090458244487 0.0014832521553407442 0 0.022826413483892534 0.00095126493703950312 0 0.023054090458244487 0.0014832521553407442 0 0.022369088140865238 0.0012500954976139653 0 0.023054090458244487 0.0014832521553407442 0 0.022836438741384479 0.0019963047132413735 0 0.022369088140865238 0.0012500954976139653 0 0.021691297800825675 0.0013033854375880114 0 0.022369088140865238 0.0012500954976139653 0 0.021983726265839002 0.0019251375883431216 0 0.022836438741384479 0.0019963047132413735 0 0.022369088140865238 0.0012500954976139653 0 0.021983726265839002 0.0019251375883431216 0 0.021686283454348504 0.0027937999046437098 0 0.022402748925412427 0.0024675288098176006 0 0.023030440664316174 0.0028579898185042306 0 0.022952523284032238 0.0030311069720829853 0 0.023038707825690074 0.0028421477060443599 0 0.021686283454348504 0.0027937999046437098 0 0.021983726265839002 0.0019251375883431216 0 0.022402748925412427 0.0024675288098176006 0 0.022836438741384479 0.0019963047132413735 0 0.022402748925412427 0.0024675288098176006 0 0.022834957611136041 0.0024534845077502864 0 0.022836438741384479 0.0019963047132413735 0 0.021983726265839002 0.0019251375883431216 0 0.022402748925412427 0.0024675288098176006 0 0.022402748925412427 0.0024675288098176006 0 0.022834957611136041 0.0024534845077502864 0 0.023030440664316174 0.0028579898185042306 0 0.022836438741384479 0.0019963047132413735 0 0.023149590632597385 0.002453655751186471 0 0.023760556086194328 0.0021118632430865564 0 0.023149590632597385 0.002453655751186471 0 0.023352780598899892 0.0028383813052699474 0 0.023760556086194328 0.0021118632430865564 0 0.022836438741384479 0.0019963047132413735 0 0.022834957611136041 0.0024534845077502864 0 0.023149590632597385 0.002453655751186471 0 0.023065550022367907 0.0027927564583581049 0 0.023030440664316174 0.0028579898185042306 0 0.023352780598899892 0.0028383813052699474 0 0.022834957611136041 0.0024534845077502864 0 0.023149590632597385 0.002453655751186471 0 0.023030440664316174 0.0028579898185042306 0 0.023102244025087908 0.0030035510490048949 0 0.023432282225982697 0.0031580341027934319 0 0.023149590632597385 0.002453655751186471 0 0.023030440664316174 0.0028579898185042306 0 0.023352780598899892 0.0028383813052699474 0 0.026716425680240418 0.0060631961890939331 0 0.026770508105372889 0.0060521850370287488 0 0.026689822714191909 0.0061689820784585061 0 0.023432282225982697 0.0031580341027934319 0 0.023864517483512419 0.0040836016732295954 0 0.021231414013905985 0.0019213901301636835 0 0.020915565874605864 0.0018497256699599445 0 0.021052627959117911 0.0019732605264006645 0 0.021379248514378221 0.0016783455458259794 0 0.021231414013905985 0.0019213901301636835 0 0.020915565874605864 0.0018497256699599445 0 0.023432282225982697 0.0031580341027934319 0 0.022590146684757419 0.0019069565707956436 0 0.026716425680240418 0.0060631961890939331 0 0.026689822714191909 0.0061689820784585061 0 0.026541668432271237 0.0061982396218510606 0 0.027631073805521066 0.0061541013016605502 0 0.026467931953334353 0.0061655944388296713 0 0.020915565874605864 0.0018497256699599445 0 0.020891866234582945 0.0019317150344851726 0 0.021052627959117911 0.0019732605264006645 0 0.020915565874605864 0.0018497256699599445 0 0.020891866234582945 0.0019317150344851726 0 0.020851827777144578 0.0019286334263625073 0 0.020891866234582945 0.0019317150344851726 0 0.020839438996551145 0.0019217796345558237 0 0.020851827777144578 0.0019286334263625073 0 0.020775443964186961 0.0017844288868787835 0 0.021856937120477052 0.0020368656527509793 0 0.020891866234582945 0.0019317150344851726 0 0.020839438996551145 0.0019217796345558237 0 0.020832667650108754 0.0019204189809923673 0 0.020891866234582945 0.0019317150344851726 0 0.020832667650108754 0.0019204189809923673 0 0.020803610651989029 0.001924471020241057 0 0.023524642218774431 0.0012638287610286928 0 0.023760556086194328 0.0021118632430865564 0 0.024158212573151417 0.0013436677597005915 0 0.022590146684757419 0.0019069565707956436 0 0.021856937120477052 0.0020368656527509793 0 0.021231414013905985 0.0019213901301636835 0 0.021101825957747147 0.0021582299682763421 0 0.021052627959117911 0.0019732605264006645 0 0.020891866234582945 0.0019317150344851726 0 0.021101825957747147 0.0021582299682763421 0 0.021052627959117911 0.0019732605264006645 0 0.026139078188914366 0.0058785146273509096 0 0.025950536375352027 0.0062150344989743136 0 0.025796961127667384 0.0059434759688543086 0 0.026139078188914366 0.0058785146273509096 0 0.025950536375352027 0.0062150344989743136 0 0.026269645356295265 0.0061884695194949308 0 0.025950536375352027 0.0062150344989743136 0 0.026269645356295265 0.0061884695194949308 0 0.026420969276038386 0.0064282041429324149 0 0.023864517483512419 0.0040836016732295954 0 0.023817936184303581 0.004168362336936066 0 0.026689822714191909 0.0061689820784585061 0 0.026541668432271237 0.0061982396218510606 0 0.026420969276038386 0.0064282041429324149 0 0.026269645356295265 0.0061884695194949308 0 0.026541668432271237 0.0061982396218510606 0 0.026420969276038386 0.0064282041429324149 0 0.026139078188914366 0.0058785146273509096 0 0.026269645356295265 0.0061884695194949308 0 0.026541668432271237 0.0061982396218510606 0 0.026139078188914366 0.0058785146273509096 0 0.02646092806143658 0.0056732823328606886 0 0.026541668432271237 0.0061982396218510606 0 0.020851827777144578 0.0019286334263625073 0 0.02081850504433725 0.001919090990186002 0 0.020827173313515138 0.0019454747886313022 0 0.020915565874605864 0.0018497256699599445 0 0.020851827777144578 0.0019286334263625073 0 0.02081850504433725 0.001919090990186002 0 0.020839438996551145 0.0019217796345558237 0 0.020851827777144578 0.0019286334263625073 0 0.020827173313515138 0.0019454747886313022 0 0.025574266270114387 0.0067358110165988789 0 0.025950536375352027 0.0062150344989743136 0 0.026420969276038386 0.0064282041429324149 0 0.020740797047402598 0.0019547248340823029 0 0.02081850504433725 0.001919090990186002 0 0.020827173313515138 0.0019454747886313022 0 0.020735593879798207 0.001945587371766504 0 0.020740797047402598 0.0019547248340823029 0 0.02081850504433725 0.001919090990186002 0 0.021961980993802848 0.0039670217621070765 0 0.023817936184303581 0.004168362336936066 0 0.01782899817617746 0.0013195561905878211 0 0.014455086004376923 -0.00019755936957061807 0 0.01782899817617746 0.0013195561905878211 0 0.018112991377931258 0.0011111114541396397 0 0.015285808500807484 0.00035902053366980988 0 0.015178112787794835 0.00030387410333481958 0 0.015201961049047585 0.00029811666457280549 0 0.015347609648931193 0.00067584257684018473 0 0.015410265200237064 0.00036383461522348424 0 0.015201961049047585 0.00029811666457280549 0 0.015178112787794835 0.00030387410333481958 0 0.015201961049047585 0.00029811666457280549 0 0.015082549040545281 0.00031454976118215335 0 0.015410265200237064 0.00036383461522348424 0 0.015201961049047585 0.00029811666457280549 0 0.015292576738443531 0.00022158551305432683 0 0.020252144864878779 0.0016714216305971485 0 0.020797705191746181 0.0018934458448924859 0 0.020808731966603666 0.0018423442337046124 0 0.020252144864878779 0.0016714216305971485 0 0.020696108064253923 0.0020989348916950167 0 0.020797705191746181 0.0018934458448924859 0 0.019632995482872725 0.00061641223396333134 0 0.017673299148767255 0.0010190905888628834 0 0.019632995482872725 0.00061641223396333134 0 0.021856937120477052 0.0020368656527509793 0 0.023002399825314934 0.00025838859205038335 0 0.023524642218774431 0.0012638287610286928 0 0.024158212573151417 0.0013436677597005915 0 0.020832667650108754 0.0019204189809923673 0 0.020803610651989029 0.001924471020241057 0 0.020797705191746181 0.0018934458448924859 0 0.021856937120477052 0.0020368656527509793 0 0.021117079986430441 0.0021422793538589178 0 0.020839438996551145 0.0019217796345558237 0 0.020832667650108754 0.0019204189809923673 0 0.020797705191746181 0.0018934458448924859 0 0.020839438996551145 0.0019217796345558237 0 0.020797705191746181 0.0018934458448924859 0 0.020808731966603666 0.0018423442337046124 0 0.020839438996551145 0.0019217796345558237 0 0.020827173313515138 0.0019454747886313022 0 0.020808731966603666 0.0018423442337046124 0 0.018112991377931258 0.0011111114541396397 0 0.017673299148767255 0.0010190905888628834 0 0.015257128769525344 0.00019509517291802089 0 0.015393285238931883 0.00030905927949246442 0 0.015082549040545281 0.00031454976118215335 0 0.015178112787794835 0.00030387410333481958 0 0.015257128769525344 0.00019509517291802089 0 0.015082549040545281 0.00031454976118215335 0 0.015637507924647256 0.00017818240982324721 0 0.015257128769525344 0.00019509517291802089 0 0.015393285238931883 0.00030905927949246442 0 0.015393285238931883 0.00030905927949246442 0 0.015372889021520956 0.00053002631109953953 0 0.015630534526620096 0.00043816412685837629 0 0.015393285238931883 0.00030905927949246442 0 0.015372889021520956 0.00053002631109953953 0 0.015082549040545281 0.00031454976118215335 0 0.014706785342751339 0.00019814625842040298 0 0.015082549040545281 0.00031454976118215335 0 0.014920712092411255 9.4552427087311384e-05 0 0.015024674591254488 0.00034456872131324602 0 0.015083916323949566 0.00033319585368300048 0 0.014920712092411255 9.4552427087311384e-05 0 0.01467971007168534 -8.1589267534899637e-05 0 0.014862189108524772 -0.00014380739410310462 0 0.014706785342751339 0.00019814625842040298 0 0.01467971007168534 -8.1589267534899637e-05 0 0.014573037062625116 -4.0610998108273038e-06 0 0.014706785342751339 0.00019814625842040298 0 0.014920712092411255 9.4552427087311384e-05 0 0.01467971007168534 -8.1589267534899637e-05 0 0.01467971007168534 -8.1589267534899637e-05 0 0.014577543028640255 -0.00012429907061469822 0 0.014573037062625116 -4.0610998108273038e-06 0 0.015201961049047585 0.00029811666457280549 0 0.015292576738443531 0.00022158551305432683 0 0.015187938961525024 0.00012442323668520648 0 0.015286676633569586 0.00016598665752224793 0 0.015292576738443531 0.00022158551305432683 0 0.015187938961525024 0.00012442323668520648 0 0.015201961049047585 0.00029811666457280549 0 0.015082549040545281 0.00031454976118215335 0 0.015187938961525024 0.00012442323668520648 0 0.015082549040545281 0.00031454976118215335 0 0.014920712092411255 9.4552427087311384e-05 0 0.015187938961525024 0.00012442323668520648 0 0.014920712092411255 9.4552427087311384e-05 0 0.015187938961525024 0.00012442323668520648 0 0.014862189108524772 -0.00014380739410310462 0 0.015300329697824281 9.1843573102077969e-05 0 0.015309620863377249 0.00013306666949635355 0 0.015187938961525024 0.00012442323668520648 0 0.015309620863377249 0.00013306666949635355 0 0.015286676633569586 0.00016598665752224793 0 0.015187938961525024 0.00012442323668520648 0 0.015475010882339315 -6.5883630668176705e-05 0 0.015139902560511558 0.00013783186020197691 0 0.015386436204179206 -0.00019650573277534762 0 0.015187938961525024 0.00012442323668520648 0 0.015158473580125457 -0.00027169414532410697 0 0.014880919957467717 -0.00023141819612574051 0 0.014872221222378372 -0.00016738016726239972 0 0.015187938961525024 0.00012442323668520648 0 0.015158473580125457 -0.00027169414532410697 0 0.014862189108524772 -0.00014380739410310462 0 0.01463413360247405 -0.00031358450577780912 0 0.014724958509631103 -0.00026417492979574088 0 0.014773643514375503 -0.00026473165574284553 0 0.014627876769481704 -0.0002994559111230286 0 0.014320833656888738 -0.00019461047806723677 0 0.01463413360247405 -0.00031358450577780912 0 0.014687479374163712 -0.00032535753901585709 0 0.014724958509631103 -0.00026417492979574088 0 0.015300537909418325 -0.00040762718767983172 0 0.014880919957467717 -0.00023141819612574051 0 0.014695365974305766 -0.00032551595825644096 0 0.014687479374163712 -0.00032535753901585709 0 0.014724958509631103 -0.00026417492979574088 0 0.015358151102846855 -0.00035057406620603917 0 0.015386436204179206 -0.00019650573277534762 0 0.015158473580125457 -0.00027169414532410697 0 0.014699075273346619 -0.0002093308352771601 0 0.01467971007168534 -8.1589267534899637e-05 0 0.014862189108524772 -0.00014380739410310462 0 0.014699075273346619 -0.0002093308352771601 0 0.014622311728252728 -0.00017304066846543552 0 0.01467971007168534 -8.1589267534899637e-05 0 0.014699075273346619 -0.0002093308352771601 0 0.014622311728252728 -0.00017304066846543552 0 0.014561502463041786 -0.00023385377968727342 0 0.014622311728252728 -0.00017304066846543552 0 0.01467971007168534 -8.1589267534899637e-05 0 0.014577543028640255 -0.00012429907061469822 0 0.014724958509631103 -0.00026417492979574088 0 0.014862189108524772 -0.00014380739410310462 0 0.014773643514375503 -0.00026473165574284553 0 0.014699075273346619 -0.0002093308352771601 0 0.014862189108524772 -0.00014380739410310462 0 0.014773643514375503 -0.00026473165574284553 0 0.014699075273346619 -0.0002093308352771601 0 0.014773643514375503 -0.00026473165574284553 0 0.014561502463041786 -0.00023385377968727342 0 0.013761466076120065 -0.0005487061977603897 0 0.013868805394947871 -6.1582361525742171e-05 0 0.013078015351398692 -0.00011306412284962487 0 0.013868805394947871 -6.1582361525742171e-05 0 0.013078015351398692 -0.00011306412284962487 0 0.013111486031043271 0.00010282049832288546 0 0.014320833656888738 -0.00019461047806723677 0 0.013846543286234704 0.00011253010612586995 0 0.013868805394947871 -6.1582361525742171e-05 0 0.013111486031043271 0.00010282049832288546 0 0.013067341835937125 0.00014995680628938573 0 0.012449930746423728 -0.00095727134227890367 0 0.013075646024857874 -0.00052226277797589151 0 0.012595858245666858 -0.0001397406772214829 0 0.012595858245666858 -0.0001397406772214829 0 0.013067341835937125 0.00014995680628938573 0 0.012137702995694439 0.00014262803376083818 0 0.012224837691254336 -0.00070466750532815407 0 0.012552035793261383 -0.00050955913175114301 0 0.012595858245666858 -0.0001397406772214829 0 0.013111486031043271 0.00010282049832288546 0 0.013067341835937125 0.00014995680628938573 0 0.012224837691254336 -0.00070466750532815407 0 0.012710336260788867 2.2535112944307512e-05 0 0.013030992086498654 -0.00045210526829984025 0 0.012595858245666858 -0.0001397406772214829 0 0.013111486031043271 0.00010282049832288546 0 0.014622311728252728 -0.00017304066846543552 0 0.014570753813398382 -0.00017943360606192314 0 0.014561502463041786 -0.00023385377968727342 0 0.014570753813398382 -0.00017943360606192314 0 0.014561502463041786 -0.00023385377968727342 0 0.014461103576837333 -0.00017001622813239833 0 0.014622311728252728 -0.00017304066846543552 0 0.014570753813398382 -0.00017943360606192314 0 0.014577543028640255 -0.00012429907061469822 0 0.014570753813398382 -0.00017943360606192314 0 0.014461103576837333 -0.00017001622813239833 0 0.014475251783493532 -0.00013994589300675973 0 0.014475251783493532 -0.00013994589300675973 0 0.014446885616747117 -7.3779446589391213e-05 0 0.014577543028640255 -0.00012429907061469822 0 0.014570753813398382 -0.00017943360606192314 0 0.014475251783493532 -0.00013994589300675973 0 0.014577543028640255 -0.00012429907061469822 0 0.014446885616747117 -7.3779446589391213e-05 0 0.014577543028640255 -0.00012429907061469822 0 0.014573037062625116 -4.0610998108273038e-06 0 0.013846543286234704 0.00011253010612586995 0 0.012443735924086902 -0.0007673565328992735 0 0.014461103576837333 -0.00017001622813239833 0 0.014475251783493532 -0.00013994589300675973 0 0.014230161841180176 -0.00012929332375614551 0 0.014561502463041786 -0.00023385377968727342 0 0.014461103576837333 -0.00017001622813239833 0 0.014230161841180176 -0.00012929332375614551 0 0.013067341835937125 0.00014995680628938573 0 0.011411359615429518 0.00080393544818235069 0 0.012137702995694439 0.00014262803376083818 0 0.014475251783493532 -0.00013994589300675973 0 0.014446885616747117 -7.3779446589391213e-05 0 0.014230161841180176 -0.00012929332375614551 0 0.011411359615429518 0.00080393544818235069 0 0.012137702995694439 0.00014262803376083818 0 0.011749731530817164 -0.00047184984241410092 0 0.014446885616747117 -7.3779446589391213e-05 0 0.014230161841180176 -0.00012929332375614551 0 0.014283631584320387 -4.9560621161572455e-05 0 0.01134795961150486 -0.0023159596431060366 0 0.011589421623733734 -0.0033087859611443775 0 0.011019826459450368 -0.0026585040706162805 0 0.012443735924086902 -0.0007673565328992735 0 0.011711645530545418 -0.0018807990105377472 0 0.014230161841180176 -0.00012929332375614551 0 0.014210996475531026 -6.5582182349412097e-05 0 0.014283631584320387 -4.9560621161572455e-05 0 0.012443735924086902 -0.0007673565328992735 0 0.013578374654523931 -0.00053653819955543623 0 0.012595858245666858 -0.0001397406772214829 0 0.012137702995694439 0.00014262803376083818 0 0.011749731530817164 -0.00047184984241410092 0 0.012449930746423728 -0.00095727134227890367 0 0.012595858245666858 -0.0001397406772214829 0 0.011749731530817164 -0.00047184984241410092 0 0.011181053556220327 -0.0038083552232413154 0 0.011589421623733734 -0.0033087859611443775 0 0.010834372612047085 -0.0032026825196094354 0 0.010640659288614105 -0.0038562534404304643 0 0.011181053556220327 -0.0038083552232413154 0 0.010834372612047085 -0.0032026825196094354 0 0.010640659288614105 -0.0038562534404304643 0 0.010834372612047085 -0.0032026825196094354 0 0.01040565673453921 -0.0034174482371837427 0 0.010834372612047085 -0.0032026825196094354 0 0.010312537072304217 -0.0029604998361448614 0 0.010626483115733993 -0.0026792598962939599 0 0.010834372612047085 -0.0032026825196094354 0 0.01040565673453921 -0.0034174482371837427 0 0.010312537072304217 -0.0029604998361448614 0 0.011589421623733734 -0.0033087859611443775 0 0.010834372612047085 -0.0032026825196094354 0 0.011019826459450368 -0.0026585040706162805 0 0.01017839949448382 -0.0038593485441386749 0 0.010023032090652449 -0.0034235847708473295 0 0.01040565673453921 -0.0034174482371837427 0 0.010023032090652449 -0.0034235847708473295 0 0.01040565673453921 -0.0034174482371837427 0 0.010312537072304217 -0.0029604998361448614 0 0.010312537072304217 -0.0029604998361448614 0 0.0097857476278130143 -0.0029886098531250538 0 0.01030567851738331 -0.0026947250525039598 0 0.010078435615055592 -0.003170245293860151 0 0.010669717443043165 -0.003772146858458432 0 0.010023032090652449 -0.0034235847708473295 0 0.010312537072304217 -0.0029604998361448614 0 0.0097857476278130143 -0.0029886098531250538 0 0.013517547904067617 -0.0031363626879604639 0 0.014880823266669193 -0.0016507599747553757 0 0.012178577088987824 -0.0027236067265195528 0 0.01359165533379411 -0.0024009899549153686 0 0.013465120022446578 -0.0025704077942162199 0 0.017546430718334012 -0.0018182710420133372 0 0.017864652921967109 -0.0017202000124033245 0 0.017678836099516551 -0.0016206912891611324 0 0.012178577088987824 -0.0027236067265195528 0 0.012676642908459308 -0.0036219026091077722 0 0.013465120022446578 -0.0025704077942162199 0 0.010669717443043165 -0.003772146858458432 0 0.013256593266288155 -0.00244954910717735 0 0.0097857476278130143 -0.0029886098531250538 0 0.01030567851738331 -0.0026947250525039598 0 0.010240549489359443 -0.0023829396707305489 0 0.010312537072304217 -0.0029604998361448614 0 0.01030567851738331 -0.0026947250525039598 0 0.010626483115733993 -0.0026792598962939599 0 0.01030567851738331 -0.0026947250525039598 0 0.010626483115733993 -0.0026792598962939599 0 0.010544920573333966 -0.0024558174761304652 0 0.01030567851738331 -0.0026947250525039598 0 0.010240549489359443 -0.0023829396707305489 0 0.010544920573333966 -0.0024558174761304652 0 0.013256593266288155 -0.00244954910717735 0 0.013216184577176809 -0.0017756291932499828 0 0.013946626433182589 -0.0018101326597374497 0 0.014062783661306574 -0.001658620369261804 0 0.013426352424700784 -0.0019168793931203093 0 0.010240549489359443 -0.0023829396707305489 0 0.010544920573333966 -0.0024558174761304652 0 0.010628955921078731 -0.002213173704157217 0 0.014880823266669193 -0.0016507599747553757 0 0.013216184577176809 -0.0017756291932499828 0 0.014880823266669193 -0.0016507599747553757 0 0.013256593266288155 -0.00244954910717735 0 0.011019826459450368 -0.0026585040706162805 0 0.010626483115733993 -0.0026792598962939599 0 0.010862874319927355 -0.0024033296527280474 0 0.010834372612047085 -0.0032026825196094354 0 0.011019826459450368 -0.0026585040706162805 0 0.010626483115733993 -0.0026792598962939599 0 0.010626483115733993 -0.0026792598962939599 0 0.010862874319927355 -0.0024033296527280474 0 0.010544920573333966 -0.0024558174761304652 0 0.010862874319927355 -0.0024033296527280474 0 0.010628955921078731 -0.002213173704157217 0 0.011106745072990646 -0.0022096785750729078 0 0.010862874319927355 -0.0024033296527280474 0 0.010544920573333966 -0.0024558174761304652 0 0.010628955921078731 -0.002213173704157217 0 0.01134795961150486 -0.0023159596431060366 0 0.011019826459450368 -0.0026585040706162805 0 0.011106745072990646 -0.0022096785750729078 0 0.013216184577176809 -0.0017756291932499828 0 0.013578374654523931 -0.00053653819955543623 0 0.010628955921078731 -0.002213173704157217 0 0.011106745072990646 -0.0022096785750729078 0 0.011293781040118694 -0.0020546873954939257 0 0.011019826459450368 -0.0026585040706162805 0 0.010862874319927355 -0.0024033296527280474 0 0.011106745072990646 -0.0022096785750729078 0 0.011370513677658773 -0.0023112537483565105 0 0.011106745072990646 -0.0022096785750729078 0 0.011293781040118694 -0.0020546873954939257 0 0.012443735924086902 -0.0007673565328992735 0 0.011914065336690906 -0.0010296443449128792 0 0.014821281010670781 -0.0017941330045372246 0 0.015323064319296288 -0.0016810805903203256 0 0.016015090080194121 -0.00021227541905629135 0 0.014880823266669193 -0.0016507599747553757 0 0.018216588986089507 -0.000774456009668501 0 0.01319136659865887 -0.0013809249885178641 0 0.01437008527147364 -0.00110833122592955 0 0.014300104252117434 -0.00086010486045517683 0 0.013216184577176809 -0.0017756291932499828 0 0.014774525770448797 -0.00027938859968379653 0 0.017864652921967109 -0.0017202000124033245 0 0.017871650392098527 -0.0013769404123044923 0 0.018078729990507785 -0.0013800986819432865 0 0.013578374654523931 -0.00053653819955543623 0 0.014774525770448797 -0.00027938859968379653 0 0.015323064319296288 -0.0016810805903203256 0 0.016293222041425356 -0.0012302759974106847 0 0.016015090080194121 -0.00021227541905629135 0 0.014774525770448797 -0.00027938859968379653 0 0.018216588986089507 -0.000774456009668501 0 0.017418118117832792 -0.0015754996096022428 0 0.017871650392098527 -0.0013769404123044923 0 0.017678836099516551 -0.0016206912891611324 0 0.017864652921967109 -0.0017202000124033245 0 0.017871650392098527 -0.0013769404123044923 0 0.017678836099516551 -0.0016206912891611324 0 0.017771072038438081 -0.0013256631521371197 0 0.017812087034837585 -0.0012149365502777186 0 0.017871650392098527 -0.0013769404123044923 0 0.017812087034837585 -0.0012149365502777186 0 0.017996564410333812 -0.0011398107537520549 0 0.017871650392098527 -0.0013769404123044923 0 0.017996564410333812 -0.0011398107537520549 0 0.017871650392098527 -0.0013769404123044923 0 0.018078729990507785 -0.0013800986819432865 0 0.021069293413550166 1.9878702218258946e-05 0 0.021457382845950113 -0.0014104874966581866 0 0.021577490208050585 -0.0010183767838904685 0 0.019689717452061672 -0.00071907350089069695 0 0.018216588986089507 -0.000774456009668501 0 0.019847072244527333 -0.00028889378675904298 0 0.018216588986089507 -0.000774456009668501 0 0.015869158895187179 0.00036392916469510221 0 0.016064092468896275 0.00061756389898692549 0 0.015838608947528612 0.00055825281667761721 0 0.019847072244527333 -0.00028889378675904298 0 0.021872176721897216 -0.00050023738827541003 0 0.022113369883803538 -0.00046994239771709504 0 0.021457382845950113 -0.0014104874966581866 0 0.021577490208050585 -0.0010183767838904685 0 0.016064092468896275 0.00061756389898692549 0 0.015838608947528612 0.00055825281667761721 0 0.015898963844397738 0.00066557115332285008 0 0.015869158895187179 0.00036392916469510221 0 0.015838608947528612 0.00055825281667761721 0 0.015630534526620096 0.00043816412685837629 0 0.015024674591254488 0.00034456872131324602 0 0.015168299706850449 0.00046186655103168552 0 0.015372889021520956 0.00053002631109953953 0 0.015630534526620096 0.00043816412685837629 0 0.015692217538190733 0.0006793430001083749 0 0.015838608947528612 0.00055825281667761721 0 0.015630534526620096 0.00043816412685837629 0 0.015692217538190733 0.0006793430001083749 0 0.014706785342751339 0.00019814625842040298 0 0.014460521878777494 8.0717904206218939e-05 0 0.014573037062625116 -4.0610998108273038e-06 0 0.014446885616747117 -7.3779446589391213e-05 0 0.014460521878777494 8.0717904206218939e-05 0 0.014573037062625116 -4.0610998108273038e-06 0 0.014774525770448797 -0.00027938859968379653 0 0.015168299706850449 0.00046186655103168552 0 0.014446885616747117 -7.3779446589391213e-05 0 0.014460521878777494 8.0717904206218939e-05 0 0.014283631584320387 -4.9560621161572455e-05 0 0.014208745770758585 -3.084945949361622e-05 0 0.014460521878777494 8.0717904206218939e-05 0 0.014283631584320387 -4.9560621161572455e-05 0 0.016001152801870248 0.00080701232733592873 0 0.015692217538190733 0.0006793430001083749 0 0.015898963844397738 0.00066557115332285008 0 0.013578374654523931 -0.00053653819955543623 0 0.014063370706477309 -0.00034519074150568936 0 0.014217515216850874 -6.4575165441709429e-05 0 0.014208745770758585 -3.084945949361622e-05 0 0.014283631584320387 -4.9560621161572455e-05 0 0.016001152801870248 0.00080701232733592873 0 0.016064092468896275 0.00061756389898692549 0 0.015898963844397738 0.00066557115332285008 0 0.015838608947528612 0.00055825281667761721 0 0.015692217538190733 0.0006793430001083749 0 0.015898963844397738 0.00066557115332285008 0 
</DataArray>
</PointData>
<CellData Scalars="region_id,cross_section_updated," Vectors="" Tensors="stress,">
<DataArray type="Float64" Name="region_id" format="ascii">
5 5 5 5 6 5 6 5 6 6 5 5 6 5 6 5 5 5 5 5 5 5 5 5 5 5 5 5 5 5 5 6 5 5 6 5 5 5 5 5 5 5 5 5 5 5 5 5 5 5 5 5 5 5 5 5 5 6 6 5 5 5 5 5 5 5 5 5 5 5 5 5 5 5 6 5 5 5 6 5 5 6 5 6 5 6 5 5 5 5 5 5 5 5 5 5 5 5 5 5 5 5 5 5 5 5 5 5 5 5 5 5 5 5 5 5 5 5 5 5 5 5 5 5 5 5 5 5 5 5 5 5 5 5 5 5 5 5 5 5 5 5 5 5 5 5 6 5 5 5 5 5 5 5 5 5 5 5 5 5 5 6 5 5 5 5 5 6 5 5 5 5 5 5 5 5 5 5 5 5 5 5 5 5 5 5 5 5 5 5 5 5 5 5 6 5 5 5 5 5 6 5 5 6 5 5 5 5 5 5 5 5 5 5 5 5 5 5 5 5 5 5 5 5 5 5 6 6 5 6 5 6 5 5 5 5 5 6 5 5 5 5 5 5 5 5 5 5 5 5 5 5 5 5 5 5 5 5 5 5 5 5 5 5 5 5 5 5 5 5 5 6 5 5 5 5 5 5 6 5 5 5 5 5 5 5 5 5 5 5 5 5 5 5 5 5 5 5 6 5 5 5 5 6 5 5 5 5 5 6 5 5 6 6 5 5 5 5 5 5 5 5 5 5 6 5 5 5 5 5 5 5 5 5 5 5 5 5 5 5 5 5 5 5 5 5 5 5 5 5 5 5 5 5 5 5 5 5 5 5 5 5 5 5 5 6 5 5 5 5 6 5 5 5 5 5 5 6 6 5 5 5 5 5 5 5 5 5 5 6 5 5 5 5 5 6 5 5 5 5 5 5 5 5 5 5 5 5 5 5 5 5 5 5 5 6 5 5 5 5 5 5 6 5 5 5 5 5 5 5 5 5 5 5 5 5 5 6 5 6 5 5 5 5 5 5 5 5 5 6 5 5 5 5 5 5 5 5 5 5 6 5 5 5 5 5 5 5 5 6 5 5 5 6 5 5 6 5 5 5 5 5 5 5 5 5 5 5 5 5 5 5 5 5 5 5 5 5 6 5 6 5 5 5 5 5 5 5 5 5 5 6 5 5 5 5 5 5 5 5 5 5 5 5 5 5 5 5 5 5 5 6 5 5 5 5 5 5 5 5 5 5 5 6 5 6 5 5 5 6 6 6 5 5 5 5 5 6 6 5 5 5 5 6 5 5 6 5 5 5 5 5 6 5 5 6 6 5 6 5 5 5 5 5 5 5 6 5 5 5 6 5 5 5 6 5 5 5 6 5 5 6 5 5 5 5 5 5 5 5 5 5 5 5 5 5 6 5 5 5 5 5 5 5 5 5 5 5 5 5 6 5 5 5 6 5 5 5 5 5 5 5 5 5 5 5 5 6 5 5 5 5 5 5 5 6 5 5 6 5 5 5 5 6 5 5 5 5 5 6 5 6 5 5 5 5 5 5 5 5 5 5 5 5 5 5 5 5 5 5 6 5 5 5 5 5 6 5 5 6 5 5 5 5 5 5 5 6 5 6 5 6 5 6 5 5 5 5 5 5 5 5 5 6 5 5 5 6 5 5 5 6 5 5 6 5 5 6 5 6 5 5 6 5 5 5 5 6 5 6 5 6 5 5 6 6 5 5 5 5 6 5 5 5 5 6 5 5 5 5 5 5 5 5 5 5 6 5 5 5 5 5 5 5 5 5 5 5 5 5 5 6 6 5 5 5 5 5 5 5 5 5 5 5 5 5 6 5 6 6 5 5 5 5 6 5 5 5 5 6 5 5 5 5 6 5 5 6 5 5 5 5 5 5 5 5 5 5 5 5 5 5 5 5 6 5 6 5 5 5 5 5 5 5 5 5 5 5 6 5 5 5 6 5 5 5 5 5 6 5 5 5 5 5 6 5 6 6 5 5 6 5 5 5 5 5 5 5 5 5 5 5 5 5 5 6 5 6 5 6 5 5 5 5 5 5 6 5 5 5 5 5 6 5 5 5 5 5 5 5 6 5 5 5 5 5 5 5 5 5 5 5 6 6 5 5 6 6 5 5 5 5 5 5 5 5 5 5 5 5 5 5 5 5 5 5 5 5 5 5 5 5 5 5 5 5 5 5 5 5 5 6 6 5 5 5 5 5 5 5 5 5 5 6 5 5 5 5 5 5 5 5 5 5 5 5 5 5 5 5 5 5 5 5 5 5 5 5 5 5 5 5 5 5 5 5 5 5 5 5 5 5 5 5 5 5 5 5 5 5 5 5 5 5 5 5 5 5 5 5 5 5 5 5 5 5 5 5 5 5 5 5 5 5 5 5 5 5 5 5 5 6 5 5 5 5 5 5 5 5 5 5 5 5 5 5 5 5 5 5 5 5 5 5 5 5 5 6 6 5 5 5 5 5 5 5 5 5 6 5 5 6 5 5 5 5 5 5 5 5 5 5 6 5 5 5 5 6 5 5 5 5 5 5 5 6 5 5 5 5 5 5 5 5 5 6 5 5 5 5 5 5 5 5 5 5 5 5 5 5 6 5 5 5 5 5 5 5 5 5 5 5 5 5 5 5 5 5 5 5 5 5 5 5 5 5 5 5 5 5 5 5 5 5 5 6 5 5 5 5 5 5 6 5 5 5 5 5 5 5 5 5 5 5 5 5 5 5 5 6 5 5 5 5 5 5 5 5 5 5 5 5 5 5 5 5 5 5 5 5 5 6 5 5 5 5 5 5 5 5 5 5 5 5 6 5 5 5 6 5 5 5 5 5 5 5 5 5 5 5 5 5 6 5 5 5 5 5 5 5 5 6 5 5 5 5 5 5 5 5 5 5 5 5 5 5 5 5 5 5 5 5 5 5 5 5 5 5 5 5 5 5 5 5 5 5 5 5 5 5 5 5 5 5 5 5 5 5 6 5 5 5 5 5 5 5 5 5 5 5 5 5 6 5 5 5 6 5 5 5 5 5 5 6 5 5 5 6 5 5 5 5 5 5 5 5 5 6 5 5 5 6 5 5 5 5 6 5 5 5 6 5 5 5 6 5 5 5 5 5 5 5 5 5 6 5 5 5 6 5 6 5 5 5 5 5 6 5 5 6 5 5 5 5 5 5 5 5 5 5 5 5 5 5 5 5 5 5 5 5 5 5 5 5 5 5 5 5 5 5 5 5 5 6 5 5 5 6 5 6 5 5 6 5 5 5 6 6 5 5 6 6 5 5 6 5 5 5 5 5 5 5 5 6 6 5 5 5 5 5 5 5 5 5 6 5 5 5 6 5 5 6 5 6 5 6 5 5 5 6 6 5 5 5 5 5 5 6 5 5 5 6 5 6 5 5 5 5 6 5 5 6 5 6 5 6 5 5 5 6 6 5 5 6 5 5 6 5 5 6 5 5 5 6 5 6 5 6 5 5 5 5 6 5 5 6 5 5 5 5 5 5 6 5 5 5 5 5 5 5 6 5 5 5 5 5 5 5 5 6 5 5 5 5 5 5 6 5 5 5 5 6 6 5 6 5 6 5 6 5 5 5 6 6 5 6 5 5 6 5 5 5 5 6 5 5 5 5 5 5 5 5 5 6 5 5 5 6 5 5 6 5 5 5 5 5 5 5 5 6 5 5 6 5 5 5 5 6 6 6 5 6 5 6 5 5 5 5 5 6 5 5 6 5 5 5 5 5 6 5 6 5 6 5 6 6 5 6 5 6 5 5 5 6 5 6 5 6 6 5 6 5 6 5 5 6 5 6 6 6 5 5 6 5 5 6 5 5 5 6 5 5 6 5 6 5 5 5 6 5 6 5 5 5 5 6 6 5 5 5 5 5 6 6 5 5 5 6 5 5 6 5 5 6 5 5 5 6 6 6 5 5 5 5 5 5 5 5 5 5 6 6 5 5 5 6 5 5 5 5 5 5 6 5 5 5 5 5 5 5 5 6 5 5 5 5 6 5 5 5 6 5 5 5 5 6 6 5 5 5 5 6 5 5 5 5 5 6 5 5 5 5 5 5 5 5 6 5 5 5 6 5 5 6 5 5 5 5 5 5 5 5 5 5 5 5 5 5 5 5 5 5 5 5 5 6 5 5 5 5 5 5 5 5 5 5 5 5 5 6 5 5 5 5 5 5 5 5 5 5 5 5 5 5 5 5 5 5 5 6 5 5 5 5 5 5 5 5 5 5 5 5 5 6 5 5 5 5 6 5 5 5 5 6 5 5 5 5 5 5 5 5 5 5 5 5 5 5 5 5 5 5 5 6 5 5 5 5 5 5 5 6 6 5 5 6 5 5 5 5 5 5 6 5 5 5 5 5 5 5 5 5 5 5 5 5 5 5 5 5 5 5 5 5 5 5 5 5 5 5 5 5 5 5 5 5 5 5 5 5 5 5 5 5 5 5 5 5 5 5 5 5 5 5 5 5 5 5 5 5 5 5 5 5 5 5 5 5 5 5 6 5 5 5 5 6 5 5 5 6 5 5 6 5 5 5 5 5 5 5 5 5 5 6 5 5 5 5 5 5 5 5 5 5 5 5 5 5 5 5 5 5 5 5 5 5 5 5 5 6 5 5 6 5 5 5 5 5 5 5 5 5 5 5 5 5 5 5 5 5 5 5 5 6 5 5 5 5 5 5 5 5 5 5 5 5 6 5 5 5 5 5 5 5 5 5 5 5 5 5 5 5 5 5 5 5 5 5 5 5 5 5 5 5 5 5 6 5 5 5 6 5 5 5 5 6 5 5 5 5 6 5 5 5 5 5 5 5 5 5 5 5 5 5 5 5 5 5 5 5 5 5 5 5 5 5 5 5 5 5 5 5 5 5 5 5 5 5 6 5 5 6 5 5 5 5 5 6 6 5 5 5 6 5 5 6 6 5 6 5 5 6 5 5 5 6 5 6 5 5 5 5 5 5 6 6 5 5 5 6 6 5 6 5 6 5 6 5 5 5 6 5 5 5 5 5 5 5 5 5 6 5 5 5 5 5 6 5 5 5 5 5 5 6 5 5 5 5 5 5 5 5 5 5 5 5 6 5 5 5 5 5 6 5 5 5 5 5 5 6 5 5 5 5 5 5 6 5 5 5 5 5 6 5 6 5 5 5 5 6 5 5 5 5 5 5 5 5 5 6 6 6 5 5 5 5 6 5 6 5 5 5 5 6 5 6 5 5 5 6 6 5 5 5 5 6 5 6 6 6 5 5 5 5 6 6 5 6 5 5 5 5 6 5 6 5 5 5 5 5 5 5 5 5 5 6 6 5 5 5 5 5 5 5 6 5 5 5 5 5 5 5 5 5 5 5 5 6 5 5 5 5 5 5 5 5 5 5 5 5 5 5 6 5 6 5 5 5 5 5 5 5 5 5 6 5 5 5 5 5 5 5 5 6 5 5 5 5 6 5 5 5 5 6 5 5 5 5 5 5 6 5 5 5 5 5 5 5 5 6 5 5 5 5 6 5 5 5 6 5 5 5 5 5 5 5 5 5 5 5 5 5 5 5 5 5 5 5 5 5 5 6 5 5 6 5 5 5 5 6 5 5 5 5 5 5 5 5 5 5 5 5 5 5 6 5 5 5 5 5 6 5 5 5 5 5 5 6 5 5 5 5 5 5 5 5 5 5 6 5 5 5 5 5 5 5 5 5 5 5 5 5 5 5 5 5 5 5 5 5 5 5 5 5 5 5 5 5 5 5 5 5 5 6 5 5 5 5 5 5 5 5 5 5 6 5 5 5 5 5 5 5 5 5 5 6 5 5 5 5 5 5 5 6 5 6 5 5 5 5 5 6 5 5 5 5 6 5 5 5 5 5 5 5 5 5 6 5 5 6 5 5 5 5 6 6 6 5 6 5 6 5 5 5 5 5 5 5 5 5 6 5 5 5 5 6 5 5 5 5 5 5 5 5 5 5 5 6 6 5 5 5 5 5 6 5 6 6 5 6 5 5 5 5 5 5 5 6 5 5 5 5 5 6 6 5 6 5 5 5 5 5 5 6 5 5 6 5 5 6 5 5 5 5 5 5 5 5 5 6 5 6 5 5 5 5 5 6 5 5 6 5 5 5 5 6 5 5 6 5 5 5 5 5 6 5 5 5 5 5 5 5 6 5 6 5 5 5 5 6 6 5 5 6 6 5 5 5 6 6 5 5 5 6 5 5 6 6 5 5 5 5 5 5 5 5 5 5 5 5 5 6 5 5 6 5 5 6 5 6 5 5 5 5 6 5 6 5 6 5 5 5 6 5 5 5 5 5 5 5 5 5 5 5 5 5 5 5 6 5 5 5 5 5 5 5 5 6 5 5 5 5 5 6 6 5 5 5 5 6 5 6 6 5 5 5 5 5 5 6 5 5 5 6 5 5 5 5 5 5 6 5 5 5 5 5 5 5 5 5 5 5 5 6 5 5 5 5 5 5 5 5 5 5 6 5 5 5 5 5 5 5 5 5 5 6 5 5 5 5 5 5 5 5 6 5 5 5 5 5 5 5 5 5 5 5 5 5 5 5 5 6 5 6 5 5 6 5 5 5 5 5 5 5 5 5 5 5 5 5 5 5 5 6 5 5 5 5 5 6 5 5 6 5 5 5 6 6 5 5 6 5 5 5 5 5 5 6 5 5 5 5 5 5 5 5 6 5 5 5 5 5 5 6 5 5 6 5 5 5 5 6 6 5 5 6 5 6 5 5 5 5 5 6 5 5 5 5 5 5 6 5 5 5 5 5 5 5 6 5 5 5 6 5 5 5 6 5 5 5 6 5 6 5 5 5 5 5 5 5 5 5 5 5 5 5 6 5 5 6 5 6 5 6 5 5 5 5 6 5 5 6 5 5 5 6 5 5 5 5 5 5 5 5 5 5 5 5 5 5 5 5 5 5 5 5 5 5 5 5 6 5 5 5 5 5 5 6 5 5 6 5 5 5 5 6 5 6 5 5 5 5 5 5 5 5 5 6 5 6 5 6 5 5 5 5 5 5 6 5 5 6 5 5 5 6 5 5 5 5 5 5 5 5 6 5 5 6 5 5 6 5 6 5 5 5 5 6 5 6 6 5 5 6 5 5 5 5 5 6 5 5 5 6 5 5 5 5 5 5 6 5 5 5 5 6 5 5 5 6 5 5 5 5 5 6 5 5 5 5 5 6 5 5 6 5 5 5 5 5 5 5 5 5 5 5 5 5 6 5 5 5 5 5 5 5 6 5 5 5 5 6 5 5 5 5 5 5 5 5 5 5 6 5 5 5 5 6 5 5 6 5 6 5 5 6 5 5 5 5 5 5 5 5 5 5 5 5 5 5 5 5 5 5 5 6 5 5 5 5 5 5 5 5 5 5 5 5 5 5 5 5 5 5 5 5 6 5 5 5 5 5 5 5 5 6 5 5 5 5 5 6 5 5 5 5 5 6 5 5 5 6 5 5 6 5 5 5 6 5 6 5 5 5 6 6 5 6 5 5 6 5 6 5 6 6 5 5 6 5 5 5 5 6 5 5 6 5 5 6 6 5 5 5 5 6 5 6 5 5 5 6 6 5 5 5 6 6 5 6 5 5 5 5 5 5 6 6 5 5 5 6 5 5 5 5 6 5 5 5 5 6 6 5 6 6 5 6 5 5 6 6 5 6 5 5 6 5 5 6 5 6 5 5 5 6 5 5 6 5 5 5 5 5 5 5 5 5 5 5 6 5 5 5 6 5 6 5 5 5 6 6 5 5 6 6 5 5 6 5 5 5 5 6 5 5 6 5 6 5 5 5 5 5 5 6 5 5 5 5 5 5 5 5 5 5 5 6 5 5 5 5 5 6 5 5 6 5 6 5 6 5 6 5 5 6 5 5 6 5 5 5 6 5 6 5 6 5 6 5 5 5 6 5 5 5 6 5 5 5 5 5 6 6 6 5 5 5 5 5 5 5 5 5 5 5 5 5 5 5 5 5 5 5 5 5 5 5 5 5 5 5 5 5 5 5 5 5 5 5 6 5 6 5 5 5 5 6 5 5 5 5 5 5 5 5 5 6 5 6 5 5 5 5 5 5 5 6 5 6 5 5 5 5 5 5 5 5 5 5 5 5 5 5 6 5 5 5 5 5 5 5 6 5 5 5 5 6 5 5 5 5 6 5 5 5 5 5 5 6 5 5 5 5 5 5 5 5 6 5 5 5 5 5 5 5 5 5 5 5 5 5 5 5 6 5 5 5 5 5 6 5 5 5 5 6 5 5 5 5 5 5 5 5 5 5 5 5 6 5 5 5 5 5 5 5 5 5 5 5 5 5 5 5 5 5 5 5 5 5 5 5 5 5 5 5 5 5 5 5 5 5 5 5 5 5 5 5 5 5 5 5 6 5 5 5 5 5 5 5 5 5 5 5 5 6 5 6 5 5 5 6 5 5 5 5 5 5 6 5 5 5 5 5 5 6 5 5 6 6 5 5 6 5 5 6 6 6 5 5 5 5 5 5 5 5 5 5 6 5 5 5 5 6 5 5 5 5 6 5 6 5 5 5 5 6 5 5 5 5 6 5 5 5 5 6 5 5 5 6 5 5 5 5 5 5 5 5 5 5 5 5 5 5 5 5 5 5 5 5 5 5 5 5 5 5 5 5 5 5 5 5 5 5 5 5 5 5 5 5 6 5 5 5 5 5 5 5 5 6 5 5 5 5 6 5 5 5 5 5 5 6 5 5 5 6 5 5 5 5 5 5 5 5 5 5 6 5 5 5 5 5 5 5 5 5 5 6 5 5 5 6 6 5 6 6 5 5 5 5 5 6 5 5 5 5 5 5 5 5 6 5 5 5 5 5 5 5 5 5 6 5 5 5 6 5 6 5 6 5 5 5 5 5 5 5 5 5 5 5 5 5 5 6 6 5 5 5 5 5 6 5 5 5 5 5 5 5 5 5 5 5 5 5 5 5 5 5 5 6 5 5 5 6 5 5 5 5 5 5 5 6 5 5 5 5 6 5 5 5 5 6 5 5 5 6 5 6 5 5 5 6 5 5 5 5 5 5 5 5 5 5 5 5 5 5 5 5 5 5 5 5 5 5 5 5 5 6 5 5 5 5 5 5 5 6 5 5 5 5 5 6 5 5 5 6 5 6 5 5 5 5 5 5 6 5 5 5 5 5 5 6 5 5 5 5 5 5 5 6 5 5 6 5 5 5 6 5 5 5 5 5 5 5 5 5 5 5 5 5 5 5 5 6 5 5 5 5 5 5 5 5 5 6 5 5 5 6 5 5 5 5 5 5 5 5 5 5 6 5 5 5 5 5 5 6 5 5 6 5 6 5 5 5 5 5 5 5 5 6 5 5 5 6 5 5 5 6 5 5 5 5 6 5 5 6 5 6 6 6 5 5 6 6 5 5 5 6 5 5 5 6 5 5 5 5 5 5 5 5 5 6 5 5 6 6 6 6 6 5 5 6 5 5 5 5 5 5 5 5 5 5 5 5 5 5 5 5 5 5 6 5 5 5 5 5 5 5 5 6 5 5 5 5 5 6 5 6 6 5 5 5 5 6 5 5 5 6 5 5 5 6 5 6 5 5 5 6 6 6 5 5 6 5 6 6 5 6 5 5 5 6 5 6 5 5 5 5 5 5 5 5 5 5 5 5 5 5 5 5 5 5 5 5 5 5 5 5 5 6 5 5 5 5 5 5 6 5 5 5 5 5 5 6 6 5 5 5 5 6 5 5 5 6 5 5 5 5 6 5 6 5 6 5 5 6 6 5 5 6 5 5 6 6 6 5 5 6 5 5 5 5 5 5 5 5 5 5 5 5 5 5 5 5 5 5 5 5 5 5 5 5 5 5 5 5 5 5 5 5 6 6 5 5 5 5 5 6 5 5 6 5 5 6 5 5 5 5 5 5 5 5 5 5 5 5 5 5 5 6 5 5 6 6 5 5 5 5 6 6 5 6 6 5 6 5 5 5 5 6 5 6 5 5 6 6 5 6 6 5 5 6 6 6 5 6 5 5 5 5 5 5 6 5 5 5 5 5 5 5 6 6 5 5 5 6 5 5 5 5 6 6 5 5 5 6 5 5 5 5 5 5 5 5 5 5 5 5 5 5 5 5 5 5 5 5 5 5 5 5 5 5 5 5 5 5 5 5 5 5 6 5 5 5 5 5 5 5 5 5 6 5 5 5 5 5 5 5 5 6 5 5 5 5 5 5 5 5 5 5 6 6 5 6 5 5 6 5 5 5 5 5 5 5 5 6 5 5 5 5 5 5 6 5 5 5 5 5 5 5 5 5 5 5 5 5 5 5 5 5 6 5 5 6 5 5 6 5 6 5 5 5 5 6 5 5 5 5 6 5 5 5 5 5 6 5 5 5 5 5 5 5 5 5 6 5 5 5 5 5 5 5 6 5 5 5 6 5 5 5 5 5 5 5 6 5 5 5 6 5 5 5 5 5 5 5 5 5 5 6 5 5 5 6 5 5 6 5 5 5 6 5 5 5 5 5 6 5 5 5 5 6 5 5 5 5 5 5 5 5 5 5 5 5 5 5 5 5 5 6 5 5 5 5 6 5 5 5 5 5 6 5 5 5 5 5 5 6 5 5 5 5 5 5 5 5 5 5 5 5 5 6 5 5 5 6 5 6 5 6 5 5 6 5 5 5 6 5 5 5 5 5 5 5 5 6 5 5 5 5 5 6 5 5 5 5 5 5 5 5 5 6 5 5 5 6 5 5 5 5 5 5 5 5 5 5 5 5 5 5 5 6 5 5 5 5 5 5 5 5 5 5 6 5 5 5 6 5 5 5 5 5 5 5 5 5 5 5 5 5 5 5 5 5 5 5 5 5 6 5 6 5 5 5 5 5 5 5 5 5 5 5 5 5 6 5 5 5 5 5 5 5 5 5 5 5 5 6 5 6 5 5 5 5 5 5 5 6 5 5 5 5 5 6 6 6 5 5 5 6 5 5 5 5 5 5 5 5 5 5 5 5 5 5 5 5 5 5 5 5 5 5 5 5 5 5 5 5 5 5 5 5 5 6 5 6 5 5 5 5 5 5 5 5 5 5 5 5 5 5 5 5 5 5 5 5 5 6 5 5 5 5 5 5 6 5 5 5 5 5 5 5 6 6 5 5 5 5 5 5 5 5 5 5 6 5 5 5 5 5 5 5 5 5 5 6 5 5 5 5 5 5 5 5 5 5 5 5 5 5 5 5 5 5 5 5 5 5 5 5 5 5 5 5 5 5 5 6 5 5 5 6 5 5 5 5 5 6 5 5 6 5 6 6 5 5 5 5 5 6 5 5 5 6 5 5 5 5 5 5 5 5 5 5 5 5 5 5 5 6 5 5 5 5 6 5 5 5 5 5 5 6 5 5 5 5 5 5 5 5 5 5 5 5 5 5 5 5 5 5 5 5 5 5 6 5 5 5 5 5 5 5 5 5 5 5 5 5 5 5 5 5 5 5 5 5 5 5 5 5 5 5 5 5 5 5 5 5 5 5 5 5 5 5 6 5 5 5 5 5 5 5 5 5 5 5 5 5 5 5 5 6 5 5 5 5 5 5 6 6 5 5 5 5 6 5 6 5 5 6 5 5 5 5 5 5 6 5 5 5 6 5 5 5 5 5 6 5 5 5 5 6 6 5 6 5 5 5 5 5 5 5 5 5 5 5 6 5 5 5 6 5 5 5 5 5 6 5 5 6 5 5 5 5 5 5 6 5 6 5 5 5 5 5 5 5 5 5 5 5 5 5 6 5 5 5 5 5 5 5 5 5 5 5 5 5 5 5 5 5 5 5 5 6 6 5 5 5 5 5 5 5 5 5 5 5 5 6 5 5 6 5 6 5 5 5 5 5 5 5 5 5 5 6 5 6 5 6 6 5 5 5 5 6 5 5 6 5 5 5 5 5 6 5 5 5 5 5 5 5 5 5 5 6 5 5 5 5 5 5 5 5 5 5 5 5 5 5 5 5 6 5 5 5 5 6 5 5 6 5 5 5 5 5 6 5 6 5 6 5 5 5 5 5 5 5 6 5 6 6 5 5 6 5 5 5 5 6 5 5 6 5 5 5 5 5 5 6 5 5 5 5 5 6 5 5 5 5 5 6 5 5 5 5 6 6 5 6 5 5 5 5 6 5 6 5 5 5 5 5 5 6 5 5 5 5 5 5 5 5 5 6 5 6 5 5 5 5 5 5 5 5 6 5 6 5 5 5 6 5 6 5 5 5 5 5 5 5 5 5 6 5 5 6 5 5 5 5 5 5 5 5 6 6 6 5 5 5 5 5 5 5 5 5 5 5 5 5 5 5 5 5 5 5 6 5 5 5 6 6 5 5 5 5 5 5 5 6 5 5 5 5 5 5 5 5 5 5 5 6 5 5 5 5 5 5 5 5 5 5 6 5 5 5 5 5 5 6 5 5 5 5 5 5 5 5 5 5 5 5 5 5 5 6 5 5 5 5 6 5 5 5 5 5 5 5 6 5 6 5 5 6 5 5 5 6 5 6 5 6 6 5 5 5 6 6 5 5 5 5 5 5 5 5 5 5 5 5 5 5 5 5 5 5 5 5 5 5 6 5 5 5 5 5 5 5 5 5 5 6 6 5 5 5 5 5 5 5 6 5 5 5 6 5 5 5 5 5 5 6 6 5 5 5 5 6 5 5 5 5 5 6 5 5 5 5 5 6 5 5 5 5 5 5 5 5 5 5 5 6 5 5 5 6 5 5 5 5 5 5 5 5 5 5 5 5 5 5 5 5 6 5 5 6 5 5 5 6 6 5 5 5 6 6 6 5 5 5 5 6 5 5 5 5 5 6 6 5 5 6 5 6 5 6 5 5 5 6 5 5 6 5 5 5 5 5 6 5 5 5 5 5 5 5 5 5 5 5 5 5 5 5 5 5 5 5 5 5 5 5 6 5 5 5 5 5 5 5 5 5 5 5 5 5 5 5 5 5 5 5 5 5 5 5 5 5 5 5 5 5 5 5 5 5 5 5 6 5 5 5 5 5 5 5 6 5 5 5 5 6 5 5 6 5 5 5 5 5 6 5 5 5 5 5 5 5 5 5 5 6 6 5 5 5 5 5 5 5 5 5 6 5 5 5 5 5 6 5 5 5 5 5 5 5 5 5 5 5 5 5 5 5 5 5 5 5 5 6 5 6 5 6 5 5 5 5 5 5 5 5 6 5 5 5 5 5 5 5 5 5 5 5 5 5 5 5 6 5 5 5 5 5 5 5 5 5 5 5 5 5 5 5 5 5 5 5 5 5 5 6 5 5 5 5 5 6 5 6 5 6 5 5 5 6 6 5 5 5 5 5 5 6 6 6 5 6 5 6 5 5 5 5 5 5 6 5 5 5 5 5 5 5 5 6 5 5 5 6 5 6 5 5 6 5 5 5 5 5 5 5 5 5 5 5 5 5 5 5 6 5 5 5 5 5 5 5 6 5 5 5 5 5 5 5 6 5 6 5 5 6 5 5 5 5 5 5 5 5 5 6 5 5 5 5 6 5 5 6 6 5 5 5 5 5 5 5 5 6 5 5 5 5 5 5 5 5 5 5 5 5 5 5 5 5 5 5 5 5 5 5 5 5 5 5 5 5 5 5 6 5 5 5 5 5 5 5 5 5 5 5 6 5 5 6 5 5 5 5 5 5 5 5 5 5 6 6 5 5 5 5 6 6 5 5 5 5 6 5 5 5 6 5 5 5 5 5 5 5 5 5 5 5 5 5 6 5 6 5 5 5 5 5 6 5 5 6 5 5 5 5 5 5 5 5 5 6 5 5 5 5 5 5 5 5 5 5 6 5 5 5 6 5 5 5 5 5 5 5 5 5 5 5 5 5 6 6 6 5 5 6 5 5 5 5 5 5 5 5 5 5 5 5 5 5 6 5 5 5 5 5 5 5 6 5 5 5 5 5 5 5 5 5 5 5 5 5 5 5 5 6 5 5 5 5 5 5 5 6 5 5 5 6 5 5 5 5 5 5 5 5 5 5 5 5 5 5 5 5 6 5 5 5 5 6 5 6 5 5 5 5 6 5 5 5 5 5 5 5 5 5 5 5 5 5 5 5 5 5 6 6 5 5 5 5 5 5 5 5 5 5 5 5 5 5 5 5 5 5 6 5 6 5 5 5 5 5 5 5 5 6 5 5 6 5 6 5 5 5 5 5 5 5 5 5 5 5 5 5 5 5 5 5 5 5 5 5 5 5 5 5 5 5 5 5 5 5 5 5 5 5 5 5 5 5 5 5 5 5 5 5 5 5 5 5 5 6 5 5 5 5 6 6 5 5 5 5 5 5 5 5 6 5 5 5 5 5 5 5 5 6 5 5 5 5 6 5 6 6 6 5 5 5 5 5 5 5 5 5 6 5 5 5 5 5 5 5 5 5 5 5 6 5 5 5 5 5 5 5 5 5 5 5 5 6 5 5 6 5 5 5 5 5 6 5 6 5 5 5 5 5 5 5 5 5 5 5 5 5 5 5 5 5 5 5 5 5 5 5 6 5 5 5 5 5 5 5 5 5 5 5 5 5 5 5 5 5 5 5 5 6 5 5 5 5 5 5 5 5 5 5 5 5 5 5 5 5 5 6 5 5 6 5 5 5 5 5 5 5 5 5 6 6 5 5 5 5 5 5 5 5 5 6 5 6 6 5 5 6 5 6 5 5 5 5 5 5 5 5 5 5 5 5 5 5 5 5 5 5 5 5 5 5 5 5 5 5 5 5 5 5 5 5 5 5 5 5 5 5 5 5 5 5 5 5 5 5 5 5 5 5 5 5 5 5 5 5 6 5 6 5 5 5 5 5 5 5 6 5 5 6 5 5 5 5 5 5 6 5 5 5 5 5 5 5 5 5 5 5 5 5 5 6 5 5 5 6 5 5 6 5 5 5 5 6 5 5 5 5 5 5 5 5 6 6 5 5 5 5 5 6 5 5 6 5 5 6 5 5 5 5 5 6 5 6 5 6 5 5 5 6 5 5 5 5 5 6 5 5 5 6 5 5 5 5 5 5 5 5 5 5 5 5 6 6 5 5 5 6 5 5 5 5 6 5 5 5 5 5 5 6 5 5 5 5 5 5 5 5 5 5 5 5 5 6 5 5 5 6 5 5 5 5 5 5 5 5 6 6 5 5 6 5 5 6 5 5 6 5 5 6 5 6 5 5 5 5 5 5 5 5 5 6 5 5 5 5 5 5 5 5 5 6 5 5 5 5 5 5 5 5 5 5 6 5 5 5 5 5 5 5 5 6 5 5 5 5 5 5 5 6 5 6 5 6 6 6 6 5 6 5 5 5 5 6 6 5 6 5 5 6 5 5 5 5 6 5 5 5 5 5 5 5 5 5 5 5 5 5 5 5 5 5 5 6 5 5 5 5 6 6 5 5 5 6 5 6 5 5 6 5 5 6 5 5 5 5 5 5 5 6 5 5 5 5 5 5 5 6 6 6 6 5 5 5 5 5 5 5 5 5 5 5 5 5 5 5 5 5 5 5 5 5 5 5 5 5 5 5 5 5 5 5 5 5 5 5 5 5 5 5 5 5 5 5 5 5 5 5 5 5 5 5 5 5 5 5 6 5 5 5 5 5 5 5 5 5 5 5 5 6 5 5 5 5 5 5 5 5 5 5 5 5 5 5 5 5 5 5 5 5 5 5 5 5 5 5 5 5 5 5 5 5 6 5 5 5 6 5 5 5 5 5 5 5 5 5 5 6 5 5 5 5 5 5 5 5 5 5 5 5 5 5 5 5 5 6 5 5 5 5 6 5 5 5 5 5 5 5 6 5 5 5 6 5 5 5 5 5 5 5 5 5 5 5 5 5 5 5 5 5 5 5 5 5 5 5 5 5 5 5 5 5 5 5 5 5 5 5 5 5 5 5 5 5 5 5 5 5 5 5 5 6 6 6 5 5 6 6 5 5 5 5 5 5 5 5 6 5 5 6 5 6 5 5 5 6 5 6 5 5 5 5 5 6 5 5 5 5 5 5 5 5 5 5 5 5 5 5 5 5 5 5 5 5 5 5 5 5 5 5 5 5 5 5 5 5 6 5 5 6 5 6 5 5 5 5 5 5 6 5 5 6 5 5 5 5 5 5 5 6 5 6 5 6 5 5 5 5 6 5 6 5 5 5 5 5 5 5 6 6 6 5 5 5 5 5 5 5 5 5 5 5 5 5 5 5 5 5 5 5 5 5 5 5 5 5 5 5 6 5 5 6 5 5 5 5 5 5 5 5 5 5 5 5 5 5 5 5 5 5 5 5 5 5 5 5 5 5 5 5 5 5 5 5 5 5 6 5 6 5 6 5 5 5 5 6 5 5 5 5 6 6 5 5 5 5 6 5 5 6 6 5 5 6 5 5 5 5 5 5 6 5 5 5 5 5 5 5 6 6 5 5 5 6 5 5 6 5 5 5 5 5 5 5 5 5 5 5 5 6 5 5 5 6 5 5 5 5 5 5 5 6 5 6 5 5 6 6 6 5 5 5 5 5 5 5 5 5 5 5 5 5 5 6 5 5 5 5 6 5 5 5 5 5 5 5 5 6 5 5 5 6 5 5 5 5 5 5 5 5 5 5 5 5 5 5 5 5 5 5 5 5 6 5 5 5 5 6 5 6 5 5 5 5 5 5 5 5 5 5 5 5 5 5 5 5 5 5 5 5 5 5 5 5 5 5 5 5 5 5 5 5 6 5 5 5 5 5 5 6 5 5 5 5 6 5 5 5 6 5 6 5 5 5 5 5 5 5 6 5 5 5 5 5 5 5 5 6 5 5 5 6 5 5 5 6 5 5 5 5 5 5 5 5 5 5 6 5 5 6 5 5 5 5 5 5 5 5 5 5 5 5 5 5 5 5 5 5 5 5 5 5 5 5 5 6 5 5 5 5 5 6 6 5 6 6 5 6 5 6 5 5 5 5 5 6 5 6 6 6 5 5 6 5 5 5 6 5 5 5 5 5 5 6 5 5 5 5 5 5 5 5 5 5 5 5 6 5 5 5 5 5 5 5 5 5 5 5 5 5 5 5 5 5 5 5 5 6 5 6 5 5 5 6 5 5 6 5 5 5 5 5 5 5 5 5 5 5 5 5 5 5 5 5 5 5 6 6 5 5 5 5 5 5 6 5 6 5 5 6 5 5 5 6 5 6 5 5 5 5 5 5 6 5 6 5 5 5 5 5 5 5 5 5 5 5 5 5 5 5 5 5 5 5 5 5 5 5 5 5 5 5 5 5 5 5 5 5 5 5 5 5 5 5 5 5 5 5 5 5 5 5 5 5 5 5 6 5 5 5 5 5 5 5 5 5 6 5 5 6 5 5 5 5 5 6 5 5 5 5 6 5 5 5 5 5 6 5 5 5 5 5 5 6 5 6 5 5 6 5 6 5 5 5 5 5 5 6 5 5 5 5 5 5 5 5 6 5 5 5 5 5 6 5 5 5 6 5 5 6 5 5 5 5 5 5 5 5 5 5 5 6 5 5 5 5 5 5 5 5 5 5 5 5 5 5 6 5 5 5 5 5 5 5 5 5 5 5 5 6 5 5 5 5 5 5 5 5 5 6 5 5 5 5 5 6 5 5 5 6 5 5 6 5 6 5 6 5 5 5 5 5 5 5 5 5 5 5 5 5 5 5 5 5 5 5 5 5 5 5 6 5 5 5 5 5 5 5 5 5 5 5 5 5 5 6 5 5 5 5 6 5 5 6 6 5 5 5 5 6 5 6 6 5 5 6 5 6 6 6 5 6 5 5 5 5 5 6 5 5 5 5 5 6 6 5 5 5 6 5 5 6 5 5 5 5 6 5 5 5 5 5 6 5 5 5 5 5 5 5 5 5 5 5 5 5 5 5 5 5 5 5 6 5 5 5 5 5 5 5 5 5 5 5 6 5 5 5 5 5 5 5 5 5 5 6 5 5 5 5 5 5 5 6 5 5 5 5 5 5 5 5 6 5 5 5 6 6 6 5 5 6 5 6 6 5 6 6 6 5 5 5 5 5 5 5 5 5 6 5 5 5 5 5 5 6 5 5 5 6 5 5 5 6 5 5 5 5 5 5 5 5 5 5 5 5 5 5 5 5 6 5 5 5 5 5 5 5 5 5 5 5 5 5 5 5 5 5 5 5 5 5 5 5 5 5 6 5 5 6 6 5 6 6 5 5 5 5 5 5 5 5 5 5 5 5 5 5 5 5 5 5 6 5 5 5 5 5 5 5 5 5 5 5 5 5 6 5 5 5 5 5 5 5 5 5 5 5 5 5 5 5 5 5 5 5 5 5 5 5 5 6 5 5 5 5 5 5 5 5 5 5 6 5 5 5 5 5 5 5 5 5 5 5 5 5 6 5 5 5 5 5 5 5 5 5 5 5 6 5 5 5 5 5 5 5 5 5 5 5 5 5 5 5 5 5 5 5 5 5 5 5 5 6 5 6 5 5 5 5 5 5 5 5 5 5 6 6 5 5 5 5 6 5 5 5 6 5 5 5 5 5 5 5 5 5 6 5 6 6 5 5 5 5 6 5 5 5 5 5 5 5 5 5 5 5 5 6 5 5 5 5 6 5 5 6 5 5 5 5 5 5 6 5 5 5 5 5 5 5 6 5 6 5 5 5 5 5 5 5 5 5 5 5 5 5 5 5 5 5 5 5 5 5 5 5 5 5 6 5 6 5 5 5 5 5 6 5 5 6 5 5 5 6 5 6 5 6 5 5 5 5 6 5 5 6 5 5 5 6 5 5 5 5 5 5 5 5 5 5 5 5 5 5 5 5 5 5 5 5 6 5 6 5 5 6 6 5 5 6 6 6 5 6 5 5 6 6 6 5 5 5 5 6 5 6 5 5 6 6 5 5 6 5 6 5 5 5 5 5 5 6 5 5 5 5 5 6 5 5 6 6 5 5 5 5 5 5 5 6 5 6 5 5 5 6 5 5 6 5 5 6 6 6 5 5 6 5 5 5 5 5 5 5 5 5 5 5 5 5 5 5 5 5 5 5 5 5 5 5 6 5 6 5 5 5 5 5 5 5 5 5 5 5 5 5 5 6 5 5 5 6 5 6 5 5 5 5 6 5 5 5 5 6 5 6 5 5 5 6 5 5 5 6 5 5 6 5 5 5 5 6 5 5 5 5 5 5 5 5 6 5 6 5 5 5 6 5 5 6 5 5 6 5 5 6 5 6 5 5 5 5 5 5 5 5 6 6 5 6 5 5 6 5 6 5 5 5 5 6 5 5 5 5 5 5 5 5 5 5 5 5 5 5 5 5 5 5 5 5 5 5 5 5 5 5 5 5 5 5 5 5 5 5 5 5 5 5 5 5 5 5 5 5 5 5 5 5 5 5 5 5 5 5 5 5 5 6 5 6 5 5 5 5 5 5 5 5 5 5 5 5 5 5 5 5 5 5 5 5 5 5 5 5 5 5 5 6 5 5 6 5 5 5 5 5 5 5 5 5 6 5 5 5 6 5 5 6 5 5 5 5 5 5 5 6 5 5 5 5 5 5 5 5 5 5 5 5 5 5 5 5 5 6 6 5 5 6 5 5 5 5 5 5 6 5 5 5 5 5 5 5 6 5 5 5 5 5 6 5 5 6 5 5 6 5 5 6 5 5 5 5 5 5 6 5 5 5 5 6 6 5 5 5 5 6 5 5 5 5 6 5 5 5 5 5 6 5 5 6 5 5 6 5 5 5 5 5 5 5 5 5 6 5 5 5 5 5 5 5 5 5 5 6 5 5 5 5 6 5 6 5 5 5 5 5 5 5 6 5 5 5 5 5 5 5 5 5 5 5 5 5 5 5 5 5 5 5 5 5 5 5 5 5 5 5 5 5 5 5 6 5 5 5 5 5 5 5 5 6 5 5 5 5 5 5 5 5 6 5 6 5 5 5 5 5 5 5 5 5 5 5 5 5 6 5 5 5 5 5 5 5 5 5 5 5 5 5 5 5 6 5 5 5 6 5 6 5 6 5 5 5 6 5 5 5 5 5 5 5 6 5 5 5 5 5 6 6 5 6 5 5 5 5 6 6 5 5 5 5 5 6 5 5 5 5 6 6 5 5 6 5 5 5 5 5 5 5 5 5 5 5 5 5 5 5 5 5 5 5 5 5 5 5 5 5 5 5 5 5 5 5 5 5 5 5 5 5 5 5 5 5 5 5 5 5 5 5 6 5 5 5 5 5 5 5 5 6 5 5 5 5 5 5 5 5 5 5 5 5 5 5 5 5 5 5 5 5 5 5 5 5 5 5 5 5 5 5 5 5 5 6 5 5 5 5 6 5 6 5 5 5 5 5 5 6 5 5 5 5 5 5 5 5 5 5 5 6 5 5 5 5 5 5 5 5 5 5 5 6 5 5 5 6 5 5 6 5 5 5 5 5 6 6 5 5 5 5 5 5 6 5 5 5 5 5 5 5 5 5 5 6 5 5 5 5 5 6 5 5 5 5 5 6 5 6 6 5 5 6 5 5 6 6 5 6 5 6 6 5 5 6 5 5 5 5 6 5 5 6 5 6 6 5 5 5 5 5 5 6 5 6 5 5 5 6 5 5 5 5 5 5 5 5 6 6 6 5 5 5 5 5 5 5 5 5 5 5 5 5 5 5 6 6 5 5 5 5 5 5 5 6 5 5 6 5 5 5 6 6 5 6 5 5 5 5 6 5 5 5 6 6 5 5 5 6 6 5 6 5 5 5 6 6 5 5 5 5 5 5 6 5 5 5 5 5 6 6 5 5 5 5 5 6 5 6 5 5 6 5 5 6 6 6 5 5 5 5 5 5 5 5 5 5 5 5 6 5 5 5 5 5 6 5 6 5 5 5 5 5 6 5 5 5 5 5 5 5 5 5 5 5 5 5 5 5 5 5 5 5 6 5 5 5 5 5 5 5 5 5 6 5 5 5 5 6 6 5 5 5 5 5 5 6 6 5 5 6 5 5 6 5 5 6 5 6 6 5 6 6 5 5 5 6 5 5 5 5 5 5 5 6 5 5 6 5 5 5 6 5 6 5 5 5 5 6 6 5 5 6 5 5 5 5 5 5 5 5 5 5 5 6 5 6 6 6 5 5 5 5 5 5 5 5 6 5 5 6 5 5 5 5 5 5 6 5 5 5 6 5 5 5 6 5 5 5 6 5 5 6 5 5 6 5 5 5 5 5 5 6 5 6 5 5 6 5 6 6 6 5 5 5 5 6 5 5 6 6 5 5 6 5 5 5 5 5 5 5 5 5 5 5 6 5 5 5 6 6 5 6 6 5 5 5 6 5 5 5 5 5 5 5 5 6 6 5 5 5 5 5 5 5 5 6 5 5 5 6 6 5 5 5 5 6 5 5 5 5 5 5 6 5 5 5 5 5 5 5 5 5 5 5 5 6 5 5 5 5 5 5 5 5 5 5 5 5 5 5 5 5 5 5 5 5 5 5 5 6 5 5 6 5 5 5 5 5 5 5 5 5 5 5 5 5 5 5 5 5 5 5 5 5 5 5 5 5 5 5 5 5 5 5 5 5 5 5 5 5 5 5 6 5 5 5 5 5 6 5 5 5 5 5 5 5 5 6 6 5 5 5 5 5 5 5 5 5 6 5 5 5 5 6 5 5 5 5 5 6 5 5 6 5 5 6 5 5 5 5 5 5 5 6 5 5 5 5 5 5 5 5 5 5 5 5 5 6 5 5 5 6 5 6 6 5 5 5 5 5 5 5 5 5 5 5 5 5 5 5 5 5 5 5 5 5 5 5 5 5 5 5 5 5 5 5 5 5 5 5 5 5 5 5 5 5 5 5 5 5 5 5 5 5 5 5 5 6 5 5 5 5 5 5 5 5 6 5 6 5 5 5 5 5 5 5 5 5 5 5 5 5 5 5 5 5 5 5 5 5 5 5 5 5 6 5 5 5 5 5 5 6 5 5 5 5 5 5 5 5 5 5 5 5 5 5 5 5 5 6 5 5 5 5 5 5 5 5 5 5 5 5 5 5 6 5 5 6 5 5 5 6 5 5 5 5 5 5 5 5 5 5 5 5 5 5 5 5 6 5 5 5 5 5 6 5 5 5 6 5 5 5 6 5 5 5 5 5 5 5 5 5 5 5 5 5 5 5 5 5 5 5 5 5 5 5 5 6 5 5 5 5 5 5 5 5 5 5 5 5 5 5 5 5 5 5 5 6 5 5 5 5 5 5 5 5 5 5 5 5 5 5 5 5 5 6 5 5 5 5 6 6 5 6 5 6 5 6 5 5 5 5 5 5 5 6 5 6 5 6 6 6 6 5 5 5 5 6 6 6 5 5 5 5 5 5 5 6 5 5 6 5 6 5 5 6 6 5 5 5 5 5 5 6 5 5 6 5 5 5 5 6 5 6 6 5 5 5 5 6 5 6 5 5 5 6 5 5 6 5 5 5 5 6 5 5 5 5 5 5 5 5 5 5 5 5 5 5 5 6 5 5 5 5 5 6 5 5 5 5 6 5 6 5 5 5 5 6 5 5 6 5 5 5 5 5 6 5 6 5 5 6 5 5 5 5 5 5 5 5 5 5 6 5 5 5 5 5 5 5 5 6 5 5 5 5 5 5 5 5 5 5 6 5 5 5 5 5 5 5 5 5 5 5 5 5 6 5 6 5 5 5 5 5 5 5 5 5 5 6 6 5 5 5 5 6 6 5 5 5 6 5 5 5 6 5 5 5 5 5 5 5 5 5 6 5 5 5 5 6 5 6 5 5 5 5 5 5 5 5 6 5 5 5 5 5 5 5 6 5 5 5 5 5 6 5 5 6 5 6 5 5 5 5 5 5 6 5 5 5 5 5 5 5 5 5 5 6 5 5 6 6 5 5 5 5 5 5 5 5 6 5 6 5 5 5 5 5 5 5 5 5 5 5 5 5 6 5 6 5 5 5 5 5 5 5 5 5 5 5 5 5 5 5 5 5 5 5 5 6 5 6 5 5 5 5 5 5 5 5 5 5 5 6 5 5 5 6 5 6 5 5 5 6 5 5 5 6 6 5 6 5 6 5 5 5 5 6 5 5 5 6 5 5 6 5 6 5 5 5 5 5 6 5 5 5 5 5 6 5 6 5 5 6 5 5 5 6 5 5 6 5 5 5 6 5 6 5 5 5 5 5 6 5 5 5 5 6 6 5 6 6 6 5 5 5 5 5 6 5 6 5 5 5 5 6 5 5 5 5 5 5 5 5 5 5 5 5 5 5 5 5 5 5 5 5 5 5 5 5 5 5 5 5 5 6 5 5 6 5 6 5 5 5 6 5 5 5 5 5 5 5 5 5 5 5 5 5 5 5 5 5 5 6 5 5 5 5 5 5 5 5 5 5 6 5 5 5 5 5 6 5 5 5 5 5 5 5 5 5 5 5 5 5 5 5 5 5 6 5 5 6 5 5 5 5 5 5 5 5 5 5 5 5 6 5 5 5 5 5 5 5 5 5 5 6 5 5 5 5 5 5 5 5 5 5 5 5 6 5 5 5 5 5 5 5 6 5 5 5 5 5 5 5 5 5 5 5 5 5 5 5 5 5 5 5 5 6 5 5 5 5 5 6 5 5 5 5 5 5 5 5 5 5 5 5 5 5 5 5 5 5 5 6 5 5 5 5 5 5 5 5 5 6 5 5 5 6 5 5 5 5 5 6 5 6 5 5 6 6 5 5 5 5 5 5 5 5 5 5 5 5 6 5 6 5 5 5 5 5 5 5 6 6 5 5 5 6 5 6 6 5 5 5 5 5 5 5 5 6 5 5 6 5 5 5 5 5 5 5 5 5 6 5 5 5 5 6 5 5 5 5 5 5 5 5 5 5 5 6 5 5 6 5 5 5 5 6 5 5 5 5 5 5 6 6 5 5 5 5 5 5 5 5 5 5 5 5 5 5 5 5 5 5 5 5 5 5 5 5 5 5 5 5 5 5 5 5 6 5 6 5 5 5 5 5 6 5 5 6 5 6 5 5 5 5 5 5 5 5 6 5 5 5 6 5 5 5 5 6 5 6 5 5 5 5 5 6 5 5 5 6 5 5 5 5 5 5 5 6 5 5 5 5 6 5 6 5 5 5 6 5 6 6 5 5 6 5 5 5 5 5 5 5 6 5 5 5 5 6 6 6 5 5 5 5 5 5 6 5 5 5 5 5 5 5 5 5 5 6 5 5 5 5 5 5 5 5 5 6 5 5 6 5 5 6 5 6 5 5 5 6 5 5 5 6 5 5 5 5 5 6 5 5 5 5 5 5 5 5 5 5 6 6 6 5 5 5 5 5 5 6 6 5 5 6 5 5 5 6 5 5 5 5 5 5 6 5 5 5 5 5 5 5 5 5 5 5 6 5 6 5 5 6 5 6 5 5 5 5 5 5 5 5 5 5 5 6 5 5 5 6 5 6 5 5 5 5 5 5 5 5 6 5 5 5 5 5 5 5 6 5 6 5 5 5 5 5 5 5 5 5 5 5 6 5 6 5 5 5 6 5 5 5 5 6 5 5 6 6 5 5 5 5 5 5 6 5 5 5 6 5 6 5 6 5 6 5 6 5 5 5 5 5 5 6 6 5 6 5 5 5 6 5 5 5 5 6 5 5 5 6 5 5 5 
</DataArray>
<DataArray type="Float64" Name="stress" NumberOfComponents="9" format="ascii">
3499.2057056545 -193.11712184446404 0 -193.11712184446404 315.92653740672245 0 0 0 0 2359.9299451606785 -187.69037642866201 0 -187.69037642866201 -0.37074257666539112 0 0 0 0 3568.1392129239903 -568.5894187452094 0 -568.5894187452094 -438.3258128557938 0 0 0 0 -73.16033231991787 36.236243946544313 0 36.236243946544313 33.880538770388682 0 0 0 0 0.39914872660688161 -2.7219712343326989 0 -2.7219712343326989 0.58125540182639779 0 0 0 0 1171.1430973770621 -1089.2160449143312 0 -1089.2160449143312 1036.4863877915438 0 0 0 0 12.419373734803571 4.7773684895587785 0 4.7773684895587785 -6.062317625397025 0 0 0 0 -119.17522981073671 -35.996952783895345 0 -35.996952783895345 92.449185474148749 0 0 0 0 111.34173151639692 -31.551833760925415 0 -31.551833760925415 -0.66382496689547676 0 0 0 0 17.96903298673314 -10.248885943849643 0 -10.248885943849643 -2.5216221451590504 0 0 0 0 181.34041829638591 -11.348865496970575 0 -11.348865496970575 -94.430932575080078 0 0 0 0 220.25168069686333 -29.445707802061406 0 -29.445707802061406 -95.463245965879651 0 0 0 0 24.964752839427607 32.633495022589415 0 32.633495022589415 -44.148522266087255 0 0 0 0 2402.180196791669 1065.2672761430167 0 1065.2672761430167 433.71973347630762 0 0 0 0 88.210347007136022 -29.084928684638633 0 -29.084928684638633 6.8450535554956424 0 0 0 0 81.038555224717129 -31.318552655366148 0 -31.318552655366148 -211.29430292889811 0 0 0 0 -60.918103219824843 64.95334736661971 0 64.95334736661971 -160.11383026270232 0 0 0 0 -89.537053725594888 -45.437381657920923 0 -45.437381657920923 -30.546972575819382 0 0 0 0 61.60665993578732 -56.504920398596369 0 -56.504920398596369 -79.309175207876251 0 0 0 0 56.063155172791085 -25.784649357360195 0 -25.784649357360195 -86.491017875483521 0 0 0 0 179.46626209477836 -22.83599600688467 0 -22.83599600688467 -96.952039581346071 0 0 0 0 96.366265050746733 -23.191865720602436 0 -23.191865720602436 -82.513193754642998 0 0 0 0 91.777875710569788 -82.207413567321055 0 -82.207413567321055 -141.59046069115357 0 0 0 0 67.33086742713931 -256.90038377877687 0 -256.90038377877687 -268.13580552065054 0 0 0 0 -127.49502928870788 -26.001556832620054 0 -26.001556832620054 1325.241559855456 0 0 0 0 2.3655067078361753 -387.44582870882846 0 -387.44582870882846 217.15976774534033 0 0 0 0 256.08282398740994 147.63725211733617 0 147.63725211733617 197.52462944275447 0 0 0 0 500.04526305974287 -185.80168571879776 0 -185.80168571879776 10.283854520499517 0 0 0 0 71.494542621541768 46.479591367946796 0 46.479591367946796 71.471196860666737 0 0 0 0 -25.225793564983178 1.9647147394161095 0 1.9647147394161095 30.838526448425014 0 0 0 0 527.70171079409192 -142.80194983066076 0 -142.80194983066076 61.086052319917115 0 0 0 0 3.0981068996258614 2.5058097518650442 0 2.5058097518650442 1.5769868239436959 0 0 0 0 197.95856820432527 46.497455620052733 0 46.497455620052733 -364.94281783800284 0 0 0 0 226.2623117536059 587.5895912805131 0 587.5895912805131 392.73173117308619 0 0 0 0 2.0157128589581248 0.8101205696625442 0 0.8101205696625442 0.81858131859494077 0 0 0 0 177.75638536148472 -150.73785203692807 0 -150.73785203692807 142.97610130249066 0 0 0 0 340.9120020624614 -130.42699974477142 0 -130.42699974477142 33.404411659776997 0 0 0 0 191.14671343646478 -76.667925851011205 0 -76.667925851011205 37.967252221978896 0 0 0 0 -17.972165757732 -72.642202548576606 0 -72.642202548576606 52.976249465501098 0 0 0 0 176.89946875869646 43.1756183062434 0 43.1756183062434 -4.6077871110311222 0 0 0 0 397.44675381230627 24.022703570218987 0 24.022703570218987 20.864882392699315 0 0 0 0 257.63714892361895 14.788105861976931 0 14.788105861976931 154.98503076831523 0 0 0 0 172.29841992346337 -38.542814008824777 0 -38.542814008824777 21.357044439277246 0 0 0 0 157.60685759531043 -32.609440437527091 0 -32.609440437527091 -0.13178115775839305 0 0 0 0 187.743990474366 -44.842119440291569 0 -44.842119440291569 0.016386811066356442 0 0 0 0 283.28647466552502 -52.524064566149974 0 -52.524064566149974 -25.057930614388614 0 0 0 0 171.30071669480822 -27.351333747091843 0 -27.351333747091843 -17.291994785449369 0 0 0 0 89.032642742182361 -59.289823392481402 0 -59.289823392481402 23.872483635155064 0 0 0 0 189.89215617559967 -72.426821942526843 0 -72.426821942526843 23.632515720257921 0 0 0 0 9.3940959607134573 -33.472989899967047 0 -33.472989899967047 57.682507652494586 0 0 0 0 79.418764088128228 -67.988965051686804 0 -67.988965051686804 38.587459461926841 0 0 0 0 19.467573888337938 -8.144258126042395 0 -8.144258126042395 0.047752367270480135 0 0 0 0 46.902221525844652 -24.993406034840682 0 -24.993406034840682 10.296274776517555 0 0 0 0 8.5654265951670823 -4.3600621882658785 0 -4.3600621882658785 -1.0831358798205677 0 0 0 0 9.4734546298277564 0.86367813302959195 0 0.86367813302959195 17.913061389072475 0 0 0 0 15.426304185530171 1.670633231534401 0 1.670633231534401 15.694302493268655 0 0 0 0 40.490870743058622 -11.738831980532767 0 -11.738831980532767 18.815644159729334 0 0 0 0 4.8426826064946908 0.93422762311841723 0 0.93422762311841723 0.073098650558500178 0 0 0 0 12.863149537727566 2.8462132571849068 0 2.8462132571849068 -0.38801349827095832 0 0 0 0 15.111486870766385 9.8092902477994635 0 9.8092902477994635 -2.1619332827867646 0 0 0 0 -0.24874689237913117 11.515512593779636 0 11.515512593779636 22.162516111460032 0 0 0 0 -37.141713227087166 62.878063606574187 0 62.878063606574187 -43.235385569270193 0 0 0 0 51.571811285568401 -6.036150976703766 0 -6.036150976703766 -25.67521195013353 0 0 0 0 4.3263346597595955 1.1307198252594759 0 1.1307198252594759 -0.58571872615178222 0 0 0 0 14.757666081583011 13.986530060002405 0 13.986530060002405 3.9863803873010948 0 0 0 0 -29.809739166812506 51.561423243876561 0 51.561423243876561 -38.707529158262332 0 0 0 0 -32.804234331590123 28.068339108932378 0 28.068339108932378 -34.012053287293384 0 0 0 0 -36.249317942128982 36.703997667642852 0 36.703997667642852 -16.644522440760738 0 0 0 0 -37.787309365696274 52.604403472081003 0 52.604403472081003 -16.507613209466399 0 0 0 0 -33.208104394027032 30.487977282337852 0 30.487977282337852 -9.6154870416876292 0 0 0 0 -37.378445109425229 35.849435864007091 0 35.849435864007091 1.886043113921005 0 0 0 0 -26.942846518999431 37.547365251547944 0 37.547365251547944 -55.093638799025939 0 0 0 0 -34.70137292688014 29.150071437026554 0 29.150071437026554 -31.206692315696273 0 0 0 0 -36.44532641232945 17.823365477520838 0 17.823365477520838 -52.873881539675438 0 0 0 0 10.898502142368727 4.6143253120432277 0 4.6143253120432277 3.3654863486808426 0 0 0 0 -5.7889861104777083 -4.3225157409623876 0 -4.3225157409623876 28.518550923265529 0 0 0 0 19.659427448408678 -2.2787959541412874 0 -2.2787959541412874 12.98738637998057 0 0 0 0 10.930818867054768 1.0692995033935517 0 1.0692995033935517 14.069872240414952 0 0 0 0 12.538412789896597 5.36091365093435 0 5.36091365093435 4.0639666890282964 0 0 0 0 44.054769544280134 -80.858163897161191 0 -80.858163897161191 120.94974073861582 0 0 0 0 -7.3489997425349429 -13.82560865580319 0 -13.82560865580319 45.403404717156256 0 0 0 0 2.1480749773782009 0.78987507489341624 0 0.78987507489341624 0.28775377044070977 0 0 0 0 1.8241647491522599 0.0601884738696912 0 0.0601884738696912 0.81322359165525238 0 0 0 0 11.337090300211059 1.3962707351833359 0 1.3962707351833359 -0.51097378612737154 0 0 0 0 1.2028609882690944 -1.1415349271198816 0 -1.1415349271198816 -0.0055170674622993304 0 0 0 0 2.1824524393587694 0.40467236703891274 0 0.40467236703891274 0.047923292057568526 0 0 0 0 179.54638894245727 28.10118471629977 0 28.10118471629977 -25.055414117908299 0 0 0 0 0.012865025637438521 0.008777963553354029 0 0.008777963553354029 0.85977111769692782 0 0 0 0 -58.977674815570936 7.2854185946818006 0 7.2854185946818006 25.418951884739897 0 0 0 0 -2.5560204933572095 0.49351110465236836 0 0.49351110465236836 3.4354253953623113 0 0 0 0 2.680645071901381 -3.4036224422581691 0 -3.4036224422581691 2.3947330187288047 0 0 0 0 1.1217526856053155 -9.5849700018496478 0 -9.5849700018496478 8.5809692670153943 0 0 0 0 -4.2208745215903036 -5.5658272401208269 0 -5.5658272401208269 9.2398382449786549 0 0 0 0 -79.842587757855654 74.890306679311493 0 74.890306679311493 -14.450928390559497 0 0 0 0 -35.349796688824426 54.897599279669066 0 54.897599279669066 -15.705899436167329 0 0 0 0 -35.201705761413905 45.077873910285803 0 45.077873910285803 -2.9918320871483957 0 0 0 0 -42.971482531283982 46.285203863868901 0 46.285203863868901 1.702909968181757 0 0 0 0 -34.049809885560535 25.806909030430688 0 25.806909030430688 17.94699596673172 0 0 0 0 -21.624624973686878 23.145025045343345 0 23.145025045343345 25.80622957904734 0 0 0 0 -36.649520636390662 22.693378350610487 0 22.693378350610487 30.800973340249584 0 0 0 0 -71.561094685923308 51.330201438457607 0 51.330201438457607 18.159045105923042 0 0 0 0 -40.584595537773566 16.480229039318942 0 16.480229039318942 17.997035007087106 0 0 0 0 -60.042827070312342 9.2186567542273679 0 9.2186567542273679 37.71453598905191 0 0 0 0 14.024567473970819 -8.8568656141005704 0 -8.8568656141005704 32.984325015986997 0 0 0 0 6.4120155698619783 -16.605292232735337 0 -16.605292232735337 63.615572974609677 0 0 0 0 69.53707963693887 -12.701932595034577 0 -12.701932595034577 19.704924587550522 0 0 0 0 7.3888600977952592 -48.872394528821815 0 -48.872394528821815 11.219473343860955 0 0 0 0 19.180235486652236 -67.001883176952902 0 -67.001883176952902 -80.578058591310082 0 0 0 0 -20.973100064031314 -22.462200597458605 0 -22.462200597458605 7.0233853939867004 0 0 0 0 -151.62426040158607 26.39009600589975 0 26.39009600589975 21.199484376853775 0 0 0 0 -98.571226614236366 -68.895845521486308 0 -68.895845521486308 -19.343085710699143 0 0 0 0 160.93527110776631 47.990498762646325 0 47.990498762646325 -107.12487343646447 0 0 0 0 179.08326097280951 -27.328537110353579 0 -27.328537110353579 -20.155029688971354 0 0 0 0 89.955258706875611 -44.756668112830084 0 -44.756668112830084 -73.629484128644435 0 0 0 0 147.26170494291 19.252001606602335 0 19.252001606602335 -2.1437815780473102 0 0 0 0 93.749456799414475 -68.46894274185388 0 -68.46894274185388 19.39941046191251 0 0 0 0 134.12208346408443 -10.253383240299172 0 -10.253383240299172 102.4816071849848 0 0 0 0 269.50846764445305 28.149726156418637 0 28.149726156418637 3.6330394405922561 0 0 0 0 162.46500840497902 95.772641361761032 0 95.772641361761032 -34.915334905200595 0 0 0 0 313.36006591145997 -103.96437512363065 0 -103.96437512363065 53.182996089846938 0 0 0 0 178.74387891762308 -41.85371396442838 0 -41.85371396442838 104.2355478797308 0 0 0 0 389.99549513871898 71.880836874388933 0 71.880836874388933 74.835808553069455 0 0 0 0 134.22002700518351 -1.1777656286578804 0 -1.1777656286578804 53.550217634993714 0 0 0 0 171.6842138551583 -92.48839028689099 0 -92.48839028689099 60.735243530817456 0 0 0 0 44.414468380156904 -23.390270435647608 0 -23.390270435647608 103.57180864841962 0 0 0 0 115.9934054648329 -70.126100281902836 0 -70.126100281902836 64.974819098503303 0 0 0 0 44.983803261246067 -22.305448032473663 0 -22.305448032473663 50.61641941040034 0 0 0 0 42.078728040563874 -43.553862155642491 0 -43.553862155642491 60.744466590790694 0 0 0 0 -23.346799629100133 -3.8607359033117064 0 -3.8607359033117064 56.341541155057257 0 0 0 0 34.984926253102458 4.8022002601090037 0 4.8022002601090037 43.440536690904992 0 0 0 0 -7.7526500640378799 -6.4223251889575295 0 -6.4223251889575295 75.900231644784071 0 0 0 0 -4.8352900992031209 -4.783499994236081 0 -4.783499994236081 43.43885836951813 0 0 0 0 -22.727249620598741 -2.9820721126625358 0 -2.9820721126625358 55.024474127005078 0 0 0 0 -31.400873682403471 16.971182436097934 0 16.971182436097934 49.360737671903735 0 0 0 0 -31.554462158237584 27.632934831304283 0 27.632934831304283 19.228468925934067 0 0 0 0 -31.39860099949874 10.255304957404405 0 10.255304957404405 38.058154565132099 0 0 0 0 -28.696205753134564 11.664033383655806 0 11.664033383655806 37.908574478999071 0 0 0 0 -26.577754889382049 -2.5625440052253907 0 -2.5625440052253907 46.026650706567125 0 0 0 0 -16.856904365646187 5.9808768142811459 0 5.9808768142811459 51.199925430394615 0 0 0 0 -31.713054570747772 5.5087449759946594 0 5.5087449759946594 48.377219986126875 0 0 0 0 -29.332758825301426 -6.6017468237969297 0 -6.6017468237969297 62.978361525887522 0 0 0 0 -29.829137290304061 -11.295425123828409 0 -11.295425123828409 44.379871068336797 0 0 0 0 -4.0650537386536598 -9.5223440832010056 0 -9.5223440832010056 63.497392904793287 0 0 0 0 -7.6027953003067523 -18.242532763213603 0 -18.242532763213603 45.446737413037226 0 0 0 0 -26.780082454322837 -4.7542790941856765 0 -4.7542790941856765 45.3033503338429 0 0 0 0 35.042548329918645 -31.188583616911728 0 -31.188583616911728 -29.554119594384701 0 0 0 0 1.8192254966249948 -4.9154158664351115 0 -4.9154158664351115 8.2731343145585576 0 0 0 0 70.606203671894036 -87.423337036989324 0 -87.423337036989324 -7.5828884534967074 0 0 0 0 4.0616428407956846 -19.220062404884629 0 -19.220062404884629 19.094879378842052 0 0 0 0 -29.961351088713855 -13.594260340783876 0 -13.594260340783876 47.246987582662769 0 0 0 0 4.0354558199944677 -17.340958726530449 0 -17.340958726530449 24.963161098887213 0 0 0 0 -13.619204471935518 -1.4887538690582005 0 -1.4887538690582005 1.3172562493000441 0 0 0 0 65.1378069864586 -62.004585352512549 0 -62.004585352512549 -4.0731441203733993 0 0 0 0 71.139091079967329 -80.642925219718336 0 -80.642925219718336 42.237581631096873 0 0 0 0 46.626550743298139 -42.094695270500324 0 -42.094695270500324 38.893210979009609 0 0 0 0 55.493671135271143 -23.829915852340832 0 -23.829915852340832 43.164297538384744 0 0 0 0 168.10050167641384 105.00864446984212 0 105.00864446984212 -41.909144483924138 0 0 0 0 93.136671764266794 -39.920250582465883 0 -39.920250582465883 71.688977988903389 0 0 0 0 166.19758636549523 -14.066374151906075 0 -14.066374151906075 43.285149115440163 0 0 0 0 47.644521707348758 -86.483274733054941 0 -86.483274733054941 42.7046564156974 0 0 0 0 15.567434970856993 -3.9243910663567476 0 -3.9243910663567476 -7.562329394612334 0 0 0 0 2.8068382064483899 0.93569623062506935 0 0.93569623062506935 -1.9269374758456432 0 0 0 0 -60.642264349095058 -8.5276810606878826 0 -8.5276810606878826 57.202849599003798 0 0 0 0 -3.0623358416778501 118.54379704114444 0 118.54379704114444 103.65917250401253 0 0 0 0 18.942574615968624 4.2568850334615149 0 4.2568850334615149 -2.3886124081927846 0 0 0 0 -44.669415977026802 6.8048207652786914 0 6.8048207652786914 -31.326591078388446 0 0 0 0 -50.671488502644934 -7.9144704140326212 0 -7.9144704140326212 22.912783243078593 0 0 0 0 10.015259236036442 -4.8762621688925947 0 -4.8762621688925947 5.6353135952013478 0 0 0 0 -49.351665472029708 -3.0525179131045661 0 -3.0525179131045661 2.6378847983942251 0 0 0 0 -42.137622942682356 7.1004859353297434 0 7.1004859353297434 -20.721598437567991 0 0 0 0 -36.653248334419914 16.517800023830205 0 16.517800023830205 -34.261487718016269 0 0 0 0 -46.465020868345164 1.0604527761297504 0 1.0604527761297504 -1.5043301866298862 0 0 0 0 -36.131697398115648 20.025566633513336 0 20.025566633513336 23.187394802155723 0 0 0 0 -35.814567867259029 15.419579874775536 0 15.419579874775536 14.321881257527821 0 0 0 0 -38.498136684531346 21.933818546081739 0 21.933818546081739 5.0914144947546447 0 0 0 0 -35.939839006634429 18.05677685601313 0 18.05677685601313 -10.181744855619399 0 0 0 0 -37.760197251976933 20.326473209436699 0 20.326473209436699 -11.527980065819065 0 0 0 0 -40.719345316058025 1.9311442598127542 0 1.9311442598127542 -1.8863013454811153 0 0 0 0 -46.708060502855005 -3.0142244615551732 0 -3.0142244615551732 27.213303864924455 0 0 0 0 -42.436719751916826 8.1813079753083002 0 8.1813079753083002 11.519876684506926 0 0 0 0 -41.888993113010656 7.0346914918736729 0 7.0346914918736729 32.599543587499284 0 0 0 0 -40.38004637719132 4.5229379138395416 0 4.5229379138395416 15.423865954562643 0 0 0 0 -35.614445822779089 4.3778967393891435 0 4.3778967393891435 29.951904273181754 0 0 0 0 -32.726077303872444 -0.021422363408419187 0 -0.021422363408419187 32.326324361844854 0 0 0 0 -38.268145302776247 2.6442561031308287 0 2.6442561031308287 34.914127099722464 0 0 0 0 -34.434899331914494 -3.5269739647824281 0 -3.5269739647824281 41.795046868319332 0 0 0 0 -40.669621652690694 -12.246633285128155 0 -12.246633285128155 47.554920138540638 0 0 0 0 -41.958371761720628 -7.2051747750720097 0 -7.2051747750720097 40.778356633889416 0 0 0 0 -48.063909535296261 -9.942804975818035 0 -9.942804975818035 39.490452929095227 0 0 0 0 -43.081658122304361 -2.1812305433563779 0 -2.1812305433563779 27.35256578000326 0 0 0 0 -43.074351196060888 -7.4229423036786102 0 -7.4229423036786102 40.422314444400399 0 0 0 0 -44.262894323852379 -14.249250788788231 0 -14.249250788788231 43.13793829198039 0 0 0 0 -43.353045060764998 -8.3192842433936676 0 -8.3192842433936676 45.057830227352497 0 0 0 0 -29.325150092830881 -12.502280946245264 0 -12.502280946245264 42.244883586025935 0 0 0 0 6.7982821205814616 2.0561496147337124 0 2.0561496147337124 -1.8078960140711491 0 0 0 0 -51.736654488951899 -7.6172903308529385 0 -7.6172903308529385 38.416344409182784 0 0 0 0 -33.64192801353056 -10.608171806959945 0 -10.608171806959945 36.149301817970809 0 0 0 0 -31.245692528769723 -9.2505267234839721 0 -9.2505267234839721 35.487438331379963 0 0 0 0 -23.66152158821933 6.9554467701045724 0 6.9554467701045724 -2.7625424140223913 0 0 0 0 -46.403593304581591 4.740838172538588 0 4.740838172538588 17.73015245966053 0 0 0 0 -0.98607750830086616 -1.2395268300679874 0 -1.2395268300679874 4.1179969077877061 0 0 0 0 -64.502061686696834 189.00818295846148 0 189.00818295846148 80.711625963780875 0 0 0 0 81.463231422763783 17.766359453497444 0 17.766359453497444 -86.371047693860874 0 0 0 0 55.347579061458646 -26.094365962504114 0 -26.094365962504114 13.90963428030139 0 0 0 0 573.63007261243183 -173.04250643039268 0 -173.04250643039268 94.841477265756794 0 0 0 0 328.28365182958078 -362.0190208543554 0 -362.0190208543554 20.058285055534725 0 0 0 0 -74.331554276810493 -300.27062913392729 0 -300.27062913392729 219.80839013192599 0 0 0 0 -309.22461475861201 -26.097770859365482 0 -26.097770859365482 77.669443904189393 0 0 0 0 30.093670573696727 -191.53391142381042 0 -191.53391142381042 86.063293048641071 0 0 0 0 78.666632360022049 -196.49106815475625 0 -196.49106815475625 -11.447744275410514 0 0 0 0 97.080040994260344 -184.76346013099555 0 -184.76346013099555 -14.848616164599662 0 0 0 0 45.514399232095457 -136.0988332981151 0 -136.0988332981151 -25.106609043590652 0 0 0 0 109.43672121772397 -133.97429785380427 0 -133.97429785380427 -25.457559019067048 0 0 0 0 166.54940455316682 -164.27821924360387 0 -164.27821924360387 -58.010693784148316 0 0 0 0 -54.517710494052153 -98.957066440867038 0 -98.957066440867038 -45.353124525307067 0 0 0 0 361.5709396251832 -53.720650630505588 0 -53.720650630505588 -69.09274819318307 0 0 0 0 75.861826758264215 -22.916323348597871 0 -22.916323348597871 -72.204100043428753 0 0 0 0 -19.513752069608017 -70.69823788979852 0 -70.69823788979852 -50.337767730285123 0 0 0 0 42.264937921943783 -119.04975420606502 0 -119.04975420606502 -77.150520129289362 0 0 0 0 122.31465523414954 -143.27116883558665 0 -143.27116883558665 -37.658671402955406 0 0 0 0 119.92723022655991 -138.36719648812777 0 -138.36719648812777 -72.338620422402528 0 0 0 0 51.237579873064533 -102.90604090318629 0 -102.90604090318629 -48.59923514901493 0 0 0 0 75.273384074316709 55.918991983848059 0 55.918991983848059 24.201134366208407 0 0 0 0 -29.199507765508315 83.758886006280818 0 83.758886006280818 331.51683047626193 0 0 0 0 -90.677389517994015 -12.081367991121169 0 -12.081367991121169 100.61700316560405 0 0 0 0 -84.909607676862834 -70.335516084297041 0 -70.335516084297041 70.102461660596418 0 0 0 0 21.818564439831206 -26.792701637132225 0 -26.792701637132225 35.049710524726549 0 0 0 0 -4.7568812354463716 -4.4437770854401322 0 -4.4437770854401322 12.361511473714089 0 0 0 0 -125.34975725787808 -137.73267490877333 0 -137.73267490877333 -92.628896007125149 0 0 0 0 5.2916936650574087 -1.6529415791305269 0 -1.6529415791305269 -1.2400244482013001 0 0 0 0 -111.38015561983048 -108.05258128698642 0 -108.05258128698642 -57.986757685287557 0 0 0 0 19.623499061594543 -26.097493842406735 0 -26.097493842406735 30.029497480540439 0 0 0 0 88.348425116855651 -126.59331971649681 0 -126.59331971649681 -73.772394778379748 0 0 0 0 -313.67283738241531 -266.31257395408147 0 -266.31257395408147 140.30942062219356 0 0 0 0 -205.71144482778618 -198.30418691909199 0 -198.30418691909199 48.508627467504539 0 0 0 0 -15.79420633323025 55.129981909922208 0 55.129981909922208 171.97597248014677 0 0 0 0 78.946540981211001 -111.26704465085231 0 -111.26704465085231 84.272592195120524 0 0 0 0 -2.7435306232029575 2.0792808970461465 0 2.0792808970461465 2.6305233601093523 0 0 0 0 97.208665765982005 202.88466171048458 0 202.88466171048458 -47.39627037606553 0 0 0 0 -299.42370959968412 92.615860078695505 0 92.615860078695505 -3.8591257716907421 0 0 0 0 -172.88497600767005 -89.629266426612958 0 -89.629266426612958 -100.59991388256276 0 0 0 0 -101.8277068293246 -90.118908253985865 0 -90.118908253985865 -122.30495971641176 0 0 0 0 -91.801780139263428 -116.26555015505573 0 -116.26555015505573 -110.68002274245555 0 0 0 0 4.0804109183081891 -75.802013284675922 0 -75.802013284675922 -134.11467412207185 0 0 0 0 -50.21765717544622 -115.70098738666468 0 -115.70098738666468 -120.73194511901099 0 0 0 0 -95.183783105778275 -139.40381421442612 0 -139.40381421442612 -160.59892150652558 0 0 0 0 78.334198742435547 -82.958485817967812 0 -82.958485817967812 -183.73149698987936 0 0 0 0 86.013203713359644 -255.56220996973718 0 -255.56220996973718 -196.094285623833 0 0 0 0 -285.56135085142159 -300.51465899930037 0 -300.51465899930037 -169.20995950330871 0 0 0 0 33.089171423780499 -172.79277211132191 0 -172.79277211132191 -221.08243495561186 0 0 0 0 -0.98923639021813869 -191.06075333409819 0 -191.06075333409819 -31.170882314198224 0 0 0 0 52.439677870555897 -71.149998705347457 0 -71.149998705347457 -83.222734714517173 0 0 0 0 44.275909872292686 -69.654632674021286 0 -69.654632674021286 -17.501349498997115 0 0 0 0 26.917857525288127 -61.124129498243292 0 -61.124129498243292 -58.341208543519429 0 0 0 0 -12.026912399072899 -66.303883798896095 0 -66.303883798896095 -89.489563049798562 0 0 0 0 12.382159726803366 -89.108670345904557 0 -89.108670345904557 -110.66071698733413 0 0 0 0 -1.0838980350235943 -58.640464751346826 0 -58.640464751346826 -86.98061966412024 0 0 0 0 31.852164899071795 -23.593755213105851 0 -23.593755213105851 -129.20977371716538 0 0 0 0 26.545997237441043 -19.487706695386976 0 -19.487706695386976 -118.73695935943738 0 0 0 0 -45.962816257931991 32.649315795366874 0 32.649315795366874 -68.566984478551944 0 0 0 0 31.692613230022289 -21.18465492104977 0 -21.18465492104977 -32.765357824346211 0 0 0 0 -233.60473970232124 -129.93220854897061 0 -129.93220854897061 47.594311381392032 0 0 0 0 3500.5845260977367 -359.91186591812198 0 -359.91186591812198 19.669870126800173 0 0 0 0 343.31341343573149 -96.823229249863743 0 -96.823229249863743 -74.284450332434062 0 0 0 0 179.08603018194844 -205.93157096326092 0 -205.93157096326092 31.350861732435988 0 0 0 0 330.7998804099625 17.347086902236697 0 17.347086902236697 -35.903887132379168 0 0 0 0 268.51453807100188 40.170828985237222 0 40.170828985237222 19.21496725838324 0 0 0 0 352.81939093035908 -132.68213346938666 0 -132.68213346938666 95.913985234941833 0 0 0 0 168.6064687481994 46.062892386293242 0 46.062892386293242 2.5801874787171073 0 0 0 0 3473.908634964464 -314.78523277234825 0 -314.78523277234825 -1.2297950596656841 0 0 0 0 301.24244355425617 6.8688513913797706 0 6.8688513913797706 -177.74255726519277 0 0 0 0 9.6721653984034219 25.972954774298884 0 25.972954774298884 -11.484257893557308 0 0 0 0 247.23907540472283 22.804996077940814 0 22.804996077940814 -31.50131436018728 0 0 0 0 248.25746010196599 12.153398763837231 0 12.153398763837231 -19.534861878331867 0 0 0 0 251.33988851615868 18.307065657807925 0 18.307065657807925 -37.010256674629545 0 0 0 0 3522.623689423237 -42.402648277359752 0 -42.402648277359752 -374.63926860676969 0 0 0 0 249.2549894635813 23.710201704486735 0 23.710201704486735 -50.945751046700025 0 0 0 0 3163.2174294906872 -158.49823545802599 0 -158.49823545802599 -78.575141878724949 0 0 0 0 9.2420233669327523 33.792226478939966 0 33.792226478939966 -28.07773085302054 0 0 0 0 180.20159355163923 -30.031759550941388 0 -30.031759550941388 -42.696936180731427 0 0 0 0 179.9879935313802 16.438240952236811 0 16.438240952236811 -18.528503560582067 0 0 0 0 192.19806815742049 -19.690093194787551 0 -19.690093194787551 -63.504482699060645 0 0 0 0 130.73425243777456 -48.735271661499155 0 -48.735271661499155 -43.274484026720529 0 0 0 0 122.78723605601408 -50.227343769323852 0 -50.227343769323852 -77.658371943770362 0 0 0 0 112.60583770056837 -18.47900048777683 0 -18.47900048777683 -51.548406059437184 0 0 0 0 43.447481112962123 -63.570773679813101 0 -63.570773679813101 -36.179107568928885 0 0 0 0 79.079391637118533 -109.53447716096525 0 -109.53447716096525 -10.223638781500085 0 0 0 0 156.76403728040168 -78.104456261679843 0 -78.104456261679843 -34.784911424905658 0 0 0 0 165.81130096213019 -99.836384775206625 0 -99.836384775206625 -49.118893207622023 0 0 0 0 172.44024765871291 -105.66528841675517 0 -105.66528841675517 -50.531523338595434 0 0 0 0 89.328150849825761 -109.04343662277142 0 -109.04343662277142 -37.836440499304445 0 0 0 0 229.35101144964574 -32.060170069330525 0 -32.060170069330525 -59.823673965980561 0 0 0 0 232.62903323337378 25.445373925545027 0 25.445373925545027 -30.506330510002954 0 0 0 0 211.46187604777515 -29.926253064073535 0 -29.926253064073535 -42.275927704367859 0 0 0 0 -142.49564873287454 130.58478480739086 0 130.58478480739086 -47.258530827253253 0 0 0 0 19.840413308440475 2.3333834212519946 0 2.3333834212519946 9.9691969913745595 0 0 0 0 -34.881029810843756 55.178958546270024 0 55.178958546270024 -16.022786091390003 0 0 0 0 204.75598140980583 89.398767323043899 0 89.398767323043899 34.005868673562873 0 0 0 0 -0.38635850439477792 2.2009753612314285 0 2.2009753612314285 -2.1722921548527525 0 0 0 0 67.345166460363544 24.960361785717993 0 24.960361785717993 -36.157642937866285 0 0 0 0 199.02715562989761 103.40213805143321 0 103.40213805143321 -0.17720356886047739 0 0 0 0 53.318567810230888 3.0932680901224217 0 3.0932680901224217 8.3601498351721375 0 0 0 0 228.19852181756869 48.801255654649822 0 48.801255654649822 -34.483866445918011 0 0 0 0 0.12633858542011467 0.524015469861979 0 0.524015469861979 -0.66024549567489377 0 0 0 0 57.640922472026432 17.546150475500696 0 17.546150475500696 -53.713544614079041 0 0 0 0 62.63841695335941 16.602704929936873 0 16.602704929936873 -15.346439179642061 0 0 0 0 11.790700320474571 7.8757550649472421 0 7.8757550649472421 -4.5097421608907382 0 0 0 0 -3.0909050375630613 5.0743847672671256 0 5.0743847672671256 -0.0017359643875384217 0 0 0 0 173.68521731020883 -53.056592926021992 0 -53.056592926021992 0.84055344000910281 0 0 0 0 0.58858897654485531 0.26641074840944157 0 0.26641074840944157 0.13211392677962508 0 0 0 0 -0.67654376023710938 0.40856258080814323 0 0.40856258080814323 -0.8806988670513558 0 0 0 0 6.2230233916634461 5.4938286029372216 0 5.4938286029372216 -0.0027959478808719613 0 0 0 0 0.89603116895008839 1.3906984650784864 0 1.3906984650784864 0.17748504322465719 0 0 0 0 0.13203603849295575 1.0860077426947328 0 1.0860077426947328 -2.0114763767319919 0 0 0 0 93.74319068393379 -36.269607820650009 0 -36.269607820650009 -4.8848570449861768 0 0 0 0 66.243735696582007 33.494755237005734 0 33.494755237005734 23.831173628551824 0 0 0 0 1.1877385234838584 5.8671892617162769 0 5.8671892617162769 -0.88069886704959721 0 0 0 0 139.81733613755205 88.747495374358891 0 88.747495374358891 17.704977063741353 0 0 0 0 138.75044672153308 95.437553828736327 0 95.437553828736327 21.759339826736777 0 0 0 0 102.42562867873221 126.81770810447108 0 126.81770810447108 59.232787834764963 0 0 0 0 233.89625568546762 100.03038844923691 0 100.03038844923691 -2.0009648451834892 0 0 0 0 86.694625144482416 87.274034049096855 0 87.274034049096855 38.078859055956627 0 0 0 0 107.64096426674223 60.639588677298576 0 60.639588677298576 -28.731886913208683 0 0 0 0 76.759291986352764 175.97323143534177 0 175.97323143534177 -0.32360036147009424 0 0 0 0 -0.21420635833237611 0.41727211567942391 0 0.41727211567942391 -0.5224121504551863 0 0 0 0 -108.66782716644957 40.065572710509798 0 40.065572710509798 76.072778527683738 0 0 0 0 522.29921725933673 158.95387591803103 0 158.95387591803103 1.0547100875042958 0 0 0 0 285.07141291759035 94.720430995551212 0 94.720430995551212 -41.814862575386712 0 0 0 0 287.80367269856288 65.212300736267977 0 65.212300736267977 74.816722818488643 0 0 0 0 453.41261017296347 97.096637158710621 0 97.096637158710621 -23.666538495690929 0 0 0 0 235.45140343315143 84.14899399850367 0 84.14899399850367 15.342368636218339 0 0 0 0 336.67994202808495 -20.387461051229977 0 -20.387461051229977 -21.251340833239283 0 0 0 0 338.18645832678885 53.019353755562861 0 53.019353755562861 -17.144902616993477 0 0 0 0 306.4256586596166 -16.862765583120108 0 -16.862765583120108 -42.976195773469954 0 0 0 0 220.65511567660724 55.845870372759236 0 55.845870372759236 -17.113808528846256 0 0 0 0 177.09895542757295 -25.066007019850531 0 -25.066007019850531 -41.497262928307237 0 0 0 0 213.04146509293059 22.961169151387708 0 22.961169151387708 -16.551786956594697 0 0 0 0 179.89410749620583 33.295399071360748 0 33.295399071360748 -16.705861951197676 0 0 0 0 162.68973293320232 83.979400150770857 0 83.979400150770857 27.143786945856846 0 0 0 0 139.70335256676481 103.3116871953099 0 103.3116871953099 48.955138892330979 0 0 0 0 134.9401283277839 63.02335069687615 0 63.02335069687615 52.750572558713017 0 0 0 0 138.68513520642591 58.026132413723531 0 58.026132413723531 0.3399540714028717 0 0 0 0 104.87174232673715 93.136890046250755 0 93.136890046250755 29.33521223308685 0 0 0 0 117.29054540548532 60.052916537219062 0 60.052916537219062 5.909861160663695 0 0 0 0 101.25820330734996 6.528827387212857 0 6.528827387212857 -54.709393447084494 0 0 0 0 58.451666836088407 55.947544125286868 0 55.947544125286868 -95.804232380822441 0 0 0 0 138.76294379998581 -11.380247610564197 0 -11.380247610564197 -79.471935576239503 0 0 0 0 102.70295598835219 -20.135060230918953 0 -20.135060230918953 -32.840869417228078 0 0 0 0 92.279742746963166 -102.81860546215012 0 -102.81860546215012 -59.468959291138049 0 0 0 0 185.71058153882041 -186.46227354650784 0 -186.46227354650784 -55.540167054293534 0 0 0 0 225.71240303278319 -180.22068842543911 0 -180.22068842543911 -101.37964647277204 0 0 0 0 256.40871437291207 -226.36680561819242 0 -226.36680561819242 -106.7055589193119 0 0 0 0 215.71166032905603 -172.56955524969214 0 -172.56955524969214 -65.743743411353648 0 0 0 0 273.54105767954024 -159.08038194449159 0 -159.08038194449159 -114.59824111812406 0 0 0 0 241.65573047414364 -110.47492552963328 0 -110.47492552963328 -57.483811215720266 0 0 0 0 270.20699592895107 -88.502907027063998 0 -88.502907027063998 -59.984750158868053 0 0 0 0 271.5938304826559 -191.94567558537881 0 -191.94567558537881 131.04089458164086 0 0 0 0 324.80435061102617 -3.2526350730837521 0 -3.2526350730837521 -34.171069024652525 0 0 0 0 341.92116930857992 -121.72683380761379 0 -121.72683380761379 -66.896200588312468 0 0 0 0 473.22233936290286 -97.64909785460992 0 -97.64909785460992 -65.928975703324113 0 0 0 0 399.75458966742735 15.71308378679629 0 15.71308378679629 -6.7790532099020879 0 0 0 0 681.57261269968149 -419.53867869634223 0 -419.53867869634223 184.21995666066113 0 0 0 0 -77.574357135192258 219.00800976558287 0 219.00800976558287 -0.97023005059890821 0 0 0 0 460.56800815976931 -60.790799523669307 0 -60.790799523669307 38.147217445544356 0 0 0 0 827.5982411322766 -18.053103450277309 0 -18.053103450277309 -80.152655462529836 0 0 0 0 3.5455163925860802 0.53355891385879772 0 0.53355891385879772 -0.62657652831767274 0 0 0 0 589.05463967373362 210.55736781868191 0 210.55736781868191 2.1208492575891209 0 0 0 0 -183.1788309094045 -107.82227159533663 0 -107.82227159533663 14.288334453892503 0 0 0 0 220.25407452199579 -85.758270811335279 0 -85.758270811335279 -76.115100531798021 0 0 0 0 257.48443054145901 -133.81007994162246 0 -133.81007994162246 25.91371503858079 0 0 0 0 6.4949443828885478 1.3935700546239786 0 1.3935700546239786 -1.6292898489288545 0 0 0 0 473.22024861929822 106.28618528424198 0 106.28618528424198 -161.48140509342886 0 0 0 0 370.74660813727678 -349.48111486196905 0 -349.48111486196905 122.80133093885479 0 0 0 0 317.78089232079219 63.020016183717438 0 63.020016183717438 -0.9924220080882491 0 0 0 0 848.64507060567848 -445.63326861370336 0 -445.63326861370336 -54.202886497244663 0 0 0 0 1.6798168258392252 -0.29855285188512343 0 -0.29855285188512343 0.0036146438370213618 0 0 0 0 -227.12473993352614 -43.303857986654577 0 -43.303857986654577 38.491632712927512 0 0 0 0 0.54148491001842558 0.020100670898770545 0 0.020100670898770545 -0.019102134183757044 0 0 0 0 5.2370814807995316 -0.30758772342060325 0 -0.30758772342060325 -0.17419723116601132 0 0 0 0 413.96497305543744 -574.82342750940029 0 -574.82342750940029 406.60006177396991 0 0 0 0 193.83552141487598 -244.00717323952938 0 -244.00717323952938 268.17152457912903 0 0 0 0 48.977593153007547 -143.58720580233577 0 -143.58720580233577 230.91646768660689 0 0 0 0 41.442885672237026 34.901936551038034 0 34.901936551038034 76.391429222295073 0 0 0 0 345.55347231737687 -182.20330206465758 0 -182.20330206465758 68.736800197282037 0 0 0 0 359.48909326354624 -332.47168439011716 0 -332.47168439011716 185.98895488885432 0 0 0 0 249.24077807474532 -150.48333996395081 0 -150.48333996395081 82.910296605383337 0 0 0 0 174.11053732548316 250.16512484318082 0 250.16512484318082 -331.17205018644108 0 0 0 0 553.18469466465467 -478.35501941383779 0 -478.35501941383779 188.42734297950062 0 0 0 0 687.79658786838991 -207.10690990281739 0 -207.10690990281739 -26.781305984430787 0 0 0 0 3.8165248954057347 0.44652646245850747 0 0.44652646245850747 -1.3053733177367763 0 0 0 0 71.607333890991868 -61.044300076489662 0 -61.044300076489662 -127.8335222451442 0 0 0 0 291.43767378148914 -29.02638745579759 0 -29.02638745579759 -135.17507612378631 0 0 0 0 415.6071681897738 -122.77869955458073 0 -122.77869955458073 -156.93762009517582 0 0 0 0 535.51887940951565 45.720892282913724 0 45.720892282913724 -41.108364731849406 0 0 0 0 543.76089705481718 77.449013757069224 0 77.449013757069224 -276.8110023137632 0 0 0 0 2.8648761578626818 -0.79430555552129078 0 -0.79430555552129078 0.12739355544213105 0 0 0 0 509.65978016334702 256.37471282415913 0 256.37471282415913 25.140070139534146 0 0 0 0 566.17320078614284 206.43959269587776 0 206.43959269587776 39.600305010407851 0 0 0 0 598.86766982713016 88.617832909640128 0 88.617832909640128 277.5133731167989 0 0 0 0 572.17795572258547 -35.199908111778683 0 -35.199908111778683 -92.375689117747697 0 0 0 0 558.61047471794882 -4.4610881650814918 0 -4.4610881650814918 -132.92031050159039 0 0 0 0 517.68059502264077 -273.80804749623326 0 -273.80804749623326 -100.82117473318431 0 0 0 0 1084.4983779062459 257.70542897549331 0 257.70542897549331 123.4469947649286 0 0 0 0 1000.9546382924309 90.273822351962735 0 90.273822351962735 -87.141965439052029 0 0 0 0 644.70739895582665 -352.0287297140498 0 -352.0287297140498 18.616163405025418 0 0 0 0 872.74296022426279 444.19146110552151 0 444.19146110552151 712.30454654191271 0 0 0 0 771.59963967415388 146.14607382620579 0 146.14607382620579 998.25777762683538 0 0 0 0 988.03888124449077 369.638903567196 0 369.638903567196 -31.646865763571441 0 0 0 0 1180.6559936782287 -139.27230953380172 0 -139.27230953380172 145.12752558017473 0 0 0 0 583.10828113401658 -227.05256254245751 0 -227.05256254245751 314.18968449212912 0 0 0 0 833.9753933058164 71.895047980331356 0 71.895047980331356 141.87834316475437 0 0 0 0 348.44552424229914 -98.033999075108113 0 -98.033999075108113 310.77131479502498 0 0 0 0 4.0304772653398686 3.9604884373325149 0 3.9604884373325149 296.12328367726695 0 0 0 0 120.28532214296865 -201.34926890342558 0 -201.34926890342558 279.0969202460098 0 0 0 0 278.48167272979845 209.37659143320064 0 209.37659143320064 -12.917188204223748 0 0 0 0 18.212653074465635 -18.882114891339583 0 -18.882114891339583 18.780491085722854 0 0 0 0 485.41993672818353 -16.020531513633387 0 -16.020531513633387 -138.27088856097635 0 0 0 0 136.26449955916905 -271.23616317689562 0 -271.23616317689562 27.706794794588177 0 0 0 0 207.68266589642735 -316.33388712425165 0 -316.33388712425165 -266.77421612376997 0 0 0 0 -51.791972050181357 -92.900886041671811 0 -92.900886041671811 -182.8445081082362 0 0 0 0 -218.48683472574339 -104.02189943334156 0 -104.02189943334156 5.2502735324728746 0 0 0 0 543.30189299797348 61.412770389613001 0 61.412770389613001 13.821726751295728 0 0 0 0 6.155432572723555 -6.8181127554792482 0 -6.8181127554792482 8.1272585314685859 0 0 0 0 986.35362726318999 221.7881124972622 0 221.7881124972622 -73.17091635239359 0 0 0 0 1052.8254228375881 -227.05449012498434 0 -227.05449012498434 176.30733235839648 0 0 0 0 667.05658036706154 297.27934035521412 0 297.27934035521412 -87.694854670619748 0 0 0 0 800.64199011043092 113.08461173324224 0 113.08461173324224 -108.92067663956459 0 0 0 0 781.18965614645276 229.65863486271473 0 229.65863486271473 -119.34528389155685 0 0 0 0 896.71888305858738 140.25199466796767 0 140.25199466796767 -129.61405469154943 0 0 0 0 697.88570930011338 63.263031196076099 0 63.263031196076099 -143.4914801550367 0 0 0 0 452.78550520568388 333.80543146639593 0 333.80543146639593 -26.087514873420901 0 0 0 0 216.37777757951699 179.11001402340548 0 179.11001402340548 89.039534159259802 0 0 0 0 416.13752578676576 170.00399667878813 0 170.00399667878813 64.063518261130412 0 0 0 0 547.28416114959691 3.4936958677615166 0 3.4936958677615166 162.52186764280827 0 0 0 0 117.87094392937433 37.869511242022554 0 37.869511242022554 453.02908924498661 0 0 0 0 88.637370917218504 166.94320829540675 0 166.94320829540675 173.67346213583187 0 0 0 0 8.502424591621093 69.041428628713106 0 69.041428628713106 255.86450161406287 0 0 0 0 22.207495089360123 1.1367451990113728 0 1.1367451990113728 -0.49271806371457572 0 0 0 0 86.488776199585118 1.2673534581696231 0 1.2673534581696231 -315.58878467674685 0 0 0 0 9.0081000521215628 0.49348225859028316 0 0.49348225859028316 0.060904364834336921 0 0 0 0 444.93464795347245 426.75913119215716 0 426.75913119215716 144.68430359889362 0 0 0 0 -116.60013269113551 126.19730773791389 0 126.19730773791389 164.29526148534774 0 0 0 0 114.36480537675379 -247.13453566713201 0 -247.13453566713201 88.783263902047338 0 0 0 0 29.666545824435161 -29.68461845525556 0 -29.68461845525556 -100.71380719797071 0 0 0 0 103.72306378458597 -70.862633528039169 0 -70.862633528039169 -313.52832800298438 0 0 0 0 61.981155906280037 -67.847989050962042 0 -67.847989050962042 -119.20002674979514 0 0 0 0 -17.217171641081222 -11.034166681718489 0 -11.034166681718489 -144.58609134649168 0 0 0 0 141.58738931822882 -57.776544079433734 0 -57.776544079433734 -271.58491397422074 0 0 0 0 111.52806445267561 76.414735002447742 0 76.414735002447742 -425.49056831200005 0 0 0 0 27.960212044373918 1.3553642770839023 0 1.3553642770839023 -0.74795927848640098 0 0 0 0 100.67220025671122 122.52810940184031 0 122.52810940184031 -358.87058626516387 0 0 0 0 -55.145267108047847 93.596457732071826 0 93.596457732071826 64.85534233461749 0 0 0 0 35.808643988279073 83.842873833495048 0 83.842873833495048 64.709988477454317 0 0 0 0 55.154459533099725 131.45443901843953 0 131.45443901843953 140.36510376102797 0 0 0 0 195.71014210251451 -53.585384572169005 0 -53.585384572169005 156.52926249313856 0 0 0 0 45.184620980653563 144.26280457449684 0 144.26280457449684 109.17087131671701 0 0 0 0 55.882447721010976 -43.288707056483929 0 -43.288707056483929 -134.27026103765184 0 0 0 0 72.811212342669023 -45.845990477914711 0 -45.845990477914711 -140.71290957329552 0 0 0 0 455.87942844872305 -51.290546330113557 0 -51.290546330113557 -143.06130328814561 0 0 0 0 -185.52415794112312 -204.91772397803447 0 -204.91772397803447 72.258318700651202 0 0 0 0 2.510397235587817 -2.1361037129357072 0 -2.1361037129357072 1.6072378963931993 0 0 0 0 -103.45411326595058 -163.0244897616144 0 -163.0244897616144 6.8506518348544887 0 0 0 0 47.330188997846562 -271.48642310697505 0 -271.48642310697505 75.77554749045612 0 0 0 0 -13.243917699786834 -189.02817276701398 0 -189.02817276701398 -4.0347876667942728 0 0 0 0 -29.64812241985419 -137.95137598188256 0 -137.95137598188256 -107.32684439822697 0 0 0 0 30.923383187269792 -15.287307817701048 0 -15.287307817701048 -398.72325164295216 0 0 0 0 -183.98089969868306 59.941713494503347 0 59.941713494503347 -333.15594197134044 0 0 0 0 -22.561270505248103 -118.18047136831501 0 -118.18047136831501 -89.645044899919412 0 0 0 0 68.722270070429659 -38.954883700706432 0 -38.954883700706432 -335.65501672103255 0 0 0 0 5.938919265120461 -2.2988621047342548 0 -2.2988621047342548 -3.6452163762700858 0 0 0 0 177.5759995419794 -137.37358328516189 0 -137.37358328516189 -203.45846855540594 0 0 0 0 -14.385260821074553 -5.7507300739262064 0 -5.7507300739262064 -229.02924718750364 0 0 0 0 146.28113957046298 -63.974334371823261 0 -63.974334371823261 -394.52065171739241 0 0 0 0 28.569717504872699 1.8369957165155126 0 1.8369957165155126 -0.38871050722151207 0 0 0 0 55.343148633881356 -134.62522577000368 0 -134.62522577000368 -235.55107318098931 0 0 0 0 207.51664546519896 77.815941761303066 0 77.815941761303066 -334.58333931626885 0 0 0 0 -0.3756969337896976 1.062405164811679 0 1.062405164811679 -1.2672263492678324 0 0 0 0 101.03306184249232 -51.331732668101154 0 -51.331732668101154 -81.717183781979088 0 0 0 0 -210.73291326761682 201.31504271777487 0 201.31504271777487 -119.18001537865212 0 0 0 0 18.092594696736342 173.73521934699446 0 173.73521934699446 -244.54769430611759 0 0 0 0 -43.908101042499766 260.1079825653735 0 260.1079825653735 -349.23682528557799 0 0 0 0 149.91533986269496 123.98513071180764 0 123.98513071180764 99.817577389453618 0 0 0 0 266.2233695323448 5.4774831735504677 0 5.4774831735504677 39.884493571353687 0 0 0 0 279.68392503891664 19.524212959467832 0 19.524212959467832 47.356672685426361 0 0 0 0 648.41712366022693 25.365276880328679 0 25.365276880328679 39.412308352053515 0 0 0 0 270.92348128720187 152.24519685257889 0 152.24519685257889 208.5721004004406 0 0 0 0 183.71187666801416 33.31411306814806 0 33.31411306814806 111.46783968981481 0 0 0 0 151.03710522699112 95.368752954265233 0 95.368752954265233 76.486221457703323 0 0 0 0 452.22966709327738 88.427376705003553 0 88.427376705003553 -13.640353673443087 0 0 0 0 455.6593211933523 12.601235661878562 0 12.601235661878562 -19.362141260247427 0 0 0 0 345.12762511496112 -53.328416121536861 0 -53.328416121536861 166.80408195140626 0 0 0 0 471.38692466290377 1.2687525760906055 0 1.2687525760906055 -11.833794506734648 0 0 0 0 340.42212533554994 193.69161970317367 0 193.69161970317367 -22.67168093898681 0 0 0 0 -18.781560098039336 252.24652717906031 0 252.24652717906031 -10.788570769249191 0 0 0 0 33.835262131593481 136.70970247845662 0 136.70970247845662 83.605632728017554 0 0 0 0 25.186405677333823 136.0059022798888 0 136.0059022798888 140.0181766986326 0 0 0 0 57.629742535289552 22.92796092042434 0 22.92796092042434 -189.28897578159695 0 0 0 0 77.306900153547758 109.3572714146801 0 109.3572714146801 -261.37644728996452 0 0 0 0 8.9281784431938149 3.2921335421686564 0 3.2921335421686564 0.93297301439765379 0 0 0 0 517.87595793989021 -301.92118597267358 0 -301.92118597267358 133.40465068694493 0 0 0 0 4.0684124252354081 1.0805532269017135 0 1.0805532269017135 0.18312798972315036 0 0 0 0 439.17707803579106 -150.39463914835335 0 -150.39463914835335 1.099410734796038 0 0 0 0 356.19581381088938 -178.32151316812224 0 -178.32151316812224 18.798048639770172 0 0 0 0 242.31640899165359 -205.405844764432 0 -205.405844764432 99.667808097375428 0 0 0 0 139.99036100578087 17.23779660104816 0 17.23779660104816 -22.33918048202122 0 0 0 0 97.645969068893464 -40.566776765481904 0 -40.566776765481904 35.425506518221482 0 0 0 0 359.97162366469274 -126.05953305827256 0 -126.05953305827256 34.067639521505583 0 0 0 0 184.41881916257262 47.208498715734322 0 47.208498715734322 12.334193023682019 0 0 0 0 -17.40639235738854 19.222451600937887 0 19.222451600937887 8.4401472621948415 0 0 0 0 41.00387798412703 -30.712157885116767 0 -30.712157885116767 25.693864651353806 0 0 0 0 23.878945491625927 -5.7726630516760906 0 -5.7726630516760906 -95.664093014218224 0 0 0 0 14.109773695553201 2.4602752016897966 0 2.4602752016897966 -2.6416170077673735 0 0 0 0 -21.7282750220038 -0.27149265268258205 0 -0.27149265268258205 -15.432184560877431 0 0 0 0 26.47942750704533 11.499796410334227 0 11.499796410334227 14.456252294707156 0 0 0 0 14.087078888507676 -16.603723773888532 0 -16.603723773888532 -93.876914662767632 0 0 0 0 18.523767907037836 -30.444154478524126 0 -30.444154478524126 -25.928800157760634 0 0 0 0 3.9974444459367078 -92.440524278760222 0 -92.440524278760222 -208.88291882237763 0 0 0 0 160.32081666342856 76.31850431970156 0 76.31850431970156 -210.30875896390864 0 0 0 0 3.9024140471301507 21.771329852819861 0 21.771329852819861 -228.53364572628197 0 0 0 0 49.508602062807768 78.281809938688639 0 78.281809938688639 -33.345385778053242 0 0 0 0 86.182522662304109 185.68122582741285 0 185.68122582741285 8.0627903899074909 0 0 0 0 89.538345350942109 211.907296380395 0 211.907296380395 95.672936858889898 0 0 0 0 35.910856225549651 156.79547407662369 0 156.79547407662369 173.11168138568792 0 0 0 0 140.63497131317854 157.87486224185989 0 157.87486224185989 -55.445612227988931 0 0 0 0 213.20472968267495 -83.858066536079406 0 -83.858066536079406 1068.4296942608689 0 0 0 0 122.84920720636728 284.006922559141 0 284.006922559141 218.27514882164837 0 0 0 0 304.88191746213033 -81.20503001872305 0 -81.20503001872305 -1061.2793721195831 0 0 0 0 272.92249641568924 206.70249746148784 0 206.70249746148784 -155.6125700037378 0 0 0 0 129.72358231810358 -10.778500897316064 0 -10.778500897316064 -335.45722328934107 0 0 0 0 -278.06681300440687 -319.74832003658753 0 -319.74832003658753 -302.55969925017303 0 0 0 0 24.47045819775667 163.90471693599011 0 163.90471693599011 -213.62318547355426 0 0 0 0 -0.68267119929789999 2.0417130501717224 0 2.0417130501717224 -9.7386538506852265 0 0 0 0 319.73418486129958 831.5916602140403 0 831.5916602140403 -41.287695340248661 0 0 0 0 -59.667422303551575 -663.88953546463654 0 -663.88953546463654 553.56850181738673 0 0 0 0 419.66251612559381 -1001.5585432116929 0 -1001.5585432116929 -326.85354176155761 0 0 0 0 -205.30614746472565 -230.9578265465654 0 -230.9578265465654 453.73042955011795 0 0 0 0 -62.202176997248898 -329.90828797766153 0 -329.90828797766153 238.59513957435706 0 0 0 0 -92.826138796954183 -509.98698488263176 0 -509.98698488263176 -98.423683604842608 0 0 0 0 157.40542095765704 -274.74322309587615 0 -274.74322309587615 -184.93795382682993 0 0 0 0 265.55351951236662 -180.94161112878646 0 -180.94161112878646 -861.44307537899931 0 0 0 0 12.351758289550617 -42.442814655791523 0 -42.442814655791523 -37.386182250083039 0 0 0 0 12.972002522627008 -26.742499175739795 0 -26.742499175739795 -40.930002359576974 0 0 0 0 42.233653933391906 -42.614792109905466 0 -42.614792109905466 -54.959874813290298 0 0 0 0 28.403851798515632 -13.659294658551531 0 -13.659294658551531 -1.0075757283997131 0 0 0 0 87.376958774693776 -31.966626846547115 0 -31.966626846547115 -61.97274247270343 0 0 0 0 9.5351236943574094 3.0597582642915029 0 3.0597582642915029 -28.144206422498669 0 0 0 0 50.026700044429163 -12.379982289448549 0 -12.379982289448549 -103.2064140947848 0 0 0 0 58.730443626336637 -18.332045052824469 0 -18.332045052824469 -47.630835981706696 0 0 0 0 35.760578079964034 -31.941812008300985 0 -31.941812008300985 -21.135334847589547 0 0 0 0 20.651592274751636 -5.778358230103585 0 -5.778358230103585 -19.161949398175793 0 0 0 0 20.395648773245682 -1.7886220390399572 0 -1.7886220390399572 -19.260749253497757 0 0 0 0 30.481750016492153 -3.1915760799526254 0 -3.1915760799526254 -12.72262188768218 0 0 0 0 17.228925100818742 -4.4424833615139505 0 -4.4424833615139505 -19.427183076878464 0 0 0 0 7.9012561331037432 -3.9005131632038683 0 -3.9005131632038683 -1.1609238288510824 0 0 0 0 15.915255661697302 -23.44867393688628 0 -23.44867393688628 8.8812734793400523 0 0 0 0 48.461949076088786 -4.4633195829164833 0 -4.4633195829164833 9.8385057307677926 0 0 0 0 -27.455606259463821 -44.770780082570127 0 -44.770780082570127 -47.684407374289549 0 0 0 0 7.9494357456059603 -4.4339417366346368 0 -4.4339417366346368 -15.028562259558413 0 0 0 0 9.4569475356844919 0.38431368627396978 0 0.38431368627396978 -3.2982947619194363 0 0 0 0 33.920854951604269 2.0783771429796616 0 2.0783771429796616 -43.212392682258724 0 0 0 0 19.449093664181419 -29.331593715266536 0 -29.331593715266536 1.7280406477675569 0 0 0 0 25.643005778460065 -11.037331925865146 0 -11.037331925865146 -63.798256081745421 0 0 0 0 17.642247507945285 5.9933913113600283 0 5.9933913113600283 -68.25830795760703 0 0 0 0 10.193036528620382 2.5319186439005001 0 2.5319186439005001 -3.8827355322786659 0 0 0 0 -40.430978519492783 -11.734641150487732 0 -11.734641150487732 10.452052998571162 0 0 0 0 9.7044142262311652 -1.1337649718980174 0 -1.1337649718980174 0.48255458393032313 0 0 0 0 54.221277051934337 -7.8738204948244288 0 -7.8738204948244288 -21.482338685847285 0 0 0 0 254.55153453307867 -72.947013849725408 0 -72.947013849725408 61.552891939358233 0 0 0 0 -52.816918510718097 -47.405791247671914 0 -47.405791247671914 25.312351340493478 0 0 0 0 -41.015802341891686 -5.3144552715102691 0 -5.3144552715102691 57.297540283285343 0 0 0 0 -387.53264630697959 -197.918125082806 0 -197.918125082806 -76.331811933205245 0 0 0 0 177.54591845133109 142.44132504194749 0 142.44132504194749 -150.76512659115815 0 0 0 0 2.7175280847425825 1.152063284787296 0 1.152063284787296 0.72589640084409446 0 0 0 0 88.544916706447111 -3.0770679629866891 0 -3.0770679629866891 -1.1320945642505649 0 0 0 0 147.74733118016957 1.0449616473664491 0 1.0449616473664491 -16.064792542871146 0 0 0 0 15.81906373839089 -10.097093103725754 0 -10.097093103725754 -8.7093966687456472 0 0 0 0 97.739417114153724 -0.6456577612990082 0 -0.6456577612990082 -5.7757210628304385 0 0 0 0 117.91574383302577 -17.7313626957216 0 -17.7313626957216 -14.452978734863336 0 0 0 0 103.34176189270798 -8.0693894004428657 0 -8.0693894004428657 -4.6026049602846015 0 0 0 0 114.33706318298937 38.790128816516471 0 38.790128816516471 -80.793884312705472 0 0 0 0 31.217180654341064 49.612504047267862 0 49.612504047267862 -38.151462036573776 0 0 0 0 273.00401613717986 -8.5180288633404189 0 -8.5180288633404189 -81.846913048878662 0 0 0 0 126.28359868827829 78.313477273778972 0 78.313477273778972 -66.551953076659402 0 0 0 0 89.940900810921448 13.370022798158629 0 13.370022798158629 -70.2465375144277 0 0 0 0 -101.41830977909558 142.96493000776695 0 142.96493000776695 -22.057474566057863 0 0 0 0 131.15690302636358 -351.85482352483541 0 -351.85482352483541 336.27240154591368 0 0 0 0 5.2781567691449709 -8.0277246030676359 0 -8.0277246030676359 -4.2259912866600073 0 0 0 0 48.651692780382291 -71.370336082478474 0 -71.370336082478474 49.87560877110127 0 0 0 0 23.372609830999863 -8.1126106013853132 0 -8.1126106013853132 -19.073464137472456 0 0 0 0 140.50396618500235 -140.35031093397902 0 -140.35031093397902 -131.77189864357024 0 0 0 0 13.79002639453438 -8.0645890231910755 0 -8.0645890231910755 -9.7657996711051158 0 0 0 0 22.303587038644764 -4.1052205101555046 0 -4.1052205101555046 -20.95598872770006 0 0 0 0 30.183396169984917 -3.5091187780898281 0 -3.5091187780898281 -22.698849658600011 0 0 0 0 6.5602397711627418 -2.0736814667234285 0 -2.0736814667234285 -18.250615838465819 0 0 0 0 13.7223255799546 1.9225952235035493 0 1.9225952235035493 -3.7882517866132179 0 0 0 0 22.360454832392861 -6.0133527770308319 0 -6.0133527770308319 -13.275208987664428 0 0 0 0 6.1357228889264661 -3.99862154155187 0 -3.99862154155187 -23.461677025187782 0 0 0 0 84.081988400983391 -49.859256285785705 0 -49.859256285785705 -56.815346377601145 0 0 0 0 6.6422565212548079 2.9745923905897271 0 2.9745923905897271 -3.3036500852142368 0 0 0 0 359.49390524160117 287.71612859552215 0 287.71612859552215 -98.049544482451211 0 0 0 0 604.47097365790978 -749.06892610684099 0 -749.06892610684099 932.87986108612017 0 0 0 0 3.4466525919112883 -0.86320463304535622 0 -0.86320463304535622 -3.6287413264358612 0 0 0 0 42.394824782502837 -53.270563672204162 0 -53.270563672204162 44.124523801575378 0 0 0 0 341.86461909397622 -149.24837055077796 0 -149.24837055077796 4.4527867162623807 0 0 0 0 838.77976420518098 -369.33477660595827 0 -369.33477660595827 83.360088467234164 0 0 0 0 113.38419544067438 89.20593912034667 0 89.20593912034667 -16.223210714706511 0 0 0 0 167.54738057537179 -124.9955266391969 0 -124.9955266391969 584.16599386134067 0 0 0 0 552.68059402829385 161.21672125188616 0 161.21672125188616 -0.4513954953731627 0 0 0 0 242.4492626415813 296.1333142630541 0 296.1333142630541 -655.99664037878028 0 0 0 0 -154.40459940186702 110.58893191215725 0 110.58893191215725 31.998481082869148 0 0 0 0 490.51650299687753 -92.786877149406791 0 -92.786877149406791 -683.94350543513394 0 0 0 0 291.05563048971089 -475.7003965417897 0 -475.7003965417897 -385.3833338255954 0 0 0 0 343.76924485454219 -124.13696596049431 0 -124.13696596049431 -131.7048305053122 0 0 0 0 343.76924485473864 -124.13696596055604 0 -124.13696596055604 -131.70483050529947 0 0 0 0 343.76924485469499 -124.13696596039358 0 -124.13696596039358 -131.70483050533585 0 0 0 0 185.19171172362257 3.2502962929853538 0 3.2502962929853538 -139.38273731543549 0 0 0 0 116.67708067652495 -2.4750415640641918 0 -2.4750415640641918 -2.0927254640790269 0 0 0 0 175.80241841540555 -112.90435402300864 0 -112.90435402300864 49.277548844647072 0 0 0 0 162.51942167642119 -63.527375767001104 0 -63.527375767001104 -28.886265672828358 0 0 0 0 146.71984340419294 -88.15939237126554 0 -88.15939237126554 57.528440299464961 0 0 0 0 114.85694835108006 -66.402211264768198 0 -66.402211264768198 55.318203550462158 0 0 0 0 99.824612668449845 -23.325726525319169 0 -23.325726525319169 -22.220723898922188 0 0 0 0 142.84312397454778 -46.84933364623987 0 -46.84933364623987 -48.490934195099555 0 0 0 0 116.6315308883859 -36.208970594726793 0 -36.208970594726793 8.1783157003536218 0 0 0 0 90.092871674038179 -50.059596170799523 0 -50.059596170799523 83.238509017959132 0 0 0 0 130.49754266583113 -79.455181995998373 0 -79.455181995998373 31.370560216388867 0 0 0 0 97.213545174447063 -38.707727741446774 0 -38.707727741446774 47.984880646165493 0 0 0 0 91.133118738040139 -35.857503882753619 0 -35.857503882753619 46.668662031401482 0 0 0 0 108.49610594182013 -37.067433272668382 0 -37.067433272668382 53.726543343030499 0 0 0 0 115.63675937050175 -34.941875635803243 0 -34.941875635803243 47.071706535907992 0 0 0 0 118.55713607234154 2.1170668390338907 0 2.1170668390338907 -1.2935524088795247 0 0 0 0 204.74029805329337 107.20617225363912 0 107.20617225363912 -429.06062048989429 0 0 0 0 53.88031819536991 172.10276273075624 0 172.10276273075624 -244.93023053934576 0 0 0 0 -43.392419387746486 41.422112660157495 0 41.422112660157495 -42.966657863122691 0 0 0 0 121.78743202263547 -0.41343321115584253 0 -0.41343321115584253 -1.938558051724192 0 0 0 0 114.92587738747534 -70.846688113353821 0 -70.846688113353821 -221.39418305919958 0 0 0 0 133.59829837729922 -122.87398799214429 0 -122.87398799214429 165.42911870293392 0 0 0 0 178.80367361409117 39.999479081380315 0 39.999479081380315 -47.053449954140888 0 0 0 0 147.36100115325098 128.20366099073442 0 128.20366099073442 20.842652541610278 0 0 0 0 77.733292961493134 38.530505705201904 0 38.530505705201904 52.392705815772388 0 0 0 0 62.147925700235646 48.297539717512791 0 48.297539717512791 11.800082465567357 0 0 0 0 74.110774664077326 132.58993643419581 0 132.58993643419581 41.289362680976296 0 0 0 0 562.70791690603801 225.40857791393819 0 225.40857791393819 -101.69226398648789 0 0 0 0 208.77475828850584 -126.81427738254888 0 -126.81427738254888 -136.4485707194176 0 0 0 0 354.51932935166769 -107.22615450037779 0 -107.22615450037779 -202.08889075156185 0 0 0 0 10.098216713173315 147.55019753016359 0 147.55019753016359 83.343816152380441 0 0 0 0 472.37483776259978 -279.09720187664959 0 -279.09720187664959 18.554372002789705 0 0 0 0 17.528257323799124 -16.860242232062788 0 -16.860242232062788 15.094837154109047 0 0 0 0 -186.06192658498185 -275.27190390595342 0 -275.27190390595342 -15.506155825823953 0 0 0 0 918.26020298655203 446.46557434771046 0 446.46557434771046 162.34596354583658 0 0 0 0 789.65074817029381 631.74628319909743 0 631.74628319909743 379.91840594838277 0 0 0 0 3501.1523189943982 1340.5682610687882 0 1340.5682610687882 275.77977946163537 0 0 0 0 628.29232767120993 452.21953360173234 0 452.21953360173234 362.36099909546397 0 0 0 0 -113.7764729777191 -44.112145084336476 0 -44.112145084336476 200.68082501058279 0 0 0 0 4153.3759138568275 -135.2850479021248 0 -135.2850479021248 85.231410386358391 0 0 0 0 4.318883365475056 5.3922102613389313 0 5.3922102613389313 4.6722233157292541 0 0 0 0 742.91712685700622 217.83250194390234 0 217.83250194390234 -83.91165683502436 0 0 0 0 1321.5933612818044 448.98382875570292 0 448.98382875570292 -254.75647598296939 0 0 0 0 6.7851685919751503 -6.2575963672611721 0 -6.2575963672611721 6.1419997125650969 0 0 0 0 -210.63320339258644 -328.86058777256585 0 -328.86058777256585 65.455634692354124 0 0 0 0 345.61102048149769 -238.74339224126766 0 -238.74339224126766 51.880612223674007 0 0 0 0 3459.6185262035724 -416.4894244450436 0 -416.4894244450436 66.744601226692424 0 0 0 0 1465.5238080520885 -539.06272025420208 0 -539.06272025420208 -872.01551681454839 0 0 0 0 7.3599164696168522 17.670647463340174 0 17.670647463340174 2.9049319889664855 0 0 0 0 -76.479712799682602 582.47797225706654 0 582.47797225706654 685.48256917559593 0 0 0 0 410.82275647129427 -241.59998789348055 0 -241.59998789348055 -31.155890809874904 0 0 0 0 129.47701440670062 -18.71305441686269 0 -18.71305441686269 75.008074145387127 0 0 0 0 752.04941485002928 22.320305394173374 0 22.320305394173374 11.033991747223126 0 0 0 0 -332.99045698661212 -121.19914449419971 0 -121.19914449419971 -46.782999050742774 0 0 0 0 1.1582660902568875 -2.4598901293354629 0 -2.4598901293354629 6.2687632860292215 0 0 0 0 526.95363424670359 76.664958149858762 0 76.664958149858762 -7.2653774024025779 0 0 0 0 -0.53362819251120186 0.70042379096337015 0 0.70042379096337015 3.2036028361772577 0 0 0 0 -49.066955134665477 36.167712760992117 0 36.167712760992117 2.8749781131155032 0 0 0 0 119.57634801911627 -1.5571855865593989 0 -1.5571855865593989 -124.2583904304758 0 0 0 0 100.72720264873351 104.28249981792646 0 104.28249981792646 -76.020401392419899 0 0 0 0 630.98786613444099 -8.3138887785958104 0 -8.3138887785958104 -103.87921565320494 0 0 0 0 80.399479944673658 282.28236711063028 0 282.28236711063028 474.20881735921921 0 0 0 0 -202.5744903720115 95.480750656735268 0 95.480750656735268 76.61339862787554 0 0 0 0 14.207364511865308 64.776053992466586 0 64.776053992466586 -74.556780658971547 0 0 0 0 48.838592106316355 -272.12013510336465 0 -272.12013510336465 -39.386795989867551 0 0 0 0 -62.682592582707343 -221.26278152250745 0 -221.26278152250745 -45.088984379323847 0 0 0 0 79.849405635672156 -21.240763745414711 0 -21.240763745414711 -97.271399235271019 0 0 0 0 66.007715762782027 -168.4505578260364 0 -168.4505578260364 -63.679190281089177 0 0 0 0 199.80133732456306 -165.62686759434655 0 -165.62686759434655 -116.37575716473486 0 0 0 0 493.71493077941705 -276.49603377891162 0 -276.49603377891162 11.006193626845175 0 0 0 0 390.83957980948617 25.384354325642562 0 25.384354325642562 -101.43720242279096 0 0 0 0 159.94672816838283 -257.04193186662394 0 -257.04193186662394 10.35555020085576 0 0 0 0 69.675524582060461 -214.76886150591781 0 -214.76886150591781 27.232823786581321 0 0 0 0 42.05049452422827 -75.418672549399616 0 -75.418672549399616 -84.661189007454141 0 0 0 0 68.681853057336411 -234.53104388175393 0 -234.53104388175393 305.99090284613158 0 0 0 0 5.6187387110203417 -3.8006516814282776 0 -3.8006516814282776 2.4954189466092114 0 0 0 0 485.85042528441409 396.46835562826436 0 396.46835562826436 253.56180324933393 0 0 0 0 874.12104705753882 72.370216343495031 0 72.370216343495031 -76.664860528760983 0 0 0 0 395.7042742362537 157.94198284771301 0 157.94198284771301 -86.724542364980152 0 0 0 0 285.02936144293926 -56.982271928709451 0 -56.982271928709451 -85.587385485039704 0 0 0 0 170.57754083204782 0.05159238513897435 0 0.05159238513897435 -33.738526072234436 0 0 0 0 17.725486151952055 -8.6069239454681252 0 -8.6069239454681252 4.4389808704471481 0 0 0 0 131.63910551609297 162.40578394377053 0 162.40578394377053 112.17878550419528 0 0 0 0 -576.84447063575499 -300.38528054560675 0 -300.38528054560675 204.22609329380475 0 0 0 0 3.2548565604219277 -6.8362773644796277 0 -6.8362773644796277 8.0483157948808355 0 0 0 0 284.52686086541507 -391.88727212788672 0 -391.88727212788672 292.43365053274601 0 0 0 0 120.32879477701499 -273.28202894493006 0 -273.28202894493006 -166.46292046712733 0 0 0 0 -110.60889096692699 2.2299241946848269 0 2.2299241946848269 -17.316155655829789 0 0 0 0 189.07617128340644 22.177444286803166 0 22.177444286803166 -134.15311623609159 0 0 0 0 -341.21198823221494 -253.36539097012542 0 -253.36539097012542 -36.972358991810324 0 0 0 0 495.43651270665578 127.12694828096755 0 127.12694828096755 56.569562554926961 0 0 0 0 495.60679618438735 142.39036965216292 0 142.39036965216292 -56.313704229885843 0 0 0 0 9.7275360550566745 -8.6431881212103292 0 -8.6431881212103292 10.180620401200972 0 0 0 0 -119.78811364619469 31.780072398316406 0 31.780072398316406 340.66761932909958 0 0 0 0 -3.654193073629358 0.42928745070260277 0 0.42928745070260277 5.0683189688557526 0 0 0 0 45.68892018772749 -29.247274383726563 0 -29.247274383726563 -102.34523466419887 0 0 0 0 17.805965692798694 13.161168125306816 0 13.161168125306816 11.83566644669985 0 0 0 0 -143.7107211065304 -169.05382951927959 0 -169.05382951927959 -91.703657486923476 0 0 0 0 39.272375839591206 -14.241454511520104 0 -14.241454511520104 -3.4366147081445106 0 0 0 0 85.118551846331684 15.32948204060267 0 15.32948204060267 18.300902448218039 0 0 0 0 333.06980420876062 42.924307161883235 0 42.924307161883235 -150.91551695778799 0 0 0 0 391.63729261425033 313.4791704795648 0 313.4791704795648 244.22065173123701 0 0 0 0 319.20326369911345 -115.77160379677935 0 -115.77160379677935 42.914744466401316 0 0 0 0 420.66049277925049 152.26229474057254 0 152.26229474057254 -84.854688823073957 0 0 0 0 201.96886157605331 63.638083104588986 0 63.638083104588986 -86.909361485801043 0 0 0 0 214.31002535953303 -88.872436573795312 0 -88.872436573795312 -159.100878355438 0 0 0 0 81.42838028875849 -22.26809821975985 0 -22.26809821975985 -136.92813555469547 0 0 0 0 14.178661645564716 -2.4502597229552521 0 -2.4502597229552521 129.82683554377218 0 0 0 0 2.5707692101086366 0.84731968694718773 0 0.84731968694718773 0.34203850670573388 0 0 0 0 194.91949562457739 135.46782093135698 0 135.46782093135698 -102.51531848023296 0 0 0 0 602.3129223135038 64.419366359765263 0 64.419366359765263 -126.19160281355107 0 0 0 0 602.57502475084038 61.193186004269592 0 61.193186004269592 -103.04894129869626 0 0 0 0 94.35794191571037 -12.935174155703319 0 -12.935174155703319 -1.3523416584445904 0 0 0 0 83.543151626356121 -15.316914988508415 0 -15.316914988508415 -30.348779515361969 0 0 0 0 829.49377176113194 89.521562402185737 0 89.521562402185737 -202.69850759166457 0 0 0 0 231.32636427745456 48.562295410340084 0 48.562295410340084 -11.823536489620892 0 0 0 0 106.97881500862633 10.106685220167723 0 10.106685220167723 0.097229089992198148 0 0 0 0 -110.88131747176521 196.54437697325557 0 196.54437697325557 7.0408647484728135 0 0 0 0 -172.4645862851321 -342.72588838621959 0 -342.72588838621959 -107.66166905044383 0 0 0 0 72.383651421259401 -18.495970805147948 0 -18.495970805147948 -1.0706034414742867 0 0 0 0 174.18010098540162 50.507645112036585 0 50.507645112036585 42.708246287518705 0 0 0 0 319.45275489702908 58.296374292996916 0 58.296374292996916 -18.117137169853777 0 0 0 0 86.635228384516367 -16.697517026220972 0 -16.697517026220972 -19.249809275322399 0 0 0 0 191.88575119913639 -35.460629214427115 0 -35.460629214427115 -35.126165560663139 0 0 0 0 38.921101007849387 -10.801460849706686 0 -10.801460849706686 21.389547976013439 0 0 0 0 271.5642240364723 138.93692207404138 0 138.93692207404138 162.28199935148859 0 0 0 0 13.540896725127823 143.06840224105935 0 143.06840224105935 -0.8629726986777877 0 0 0 0 93.347340674936802 17.294881879527598 0 17.294881879527598 7.1627071735452104 0 0 0 0 -6.4017763860174455 60.441413008246812 0 60.441413008246812 71.747049170493199 0 0 0 0 268.21953523976845 130.36422845265406 0 130.36422845265406 39.811639948369702 0 0 0 0 77.934272364953358 -0.35785757621488301 0 -0.35785757621488301 0.48457330067594739 0 0 0 0 162.87171994842356 24.074086812233872 0 24.074086812233872 -20.40972431211776 0 0 0 0 59.889521975791894 28.503066399146064 0 28.503066399146064 8.6184412761962932 0 0 0 0 -23.119759271659859 -113.29849060287006 0 -113.29849060287006 -29.9497730256262 0 0 0 0 80.540468620293666 20.757792598822157 0 20.757792598822157 29.737967670163002 0 0 0 0 54.026828961155843 9.3819322533890954 0 9.3819322533890954 -6.2669174682087032 0 0 0 0 94.528859796609595 4.8233161747468642 0 4.8233161747468642 -3.7902015501840722 0 0 0 0 99.815074675407232 112.94562865542798 0 112.94562865542798 185.51506616976849 0 0 0 0 301.63754593965859 100.36781454908942 0 100.36781454908942 43.621015922455626 0 0 0 0 16.497206235040593 1.484138036283376 0 1.484138036283376 9.70902884075279 0 0 0 0 21.35020328993096 8.55634403560083 0 8.55634403560083 -0.03308866638569441 0 0 0 0 119.88065558201924 50.816425740642444 0 50.816425740642444 234.94012855088727 0 0 0 0 270.57123146195954 337.74387062874303 0 337.74387062874303 514.826714217882 0 0 0 0 145.19140999015508 371.96227390675585 0 371.96227390675585 997.83301620384896 0 0 0 0 296.34530204880139 115.78977067910451 0 115.78977067910451 -237.62586847403048 0 0 0 0 68.445954465416349 17.00998539749105 0 17.00998539749105 2.9865312630624676 0 0 0 0 12.983292067435286 149.71472855359895 0 149.71472855359895 214.25699190301964 0 0 0 0 -26.507130298996344 26.287334203859672 0 26.287334203859672 30.72662445058117 0 0 0 0 -34.917868183765677 22.550876561783475 0 22.550876561783475 324.86912678737121 0 0 0 0 243.39498193145482 246.68037046471102 0 246.68037046471102 229.03314124079498 0 0 0 0 18.434050207113557 -22.303793381325733 0 -22.303793381325733 19.501268125147902 0 0 0 0 -29.162213224248262 -132.29178835868052 0 -132.29178835868052 187.10721199307849 0 0 0 0 1.8393430432461173 -294.54930689041657 0 -294.54930689041657 0.14684388600289822 0 0 0 0 -20.20937681147916 -148.06270861023313 0 -148.06270861023313 86.380127398250593 0 0 0 0 3148.9079725680276 279.28266962727326 0 279.28266962727326 -377.40845727562413 0 0 0 0 1303.5040362067084 -336.51532454816038 0 -336.51532454816038 118.77322675797942 0 0 0 0 1483.608524225825 -59.839557550190776 0 -59.839557550190776 -354.81128581116968 0 0 0 0 3492.5197438521282 -689.68511219187178 0 -689.68511219187178 -400.57029357357374 0 0 0 0 106.13425729234586 117.15842440693672 0 117.15842440693672 333.7036774455546 0 0 0 0 1441.3302564522237 -1357.1785556262398 0 -1357.1785556262398 733.1136900412838 0 0 0 0 1105.1934208255479 1882.2624552424677 0 1882.2624552424677 3664.6124527777597 0 0 0 0 27.477320462025602 6.7812414942177952 0 6.7812414942177952 5.1641687087334498 0 0 0 0 3494.4942222145182 1931.466919548126 0 1931.466919548126 1422.7561148983511 0 0 0 0 1798.5647320772187 759.25730113810846 0 759.25730113810846 621.79249517786752 0 0 0 0 139.24317222380705 714.95452948364937 0 714.95452948364937 2267.4615936311584 0 0 0 0 1830.6394057742966 1180.6195840375174 0 1180.6195840375174 767.07822984749271 0 0 0 0 171.18692559391275 580.98287044347887 0 580.98287044347887 551.92048963934155 0 0 0 0 3493.4874763196894 763.56928635680561 0 763.56928635680561 -380.92096458659364 0 0 0 0 205.82580696541118 614.65402148769397 0 614.65402148769397 1010.9606660558341 0 0 0 0 267.59517631178824 490.26233411218283 0 490.26233411218283 821.4418791244442 0 0 0 0 372.43167683079082 970.05468166700007 0 970.05468166700007 919.45797578434292 0 0 0 0 403.19356813276136 899.08048368637685 0 899.08048368637685 697.6850092447097 0 0 0 0 539.99002946620749 694.35827214979543 0 694.35827214979543 751.36235877629781 0 0 0 0 539.70616056976542 773.58684629983259 0 773.58684629983259 180.31626956048285 0 0 0 0 407.5658884499353 1091.7784635380831 0 1091.7784635380831 535.25553754201371 0 0 0 0 596.24205540574621 344.34982645131043 0 344.34982645131043 -126.17275304336374 0 0 0 0 19.073748906859151 5.4363601815455489 0 5.4363601815455489 -5.0536167528247704 0 0 0 0 12.806219524566814 3.4327025749066173 0 3.4327025749066173 -2.7584159327142279 0 0 0 0 1816.5880835501084 -425.59825214313605 0 -425.59825214313605 -1172.9451300974799 0 0 0 0 3488.0341015033482 1888.8501617769039 0 1888.8501617769039 778.03862327419188 0 0 0 0 665.94527955561716 104.23707543786219 0 104.23707543786219 -29.816156657988927 0 0 0 0 1256.9715340367475 696.91995717891041 0 696.91995717891041 162.06864751415094 0 0 0 0 3505.3021763754682 682.53745656287481 0 682.53745656287481 -746.56405668370269 0 0 0 0 1671.8126361549403 -227.67620445038955 0 -227.67620445038955 -1068.6193178733974 0 0 0 0 3489.1647052538574 -307.25655358218592 0 -307.25655358218592 -1204.2935565180967 0 0 0 0 706.91648337655351 -23.807746443583483 0 -23.807746443583483 -489.70086505014547 0 0 0 0 159.6224883855175 510.1363646900827 0 510.1363646900827 -603.14752438950313 0 0 0 0 1366.2323706582383 518.56965815932301 0 518.56965815932301 -166.45737788341125 0 0 0 0 133.57819169495269 312.4552966807384 0 312.4552966807384 -770.99938898345476 0 0 0 0 29.029957175320305 323.52000230082047 0 323.52000230082047 59.631557092391517 0 0 0 0 -358.51735667035246 774.39949132969036 0 774.39949132969036 -440.27183332582035 0 0 0 0 8.8263843006455289 -2.8065293521384334 0 -2.8065293521384334 -6.7324103973220621 0 0 0 0 17.302906813006302 231.30740097812603 0 231.30740097812603 -1003.0637409551902 0 0 0 0 40.029704928463303 4.8727592452228272 0 4.8727592452228272 -5.99194477942366 0 0 0 0 56.275786682214559 2.9937621650238384 0 2.9937621650238384 -7.4067933630912499 0 0 0 0 335.67902105406574 20.592409799280631 0 20.592409799280631 -24.089379390747126 0 0 0 0 7.4965308854170871 215.33668406261643 0 215.33668406261643 -526.79825710199611 0 0 0 0 408.57680224500109 132.71245477904671 0 132.71245477904671 25.191402875056852 0 0 0 0 -188.67198234698935 429.32677239260988 0 429.32677239260988 -597.97697840440992 0 0 0 0 19.124604397910389 5.6778314309722155 0 5.6778314309722155 -10.910495254206682 0 0 0 0 371.49981672601552 87.260241399566823 0 87.260241399566823 472.08768264107266 0 0 0 0 3493.1705676226666 1389.3452486571614 0 1389.3452486571614 -217.87944283262919 0 0 0 0 1172.1237632108787 -1143.5816520501494 0 -1143.5816520501494 -977.92845858953751 0 0 0 0 1693.935096864252 1910.0994894189612 0 1910.0994894189612 1417.2725171877585 0 0 0 0 18.787634356701432 2.3200713076701449 0 2.3200713076701449 -0.50370850760372254 0 0 0 0 884.356822090067 806.19616619747512 0 806.19616619747512 547.65919697502522 0 0 0 0 1230.388594745069 373.9496178649008 0 373.9496178649008 144.30612283591381 0 0 0 0 2266.4034134758986 20.703000522628827 0 20.703000522628827 226.35460928232806 0 0 0 0 1207.2665656202626 476.84782715090569 0 476.84782715090569 1170.9741490669076 0 0 0 0 16.374365002790697 1.4890572570908489 0 1.4890572570908489 -0.87122137835887781 0 0 0 0 2086.9176589610092 1672.2076512207404 0 1672.2076512207404 1171.2364097287891 0 0 0 0 1362.3292856465068 -840.12605970119444 0 -840.12605970119444 -1155.4558480212195 0 0 0 0 40.979420504088012 2.0708750565348915 0 2.0708750565348915 -2.1641696514754418 0 0 0 0 138.03467389791876 221.01979315969129 0 221.01979315969129 -676.22957821107389 0 0 0 0 365.33826284110182 8.6940412359963375 0 8.6940412359963375 -1145.419605447893 0 0 0 0 468.14550957686515 466.84350598043329 0 466.84350598043329 302.30327906033017 0 0 0 0 251.97775731979527 201.59033745559668 0 201.59033745559668 115.76739346262821 0 0 0 0 709.5379350059975 359.97729903920458 0 359.97729903920458 -126.98080001581775 0 0 0 0 928.37117732947308 891.17259350820473 0 891.17259350820473 154.43490182814412 0 0 0 0 868.17300646148396 553.16561548628567 0 553.16561548628567 -890.04563056314169 0 0 0 0 156.88697046859306 282.99782338503974 0 282.99782338503974 -811.46895117616191 0 0 0 0 1107.8478296380454 768.02616431991191 0 768.02616431991191 81.287009021221365 0 0 0 0 1024.9445056499717 671.07892241000718 0 671.07892241000718 165.97273865684764 0 0 0 0 1506.0986271043434 862.87860427046758 0 862.87860427046758 -100.62052634094289 0 0 0 0 1471.5578566168119 261.9130474550106 0 261.9130474550106 -71.440048090396431 0 0 0 0 1079.8090532709994 426.57259117467947 0 426.57259117467947 -48.600034206250257 0 0 0 0 913.0471179954402 316.05259295644794 0 316.05259295644794 -61.116714722875258 0 0 0 0 1000.0468118536783 626.82139359851328 0 626.82139359851328 385.67364609478136 0 0 0 0 958.38693287458227 719.84163625859946 0 719.84163625859946 340.93400489688446 0 0 0 0 2.2811341373006186 -1.1373172762396351 0 -1.1373172762396351 1.6220946157802412 0 0 0 0 369.23646305643979 124.00749119073208 0 124.00749119073208 28.598543418424924 0 0 0 0 8.0772606858557054 4.4671266126574594 0 4.4671266126574594 -2.6308790027516951 0 0 0 0 795.82194253238413 1355.5478708616045 0 1355.5478708616045 1552.1182545894035 0 0 0 0 982.73029313460938 777.91385430815842 0 777.91385430815842 358.23083630184647 0 0 0 0 937.49192212055641 719.24801878245432 0 719.24801878245432 468.71619766170647 0 0 0 0 766.44999028208986 765.8516598421171 0 765.8516598421171 480.39155378262012 0 0 0 0 626.03013639929122 370.59472690268262 0 370.59472690268262 319.33474623283018 0 0 0 0 411.99949973822368 404.00423384130386 0 404.00423384130386 347.22680192530879 0 0 0 0 190.27193124228506 66.046699752401082 0 66.046699752401082 190.97013845177526 0 0 0 0 579.31249186558125 330.15386135411609 0 330.15386135411609 135.34127930785326 0 0 0 0 333.9042259905691 507.69504850627345 0 507.69504850627345 488.11194587496891 0 0 0 0 327.79078628225579 482.35675890711059 0 482.35675890711059 442.60975707822308 0 0 0 0 228.80811623303453 12.792081174206032 0 12.792081174206032 15.770947257757143 0 0 0 0 0.04133888597939972 -2.2511244166746778 0 -2.2511244166746778 5.9951151834737324 0 0 0 0 361.18293551739407 119.71049138719172 0 119.71049138719172 -14.789648017190302 0 0 0 0 219.1263349335004 41.979273766778988 0 41.979273766778988 58.366686815100365 0 0 0 0 212.6316326340384 69.779296301842351 0 69.779296301842351 -27.405563944217505 0 0 0 0 71.965226905023727 -28.438145248747894 0 -28.438145248747894 -16.31908264590006 0 0 0 0 85.163062002356128 -66.974140090214632 0 -66.974140090214632 -38.994925920492278 0 0 0 0 100.87816229033342 -18.334921180019023 0 -18.334921180019023 -9.706451786799704 0 0 0 0 212.0981264329057 45.735410983844531 0 45.735410983844531 -44.32808919751551 0 0 0 0 27.608981435707392 -20.926360573534566 0 -20.926360573534566 12.008413666312663 0 0 0 0 146.37883888155193 0.7925275920151762 0 0.7925275920151762 -2.2050320805971069 0 0 0 0 73.376714547849176 -30.583195417088426 0 -30.583195417088426 -14.615594723916555 0 0 0 0 55.673457459404744 -162.22035097747244 0 -162.22035097747244 -69.726091451635966 0 0 0 0 101.55969167805574 -3.390488375215444 0 -3.390488375215444 13.7927858308135 0 0 0 0 158.88206878176425 -72.845506134214247 0 -72.845506134214247 -31.984110540085283 0 0 0 0 662.08290506388585 61.063529031459439 0 61.063529031459439 -78.82400819535178 0 0 0 0 63.25519636359968 378.60524484516702 0 378.60524484516702 255.4522413786699 0 0 0 0 20.026940940504716 -10.295093757804921 0 -10.295093757804921 5.9763564959335804 0 0 0 0 -363.12042066988943 99.395160033804132 0 99.395160033804132 292.51397522661796 0 0 0 0 24.331989339968963 -2.2105080873301866 0 -2.2105080873301866 -11.600799582258372 0 0 0 0 86.087122055784874 -47.628161433617258 0 -47.628161433617258 4.8671553021635914 0 0 0 0 -45.098093901549873 -822.68766128229629 0 -822.68766128229629 78.572589759092963 0 0 0 0 492.08666715072013 311.59240583512315 0 311.59240583512315 -142.4823164139039 0 0 0 0 86.660888072615535 -42.829913646496671 0 -42.829913646496671 0.65099084811364527 0 0 0 0 109.70552697350286 -105.76880512674984 0 -105.76880512674984 -55.343070567616905 0 0 0 0 235.04703965895351 -40.711180637091047 0 -40.711180637091047 -59.143417176121147 0 0 0 0 113.73301186965728 -4.040451475580312 0 -4.040451475580312 75.80014668795593 0 0 0 0 323.73469280241079 -102.79070105493133 0 -102.79070105493133 -84.948302105972175 0 0 0 0 423.4973266786692 281.15107304019136 0 281.15107304019136 208.11569005631145 0 0 0 0 209.544003039995 62.610585334677353 0 62.610585334677353 0.29493119872631723 0 0 0 0 249.04099069077893 16.535930987375906 0 16.535930987375906 53.860910985475698 0 0 0 0 166.55854957786869 -86.919680159774543 0 -86.919680159774543 -81.503926151551696 0 0 0 0 -80.921153923402017 -87.033308473354509 0 -87.033308473354509 47.9633141776103 0 0 0 0 40.180352335510179 -60.293095364074702 0 -60.293095364074702 30.353584702314038 0 0 0 0 148.15640012014774 171.90633072248625 0 171.90633072248625 99.854964219135155 0 0 0 0 17.808213938209519 -10.637320882838594 0 -10.637320882838594 -23.348205245058125 0 0 0 0 68.977392823100672 33.435781950425735 0 33.435781950425735 -265.10638382038337 0 0 0 0 25.469951870316436 -130.41180093395315 0 -130.41180093395315 -173.72121090194923 0 0 0 0 49.795193315662175 15.626601340669154 0 15.626601340669154 4.5608334225143432 0 0 0 0 93.61937991281593 -81.5305148840946 0 -81.5305148840946 149.86707526667965 0 0 0 0 32.490973328517043 10.997113519535493 0 10.997113519535493 3.5833236359640619 0 0 0 0 -17.847966754103254 41.393156908373726 0 41.393156908373726 -100.78037051957949 0 0 0 0 -0.4634316638524254 -0.44368731670115835 0 -0.44368731670115835 3.276420070574547 0 0 0 0 246.80460212973048 327.55068574924735 0 327.55068574924735 -180.13248735504658 0 0 0 0 -228.29886414405337 -1.6175109205291847 0 -1.6175109205291847 90.002945271451608 0 0 0 0 -29.408890746126417 -3.4599284806627111 0 -3.4599284806627111 -159.56767223816817 0 0 0 0 114.49474482864025 -127.16999233659612 0 -127.16999233659612 161.73133975175142 0 0 0 0 160.13487279321998 -93.423781434652597 0 -93.423781434652597 97.0479341356031 0 0 0 0 131.4841101172351 -81.39176697674975 0 -81.39176697674975 96.381832652781668 0 0 0 0 10.870713088635739 4.3412395344664034 0 4.3412395344664034 2.2056167215024192 0 0 0 0 353.58078676222794 -340.45547639469027 0 -340.45547639469027 355.93232424267239 0 0 0 0 -19.077897328636027 170.77932929073012 0 170.77932929073012 125.32417509189156 0 0 0 0 139.13479640801233 -20.833205338975176 0 -20.833205338975176 -288.62096611213912 0 0 0 0 122.0963339029804 15.30260095020958 0 15.30260095020958 -23.263783247243737 0 0 0 0 36.717011736760469 55.091747026439833 0 55.091747026439833 26.2173739845108 0 0 0 0 -1.991954491088805 0.47066259095183227 0 0.47066259095183227 8.0090010144936006 0 0 0 0 -91.356942261634686 47.177507458999571 0 47.177507458999571 25.728417794639881 0 0 0 0 -100.40037717869563 5.7000444580057774 0 5.7000444580057774 -35.624972885459613 0 0 0 0 366.20475475474086 90.145255795148273 0 90.145255795148273 -11.09195149132438 0 0 0 0 281.10717223009124 67.726867685304796 0 67.726867685304796 -14.497332694662191 0 0 0 0 150.90123505048541 -85.734960619990773 0 -85.734960619990773 148.91083355688562 0 0 0 0 113.0645894878071 -13.883876253859412 0 -13.883876253859412 19.53200083540105 0 0 0 0 143.30704489982236 92.601004510461905 0 92.601004510461905 28.44626354049899 0 0 0 0 2.7506887870351022 1.1412388773828752 0 1.1412388773828752 -0.50856320835241742 0 0 0 0 264.76764703738081 12.444941715535919 0 12.444941715535919 -26.019247326763548 0 0 0 0 54.730220063625893 -77.226200600804702 0 -77.226200600804702 150.57702415200333 0 0 0 0 279.36055599239626 -59.835878252686825 0 -59.835878252686825 61.216108960152724 0 0 0 0 64.840884463985276 -9.6789951478426701 0 -9.6789951478426701 67.657888377319523 0 0 0 0 130.20393194377539 17.183037915577643 0 17.183037915577643 -18.459071862497581 0 0 0 0 127.22483447898048 9.7595590260805238 0 9.7595590260805238 -24.866010571205152 0 0 0 0 127.45735013430931 20.225206331849336 0 20.225206331849336 -24.080888011564639 0 0 0 0 107.59263348222885 -56.372873678896894 0 -56.372873678896894 40.769676986215131 0 0 0 0 152.32314671903077 6.2480268395888743 0 6.2480268395888743 -21.734942949993638 0 0 0 0 73.712336386153765 -42.73040080323608 0 -42.73040080323608 10.64526879013863 0 0 0 0 54.463372144649838 44.648104469295276 0 44.648104469295276 -12.658626048227234 0 0 0 0 66.897524397724951 -34.005789890864797 0 -34.005789890864797 3.2694272132465194 0 0 0 0 24.268303806518542 -5.185094430406842 0 -5.185094430406842 -3.2381405663919853 0 0 0 0 91.005392783419666 -32.506883711062187 0 -32.506883711062187 8.6815593842825365 0 0 0 0 119.22997039303664 0.83281957440823362 0 0.83281957440823362 -28.05488421315431 0 0 0 0 25.183211936818367 -1.7849365463200115 0 -1.7849365463200115 10.521661351700303 0 0 0 0 80.821341051615491 -36.876534741141242 0 -36.876534741141242 -3.5292294283652073 0 0 0 0 32.996893670020654 -86.126716836531386 0 -86.126716836531386 -18.59457949476473 0 0 0 0 -86.923818257871972 -120.17044762788771 0 -120.17044762788771 -28.153155050889836 0 0 0 0 112.64305531963691 -186.81980548285696 0 -186.81980548285696 -197.5715091130869 0 0 0 0 96.847381690262409 58.348156181090417 0 58.348156181090417 -166.26915947278121 0 0 0 0 -194.94593909433752 -127.23598387570905 0 -127.23598387570905 24.305589133896319 0 0 0 0 50.469820465512385 -77.420743334862209 0 -77.420743334862209 93.45827320564149 0 0 0 0 128.11476802391917 -85.438490456968793 0 -85.438490456968793 28.545204981464394 0 0 0 0 17.549367838000762 -168.91057685052078 0 -168.91057685052078 61.638628702746246 0 0 0 0 59.474771347666319 -197.28966146566177 0 -197.28966146566177 -37.297722438789606 0 0 0 0 112.31970316447405 -186.27624906558322 0 -186.27624906558322 -37.912049982139251 0 0 0 0 63.894562089473766 -219.28050410710875 0 -219.28050410710875 -60.385885912360209 0 0 0 0 64.615600117579561 -12.353850147505227 0 -12.353850147505227 -22.742635339302979 0 0 0 0 169.91706760825764 -201.69487825522356 0 -201.69487825522356 -118.83136258998275 0 0 0 0 55.553473879029298 34.593389439108932 0 34.593389439108932 -254.46515140277916 0 0 0 0 55.870797041676269 -240.78672122181888 0 -240.78672122181888 -106.63743517045805 0 0 0 0 498.11309304278257 -211.60639027432717 0 -211.60639027432717 -330.89650723377054 0 0 0 0 -469.60876731276767 -112.77774088741069 0 -112.77774088741069 107.74275755914516 0 0 0 0 222.33522911829095 -139.10406281190353 0 -139.10406281190353 -98.922420266320842 0 0 0 0 206.76635212888505 -171.84071079319619 0 -171.84071079319619 -97.719551612724899 0 0 0 0 158.45430055251927 -151.52237363833319 0 -151.52237363833319 -75.109083167301833 0 0 0 0 202.75963250151835 -107.26516183064314 0 -107.26516183064314 -82.509605295304937 0 0 0 0 134.41372019345727 -197.39274224932069 0 -197.39274224932069 -91.938802663735714 0 0 0 0 135.31305169871848 -59.072456101710486 0 -59.072456101710486 -64.053312419100621 0 0 0 0 151.81718232583353 -142.05889457351498 0 -142.05889457351498 -60.213363170545563 0 0 0 0 98.860211261471704 -157.18607863200077 0 -157.18607863200077 3.0413834828596009 0 0 0 0 63.623530682860292 -116.9897584246537 0 -116.9897584246537 10.762972274337244 0 0 0 0 94.30208406100428 -137.1627990438119 0 -137.1627990438119 -57.052775398400627 0 0 0 0 60.310993231854809 -78.438332117719256 0 -78.438332117719256 -30.100238994099982 0 0 0 0 113.27662962836985 -111.87862500003666 0 -111.87862500003666 -38.898973548106369 0 0 0 0 73.891859739400388 -43.955901755403829 0 -43.955901755403829 -49.436296369520278 0 0 0 0 107.11558455082559 -98.01390842145338 0 -98.01390842145338 -54.721072106412976 0 0 0 0 142.91341687784916 -99.652575361770118 0 -99.652575361770118 -65.852737596087536 0 0 0 0 310.34171507087012 -97.697497870434745 0 -97.697497870434745 119.58941123815021 0 0 0 0 53.703616291632073 -24.384050003734522 0 -24.384050003734522 -5.4560458776413885 0 0 0 0 3.2461008819062656 -2.3013887631297365 0 -2.3013887631297365 2.9465061183928736 0 0 0 0 -92.838992038901779 -198.56628807068864 0 -198.56628807068864 -208.31232989936325 0 0 0 0 3.1342930506361881 -4.1653631732879148 0 -4.1653631732879148 -70.012825687120937 0 0 0 0 74.668566061865022 -39.526362098581671 0 -39.526362098581671 -69.559724339039349 0 0 0 0 218.74004203482764 -49.297354172829159 0 -49.297354172829159 -9.713137253838795 0 0 0 0 182.81022776370082 60.179034076491007 0 60.179034076491007 -20.966004848579814 0 0 0 0 109.56250902602915 4.6444318993530942 0 4.6444318993530942 -25.840505148769807 0 0 0 0 623.40023058245788 -10.142781908159805 0 -10.142781908159805 -202.86628235304261 0 0 0 0 546.7832599977628 89.568076400403697 0 89.568076400403697 154.92842983523042 0 0 0 0 -185.73893290847627 -74.917125752134552 0 -74.917125752134552 87.118494279116248 0 0 0 0 389.37354248906922 -5.7048520138066579 0 -5.7048520138066579 -117.60435571560538 0 0 0 0 -2.9138102074775318 -1.7267051060374072 0 -1.7267051060374072 -3.7991914456439737 0 0 0 0 44.752527381066102 -58.649879367848825 0 -58.649879367848825 -1.3914313120053521 0 0 0 0 160.94067876856934 -109.63674845877176 0 -109.63674845877176 -123.23065597644865 0 0 0 0 225.78496815215294 -113.30509871357935 0 -113.30509871357935 -124.049601881944 0 0 0 0 54.59504994999088 -123.94085489738347 0 -123.94085489738347 15.130885455547286 0 0 0 0 195.49455742864666 117.56755785348969 0 117.56755785348969 102.70273175843681 0 0 0 0 113.58035935897351 -44.176533893828491 0 -44.176533893828491 28.474858988582582 0 0 0 0 267.34438858115027 135.26369412467557 0 135.26369412467557 133.35177453931033 0 0 0 0 402.58922842517677 96.672448376627472 0 96.672448376627472 102.06866847958054 0 0 0 0 446.29353464484302 292.89635299510246 0 292.89635299510246 299.83489134961792 0 0 0 0 637.91517176956404 116.78401727101391 0 116.78401727101391 98.849540093487576 0 0 0 0 252.2013683759169 263.46831421116485 0 263.46831421116485 143.90318964774815 0 0 0 0 682.03277074411199 273.79501717102039 0 273.79501717102039 494.52766234247792 0 0 0 0 1184.5189451896563 87.814013221189384 0 87.814013221189384 55.568826262424409 0 0 0 0 1205.3697187361304 377.30628167376562 0 377.30628167376562 169.48467596513274 0 0 0 0 876.98567251303666 359.13080495276017 0 359.13080495276017 256.14651585641604 0 0 0 0 1063.8501042658859 181.02438515536926 0 181.02438515536926 -299.52497413753554 0 0 0 0 1086.6667244935707 265.38377914591206 0 265.38377914591206 -113.24448856569597 0 0 0 0 874.53583794098813 162.80822137303221 0 162.80822137303221 -136.14033352690774 0 0 0 0 609.92662282558194 187.80006938110796 0 187.80006938110796 59.871334849971163 0 0 0 0 721.72858145870305 324.06286925165773 0 324.06286925165773 131.38667319227579 0 0 0 0 849.2331313482855 278.51719868369332 0 278.51719868369332 91.280416374753258 0 0 0 0 596.75922351407826 172.09100387881222 0 172.09100387881222 49.866927189234048 0 0 0 0 289.68798688002062 155.19959614520667 0 155.19959614520667 195.6968887744606 0 0 0 0 534.43708883027284 198.16349486191484 0 198.16349486191484 149.72022674908931 0 0 0 0 311.12397240650898 107.82614002742548 0 107.82614002742548 145.28817050308976 0 0 0 0 309.76638647476648 61.582005262552684 0 61.582005262552684 124.00191934633858 0 0 0 0 222.44340788317459 21.148128302122132 0 21.148128302122132 206.48204272330167 0 0 0 0 570.51033678514614 104.9915872956251 0 104.9915872956251 51.919138474836473 0 0 0 0 315.68565517032312 105.86546816852729 0 105.86546816852729 119.43881662672266 0 0 0 0 432.73430553202525 40.773663255324692 0 40.773663255324692 28.613918216896764 0 0 0 0 342.97841828041055 5.4399111568814078 0 5.4399111568814078 30.909431984398907 0 0 0 0 430.63736288878795 24.423185620655147 0 24.423185620655147 4.3915982928183439 0 0 0 0 472.05474533410415 5.4275114505617239 0 5.4275114505617239 23.680532117247822 0 0 0 0 400.34833650490691 66.766410071877544 0 66.766410071877544 18.127649754390916 0 0 0 0 474.88286274141319 11.717917920850823 0 11.717917920850823 11.113717758904841 0 0 0 0 667.78543866298423 41.737753406860065 0 41.737753406860065 -16.927848404116503 0 0 0 0 655.30792371661119 -9.7541800267474628 0 -9.7541800267474628 -77.826985108310282 0 0 0 0 747.6948968882416 -156.43366743409609 0 -156.43366743409609 -78.774563763335209 0 0 0 0 751.63794017707914 -56.927126305478851 0 -56.927126305478851 -54.796881196950835 0 0 0 0 1029.747716081105 39.007381696656694 0 39.007381696656694 -204.02931411861482 0 0 0 0 838.09306987572199 -27.303111356211275 0 -27.303111356211275 -214.56395914495351 0 0 0 0 861.77069432077224 37.379387821117461 0 37.379387821117461 -96.925552192815303 0 0 0 0 775.99177958467317 79.841329522641217 0 79.841329522641217 -112.69333286606798 0 0 0 0 -12.217209737449593 -4.308182362952266 0 -4.308182362952266 14.980520304789025 0 0 0 0 -26.397211151481315 -15.851231847044346 0 -15.851231847044346 13.119090575440168 0 0 0 0 -11.49483886489179 -7.3242740424598196 0 -7.3242740424598196 25.562378018265008 0 0 0 0 -10.860871236694948 -4.6896991898279339 0 -4.6896991898279339 13.94616646371469 0 0 0 0 -30.189548091948382 -15.285718738794458 0 -15.285718738794458 20.376909675592287 0 0 0 0 -24.726927156560123 -22.751925377018324 0 -22.751925377018324 0.79007734082370007 0 0 0 0 -36.226467933971435 -32.617980989889475 0 -32.617980989889475 -0.8254097815060959 0 0 0 0 -17.529347520990996 -16.15655890425478 0 -16.15655890425478 4.6199661493533313 0 0 0 0 -42.95314572184725 -25.250551769907361 0 -25.250551769907361 6.8364718629982235 0 0 0 0 -36.516232536574535 -32.76466687647644 0 -32.76466687647644 -2.4571822884554422 0 0 0 0 -96.609874902580486 -26.985227023139487 0 -26.985227023139487 5.1203998875243997 0 0 0 0 -64.629111079528229 -40.337837409067106 0 -40.337837409067106 1.8918411324684712 0 0 0 0 -68.248136773630904 10.983573834551862 0 10.983573834551862 -31.882398093088341 0 0 0 0 -8.383892001892491 -20.833334065088778 0 -20.833334065088778 -17.845709343609997 0 0 0 0 -8.4066438771624235 -20.280698371381732 0 -20.280698371381732 -18.114317787403706 0 0 0 0 -15.992105291923508 -31.954686252546253 0 -31.954686252546253 4.6297863389336271 0 0 0 0 -46.500962092613918 -9.3346406612126884 0 -9.3346406612126884 -11.054540839742913 0 0 0 0 1.5186974086027476 -21.254287463428227 0 -21.254287463428227 -18.318640477407826 0 0 0 0 -10.727319877158152 -20.95477084018421 0 -20.95477084018421 8.1145063123640284 0 0 0 0 -41.214818717016897 -14.398471680626244 0 -14.398471680626244 11.804869237445018 0 0 0 0 31.946139863706776 -52.826742238388761 0 -52.826742238388761 12.239838821885996 0 0 0 0 -9.0496581077359224 -14.345654728876639 0 -14.345654728876639 26.951078511083324 0 0 0 0 23.812036854291364 -63.221959397583078 0 -63.221959397583078 3.889093379321821 0 0 0 0 79.78416979098256 -103.92142490539482 0 -103.92142490539482 -1.5792386698758492 0 0 0 0 -4.5206514987148694 -18.276553059614344 0 -18.276553059614344 72.548502415181929 0 0 0 0 32.201594134152401 -91.850811755040922 0 -91.850811755040922 54.669640428277489 0 0 0 0 -3.841073393879924 3.5856202353561457 0 3.5856202353561457 40.540891604930493 0 0 0 0 2.0419824122982391 -23.040093137581152 0 -23.040093137581152 33.394038792737774 0 0 0 0 0.36230849842104362 4.7804263962225377 0 4.7804263962225377 19.598703156465035 0 0 0 0 2.1657940405784757 1.067923633522696 0 1.067923633522696 22.354929714425452 0 0 0 0 16.777186939540115 -5.040659180194325 0 -5.040659180194325 26.705229553058416 0 0 0 0 12.327027545219607 8.1896411540847112 0 8.1896411540847112 25.950042903683425 0 0 0 0 4.3375143579098676 -11.697881285627005 0 -11.697881285627005 249.96053913914784 0 0 0 0 10.007134899202356 13.607322628192833 0 13.607322628192833 63.123417012695427 0 0 0 0 0.6931245968538633 -0.77683028896124107 0 -0.77683028896124107 1.1313377616721514 0 0 0 0 6.2174142518524604 -44.557715725266917 0 -44.557715725266917 135.58434338331972 0 0 0 0 29.726237773972116 -104.95499488813067 0 -104.95499488813067 119.93588751079551 0 0 0 0 50.122973647405161 -133.02774136710423 0 -133.02774136710423 40.360048273871598 0 0 0 0 53.821240394514007 -101.77079407188211 0 -101.77079407188211 98.835763704489182 0 0 0 0 148.76946910486549 -177.30423543501479 0 -177.30423543501479 145.57564344229013 0 0 0 0 267.31955159072095 37.597130915785328 0 37.597130915785328 142.64559357663734 0 0 0 0 296.29271681440878 -32.167900672483029 0 -32.167900672483029 157.02943833667155 0 0 0 0 322.04560572110677 -17.805703808175849 0 -17.805703808175849 -18.919275694829139 0 0 0 0 93.6045841567975 50.191489300056674 0 50.191489300056674 30.188209730096332 0 0 0 0 248.6337400554512 68.126348511067135 0 68.126348511067135 -12.071809508653132 0 0 0 0 336.89639452201936 -13.458986731941422 0 -13.458986731941422 -4.9592765415782196 0 0 0 0 296.62750321127351 63.186287789463222 0 63.186287789463222 -14.720744490176003 0 0 0 0 364.52543990720005 -3.0737965185569465 0 -3.0737965185569465 13.380030906645516 0 0 0 0 223.43426327682573 -31.466528683748265 0 -31.466528683748265 -2.4499965090035403 0 0 0 0 124.90711672812176 27.184909384710409 0 27.184909384710409 24.72421662926406 0 0 0 0 115.90372013228989 -27.419471222287939 0 -27.419471222287939 24.365012727740925 0 0 0 0 104.57718965690037 -23.948533623336061 0 -23.948533623336061 10.245754871353711 0 0 0 0 -20.558324465004262 -3.3572047996367473 0 -3.3572047996367473 46.702233906935362 0 0 0 0 50.019804474854027 -32.34268671189875 0 -32.34268671189875 48.384848779591266 0 0 0 0 37.742834521130135 -24.893718287888078 0 -24.893718287888078 13.198464833887556 0 0 0 0 53.286404191330803 11.469112938623766 0 11.469112938623766 9.5526147585369472 0 0 0 0 31.797989552465879 -66.540449787444913 0 -66.540449787444913 -34.04665238360576 0 0 0 0 2.8766622026087134 18.963950752677192 0 18.963950752677192 -39.996473865646294 0 0 0 0 88.453785422356304 8.7230799166413817 0 8.7230799166413817 -11.363578544801385 0 0 0 0 13.323078729028566 -51.053776282846457 0 -51.053776282846457 30.150853064873445 0 0 0 0 1.6915598921120605 -1.9932191131930175 0 -1.9932191131930175 2.3817106879586394 0 0 0 0 2.3934967992007401 -1.9325709149889854 0 -1.9325709149889854 1.0057102633560806 0 0 0 0 3.0764573718697648 4.1005459435723424 0 4.1005459435723424 14.047567212770446 0 0 0 0 7.3087766127791838 3.5055643136242907 0 3.5055643136242907 25.302254941095384 0 0 0 0 8.5629528649114945 6.8923548052439401 0 6.8923548052439401 15.437582562382886 0 0 0 0 1.082842676070868 6.3154729790121564 0 6.3154729790121564 21.90971912934549 0 0 0 0 2.8766622026159894 18.96395075268083 0 18.96395075268083 -39.996473865644248 0 0 0 0 2.8766622026232653 18.963950752702658 0 18.963950752702658 -39.996473865638109 0 0 0 0 7.8079391956889594 0.81486872756386219 0 0.81486872756386219 -4.6731390145032492 0 0 0 0 -67.993728456025565 -35.256919755963509 0 -35.256919755963509 20.720643320330055 0 0 0 0 -21.495662746884591 -20.395832178448842 0 -20.395832178448842 5.3112810592974711 0 0 0 0 0.22019575360203447 -0.59458450360990511 0 -0.59458450360990511 1.3228623967785627 0 0 0 0 6.7842218965870416 -5.4960063907153653 0 -5.4960063907153653 -6.701439112161097 0 0 0 0 -3.558200278741424 -2.6318144714191476 0 -2.6318144714191476 1.8323196435121645 0 0 0 0 0.97373436141633363 -0.76020376778076049 0 -0.76020376778076049 2.3861996931583125 0 0 0 0 11.314098225288035 6.1253500889661154 0 6.1253500889661154 2.7782226273590709 0 0 0 0 0.48473303107266474 -2.9614852833934151 0 -2.9614852833934151 14.512566084522405 0 0 0 0 -1.351422580115468 4.8879325016387156 0 4.8879325016387156 16.55064602170296 0 0 0 0 1.0964310276514482 3.8488587222779422 0 3.8488587222779422 16.087319596665111 0 0 0 0 -8.9430356240263791 2.9200973754459483 0 2.9200973754459483 20.741372832121669 0 0 0 0 -10.573471018935379 -2.9656941365601597 0 -2.9656941365601597 16.407046766827534 0 0 0 0 -8.056301404876649 -5.22701393239916 0 -5.22701393239916 13.894890059735189 0 0 0 0 -18.180306197018581 32.658777977449063 0 32.658777977449063 65.144400598508128 0 0 0 0 7.0773967158298206 14.347863692779619 0 14.347863692779619 57.551960638346827 0 0 0 0 -25.510876104406634 22.087659872925087 0 22.087659872925087 26.113676120484115 0 0 0 0 3.2452179690004854 0.79511126249112962 0 0.79511126249112962 0.50140375054107356 0 0 0 0 -15.253481148765786 16.251117889214584 0 16.251117889214584 -8.7739170842414751 0 0 0 0 20.575508148581321 6.9698082874540432 0 6.9698082874540432 60.715029120960025 0 0 0 0 10.859250680074183 18.84473327216574 0 18.84473327216574 52.671146168936957 0 0 0 0 59.931819297316906 94.391589437535004 0 94.391589437535004 201.20603133188467 0 0 0 0 1.4806974306467993 0.19541288964647308 0 0.19541288964647308 0.096752797682908565 0 0 0 0 167.00547981226737 -53.302264852404278 0 -53.302264852404278 -10.475897508245453 0 0 0 0 -21.682860395161697 1.4642654641606896 0 1.4642654641606896 65.901980188408857 0 0 0 0 308.98550693732795 59.049549990897958 0 59.049549990897958 -2.0889797374446024 0 0 0 0 308.10755901389922 90.597871187308485 0 90.597871187308485 62.211081657723298 0 0 0 0 323.84244222320376 16.473702520312486 0 16.473702520312486 44.448704644410782 0 0 0 0 290.45623246338619 163.96654623192967 0 163.96654623192967 69.037319602336993 0 0 0 0 134.48230896995847 192.66424109005436 0 192.66424109005436 318.78293071667713 0 0 0 0 4.8883231525121218 1.2082547079080741 0 1.2082547079080741 0.095146841782884017 0 0 0 0 139.30249496938814 -39.122653129585728 0 -39.122653129585728 -203.8147156942548 0 0 0 0 -2.6762467988937715 15.861312687482496 0 15.861312687482496 79.886622280022038 0 0 0 0 6.870477028377536 90.849339829370251 0 90.849339829370251 46.550291816837671 0 0 0 0 28.127839951333954 36.34989389495513 0 36.34989389495513 -122.75301386435694 0 0 0 0 6.9362598990919651 30.088195570654079 0 30.088195570654079 18.517588027327974 0 0 0 0 -4.8519699640983163 50.354498221772587 0 50.354498221772587 44.739783825674749 0 0 0 0 8.5686881806868769 28.328504426415748 0 28.328504426415748 19.611363404458189 0 0 0 0 697.08926950187106 -132.93765790414818 0 -132.93765790414818 -66.705025156965348 0 0 0 0 267.46191801337045 61.533183026456527 0 61.533183026456527 -81.151318168103444 0 0 0 0 2.7140431710399149 0.54498268335990119 0 0.54498268335990119 -1.1889142339505092 0 0 0 0 620.32244711007479 -76.596691228271084 0 -76.596691228271084 60.936796606033113 0 0 0 0 629.22548174562598 -86.375291053605451 0 -86.375291053605451 -57.583399907296553 0 0 0 0 348.81352766850978 35.394319226767948 0 35.394319226767948 136.72233276542852 0 0 0 0 404.44373910771446 -60.577509973791848 0 -60.577509973791848 208.53462212547493 0 0 0 0 321.0525206944385 40.30901917241863 0 40.30901917241863 135.86466266005363 0 0 0 0 440.42361392674138 -31.33397429100728 0 -31.33397429100728 109.80984314824991 0 0 0 0 355.69475756330121 -212.4224931360792 0 -212.4224931360792 248.19848995538496 0 0 0 0 249.46424538214887 16.318212147085205 0 16.318212147085205 178.85600945025328 0 0 0 0 104.21250733019042 -34.705786991181412 0 -34.705786991181412 171.42741239324641 0 0 0 0 175.60733712772708 -77.241491811244259 0 -77.241491811244259 188.8628295296694 0 0 0 0 220.54968917739689 -25.129212472209474 0 -25.129212472209474 -20.920016031847808 0 0 0 0 467.11843389112892 -297.04046652412251 0 -297.04046652412251 88.234717795943652 0 0 0 0 718.26164784858884 -133.31446723676345 0 -133.31446723676345 120.82989705425553 0 0 0 0 865.59440327206903 -533.52295927775504 0 -533.52295927775504 310.63008714247189 0 0 0 0 5.642356037937212 1.804047659578341 0 1.804047659578341 -2.3902167513816241 0 0 0 0 719.52337363694869 -511.99971244131598 0 -511.99971244131598 117.29575499026851 0 0 0 0 523.79745461780476 -226.82173954697191 0 -226.82173954697191 170.58915419727089 0 0 0 0 785.75970204934765 -384.30982724261753 0 -384.30982724261753 84.825413964476411 0 0 0 0 1004.9389976411676 -200.8171305100891 0 -200.8171305100891 -24.129992922145902 0 0 0 0 807.47033867356004 -276.03850598161716 0 -276.03850598161716 75.482290764247409 0 0 0 0 934.85440404249312 -266.05884458235505 0 -266.05884458235505 -44.865245943247828 0 0 0 0 597.38977260289903 -292.66284338672267 0 -292.66284338672267 24.856286779028412 0 0 0 0 520.59560975427303 -126.45258573772719 0 -126.45258573772719 27.031621916163203 0 0 0 0 758.69715566458308 -184.24129265720353 0 -184.24129265720353 -23.681104207293174 0 0 0 0 780.17584079350127 -343.77527460253441 0 -343.77527460253441 -12.234205486932979 0 0 0 0 815.31340962213108 -299.44145400025809 0 -299.44145400025809 72.685626321366271 0 0 0 0 895.09919207238454 -210.43090643540484 0 -210.43090643540484 108.00062067131785 0 0 0 0 892.82019334609072 -329.78176048633532 0 -329.78176048633532 -90.737701857797219 0 0 0 0 897.7937996414264 -373.98925210475738 0 -373.98925210475738 67.737919506920662 0 0 0 0 823.42133245532568 -288.94400113138863 0 -288.94400113138863 -105.05049589225109 0 0 0 0 709.01530102841934 -305.39956608565535 0 -305.39956608565535 -24.911334897984489 0 0 0 0 669.1116220072854 -152.31710425772894 0 -152.31710425772894 -76.679012687901377 0 0 0 0 1659.8811243615601 -726.0322428228319 0 -726.0322428228319 231.95452508593735 0 0 0 0 3019.6041794587918 -59.902270957646124 0 -59.902270957646124 -329.55234549838315 0 0 0 0 1462.4263251376324 -1.6252716934768614 0 -1.6252716934768614 -330.53579934052476 0 0 0 0 977.61497784566382 -458.55104456733579 0 -458.55104456733579 157.19661022948549 0 0 0 0 1179.4409070476977 -474.49918967145504 0 -474.49918967145504 -40.007637394194262 0 0 0 0 1175.2443931605412 -419.9750592943567 0 -419.9750592943567 43.797129261134614 0 0 0 0 1097.3120135518693 -386.70020132035961 0 -386.70020132035961 -133.79964866163709 0 0 0 0 996.04235657765457 -275.45591287072966 0 -275.45591287072966 333.49030874188793 0 0 0 0 1045.2695782121373 -260.63939590693644 0 -260.63939590693644 296.23313397811398 0 0 0 0 993.17412919068011 -239.52806147004139 0 -239.52806147004139 48.299325307566505 0 0 0 0 879.8375583981524 -398.58770689242237 0 -398.58770689242237 507.45728246743829 0 0 0 0 1852.2311298567029 -1130.0174517319927 0 -1130.0174517319927 451.6795966516529 0 0 0 0 1279.4582241216149 -790.27021550961945 0 -790.27021550961945 800.32065184161547 0 0 0 0 3476.648733648618 -524.10184314996127 0 -524.10184314996127 1867.8965294188838 0 0 0 0 653.91089651467701 -129.51803155137259 0 -129.51803155137259 255.08906411688622 0 0 0 0 3486.7975659389831 -537.39994086862544 0 -537.39994086862544 -492.21065614001782 0 0 0 0 1021.3510410635563 -61.804353774914716 0 -61.804353774914716 -106.3840862147822 0 0 0 0 3.0474940068083742 -2.6512146535511754 0 -2.6512146535511754 0.85483000931609077 0 0 0 0 1073.6035863709385 -150.27032541971425 0 -150.27032541971425 -14.102098642869123 0 0 0 0 1061.0214663968973 -180.4747333120381 0 -180.4747333120381 -26.149156728889011 0 0 0 0 975.01980291769723 -180.37190554041263 0 -180.37190554041263 77.53342359799808 0 0 0 0 994.90858503456866 -105.0589906802802 0 -105.0589906802802 6.7729610273954677 0 0 0 0 1219.9962315257144 -248.82009128113953 0 -248.82009128113953 -33.235742685418927 0 0 0 0 1006.1783009202152 -207.20861234027183 0 -207.20861234027183 -35.000220422483835 0 0 0 0 2.9061347071013865 -6.9762451529365945 0 -6.9762451529365945 1.7554615428878044 0 0 0 0 1177.5319996223607 -165.00133439381239 0 -165.00133439381239 -50.147590473793798 0 0 0 0 1646.4712947378503 -409.74092104146803 0 -409.74092104146803 -150.69547853292988 0 0 0 0 1631.3535789583327 -305.99001189647822 0 -305.99001189647822 -17.390293103731665 0 0 0 0 1432.6177614625904 -670.40167999032019 0 -670.40167999032019 254.47486200632829 0 0 0 0 1136.3200224514903 -405.30665502763441 0 -405.30665502763441 346.83493954949608 0 0 0 0 1301.7446306852946 -279.8801634639276 0 -279.8801634639276 237.12424516381543 0 0 0 0 970.7130555868689 -569.26613183529798 0 -569.26613183529798 558.24146624649165 0 0 0 0 753.71321609567804 -396.11377844795743 0 -396.11377844795743 420.25798838417722 0 0 0 0 991.81976152743448 93.22150247167383 0 93.22150247167383 393.14337659664398 0 0 0 0 560.21099710350177 310.31495670331969 0 310.31495670331969 96.298789017072977 0 0 0 0 -294.10295853753269 -569.50012414548155 0 -569.50012414548155 573.7623101879451 0 0 0 0 2896.1471791260356 -1009.4482967456825 0 -1009.4482967456825 -179.37878717010062 0 0 0 0 1457.6049384187486 -1411.0173330331377 0 -1411.0173330331377 -104.7484420224323 0 0 0 0 2790.4175462576086 -398.27107093861287 0 -398.27107093861287 -162.42983769103193 0 0 0 0 1464.004918667797 -1137.9275040944735 0 -1137.9275040944735 -105.96228764190164 0 0 0 0 829.52919182602318 -793.62348666811408 0 -793.62348666811408 236.92795949873289 0 0 0 0 7.614572567947409 5.0648881887841037 0 5.0648881887841037 -14.489422445895945 0 0 0 0 3500.9008756597509 -336.51991346351406 0 -336.51991346351406 72.512901977208557 0 0 0 0 2614.7340080713666 -172.79342035691934 0 -172.79342035691934 -21.610560712760162 0 0 0 0 2051.2004146693698 -377.26983720049157 0 -377.26983720049157 285.52882529800536 0 0 0 0 1972.1312423712004 -53.655413440911161 0 -53.655413440911161 84.498138096374532 0 0 0 0 1924.0055309760091 -118.12435883381522 0 -118.12435883381522 241.46954705526878 0 0 0 0 1923.0329135050606 -23.516114462546973 0 -23.516114462546973 131.83454984379568 0 0 0 0 1534.184692906483 83.405784970268542 0 83.405784970268542 294.59624129543863 0 0 0 0 1667.4933946188485 0.10736438792901026 0 0.10736438792901026 183.62079742978767 0 0 0 0 1271.1093134141968 -113.21830825822963 0 -113.21830825822963 273.73443527750715 0 0 0 0 1490.2264679510149 -63.270995523482725 0 -63.270995523482725 272.96502804334705 0 0 0 0 1315.3646751999827 198.30468560462327 0 198.30468560462327 415.40523748653686 0 0 0 0 1277.9042265211824 -53.29669176401967 0 -53.29669176401967 232.65628585891636 0 0 0 0 1992.2772197472877 66.777037783596825 0 66.777037783596825 52.209825241905492 0 0 0 0 2006.6642839567905 47.644348219235326 0 47.644348219235326 191.81457237828818 0 0 0 0 3579.8862375511253 -574.93258068271882 0 -574.93258068271882 -68.314268877326242 0 0 0 0 3498.160728408086 -646.91109134904229 0 -646.91109134904229 -95.55176869080951 0 0 0 0 2479.5863216422431 116.62078923206354 0 116.62078923206354 91.533595915857404 0 0 0 0 2076.3506736291101 290.56128862625155 0 290.56128862625155 454.66732921252515 0 0 0 0 1964.018627257049 -146.27402171307995 0 -146.27402171307995 772.12078043409338 0 0 0 0 1858.9422711544144 1471.3464900669505 0 1471.3464900669505 -869.73031526049169 0 0 0 0 4372.9621704577457 118.44089406564967 0 118.44089406564967 -1034.3282691810755 0 0 0 0 5.4242917367337569 1.9719866536169057 0 1.9719866536169057 -8.2412987285150141 0 0 0 0 3092.2620522688599 -729.79705358161823 0 -729.79705358161823 80.469949019970954 0 0 0 0 2249.0001246490829 328.07549832298309 0 328.07549832298309 -644.71354123731999 0 0 0 0 1891.1134210544114 -261.81657643690733 0 -261.81657643690733 -666.16661472142437 0 0 0 0 1037.3025454972681 82.274772516673693 0 82.274772516673693 256.06661456961092 0 0 0 0 949.13087187061205 -1224.6127340328962 0 -1224.6127340328962 -1742.1138872368074 0 0 0 0 1682.7241224110576 1566.8223066007649 0 1566.8223066007649 688.74072008730434 0 0 0 0 -145.6180545770585 -125.27834839036041 0 -125.27834839036041 474.05039226091776 0 0 0 0 3495.989796907973 2569.1187694567034 0 2569.1187694567034 -1387.7989110923015 0 0 0 0 1583.9707856341411 2744.4246618136699 0 2744.4246618136699 447.73476415352422 0 0 0 0 3577.5056493921761 1359.0624990640208 0 1359.0624990640208 -546.98364571649108 0 0 0 0 4407.1190105326641 1392.1298776588592 0 1392.1298776588592 -28.467419971555046 0 0 0 0 -625.63539478133498 -1662.7171247546453 0 -1662.7171247546453 -123.5183706676699 0 0 0 0 17.758978535837461 -4.7102470200930586 0 -4.7102470200930586 -0.040083995583123588 0 0 0 0 252.70887073979566 710.80445106307525 0 710.80445106307525 -1142.1315157074996 0 0 0 0 1035.1884838548976 -253.83217511588421 0 -253.83217511588421 -184.47143012065408 0 0 0 0 502.34317862042371 91.962820077632159 0 91.962820077632159 -1061.8698275060472 0 0 0 0 37.774260328540464 -7.9382335806107793 0 -7.9382335806107793 -4.6341008943945958 0 0 0 0 431.42650165916257 60.140251997763244 0 60.140251997763244 -501.70115353155552 0 0 0 0 1623.1858088918889 873.24703302557737 0 873.24703302557737 340.56816177374731 0 0 0 0 666.15373551490302 514.1889815639347 0 514.1889815639347 215.43281930499325 0 0 0 0 1729.2078965400033 271.89723512518049 0 271.89723512518049 -541.79953421550908 0 0 0 0 1000.5909456962418 455.97424603018612 0 455.97424603018612 -546.74668838896832 0 0 0 0 953.58460319561709 417.61809873707341 0 417.61809873707341 -551.28098148595723 0 0 0 0 530.33817461091166 653.30249774948584 0 653.30249774948584 -372.89810904956528 0 0 0 0 423.61369061204459 451.80390606198318 0 451.80390606198318 -705.79993228139074 0 0 0 0 702.62051194162632 727.65944170120702 0 727.65944170120702 -535.56354525084112 0 0 0 0 986.53022586350016 913.69889632522336 0 913.69889632522336 -768.39305799651197 0 0 0 0 417.94258158698722 799.26707305881223 0 799.26707305881223 -516.27522671789029 0 0 0 0 362.44474622270081 395.27729960810365 0 395.27729960810365 -496.94906754823751 0 0 0 0 657.45849668945448 -1231.8756682267951 0 -1231.8756682267951 -1728.127800048449 0 0 0 0 21.52656650562944 -1.5987798301060039 0 -1.5987798301060039 -3.8016850749480002 0 0 0 0 -30.207059553758882 223.47997814302255 0 223.47997814302255 -627.03883568199899 0 0 0 0 372.56027753919625 518.15001460140979 0 518.15001460140979 -788.00748317858211 0 0 0 0 605.65017098703902 175.99216420273342 0 175.99216420273342 -761.9888303096418 0 0 0 0 1699.0721776098035 312.32675553129906 0 312.32675553129906 -870.71181501971091 0 0 0 0 1677.2876427117335 271.82129047973393 0 271.82129047973393 -895.36205312322659 0 0 0 0 3491.7293529849976 -463.36844306473461 0 -463.36844306473461 -1577.1110163786593 0 0 0 0 2951.7986664889322 375.56693480018816 0 375.56693480018816 -919.40150609342334 0 0 0 0 2991.7166816996087 204.47199875049901 0 204.47199875049901 -336.97891618974711 0 0 0 0 3.4349979785357334 4.2914598428034054 0 4.2914598428034054 -1.8840762928528054 0 0 0 0 2285.5054369212639 180.08773192659379 0 180.08773192659379 -280.52319449063151 0 0 0 0 2419.2066719190698 1022.1627185888267 0 1022.1627185888267 -343.40288456486218 0 0 0 0 3502.4726951941866 807.57338047145038 0 807.57338047145038 -615.802886457662 0 0 0 0 541.04613378750582 535.62758779380124 0 535.62758779380124 -761.12027675336367 0 0 0 0 -790.40960451025239 1441.2578172731432 0 1441.2578172731432 -815.06346411374147 0 0 0 0 -146.8435648438799 337.91750227079206 0 337.91750227079206 -570.89701518796983 0 0 0 0 114.0967780736969 392.89803192268187 0 392.89803192268187 -663.53607082253325 0 0 0 0 191.98287253218814 204.68078456191404 0 204.68078456191404 -671.90354514558339 0 0 0 0 489.71895450145348 217.05318277034371 0 217.05318277034371 -758.79014425775745 0 0 0 0 591.65425314958134 21.764707193693994 0 21.764707193693994 -493.37682898998355 0 0 0 0 952.86243017157358 -309.82597362569595 0 -309.82597362569595 -449.57588184881274 0 0 0 0 410.81664160007676 -125.46014466123364 0 -125.46014466123364 -403.35769477344365 0 0 0 0 993.59789083310352 -103.05574879797109 0 -103.05574879797109 -610.22017848704172 0 0 0 0 77.476778247819311 -12.230446966587238 0 -12.230446966587238 -577.12153754293831 0 0 0 0 809.71187165763695 -332.27790581933573 0 -332.27790581933573 -531.32955967636462 0 0 0 0 1576.4976440121591 517.78028244542156 0 517.78028244542156 -79.351420060826058 0 0 0 0 2560.0123296649726 637.06251461032912 0 637.06251461032912 -374.77592288896994 0 0 0 0 1507.3464386725282 -35.393408631132843 0 -35.393408631132843 -687.20327132761304 0 0 0 0 1236.5007687887701 -144.76226768841434 0 -144.76226768841434 -462.62058078526979 0 0 0 0 1152.4782280084528 92.038823616225727 0 92.038823616225727 -258.38692303117955 0 0 0 0 1192.7201867417298 -132.99894919737517 0 -132.99894919737517 -437.8261129930529 0 0 0 0 1209.6085864804754 -214.0202625873153 0 -214.0202625873153 -606.44739325920864 0 0 0 0 1081.0494735653126 -257.11752059253786 0 -257.11752059253786 -439.95866611492602 0 0 0 0 999.88643696075997 -133.73203784230191 0 -133.73203784230191 -183.85521909668842 0 0 0 0 964.86145821671744 -219.06504719670784 0 -219.06504719670784 -296.51755068079865 0 0 0 0 1074.9025492212277 -234.5455953987246 0 -234.5455953987246 -349.4052724344092 0 0 0 0 872.37468778349648 -305.17647633781871 0 -305.17647633781871 -102.8140052812509 0 0 0 0 851.54937405704186 -171.27152072496119 0 -171.27152072496119 -181.76497458743688 0 0 0 0 1003.6865475449727 -329.30680635871977 0 -329.30680635871977 -213.34011118340277 0 0 0 0 1001.8442273405435 -341.94753993736072 0 -341.94753993736072 -292.5042610717037 0 0 0 0 1065.8263691702723 -396.13549448316621 0 -396.13549448316621 -372.27319861526166 0 0 0 0 1029.9193030650422 -424.54935071523823 0 -424.54935071523823 -125.7191669353515 0 0 0 0 1221.4291050607753 -434.0547187727575 0 -434.0547187727575 -338.58655859935698 0 0 0 0 975.89636042727943 -337.14557087233015 0 -337.14557087233015 -348.32243370733909 0 0 0 0 1030.3399501361091 -143.41544251327605 0 -143.41544251327605 -435.58296308393085 0 0 0 0 1220.0054327394978 -220.75128510104784 0 -220.75128510104784 -447.69531303779149 0 0 0 0 1559.1424402681514 -460.13671380112191 0 -460.13671380112191 -284.04069035603925 0 0 0 0 1117.7397854522274 -122.95012773690837 0 -122.95012773690837 -448.91971435475898 0 0 0 0 1566.629586899182 30.063467087570416 0 30.063467087570416 -521.1637231309478 0 0 0 0 1247.7953687831596 -110.61854437991224 0 -110.61854437991224 -573.55862456346949 0 0 0 0 678.22674297406411 49.83469177216125 0 49.83469177216125 -543.90493805896267 0 0 0 0 145.50138497992521 29.158643162397311 0 29.158643162397311 -112.31666618315467 0 0 0 0 155.51140948208194 -36.704909669495464 0 -36.704909669495464 -67.919802904522385 0 0 0 0 103.52330290147802 119.3218791506489 0 119.3218791506489 -226.21608475206267 0 0 0 0 -121.68831704871991 74.783662887879927 0 74.783662887879927 -50.004616990624527 0 0 0 0 146.09982600035778 -41.646202201920687 0 -41.646202201920687 -149.30143109666096 0 0 0 0 -0.75510541997776692 -1.0757519615140545 0 -1.0757519615140545 -3.0257582531905562 0 0 0 0 97.935817616655186 27.681302630919163 0 27.681302630919163 -245.86870469329006 0 0 0 0 44.818705844052602 -3.3046338097592525 0 -3.3046338097592525 -43.847104056645549 0 0 0 0 -3.3141541522199987 35.043221615260336 0 35.043221615260336 116.25471672043386 0 0 0 0 -9.4553368953274912 18.547129967674664 0 18.547129967674664 -37.284201903320536 0 0 0 0 39.355814435719367 -21.961062894803035 0 -21.961062894803035 -31.970266768099464 0 0 0 0 37.912203716477734 -30.279669664482981 0 -30.279669664482981 7.2367737240892893 0 0 0 0 43.856067470626556 19.665062431291005 0 19.665062431291005 -73.328393496794888 0 0 0 0 125.91058413326391 -17.83174939338187 0 -17.83174939338187 -57.310787075508415 0 0 0 0 124.99590589236232 -14.530290901809849 0 -14.530290901809849 -64.611657012743308 0 0 0 0 37.845691063019331 5.741079768761665 0 5.741079768761665 -52.843341797268295 0 0 0 0 143.51721774486032 23.726985251642873 0 23.726985251642873 -124.38746524281669 0 0 0 0 152.10639801059733 -8.9254075328171893 0 -8.9254075328171893 -101.05724502259545 0 0 0 0 20.191775289986253 96.389143537120617 0 96.389143537120617 -47.255757984057709 0 0 0 0 1.3202579621857566 1.5177909214318994 0 1.5177909214318994 0.37704579301334462 0 0 0 0 -2.0310552506998647 11.70736043965735 0 11.70736043965735 -144.80330948904975 0 0 0 0 -41.821116291301223 0.46573345322258319 0 0.46573345322258319 60.976637399178799 0 0 0 0 14.525540546666889 1.9794930741045391 0 1.9794930741045391 4.9265460669257664 0 0 0 0 4.0349614786094037 3.8507527330852405 0 3.8507527330852405 4.0397898113016097 0 0 0 0 42.168669123258951 46.527969124459105 0 46.527969124459105 -65.285792822593976 0 0 0 0 163.94818636550553 -12.247113191635435 0 -12.247113191635435 -100.16144450784032 0 0 0 0 88.727644019794752 -9.0292279179793695 0 -9.0292279179793695 -15.676488024866558 0 0 0 0 180.13385243584889 -88.496310073842324 0 -88.496310073842324 10.784721705982975 0 0 0 0 6.5953434643088258 -68.083422067158608 0 -68.083422067158608 38.074717076335219 0 0 0 0 61.648562048698295 220.47669091373177 0 220.47669091373177 -116.00285916553958 0 0 0 0 0.30553393042317367 1.4763880503653013 0 1.4763880503653013 2.348314479677013 0 0 0 0 30.522384879162928 30.530003965764081 0 30.530003965764081 -41.632758895382722 0 0 0 0 38.876275135276956 17.362168054247377 0 17.362168054247377 -31.248470203063334 0 0 0 0 44.935316848044749 13.025636721811679 0 13.025636721811679 -41.324425374045461 0 0 0 0 35.197155782584701 14.579330883327811 0 14.579330883327811 5.6085630744304922 0 0 0 0 41.399173586338293 32.925965168612038 0 32.925965168612038 -67.887291838398596 0 0 0 0 32.854293860858888 10.58056827477867 0 10.58056827477867 -56.280259532740274 0 0 0 0 676.96544719582744 -1060.5835573205595 0 -1060.5835573205595 -488.52193795595213 0 0 0 0 -660.06053678077205 -455.4077571986561 0 -455.4077571986561 163.57517658056076 0 0 0 0 124.01225801388864 -231.22214958893983 0 -231.22214958893983 223.801257080916 0 0 0 0 241.48424541415534 -205.12204917503709 0 -205.12204917503709 -260.656508510614 0 0 0 0 162.25743781821211 0.47697050691681397 0 0.47697050691681397 -13.741845804583136 0 0 0 0 8.2819901399925584 -87.802105628733443 0 -87.802105628733443 -197.95906067943565 0 0 0 0 319.09284007375572 112.62592779629449 0 112.62592779629449 -331.82975690865715 0 0 0 0 28.877748925301852 10.229894562395046 0 10.229894562395046 3.6228661483504716 0 0 0 0 1413.9472451889269 358.94411142280387 0 358.94411142280387 -104.17648529881558 0 0 0 0 1643.5384616591618 682.95295668461767 0 682.95295668461767 594.62011037067896 0 0 0 0 -135.58811928591786 221.32835577755486 0 221.32835577755486 345.74007158449876 0 0 0 0 13.395486021367105 1.0711095107826898 0 1.0711095107826898 0.33931775157020871 0 0 0 0 -304.46788058597303 -332.88722721772501 0 -332.88722721772501 64.895172529800391 0 0 0 0 113.67847844600783 574.03788862636179 0 574.03788862636179 723.9158654904677 0 0 0 0 -84.162365785784459 296.37909718953233 0 296.37909718953233 232.69449967882792 0 0 0 0 361.04541833213261 -88.003967211192958 0 -88.003967211192958 53.043154302857147 0 0 0 0 33.113882746032459 2.5717732002867155 0 2.5717732002867155 -1.1765259099413174 0 0 0 0 421.70063895662543 407.14359319005052 0 407.14359319005052 24.919255869789595 0 0 0 0 765.30074906997061 55.049871954341597 0 55.049871954341597 -52.996401500530737 0 0 0 0 -293.15100396803973 345.09394693999184 0 345.09394693999184 276.31841247038756 0 0 0 0 -0.18153345112271069 0.3865656631877048 0 0.3865656631877048 3.0086241915050458 0 0 0 0 196.27236189774885 398.01686593852355 0 398.01686593852355 144.77850334012282 0 0 0 0 -77.501338722673609 86.281077466111583 0 86.281077466111583 -178.2416462620422 0 0 0 0 41.039642430174354 67.994651064738264 0 67.994651064738264 -421.42435893172251 0 0 0 0 37.706184816039887 3.6261010207241178 0 3.6261010207241178 -1.2543490348856865 0 0 0 0 135.61668909731236 32.684762293499944 0 32.684762293499944 -435.84624462502052 0 0 0 0 252.23565355983101 212.46289739834265 0 212.46289739834265 -284.07890027469728 0 0 0 0 98.82365285591186 243.71711702043285 0 243.71711702043285 117.10577602937519 0 0 0 0 134.68133427714065 149.36735025653707 0 149.36735025653707 -37.362772079715796 0 0 0 0 -119.54821074729614 40.16404590369666 0 40.16404590369666 91.77316739656726 0 0 0 0 28.520647904295259 77.468874931804976 0 77.468874931804976 115.58551079354038 0 0 0 0 133.15483250577176 246.74611855493322 0 246.74611855493322 68.21968252932129 0 0 0 0 131.97417380155639 142.67092061724088 0 142.67092061724088 43.997350794016029 0 0 0 0 181.35736011890094 290.80127113049139 0 290.80127113049139 286.45675765460237 0 0 0 0 16.092225409918591 -4.2548731247539493 0 -4.2548731247539493 1.3013589611556213 0 0 0 0 128.53494603402351 167.96558311096214 0 167.96558311096214 180.19972608970374 0 0 0 0 225.17752540219271 129.15565169073511 0 129.15565169073511 128.19489714441715 0 0 0 0 111.76954172392743 55.963229853398843 0 55.963229853398843 45.187350257020626 0 0 0 0 7.7165026518969544 1.3866795686749498 0 1.3866795686749498 4.8463255260300073 0 0 0 0 86.477744254237678 5.6150845512383967 0 5.6150845512383967 -118.16925638512839 0 0 0 0 6.47674787184134 8.1617911755563473 0 8.1617911755563473 -2.5583891118682818 0 0 0 0 7.9109702693785948 137.93725354166327 0 137.93725354166327 -174.49920815387514 0 0 0 0 255.0163246117736 38.185711053904015 0 38.185711053904015 -28.273829655202007 0 0 0 0 336.57662855356193 208.14040402723276 0 208.14040402723276 63.858197818027293 0 0 0 0 49.977440776701769 -4.1848108925005363 0 -4.1848108925005363 -13.890260697863596 0 0 0 0 182.32152490591989 81.849358746609369 0 81.849358746609369 54.676809936174323 0 0 0 0 27.684933531973229 -5.1760553104181248 0 -5.1760553104181248 1.2138395218197129 0 0 0 0 -3.7006361423718772 27.582382706379576 0 27.582382706379576 6.4428141649341342 0 0 0 0 41.971803529501813 2.6739490898803524 0 2.6739490898803524 -1.2439783201589307 0 0 0 0 20.899138893761442 17.339548721017955 0 17.339548721017955 2.9773989580563942 0 0 0 0 50.25600166182835 3.7758593818348345 0 3.7758593818348345 6.8596036440758326 0 0 0 0 54.513151818431652 7.3259709060239402 0 7.3259709060239402 -0.43607739146909807 0 0 0 0 79.802503342571981 -14.572597013692757 0 -14.572597013692757 22.003801791974183 0 0 0 0 53.891660238978147 5.9296730631322134 0 5.9296730631322134 7.9670529227751103 0 0 0 0 55.015262702743144 -5.744774931906818 0 -5.744774931906818 19.733033023911048 0 0 0 0 45.463673433797794 5.2296909327151297 0 5.2296909327151297 13.12518633740001 0 0 0 0 48.942625608287926 7.0611887323875635 0 7.0611887323875635 -9.0683450156780054 0 0 0 0 21.210529299177779 10.35775950688685 0 10.35775950688685 30.864733813168641 0 0 0 0 38.139246105145958 -22.222095226016791 0 -22.222095226016791 49.61730093513097 0 0 0 0 36.051761877270735 -13.19582372163768 0 -13.19582372163768 53.807389899840928 0 0 0 0 44.774397964026321 3.0979163600131869 0 3.0979163600131869 30.328401392312117 0 0 0 0 69.088692091747362 -14.159865711790189 0 -14.159865711790189 33.484448309001891 0 0 0 0 98.867847587483084 -3.3561108274698199 0 -3.3561108274698199 37.392353776732307 0 0 0 0 48.312386939558564 -5.3505243969871117 0 -5.3505243969871117 50.1503058259932 0 0 0 0 7.5694408107567597 27.155955945014284 0 27.155955945014284 86.326067860538387 0 0 0 0 33.3306309916195 -14.15873598583903 0 -14.15873598583903 -7.6705044949121657 0 0 0 0 87.705333169303913 -89.869044850796399 0 -89.869044850796399 111.6503820025132 0 0 0 0 124.94173318718822 -60.902064104468991 0 -60.902064104468991 58.987192759290338 0 0 0 0 206.52782534646303 -121.06708846974652 0 -121.06708846974652 27.399395386971946 0 0 0 0 36.283818752871184 -26.921706508369198 0 -26.921706508369198 37.762150907377872 0 0 0 0 94.474602043706341 -75.632088120928415 0 -75.632088120928415 38.632898260846559 0 0 0 0 64.781637605886772 -28.036727670394157 0 -28.036727670394157 -32.602233462389449 0 0 0 0 123.61545897473127 -44.423723493526722 0 -44.423723493526722 -41.347914047271843 0 0 0 0 169.97930882168589 -69.922771589604054 0 -69.922771589604054 -58.581682328484476 0 0 0 0 73.636923446536002 -51.122532848234187 0 -51.122532848234187 14.463441053942915 0 0 0 0 111.25306678610104 -37.67637537928249 0 -37.67637537928249 9.3452115505488109 0 0 0 0 41.423529358448832 -17.472227140548966 0 -17.472227140548966 32.834707618977291 0 0 0 0 50.830956323182363 -24.711757862871309 0 -24.711757862871309 35.234356273535013 0 0 0 0 45.823200450156037 -11.940079489331765 0 -11.940079489331765 26.045290327149587 0 0 0 0 49.809626874153025 -17.290244234151658 0 -17.290244234151658 27.946536501975061 0 0 0 0 50.843468768397315 -42.110971312011088 0 -42.110971312011088 -4.6258895614191715 0 0 0 0 23.761035949839425 -9.0695185364756981 0 -9.0695185364756981 1.4139539284310558 0 0 0 0 70.357804151415621 -1.0682843889526339 0 -1.0682843889526339 -74.734626849487086 0 0 0 0 71.568573040672746 -0.046307628952510171 0 -0.046307628952510171 -15.068549227327754 0 0 0 0 100.01811639283278 -83.733680654673663 0 -83.733680654673663 -72.298725368323858 0 0 0 0 91.023137130954638 -1.6177425360247071 0 -1.6177425360247071 2.7906154957690887 0 0 0 0 49.182739401647268 47.731618739230612 0 47.731618739230612 -21.543114390293795 0 0 0 0 16.263282614542163 1.0656935403247658 0 1.0656935403247658 -2.4223109936489866 0 0 0 0 62.482579932652897 6.6347753414970612 0 6.6347753414970612 -17.168563497923969 0 0 0 0 23.489154867752209 3.1239721159706599 0 3.1239721159706599 -9.9873432873285157 0 0 0 0 30.026133549694805 6.4624635418949765 0 6.4624635418949765 -19.967977894248179 0 0 0 0 122.31291334134039 -25.546055565440383 0 -25.546055565440383 10.008408302481257 0 0 0 0 4.414994140556745 1.1568310884882838 0 1.1568310884882838 0.8041862842945271 0 0 0 0 33.263149318835247 -1.2589081081167137 0 -1.2589081081167137 -5.9710872668074444 0 0 0 0 -13.988694640745962 25.590910955666914 0 25.590910955666914 47.027562603444494 0 0 0 0 101.54658037780814 -17.543162868970626 0 -17.543162868970626 12.603515702889126 0 0 0 0 26.078589826109098 13.678187440421276 0 13.678187440421276 2.8507391662713353 0 0 0 0 -3.2018703773913799 3.5323630544429836 0 3.5323630544429836 2.6980987960540581 0 0 0 0 9.3394108370284812 9.0246772734426486 0 9.0246772734426486 2.2735685692259722 0 0 0 0 -68.079445167446465 93.493975184553165 0 93.493975184553165 28.400556216511177 0 0 0 0 17.584939357765464 11.180819284152159 0 11.180819284152159 0.38544766624057658 0 0 0 0 11.511371154045525 15.176101358777967 0 15.176101358777967 5.0359319871168395 0 0 0 0 8.8079623423182056 162.69569056278851 0 162.69569056278851 187.15396014456201 0 0 0 0 32.928540617165709 107.83511913014718 0 107.83511913014718 -116.32986283299488 0 0 0 0 39.781556631710806 13.721267612024956 0 13.721267612024956 0.66192126895311887 0 0 0 0 102.11864318397602 -138.92628249537756 0 -138.92628249537756 149.41359939635731 0 0 0 0 133.66707465840727 -81.940489199732156 0 -81.940489199732156 5.6644600120089308 0 0 0 0 1.6198010645039176 -15.416801416423596 0 -15.416801416423596 18.810415369363909 0 0 0 0 -3.3443138364673359 -39.209439727913377 0 -39.209439727913377 61.763724778431424 0 0 0 0 -30.335849221224635 -2.1462660488377878 0 -2.1462660488377878 25.787967081965689 0 0 0 0 119.29486926000118 31.012157883418695 0 31.012157883418695 -37.055338966998534 0 0 0 0 -62.635924034892014 -3.2498807210427003 0 -3.2498807210427003 33.783722030169884 0 0 0 0 -42.21511330661815 -24.30532394615966 0 -24.30532394615966 33.954552064054951 0 0 0 0 8.8382005177966931 0.68248374840929316 0 0.68248374840929316 -8.0509661120056109 0 0 0 0 16.817843357584536 23.12680321172947 0 23.12680321172947 7.6473647614212368 0 0 0 0 97.998458969267404 32.657447721315521 0 32.657447721315521 -6.5171961701162218 0 0 0 0 37.820333304956421 35.979596458709239 0 35.979596458709239 6.8401152144942898 0 0 0 0 -23.117827743077214 -27.034785162913977 0 -27.034785162913977 25.455220957126585 0 0 0 0 27.752527400292593 18.904349011318004 0 18.904349011318004 15.547520843338134 0 0 0 0 -11.839688041931367 35.075866945387133 0 35.075866945387133 35.354173156793877 0 0 0 0 279.62165651373289 -99.094536645857261 0 -99.094536645857261 -24.806849341190173 0 0 0 0 251.54909919511556 58.43374393144677 0 58.43374393144677 -40.0390800548671 0 0 0 0 31.51827884235172 55.318019309746887 0 55.318019309746887 186.60121073737628 0 0 0 0 153.05134530186842 -23.244414876760857 0 -23.244414876760857 -68.802225324131541 0 0 0 0 0.51430044986710044 1.826278148987079 0 1.826278148987079 2.2163724797591691 0 0 0 0 260.6417184855145 -158.73043030795088 0 -158.73043030795088 -0.96168776999002148 0 0 0 0 -4.9228828247923957 32.557164986536918 0 32.557164986536918 39.722586659794615 0 0 0 0 39.759067120901818 -6.6035886948302505 0 -6.6035886948302505 56.269389781493373 0 0 0 0 10.913011336836242 0.96327886879094038 0 0.96327886879094038 -4.1025547422992386 0 0 0 0 117.61427350398003 -46.771899191130501 0 -46.771899191130501 -34.652745875315304 0 0 0 0 40.145625005272905 15.766571165693676 0 15.766571165693676 -16.104872798701876 0 0 0 0 56.087288640008495 13.232794081601149 0 13.232794081601149 -4.7342928150863184 0 0 0 0 89.115238494152436 102.04234581721539 0 102.04234581721539 -97.412143569315958 0 0 0 0 63.27502840738422 14.057184043447212 0 14.057184043447212 -10.0874375116195 0 0 0 0 34.233310121757313 84.922926996224419 0 84.922926996224419 8.1399742721441726 0 0 0 0 3.9206411532641141 10.586164099234576 0 10.586164099234576 0.23733252068619137 0 0 0 0 53.443219443204725 52.004062973336204 0 52.004062973336204 14.796221986967794 0 0 0 0 42.193568358183256 96.105352911336013 0 96.105352911336013 -79.850759477934844 0 0 0 0 35.596163209687802 13.253753278117983 0 13.253753278117983 -67.084523076917549 0 0 0 0 61.029615784360445 7.9607035268842239 0 7.9607035268842239 -10.476025561385155 0 0 0 0 60.566293715179107 9.5452035835950859 0 9.5452035835950859 -4.0560630101334638 0 0 0 0 51.040486385694976 26.389562414658485 0 26.389562414658485 -11.213978502852115 0 0 0 0 101.83449160826603 28.626361810428534 0 28.626361810428534 -126.5889241016389 0 0 0 0 174.96037638230337 6.2607040526036144 0 6.2607040526036144 -75.786108583236143 0 0 0 0 35.516929930818151 43.884353190323282 0 43.884353190323282 23.291676641009417 0 0 0 0 159.84983360449405 -34.754205810325857 0 -34.754205810325857 -76.290316669091226 0 0 0 0 274.65526983150266 -45.983129074187673 0 -45.983129074187673 -53.496454103333235 0 0 0 0 2.3416885096082325 1.5330926114348333 0 1.5330926114348333 -1.094803605669707 0 0 0 0 27.738411780257593 30.314370807109299 0 30.314370807109299 44.551011244549954 0 0 0 0 166.6255904542495 141.04718038697649 0 141.04718038697649 112.92403780542236 0 0 0 0 23.658306475852442 63.74941874984961 0 63.74941874984961 40.82803022590997 0 0 0 0 29.321492654663437 9.6988454014351664 0 9.6988454014351664 2.2735626004085567 0 0 0 0 9.9727376076161818 13.350034270626544 0 13.350034270626544 -18.681153573249048 0 0 0 0 5.7754276830571598 4.0836868217392475 0 4.0836868217392475 -0.49476700716772015 0 0 0 0 39.113715136945757 39.344767627379753 0 39.344767627379753 2.5259865050820736 0 0 0 0 35.527405895631091 33.311789653635515 0 33.311789653635515 -120.52368177764356 0 0 0 0 38.295464191274732 29.23999756589933 0 29.23999756589933 0.57859761991085179 0 0 0 0 35.893880847565015 18.345531101231586 0 18.345531101231586 -11.991891373359522 0 0 0 0 31.128140921499252 14.677934361313074 0 14.677934361313074 1.7977296246142802 0 0 0 0 49.850275123025767 13.768626639018748 0 13.768626639018748 -22.710310811603279 0 0 0 0 39.021978830443913 5.6517606748748221 0 5.6517606748748221 -14.661837315714365 0 0 0 0 29.692099211825212 2.625829281905169 0 2.625829281905169 -6.6303930382629126 0 0 0 0 37.856959763517068 6.8164860893613408 0 6.8164860893613408 -8.290769967913441 0 0 0 0 25.52590750117993 5.4390040192049991 0 5.4390040192049991 -0.99104167230698437 0 0 0 0 31.037286750510248 6.6114787153126144 0 6.6114787153126144 -13.367956486974322 0 0 0 0 28.750193507817407 8.1386564787147151 0 8.1386564787147151 -1.5322865191521551 0 0 0 0 33.678320443240409 9.0732992816424485 0 9.0732992816424485 -10.570415332597122 0 0 0 0 23.965775497062168 13.007833557009349 0 13.007833557009349 -9.9980888160635004 0 0 0 0 69.434458806535986 -26.111403556752521 0 -26.111403556752521 -37.446935128693895 0 0 0 0 2.1097224126729799 -2.0005512006314028 0 -2.0005512006314028 -1.6568237545596807 0 0 0 0 30.946857858615058 10.440330688127133 0 10.440330688127133 -0.27770802836838993 0 0 0 0 11.707313307382719 51.097810014035304 0 51.097810014035304 -57.298448220851014 0 0 0 0 19.106644041457912 19.459133066482877 0 19.459133066482877 -2.3262765558698959 0 0 0 0 24.752945096046044 10.016171231996738 0 10.016171231996738 3.9629754554525651 0 0 0 0 54.301261800186694 50.670714800501571 0 50.670714800501571 -29.389917370658623 0 0 0 0 16.272899420609065 6.0631035942893163 0 6.0631035942893163 4.393015929262333 0 0 0 0 20.476736221149601 4.9547067597734245 0 4.9547067597734245 -3.3405869217026272 0 0 0 0 24.979557587995032 10.375652388930291 0 10.375652388930291 -0.055924452963381555 0 0 0 0 19.216856697363141 12.209173473160831 0 12.209173473160831 8.7225856169075726 0 0 0 0 20.68396907930439 9.0772021526592255 0 9.0772021526592255 -1.2085241667467468 0 0 0 0 26.535073847529191 17.53962182714438 0 17.53962182714438 0.62402295367473926 0 0 0 0 250.063851456056 -65.534443262085915 0 -65.534443262085915 -96.591565897753298 0 0 0 0 27.590697578063555 -1.1631061375910576 0 -1.1631061375910576 -1.3405505550445014 0 0 0 0 28.379149383217566 2.4682039585430706 0 2.4682039585430706 -8.6337425024571033 0 0 0 0 33.36201328606785 1.6223582483826249 0 1.6223582483826249 -14.163467283200589 0 0 0 0 22.41377393711501 7.0778594175128404 0 7.0778594175128404 -3.4682819931817743 0 0 0 0 29.437131049572599 10.695848188384048 0 10.695848188384048 -3.9434017006556132 0 0 0 0 28.787214107722605 2.7780276397796233 0 2.7780276397796233 -8.1016850322754159 0 0 0 0 25.632569213157694 10.308913370585969 0 10.308913370585969 11.233064873512376 0 0 0 0 -7.8000746955658542 -16.783741503822966 0 -16.783741503822966 -21.12314315769072 0 0 0 0 -14.046932745095546 -47.842480749953211 0 -47.842480749953211 -35.656470019604967 0 0 0 0 15.142704330508423 28.784448020218406 0 28.784448020218406 -3.9199140373748378 0 0 0 0 9.0305608975588854 4.2474300804685754 0 4.2474300804685754 -4.1672224753528475 0 0 0 0 178.58712176540394 72.779331830925912 0 72.779331830925912 17.504896746566374 0 0 0 0 -5.2872109425879898 138.29904343524322 0 138.29904343524322 67.903140954497758 0 0 0 0 0.67748712109284526 1.0433875873898906 0 1.0433875873898906 1.4043316462313342 0 0 0 0 -34.795142252467485 63.161831369765423 0 63.161831369765423 29.307627884745898 0 0 0 0 -6.6580302800757636 71.448333908928362 0 71.448333908928362 28.306137122241353 0 0 0 0 157.46513596929071 -59.623497484775726 0 -59.623497484775726 23.992335754965097 0 0 0 0 -39.720378309270018 20.833527854394561 0 20.833527854394561 6.4007299932841306 0 0 0 0 1.0753875172736116 48.568596965454617 0 48.568596965454617 -57.675261341797523 0 0 0 0 15.220268433746241 42.824039803381311 0 42.824039803381311 14.326206618949072 0 0 0 0 28.520435276847156 5.1675694848171974 0 5.1675694848171974 -7.4218175284311982 0 0 0 0 -24.746803388121407 56.062370447460125 0 56.062370447460125 25.159845623500587 0 0 0 0 9.8048162579007112 46.19552580090749 0 46.19552580090749 17.513372652787439 0 0 0 0 77.709436633354926 8.4658971283956816 0 8.4658971283956816 6.9693780659288223 0 0 0 0 23.269497563258483 63.346943266021299 0 63.346943266021299 57.784556622243372 0 0 0 0 9.4638630340041345 21.083841256354162 0 21.083841256354162 78.08624750512854 0 0 0 0 24.964919305844887 37.169597405536479 0 37.169597405536479 -4.8131642269390795 0 0 0 0 31.080096854584554 44.800100782666732 0 44.800100782666732 -40.920441123643286 0 0 0 0 22.741314987201246 20.668761827361415 0 20.668761827361415 7.8047372709115894 0 0 0 0 -3.9734555456816452 36.329787111837277 0 36.329787111837277 2.5208526721607996 0 0 0 0 22.080454668946913 46.225462187227549 0 46.225462187227549 -8.7744491160956386 0 0 0 0 33.636696755842422 14.949968422242591 0 14.949968422242591 -36.376177952965691 0 0 0 0 37.978744787635151 50.319165379914921 0 50.319165379914921 -7.9714914895530455 0 0 0 0 -11.140362652884505 22.785288429327011 0 22.785288429327011 17.873496923946732 0 0 0 0 52.10032179656082 67.942990434250532 0 67.942990434250532 8.9978682960509104 0 0 0 0 9.8255993771708745 53.049890308609747 0 53.049890308609747 56.28226561135989 0 0 0 0 -13.310107415294624 20.1345510977103 0 20.1345510977103 20.577549074536364 0 0 0 0 20.725884353794505 20.874168260735324 0 20.874168260735324 7.1994234596468045 0 0 0 0 44.866846152852304 31.673488948132103 0 31.673488948132103 18.211592657557276 0 0 0 0 34.503188883768416 29.784113640516352 0 29.784113640516352 28.793459086454732 0 0 0 0 -13.036628982221373 22.398326342527071 0 22.398326342527071 35.924479924465231 0 0 0 0 15.829542364124336 18.612552864404506 0 18.612552864404506 56.486424228148564 0 0 0 0 15.06306639803779 55.97012207196488 0 55.97012207196488 -6.596565234365471 0 0 0 0 65.906339544978437 9.9012756417784544 0 9.9012756417784544 -14.185872645216648 0 0 0 0 7.3413123869114871 10.776083123775717 0 10.776083123775717 8.4613932219511483 0 0 0 0 26.88703914473308 6.4031552163301058 0 6.4031552163301058 2.2343473887741538 0 0 0 0 21.39007416325876 14.244824059907842 0 14.244824059907842 13.994226950018856 0 0 0 0 21.112932672752322 10.01521986881454 0 10.01521986881454 2.882736744339951 0 0 0 0 21.505288771954838 -6.5581454623071522 0 -6.5581454623071522 9.7698548182326022 0 0 0 0 17.43807632472345 3.7263292355407414 0 3.7263292355407414 -1.1624844788419257 0 0 0 0 2.3024704122161221 4.3618720506474711 0 4.3618720506474711 1.7360506249327003 0 0 0 0 29.782467918521888 2.7662694201102909 0 2.7662694201102909 -2.5367323308955747 0 0 0 0 13.022667336536117 6.029775343755734 0 6.029775343755734 -2.2929740876048577 0 0 0 0 34.113619571104209 9.9469106520105015 0 9.9469106520105015 -21.289197383831834 0 0 0 0 23.147966594952642 5.8167134315514266 0 5.8167134315514266 -1.0048437805599741 0 0 0 0 24.406749226240208 -2.2211636468430811 0 -2.2211636468430811 -14.207877301859071 0 0 0 0 16.676061202046697 7.6053029769206972 0 7.6053029769206972 -5.1934179381040639 0 0 0 0 28.885021925119872 0.21672631142155296 0 0.21672631142155296 -2.6802806240411883 0 0 0 0 24.978001506869987 0.10986080279712951 0 0.10986080279712951 -11.647071188384189 0 0 0 0 17.577885512902867 8.5578355581792493 0 8.5578355581792493 -9.0930655679949268 0 0 0 0 25.248855909257763 8.744103440453312 0 8.744103440453312 -9.0898842967933398 0 0 0 0 14.677636683549501 8.5585486266890562 0 8.5585486266890562 -9.2641863871385315 0 0 0 0 12.225004308442294 18.356649259574624 0 18.356649259574624 5.4536774596863324 0 0 0 0 16.65851955251987 0.45890669050699273 0 0.45890669050699273 -12.052339876160916 0 0 0 0 11.010259487658914 1.0521469998502653 0 1.0521469998502653 -5.5307828608565615 0 0 0 0 20.40044921715662 -0.06056574729407771 0 -0.06056574729407771 -10.244044121349361 0 0 0 0 2.8923300866841011 2.7702819528768678 0 2.7702819528768678 0.075672574902013068 0 0 0 0 11.701779261391493 4.5827530650126391 0 4.5827530650126391 -11.810562034190866 0 0 0 0 9.5631808192301833 3.1399608299807369 0 3.1399608299807369 -8.1296180141034711 0 0 0 0 28.564411484593847 -9.4946769154323931 0 -9.4946769154323931 -3.2749455042285263 0 0 0 0 12.021040540210379 19.456027774671838 0 19.456027774671838 -19.104321330286382 0 0 0 0 3.7995504486473202 0.97274856828348177 0 0.97274856828348177 1.0080510190872527 0 0 0 0 -5.5925992770498851 -1.9790649981255228 0 -1.9790649981255228 -8.6173457561662872 0 0 0 0 14.77686960867868 9.0026550690881777 0 9.0026550690881777 -22.514771622137005 0 0 0 0 -22.643535603266173 3.4709845177548004 0 3.4709845177548004 14.730902667832197 0 0 0 0 27.799130532324853 24.51005784906215 0 24.51005784906215 -7.1055638361758611 0 0 0 0 24.481456750319921 17.147560406536741 0 17.147560406536741 -16.839759027996479 0 0 0 0 4.3318308160378365 20.042060972677973 0 20.042060972677973 19.596076434784663 0 0 0 0 -3.4198558726930059 10.062245044173778 0 10.062245044173778 7.849851841601776 0 0 0 0 -20.335440628799915 21.138611240570526 0 21.138611240570526 41.040334570374398 0 0 0 0 87.714093018548738 -12.509813156097152 0 -12.509813156097152 -1.9534485168642277 0 0 0 0 0.17599275997697816 0.55233731449707335 0 0.55233731449707335 0.6337712514304954 0 0 0 0 6.3826482587537612 1.0577066507012205 0 1.0577066507012205 9.7523393678545744 0 0 0 0 26.166698512221046 4.4386036357662988 0 4.4386036357662988 2.3291900990998329 0 0 0 0 10.080786610924406 -6.0806775632045174 0 -6.0806775632045174 -4.5408980258530391 0 0 0 0 0.50032939977869262 0.66295262560735679 0 0.66295262560735679 0.18410555887979996 0 0 0 0 10.398401934275171 1.1334129602360008 0 1.1334129602360008 1.4794192576325713 0 0 0 0 4.9272818766767159 7.3763113949639774 0 7.3763113949639774 -1.5841954939569405 0 0 0 0 6.258256036395089 -0.16519141909590296 0 -0.16519141909590296 -0.10645070087170261 0 0 0 0 10.95374919887945 44.668623429606669 0 44.668623429606669 29.487867976968573 0 0 0 0 7.4080622539503338 17.941579511262177 0 17.941579511262177 30.140932811242692 0 0 0 0 -2.9093948560876015 -4.9294326023036774 0 -4.9294326023036774 13.403206887096076 0 0 0 0 -2.4771422513149446 -12.987548174905442 0 -12.987548174905442 8.2812836245648214 0 0 0 0 -18.43422468539211 -12.42643062924617 0 -12.42643062924617 12.748662538199369 0 0 0 0 -5.903516260725155 -8.2976090524289248 0 -8.2976090524289248 11.587543974687605 0 0 0 0 0.12204894324531779 -17.054846316686962 0 -17.054846316686962 14.534153903114202 0 0 0 0 3.576274354592897 -2.9820330984575776 0 -2.9820330984575776 -2.2534624553363756 0 0 0 0 -1.3889965413579759 -1.4024499197057017 0 -1.4024499197057017 0.53316384085014334 0 0 0 0 5.1981356479809619 -8.5132009340245531 0 -8.5132009340245531 12.964920098176663 0 0 0 0 -6.0849474605493015 -7.7894056452507812 0 -7.7894056452507812 13.025110194013905 0 0 0 0 1.4264377255271654 -1.8837567791987149 0 -1.8837567791987149 0.40543582125200084 0 0 0 0 -3.8775768103369046 -4.5549466001702967 0 -4.5549466001702967 -4.5905746084554266 0 0 0 0 -7.7946118562322226 -2.050405098308147 0 -2.050405098308147 12.911728440404204 0 0 0 0 7.6487332987244372 -2.8367971348391166 0 -2.8367971348391166 -4.3670191659584816 0 0 0 0 -2.5741748388536507 7.7751127880953845 0 7.7751127880953845 -10.728995375714476 0 0 0 0 0.36428298701820339 -0.1396162373739287 0 -0.1396162373739287 0.025632651291099151 0 0 0 0 3.9900934974529108 -2.7589880385898127 0 -2.7589880385898127 -2.1438828791645914 0 0 0 0 8.6864608759902779 -0.98956419213917179 0 -0.98956419213917179 -1.1320340949420924 0 0 0 0 14.630811082860419 -8.0199850958380239 0 -8.0199850958380239 -9.2744996171204548 0 0 0 0 9.4360106257682617 -1.6883889472190816 0 -1.6883889472190816 -2.1266034819426336 0 0 0 0 3.7504660096456064 -3.0742031430891075 0 -3.0742031430891075 -3.7175922170172271 0 0 0 0 3.4998836690338706 -2.439028298128648 0 -2.439028298128648 -0.32625074091462469 0 0 0 0 0.64083378022769466 -4.0267304336722418 0 -4.0267304336722418 -5.5244992586190165 0 0 0 0 24.713332319442998 -0.17916159439164403 0 -0.17916159439164403 -10.259562383787397 0 0 0 0 27.972294893286744 -6.4372564776108447 0 -6.4372564776108447 -10.618347726805041 0 0 0 0 21.418929183178989 -7.4964807739042953 0 -7.4964807739042953 -10.693439936352661 0 0 0 0 25.575085208140081 0.2150386865296241 0 0.2150386865296241 -5.2857227930139743 0 0 0 0 3.0681970667705407 -9.5032563688808658 0 -9.5032563688808658 -8.2203230790757331 0 0 0 0 -13.686229977494804 -12.08564293888594 0 -12.08564293888594 13.767707769928165 0 0 0 0 7.3936947825186508 -1.5799342263630933 0 -1.5799342263630933 -17.63069154563982 0 0 0 0 10.291562950788119 -2.5236476515106467 0 -2.5236476515106467 -7.841149308288248 0 0 0 0 15.789850316977549 -4.0740056193187186 0 -4.0740056193187186 -12.763315131592208 0 0 0 0 15.82063944152469 -5.0048840828940229 0 -5.0048840828940229 -8.0590887261369062 0 0 0 0 16.429890179482754 -1.9217219997276516 0 -1.9217219997276516 -11.026147428111926 0 0 0 0 17.642974738399062 -1.0442455013844665 0 -1.0442455013844665 -12.684604478448819 0 0 0 0 7.9390836340025999 -5.3152975298412457 0 -5.3152975298412457 4.7826047677381212 0 0 0 0 10.440444938628261 6.990088907166724 0 6.990088907166724 -1.7911310038225157 0 0 0 0 5.4131060350337066 -5.6865259726764634 0 -5.6865259726764634 -31.429701202046999 0 0 0 0 12.068748538122207 -0.47280042126501964 0 -0.47280042126501964 -3.5087960685841324 0 0 0 0 8.3058665587886935 0.16994679818344594 0 0.16994679818344594 -14.013866364858586 0 0 0 0 10.970424804567322 0.78553258608101029 0 0.78553258608101029 0.65117826120600775 0 0 0 0 7.6762019613524899 -1.5504466622951441 0 -1.5504466622951441 -11.482450862193218 0 0 0 0 6.8825624162081738 -11.148650721891388 0 -11.148650721891388 -5.709245369351617 0 0 0 0 7.1017999058342127 0.8884225001184638 0 0.8884225001184638 -2.2762084177995234 0 0 0 0 9.5720071239484241 -1.0185654075557977 0 -1.0185654075557977 -13.440155634249095 0 0 0 0 19.484867301764808 -3.6490060316991837 0 -3.6490060316991837 -6.7044982534110069 0 0 0 0 16.183449032876524 -3.1891011813922887 0 -3.1891011813922887 -15.099880743906397 0 0 0 0 10.984647019034583 -3.0094945869274667 0 -3.0094945869274667 -5.0473390713764275 0 0 0 0 17.967826780756695 -2.400861971197628 0 -2.400861971197628 -15.424183586037543 0 0 0 0 14.756072635544115 -2.0087738172496756 0 -2.0087738172496756 -13.703956230760014 0 0 0 0 9.6873646742315032 -2.6950970152756781 0 -2.6950970152756781 -13.751772247564986 0 0 0 0 16.429934623864639 -5.8373503634995956 0 -5.8373503634995956 -10.770897459296494 0 0 0 0 23.445905125670834 14.058138440028415 0 14.058138440028415 -10.856757553163334 0 0 0 0 41.471232606819356 2.1740808650243082 0 2.1740808650243082 -19.552785265861615 0 0 0 0 7.4568876533885486 -28.945684269288904 0 -28.945684269288904 -11.518720565756666 0 0 0 0 20.205866724573582 2.1243269900420998 0 2.1243269900420998 -4.2994818560096171 0 0 0 0 -0.95946602575732243 -0.63436950640690171 0 -0.63436950640690171 -0.26170827458439305 0 0 0 0 15.400185683851305 -0.6843936504001249 0 -0.6843936504001249 -7.9118473031239773 0 0 0 0 13.310693837857798 -2.087097102619957 0 -2.087097102619957 -8.2289113509121226 0 0 0 0 15.574524714233121 -2.1360293549905691 0 -2.1360293549905691 -8.5598551270850294 0 0 0 0 17.544346355235362 -4.4917320069584861 0 -4.4917320069584861 -6.7398091222202829 0 0 0 0 10.280620036399341 -0.13666429783052081 0 -0.13666429783052081 -5.8209155431031832 0 0 0 0 14.009145251467999 -0.28645420118209586 0 -0.28645420118209586 -7.1428311861982365 0 0 0 0 11.173564629196655 -0.6839798451340906 0 -0.6839798451340906 -4.2531137266810859 0 0 0 0 10.721458024047024 0.52309922428412392 0 0.52309922428412392 -5.6066519394134957 0 0 0 0 22.277788571495751 2.5547488705988926 0 2.5547488705988926 -6.8518941494524981 0 0 0 0 10.079693473689829 -0.76996941187673684 0 -0.76996941187673684 -4.5784871429099629 0 0 0 0 18.895226619341869 5.024859239107144 0 5.024859239107144 -4.7207392780806288 0 0 0 0 20.641154322001967 3.5653353129946481 0 3.5653353129946481 -10.574769733637368 0 0 0 0 17.345509511551768 6.9635303353459079 0 6.9635303353459079 -10.579572872609788 0 0 0 0 20.780780107370589 3.9764405148412143 0 3.9764405148412143 -7.4682514965987945 0 0 0 0 27.975265933078845 -2.4827551459797519 0 -2.4827551459797519 -17.140603575626301 0 0 0 0 32.516779859608505 12.904885946009017 0 12.904885946009017 -35.49971846057997 0 0 0 0 6.0812673140527664 2.8963643065596081 0 2.8963643065596081 -0.21290328490590937 0 0 0 0 20.70710017089732 -12.006591480141651 0 -12.006591480141651 -27.016107892643049 0 0 0 0 13.528828030190198 6.1817435478028528 0 6.1817435478028528 -13.320538616346312 0 0 0 0 17.972234754633973 -3.384357306511447 0 -3.384357306511447 -8.728270663326839 0 0 0 0 17.497008461595854 -5.4762455346537493 0 -5.4762455346537493 -10.709204937817328 0 0 0 0 25.966357854777016 -4.8862957542332879 0 -4.8862957542332879 -10.418094787997688 0 0 0 0 23.807748225190153 -1.0633947209307735 0 -1.0633947209307735 26.009652127722802 0 0 0 0 23.331444856001454 6.3373482586861947 0 6.3373482586861947 -0.25399431797281125 0 0 0 0 17.575597028142511 11.131173729959755 0 11.131173729959755 5.9637327024247497 0 0 0 0 4.5508187476513342 -1.868555145726063 0 -1.868555145726063 0.15421778608725134 0 0 0 0 38.775958256753938 -4.8456157109062872 0 -4.8456157109062872 -33.103014475960663 0 0 0 0 25.426433379208902 -14.522538843091752 0 -14.522538843091752 24.352892521884769 0 0 0 0 92.640094558824785 -39.647782328578614 0 -39.647782328578614 -15.727063318430737 0 0 0 0 14.18385053349482 -3.5663410724325821 0 -3.5663410724325821 -7.5982813330355583 0 0 0 0 8.0007909791020211 -6.1633575533414842 0 -6.1633575533414842 -10.977550536692434 0 0 0 0 5.2487032899914325 0.93037925599674054 0 0.93037925599674054 2.0163733322380963 0 0 0 0 -4.3291541554208379 -3.7030081260563747 0 -3.7030081260563747 18.675621047937966 0 0 0 0 114.38982651975675 22.260988215565703 0 22.260988215565703 11.272790800228222 0 0 0 0 114.01502723003432 34.491946841707886 0 34.491946841707886 43.181841491280466 0 0 0 0 -26.302070310044655 5.9131888410115607 0 5.9131888410115607 26.538656414807519 0 0 0 0 -0.35259280849140051 -3.6404036895130645 0 -3.6404036895130645 2.8595281399260735 0 0 0 0 4.9553159188823344 -0.57115568738513645 0 -0.57115568738513645 3.1920240975325527 0 0 0 0 68.531512705876594 -9.5860736724102935 0 -9.5860736724102935 -5.6870962678876822 0 0 0 0 2.6063125784348813 -8.9206708966594306 0 -8.9206708966594306 1.6828432125021209 0 0 0 0 42.751658288972976 23.402354672748515 0 23.402354672748515 6.7336363141512265 0 0 0 0 30.423455836182939 3.2362964966184933 0 3.2362964966184933 3.6078085210792779 0 0 0 0 30.496315747615881 7.9584332212189111 0 7.9584332212189111 -13.158379109305315 0 0 0 0 14.929433478747086 -3.6909510941347889 0 -3.6909510941347889 -4.9398024942266154 0 0 0 0 16.696026204703657 -4.9768886309581966 0 -4.9768886309581966 -4.9424075611343135 0 0 0 0 39.387198213516967 -9.4824009815056343 0 -9.4824009815056343 -16.314991683779226 0 0 0 0 24.969381366114249 -24.694292879918066 0 -24.694292879918066 -27.433035306745296 0 0 0 0 3.9035743400945648 -29.766436539501001 0 -29.766436539501001 -8.7473602960308199 0 0 0 0 -2.9579197804860513 -2.6788284823048141 0 -2.6788284823048141 -1.5893355862785672 0 0 0 0 -8.8538872937715496 -24.169135472960534 0 -24.169135472960534 -17.843148120895421 0 0 0 0 -11.53504277815955 -38.744946397273452 0 -38.744946397273452 -13.383334525429746 0 0 0 0 36.988759914721371 -16.526809360250059 0 -16.526809360250059 -19.680149099002438 0 0 0 0 8.0612878901010845 5.982518575130598 0 5.982518575130598 -1.0824192558720824 0 0 0 0 83.884177464417007 61.6711412492823 0 61.6711412492823 102.72310603056394 0 0 0 0 52.280012414077902 11.80022953457842 0 11.80022953457842 -1.1156183993868041 0 0 0 0 145.69249804934225 111.31182200495186 0 111.31182200495186 55.655270681455477 0 0 0 0 21.155110644813249 5.9777796819221294 0 5.9777796819221294 -5.4809069379589346 0 0 0 0 21.100656810003784 6.042906874012715 0 6.042906874012715 -4.7143745573775959 0 0 0 0 8.8608270181267983 0.024685778164176497 0 0.024685778164176497 0.37406487123218568 0 0 0 0 43.579440557825151 -8.4207959650899866 0 -8.4207959650899866 -16.493741650267463 0 0 0 0 4.5542947329781782 -11.440824137370067 0 -11.440824137370067 3.9990135953945236 0 0 0 0 157.5011491238547 69.352762467848152 0 69.352762467848152 161.95320187842663 0 0 0 0 -7.9860204369833809 -46.924572180274481 0 -46.924572180274481 -46.695045239603587 0 0 0 0 -64.38402937668252 -78.366950083287293 0 -78.366950083287293 -26.680458030425143 0 0 0 0 -168.12900725724467 -208.01992964199519 0 -208.01992964199519 -194.03096631283751 0 0 0 0 -50.408311491421046 -34.564555098818801 0 -34.564555098818801 6.6018965545954416 0 0 0 0 -33.955861375952736 -54.507035857434175 0 -54.507035857434175 -19.645952385411874 0 0 0 0 -7.3674989272840321 -29.651504594511607 0 -29.651504594511607 -20.469957161042544 0 0 0 0 -25.642306317862676 -28.894752835864892 0 -28.894752835864892 0.13812962227893877 0 0 0 0 -4.6932472812077322 -17.650209419997282 0 -17.650209419997282 -1.2289019231520797 0 0 0 0 48.063983830913457 9.8783764780584988 0 9.8783764780584988 -37.565735864978706 0 0 0 0 40.168529799634378 13.266218928082175 0 13.266218928082175 4.4791092009905551 0 0 0 0 11.783400264482623 4.4007923676075675 0 4.4007923676075675 0.053888410109454554 0 0 0 0 -6.1860882661740106 46.230422944108341 0 46.230422944108341 -3.4472187168848905 0 0 0 0 37.319305549492128 -2.771523578151573 0 -2.771523578151573 -1.11809970126113 0 0 0 0 31.127965151634271 -6.2734384140740076 0 -6.2734384140740076 -1.1436917319924831 0 0 0 0 2.6746292721374587 3.2050666082625519 0 3.2050666082625519 1.7305549429347131 0 0 0 0 0.37483180605386224 54.634192976079845 0 54.634192976079845 -56.98130833545838 0 0 0 0 83.142304824597886 -16.003135960853342 0 -16.003135960853342 -22.569783327880032 0 0 0 0 38.351708161452734 -18.350285796940625 0 -18.350285796940625 11.734076232551161 0 0 0 0 49.137198378834 50.458463825606486 0 50.458463825606486 -14.613128731079541 0 0 0 0 60.959074752459856 24.41885873022693 0 24.41885873022693 0.51328295796520251 0 0 0 0 56.481019712503439 72.968646058964168 0 72.968646058964168 10.53043023405553 0 0 0 0 1.5041288729602016 2.8616327833157236 0 2.8616327833157236 -1.8849735923942506 0 0 0 0 40.713492980110459 67.924530799276909 0 67.924530799276909 38.858922107395301 0 0 0 0 -23.434339695726521 27.846978264366044 0 27.846978264366044 -28.104445093385948 0 0 0 0 129.32137673412217 -1.8060494395613205 0 -1.8060494395613205 -131.49753481293737 0 0 0 0 14.161947787113604 44.956092919030198 0 44.956092919030198 29.285441207288386 0 0 0 0 -6.513655848975759 67.858241591457045 0 67.858241591457045 5.0655635478051408 0 0 0 0 87.577185036439914 58.202681216906058 0 58.202681216906058 0.43646413936949102 0 0 0 0 66.304878425456991 69.855816105240592 0 69.855816105240592 2.0337710369749402 0 0 0 0 293.00634111058753 49.594427233016177 0 49.594427233016177 -212.54993403884691 0 0 0 0 8.7127144003185677 -7.872075257356876 0 -7.872075257356876 -6.0131064210296827 0 0 0 0 -1.4796860257192748 -177.59506812212203 0 -177.59506812212203 39.45381917427585 0 0 0 0 88.942685835165321 52.869903245089517 0 52.869903245089517 11.174633253074717 0 0 0 0 99.991786977159791 44.409100885983207 0 44.409100885983207 6.2774765695357928 0 0 0 0 29.389611727769079 12.115428385350242 0 12.115428385350242 -15.758208540202759 0 0 0 0 29.034747830170758 9.0217050059117554 0 9.0217050059117554 -3.003011438815637 0 0 0 0 28.533470925038273 15.405588279020776 0 15.405588279020776 -3.214355925367272 0 0 0 0 40.369536808972043 16.702173886779747 0 16.702173886779747 -20.674976569131104 0 0 0 0 -48.978409051625931 36.001630350483538 0 36.001630350483538 54.201560630761378 0 0 0 0 23.131852456468778 10.278704183534224 0 10.278704183534224 1.1714898568541265 0 0 0 0 23.467493632828337 8.4983251766766443 0 8.4983251766766443 -16.378909834955266 0 0 0 0 59.555666929576546 -4.5605819790616806 0 -4.5605819790616806 -15.194319898570029 0 0 0 0 106.73566101453616 -38.481090559312179 0 -38.481090559312179 -39.734559101994819 0 0 0 0 5.5717099848679936 61.402806545768954 0 61.402806545768954 -30.015711900425231 0 0 0 0 10.668288321524791 -0.57508246454257517 0 -0.57508246454257517 -3.0678968042598385 0 0 0 0 43.782993115872316 19.307102441943435 0 19.307102441943435 3.8443760014818027 0 0 0 0 69.750498458866787 44.576901988926693 0 44.576901988926693 -58.318843906885377 0 0 0 0 110.18453390701325 0.59464129015577782 0 0.59464129015577782 -51.412975379684212 0 0 0 0 84.109196828918357 57.81750664678475 0 57.81750664678475 -77.879572210541482 0 0 0 0 67.968142547182651 43.139602770900638 0 43.139602770900638 -76.980320464543183 0 0 0 0 44.753739239939407 13.554248272619983 0 13.554248272619983 3.5824212809548488 0 0 0 0 93.263296085999173 15.788531162320396 0 15.788531162320396 -51.503053464100958 0 0 0 0 85.158843993820483 102.43672209734905 0 102.43672209734905 63.989497243998812 0 0 0 0 18.268797675213136 62.34159063347488 0 62.34159063347488 41.968529336556458 0 0 0 0 167.17887124773188 82.471826590252931 0 82.471826590252931 -3.7229988881408644 0 0 0 0 197.54186416276934 -87.425698568963071 0 -87.425698568963071 16.803055682400554 0 0 0 0 -1.3667722351489289 -0.085879609076478403 0 -0.085879609076478403 2.7011071334757233 0 0 0 0 106.35158195845725 142.26807798163645 0 142.26807798163645 72.643117911096851 0 0 0 0 -3.8240388200065354 85.525713765066939 0 85.525713765066939 45.387218099349411 0 0 0 0 194.38518962109811 137.82499917384621 0 137.82499917384621 27.693858643053773 0 0 0 0 92.636496102248202 126.01484415785035 0 126.01484415785035 55.616202098201029 0 0 0 0 143.82459118773841 144.03771002030498 0 144.03771002030498 35.892870110996228 0 0 0 0 128.37789090359001 132.50494801421428 0 132.50494801421428 27.327613524521439 0 0 0 0 60.222780799063912 -53.293686077676284 0 -53.293686077676284 107.23273116246787 0 0 0 0 15.702187986695208 -28.846841434566159 0 -28.846841434566159 -77.140784663304657 0 0 0 0 3.2557946916587639 -0.86156555476955887 0 -0.86156555476955887 -1.3993332412210826 0 0 0 0 17.838725746012642 3.1481305937450088 0 3.1481305937450088 -74.857461944809586 0 0 0 0 40.233283712354023 10.869419426714558 0 10.869419426714558 -52.615497715142737 0 0 0 0 8.2451281941657726 -10.494056141505439 0 -10.494056141505439 -40.258572465834732 0 0 0 0 10.711993576710469 4.515360178086322 0 4.515360178086322 -0.64806750066385987 0 0 0 0 35.193875043642038 11.247721977546462 0 11.247721977546462 -22.844981325561093 0 0 0 0 15.364522165124072 48.438621291874369 0 48.438621291874369 1.0582960127071601 0 0 0 0 33.657618320376699 13.308504789549819 0 13.308504789549819 5.7861317230236402 0 0 0 0 37.960808993045248 6.1463926603576056 0 6.1463926603576056 -34.649435605215331 0 0 0 0 38.667450860299141 9.324180909482493 0 9.324180909482493 -24.801413823424809 0 0 0 0 46.713805094273994 15.304291958724662 0 15.304291958724662 -36.017688486441784 0 0 0 0 47.277916825572902 12.083776058560943 0 12.083776058560943 -39.491502032745302 0 0 0 0 45.268556218579761 16.597920815223915 0 16.597920815223915 -36.800574166332808 0 0 0 0 49.359113113136118 13.81524789252444 0 13.81524789252444 -36.189375488767951 0 0 0 0 50.397270619341725 20.925430805475571 0 20.925430805475571 -21.990739059597217 0 0 0 0 45.784118225838029 11.988622327663279 0 11.988622327663279 -25.825914815441138 0 0 0 0 41.067219402877527 20.06209003467734 0 20.06209003467734 6.9317427555388349 0 0 0 0 45.733778829573566 14.011248208913457 0 14.011248208913457 -12.211613790308547 0 0 0 0 53.789425242975994 29.535325990910678 0 29.535325990910678 2.2424987424110441 0 0 0 0 56.64228848345374 5.8130207184908613 0 5.8130207184908613 -5.8392133945872047 0 0 0 0 48.363222038431559 23.33271221671157 0 23.33271221671157 -31.499433282144309 0 0 0 0 42.544522696265631 5.386743708227641 0 5.386743708227641 -41.920106456847861 0 0 0 0 21.377658717814484 -8.6073303765106175 0 -8.6073303765106175 -51.458605299094415 0 0 0 0 34.307941709805164 13.900224418416656 0 13.900224418416656 -45.510489704578276 0 0 0 0 20.506462303987064 -24.810473512418639 0 -24.810473512418639 -39.324016596468937 0 0 0 0 -28.283742601655831 -7.2831923918715802 0 -7.2831923918715802 -42.208629357450263 0 0 0 0 47.318864211207256 -8.2152779191487753 0 -8.2152779191487753 -30.651204889961264 0 0 0 0 40.915886854381824 2.2462730903349666 0 2.2462730903349666 -29.463821199784434 0 0 0 0 -1.2764922036367352 -111.21950333161033 0 -111.21950333161033 -80.19464546742438 0 0 0 0 2.9708912846328701 0.0085993738407772469 0 0.0085993738407772469 -1.74533108414232 0 0 0 0 47.242435548818321 -58.672360683110128 0 -58.672360683110128 -35.587254383602158 0 0 0 0 198.53632160368579 -34.195221185522769 0 -34.195221185522769 -72.470290411247333 0 0 0 0 133.53561726026965 -76.440098170004148 0 -76.440098170004148 -74.801609466361697 0 0 0 0 93.856601672279794 -30.991246989975252 0 -30.991246989975252 -21.518727213735929 0 0 0 0 114.10715740551859 -32.778392930469863 0 -32.778392930469863 -61.28144381326274 0 0 0 0 113.27669726574095 -32.545108324644389 0 -32.545108324644389 -28.909228798070217 0 0 0 0 101.1525099018836 -0.59764137194133582 0 -0.59764137194133582 -16.075291082965805 0 0 0 0 50.985468037855753 17.95217055025114 0 17.95217055025114 -17.471723968616061 0 0 0 0 47.903340414108243 -15.694948524273968 0 -15.694948524273968 -20.355225229657663 0 0 0 0 108.99632854944502 30.873733949008283 0 30.873733949008283 29.1098781958583 0 0 0 0 65.792041139058711 19.477416454477407 0 19.477416454477407 10.637058312624049 0 0 0 0 74.478990072435408 9.0723257548056608 0 9.0723257548056608 16.711627231148213 0 0 0 0 104.14254971748232 -14.584474092296205 0 -14.584474092296205 0.78712225961794502 0 0 0 0 1.9138594792277672 1.0352702059253911 0 1.0352702059253911 -0.70236173488840326 0 0 0 0 84.734554939495865 -69.164075560813785 0 -69.164075560813785 42.513807986238589 0 0 0 0 185.5084188320543 -24.983966147916192 0 -24.983966147916192 -11.167615720777462 0 0 0 0 133.76134632203139 68.772501012398664 0 68.772501012398664 82.56870325999148 0 0 0 0 72.843818995970651 10.39039558461883 0 10.39039558461883 115.89843333985009 0 0 0 0 61.806273287707882 38.62161567505143 0 38.62161567505143 83.756384307151393 0 0 0 0 71.327387895849824 1.2103492224802608 0 1.2103492224802608 77.919429817064866 0 0 0 0 35.181727620114543 25.195115474229709 0 25.195115474229709 69.991055042386364 0 0 0 0 56.764741900888112 24.632141776237177 0 24.632141776237177 44.98969252422512 0 0 0 0 19.020193755957735 11.541974016528911 0 11.541974016528911 57.645869302935239 0 0 0 0 32.107145499444414 14.486639708109607 0 14.486639708109607 42.199677573016288 0 0 0 0 39.596869059403616 13.836216271914509 0 13.836216271914509 8.6027539559613615 0 0 0 0 38.500355059422873 22.557697309555977 0 22.557697309555977 44.447760181960348 0 0 0 0 47.376434688336303 16.753712135099249 0 16.753712135099249 12.36392896721577 0 0 0 0 57.476198371521605 35.342208551097315 0 35.342208551097315 45.322123578016544 0 0 0 0 43.855465002967321 2.4339154422181082 0 2.4339154422181082 11.646575921187832 0 0 0 0 106.09431839840545 -46.544704494613143 0 -46.544704494613143 43.57560050881898 0 0 0 0 48.132566670879896 -48.759265857624086 0 -48.759265857624086 54.909765446286656 0 0 0 0 15.456705040227462 5.0003132574612437 0 5.0003132574612437 31.355721912050285 0 0 0 0 42.80913019432046 253.948469085949 0 253.948469085949 2.1648820456539397 0 0 0 0 2.8187703576434728 -0.90876421216387371 0 -0.90876421216387371 -1.6077577800233307 0 0 0 0 9.3012335211315076 12.540074161823213 0 12.540074161823213 26.43679665088348 0 0 0 0 20.074582383069355 14.741947439416435 0 14.741947439416435 8.1752671240064956 0 0 0 0 21.043239863305644 5.0939714627902504 0 5.0939714627902504 -4.4087835029988582 0 0 0 0 2.8778070497573935 -4.563517649712594 0 -4.563517649712594 12.61124488882615 0 0 0 0 21.073188307142118 5.0128707726016728 0 5.0128707726016728 -5.8683185278059682 0 0 0 0 40.948602623604529 -1.0814573362886222 0 -1.0814573362886222 24.018177549747747 0 0 0 0 9.7985187435115222 14.395889187476769 0 14.395889187476769 32.727056247156725 0 0 0 0 23.772213316842681 29.124685144395812 0 29.124685144395812 -6.3774833579345795 0 0 0 0 22.065710473289073 9.8416152734698699 0 9.8416152734698699 -0.90290917139736848 0 0 0 0 16.100932666995504 36.010957328943277 0 36.010957328943277 30.552002282098783 0 0 0 0 1.6928774155821884 20.796242071339293 0 20.796242071339293 47.634099852629333 0 0 0 0 162.88098339168573 -36.639234179012419 0 -36.639234179012419 -91.843399095927452 0 0 0 0 -5.1043266626256809 25.177656976371964 0 25.177656976371964 19.254813701481453 0 0 0 0 -1.4649561964131976 -0.68834859000745752 0 -0.68834859000745752 2.3473670461192313 0 0 0 0 -2.2843344104549033 5.3306314192591344 0 5.3306314192591344 35.280265597943071 0 0 0 0 272.83314183781476 -73.358894515572501 0 -73.358894515572501 14.808865145272648 0 0 0 0 184.58269064907654 66.184464354701049 0 66.184464354701049 -33.724981291268705 0 0 0 0 -66.342492874191521 -49.555304898638042 0 -49.555304898638042 122.25001122600179 0 0 0 0 0.10119570581840431 -3.7992391669917467 0 -3.7992391669917467 3.285087809571877 0 0 0 0 100.46844811569827 4.4282831394514233 0 4.4282831394514233 -34.298562402364041 0 0 0 0 118.12241514187917 -18.282835627059853 0 -18.282835627059853 -25.824919325999872 0 0 0 0 105.89542071822052 -21.028754048759993 0 -21.028754048759993 -17.157145192463759 0 0 0 0 29.393840740995074 -29.08119486294791 0 -29.08119486294791 44.133711023375838 0 0 0 0 1.2503226467178028 -4.2406993079542161 0 -4.2406993079542161 1.1074367675139447 0 0 0 0 8.1855417386705085 -14.986323615452527 0 -14.986323615452527 -15.077829057250995 0 0 0 0 -10.740545755674248 -19.240136940865455 0 -19.240136940865455 -6.5600206117553341 0 0 0 0 13.574985477614973 4.9322517392304235 0 4.9322517392304235 7.5470463824367471 0 0 0 0 24.957039581488061 -3.5502556678816291 0 -3.5502556678816291 -37.890166349515312 0 0 0 0 44.566176059975987 4.9224800549744714 0 4.9224800549744714 -4.8395857174381263 0 0 0 0 16.053537394578598 9.1378982298894016 0 9.1378982298894016 10.883876695017534 0 0 0 0 23.617478135815873 16.088843899020333 0 16.088843899020333 8.8664540386016597 0 0 0 0 2.1712082172234659 -0.65716926259931796 0 -0.65716926259931796 3.0607649217805459 0 0 0 0 131.6289168913072 36.577863972624357 0 36.577863972624357 -11.171835745715271 0 0 0 0 72.062558240795624 26.603107035998164 0 26.603107035998164 -8.8296757130756305 0 0 0 0 12.375712298278813 36.080680795837566 0 36.080680795837566 24.814418414189959 0 0 0 0 78.917214097178658 -5.4019668778423693 0 -5.4019668778423693 4.1687707300970942 0 0 0 0 104.61054696350038 23.922010926864459 0 23.922010926864459 -10.468931818687906 0 0 0 0 47.058666532891948 -0.38754694148724411 0 -0.38754694148724411 6.3114248210586084 0 0 0 0 -5.4082597897559026 -12.865526913324004 0 -12.865526913324004 21.768360870435572 0 0 0 0 -11.672209834781825 -18.495644594732426 0 -18.495644594732426 116.6128369353936 0 0 0 0 40.449466077385296 -91.771604218761695 0 -91.771604218761695 70.888630191418997 0 0 0 0 29.413600522720117 -15.062373649151017 0 -15.062373649151017 -32.956094670493883 0 0 0 0 14.90560809217277 -18.804132930211608 0 -18.804132930211608 5.1709126988315575 0 0 0 0 6.0949347226148234 0.53739763739482882 0 0.53739763739482882 -0.4768704104049275 0 0 0 0 6.3798529116866121 -13.669810120499733 0 -13.669810120499733 16.345914942426134 0 0 0 0 14.739036279395805 -46.550148980441463 0 -46.550148980441463 59.364175060431535 0 0 0 0 29.258043241687119 -28.586681156136819 0 -28.586681156136819 3.3554320845582879 0 0 0 0 21.274317969278854 5.6089836834328821 0 5.6089836834328821 -12.99746417926599 0 0 0 0 2.4424838491395349 -4.1735285339773327 0 -4.1735285339773327 -5.7721890228699522 0 0 0 0 90.871664849997615 8.3512598800521118 0 8.3512598800521118 -29.15392439419702 0 0 0 0 6.5281033582505188 3.1035782311325875 0 3.1035782311325875 -9.8740853577866119 0 0 0 0 8.2370842152058117 -0.27679028709856546 0 -0.27679028709856546 -0.84965186146013993 0 0 0 0 1.8237936485590809 -1.5588231659120027 0 -1.5588231659120027 -1.6894191745165892 0 0 0 0 60.044849220119204 49.841353566648628 0 49.841353566648628 47.252686478014766 0 0 0 0 158.5523686651868 52.967733570696964 0 52.967733570696964 4.5580390602021907 0 0 0 0 0.11050290227267734 -1.2695655194876423 0 -1.2695655194876423 -0.52810919356616282 0 0 0 0 140.20864133102805 52.091332484833401 0 52.091332484833401 6.0673676677361073 0 0 0 0 234.7950896873549 106.92883035934756 0 106.92883035934756 4.9491791299997203 0 0 0 0 -53.887079984539014 27.291168142485049 0 27.291168142485049 18.787279677105289 0 0 0 0 128.38232662703012 157.63765562798767 0 157.63765562798767 85.448758172830821 0 0 0 0 86.516250765853329 106.7112620458804 0 106.7112620458804 24.605196534592324 0 0 0 0 406.3924364708655 -47.511445647340452 0 -47.511445647340452 5.128914120315585 0 0 0 0 -1.988907310561089 0.22521594786805821 0 0.22521594786805821 3.6504148552269751 0 0 0 0 2.5142714787689329 69.982492482540238 0 69.982492482540238 84.160816085607692 0 0 0 0 79.155104252626188 60.916180758022165 0 60.916180758022165 196.11679448842096 0 0 0 0 74.754724046986667 32.500249599043968 0 32.500249599043968 16.244476806816238 0 0 0 0 333.46882013051436 -7.6586689236989969 0 -7.6586689236989969 -33.489939736449742 0 0 0 0 87.150814391774475 -93.686917423949581 0 -93.686917423949581 152.01807699648339 0 0 0 0 11.710914000890625 54.880469682731018 0 54.880469682731018 -15.92692694699781 0 0 0 0 69.938163566650474 -46.888860564534752 0 -46.888860564534752 29.432952125237534 0 0 0 0 59.536422498165848 -56.507984356068846 0 -56.507984356068846 26.376530358165837 0 0 0 0 5.4031648099189624 -66.405719962708645 0 -66.405719962708645 41.419834869152055 0 0 0 0 28.929820119309625 -35.120216713828256 0 -35.120216713828256 -7.0611438677606202 0 0 0 0 30.514894080020895 -48.189740663258362 0 -48.189740663258362 94.924692092989972 0 0 0 0 -0.98444014569031424 -10.230741757362011 0 -10.230741757362011 22.487519483348933 0 0 0 0 45.319235626593581 -6.9791317914769024 0 -6.9791317914769024 -28.561267026109363 0 0 0 0 -9.9501488858659286 35.876784931344446 0 35.876784931344446 -92.514553414735019 0 0 0 0 22.617539064885932 -77.933685030769993 0 -77.933685030769993 -8.3448934830589678 0 0 0 0 7.4076373935240554 -52.885666172876682 0 -52.885666172876682 31.317899292048423 0 0 0 0 28.99841737782117 14.708832214513677 0 14.708832214513677 19.586976035384396 0 0 0 0 28.579688443296732 -1.54199214282783 0 -1.54199214282783 -6.4878327214219098 0 0 0 0 48.825269019456755 1.1335441756191358 0 1.1335441756191358 26.854268476548441 0 0 0 0 -2.9362854689388769 -1.2296278837402497 0 -1.2296278837402497 29.514191659590665 0 0 0 0 9.7824357790450449 16.101683573221692 0 16.101683573221692 33.146181371464579 0 0 0 0 5.8048891526359512 -11.417884805139693 0 -11.417884805139693 -6.9454963537855292 0 0 0 0 34.259539308060994 3.2989424682415915 0 3.2989424682415915 39.175226020016225 0 0 0 0 13.071747507021428 -9.4488003071124069 0 -9.4488003071124069 29.897725938066287 0 0 0 0 60.064460880348634 18.870612670690406 0 18.870612670690406 54.006460610545616 0 0 0 0 28.863327006321924 8.9640850477361482 0 8.9640850477361482 63.166921811276438 0 0 0 0 74.012845530894992 10.768331697519898 0 10.768331697519898 26.656341134179911 0 0 0 0 152.83877026927803 -16.307538653080542 0 -16.307538653080542 58.048485437154682 0 0 0 0 73.733346888715459 21.810696502568817 0 21.810696502568817 40.961949665461134 0 0 0 0 201.02121661436286 47.797578719060851 0 47.797578719060851 11.64749503023279 0 0 0 0 134.60685771410499 90.746054183578565 0 90.746054183578565 64.178893238976912 0 0 0 0 125.29080538402923 48.216030399399415 0 48.216030399399415 20.109405126584988 0 0 0 0 134.84280746145669 45.253183896852079 0 45.253183896852079 14.679521874032616 0 0 0 0 79.576496267567563 29.11990685755336 0 29.11990685755336 14.56352217000267 0 0 0 0 88.923221120574453 8.186689864508935 0 8.186689864508935 26.909290015518309 0 0 0 0 73.674734027597879 23.241990596204005 0 23.241990596204005 14.979102702124692 0 0 0 0 52.919221369113075 8.4064849733103983 0 8.4064849733103983 14.483329025838984 0 0 0 0 82.13452541991137 27.333867541118252 0 27.333867541118252 2.5961838413022633 0 0 0 0 66.01488539796992 13.549773783816363 0 13.549773783816363 -8.3107740526465932 0 0 0 0 49.543403141527961 7.0808947079967766 0 7.0808947079967766 2.3232944306523464 0 0 0 0 103.8719719038636 42.181212850395696 0 42.181212850395696 12.076852631870679 0 0 0 0 107.11019513756037 72.811349102305485 0 72.811349102305485 40.975298242250574 0 0 0 0 59.673613900202326 21.847093876991494 0 21.847093876991494 23.304128853108068 0 0 0 0 105.21554194392411 59.548894723317972 0 59.548894723317972 17.112438224933612 0 0 0 0 19.345858769269398 -1.5751778550338713 0 -1.5751778550338713 3.9479227809797521 0 0 0 0 59.274204229368479 1.2992140864021167 0 1.2992140864021167 -26.203370328466008 0 0 0 0 63.151282977021765 42.327750022695454 0 42.327750022695454 46.003994097478881 0 0 0 0 61.247692887782023 7.4680228385422538 0 7.4680228385422538 -1.491398489317362 0 0 0 0 63.482062828115886 12.736341102930965 0 12.736341102930965 -11.17324112712231 0 0 0 0 57.13723942876095 0.99670684556531342 0 0.99670684556531342 -16.100311832245097 0 0 0 0 48.919521115349198 3.87690599680991 0 3.87690599680991 -17.453081179468427 0 0 0 0 50.195866315443709 0.49707677021069685 0 0.49707677021069685 -9.8161806155140994 0 0 0 0 19.658770264250052 -10.407366394505516 0 -10.407366394505516 -14.662128036595391 0 0 0 0 51.954352015563927 2.8731025281995244 0 2.8731025281995244 -35.690720362173579 0 0 0 0 23.235708732368948 -20.360566079429191 0 -20.360566079429191 -28.458522727032687 0 0 0 0 22.252206216893683 0.489759475820847 0 0.489759475820847 -33.518403245309855 0 0 0 0 -24.302019501941686 -8.9522341032638906 0 -8.9522341032638906 -9.7915901983619733 0 0 0 0 26.06238886232677 -8.3064014552874141 0 -8.3064014552874141 -13.248034146049577 0 0 0 0 19.01623399858363 -0.46539014123572997 0 -0.46539014123572997 0.2459606014772362 0 0 0 0 52.801310908142113 4.580690558711467 0 4.580690558711467 -20.327603962581634 0 0 0 0 27.291467630235275 -6.6635481948228517 0 -6.6635481948228517 -22.662778547670314 0 0 0 0 55.782629070285111 7.2988274139032683 0 7.2988274139032683 -7.7973863230763527 0 0 0 0 -14.366233779646791 -42.895930702886346 0 -42.895930702886346 -33.907611942204312 0 0 0 0 3.9687851104572474 -7.061065604815667 0 -7.061065604815667 -45.608912566877734 0 0 0 0 -35.173010937807703 -1.3812145147926458 0 -1.3812145147926458 -5.8833496249412747 0 0 0 0 -5.5317614168379805 -10.731988603714854 0 -10.731988603714854 1.7792843711090427 0 0 0 0 -13.16548481908103 49.310314295654507 0 49.310314295654507 41.502100879157524 0 0 0 0 1.988168738673707 0.21846693003085704 0 0.21846693003085704 -2.7008835009493808 0 0 0 0 108.47510321284062 193.32861594414589 0 193.32861594414589 287.20238918878385 0 0 0 0 197.86812493394245 153.15409954766346 0 153.15409954766346 174.94560408633333 0 0 0 0 68.534576041492983 -13.517924522986505 0 -13.517924522986505 -71.587651398536764 0 0 0 0 166.62014642740542 199.83685242471802 0 199.83685242471802 207.58573224911925 0 0 0 0 11.07225903166929 -0.19448243460411163 0 -0.19448243460411163 -2.1507306116428904 0 0 0 0 196.82647716942665 230.39861062683349 0 230.39861062683349 222.49778301646666 0 0 0 0 160.68238425019263 144.03209744818651 0 144.03209744818651 308.38037229654219 0 0 0 0 335.19999668732635 405.80557474906914 0 405.80557474906914 376.89677675592009 0 0 0 0 4.8176899783484117 0.69021934199367152 0 0.69021934199367152 -1.4428600232110531 0 0 0 0 198.099322893715 -66.058307892674748 0 -66.058307892674748 -41.703883699870516 0 0 0 0 61.870084540956668 -104.97447735515584 0 -104.97447735515584 -45.219664015140097 0 0 0 0 1.7695008566669657 0.1732295625051492 0 0.1732295625051492 -1.9985367506410956 0 0 0 0 74.503477744772681 56.288015081517187 0 56.288015081517187 36.972543307040723 0 0 0 0 -70.342485407754793 48.538062749711798 0 48.538062749711798 49.521221994048119 0 0 0 0 142.89989778136442 94.05941059354177 0 94.05941059354177 154.05788712840149 0 0 0 0 196.60765899274338 -14.089475625335581 0 -14.089475625335581 99.517313700992418 0 0 0 0 319.49748021862615 190.06589612207654 0 190.06589612207654 64.733551234910919 0 0 0 0 384.8888544506209 21.790705799385123 0 21.790705799385123 164.27371000952508 0 0 0 0 193.93311860028552 170.0637972096763 0 170.0637972096763 190.88004370215901 0 0 0 0 173.40922452608265 113.97539839261339 0 113.97539839261339 57.037043392442229 0 0 0 0 350.75347756364658 6.0750412865890198 0 6.0750412865890198 -49.059191337941229 0 0 0 0 343.08836930114501 138.97608188216793 0 138.97608188216793 8.8991000228727444 0 0 0 0 1.7082553566824998 -0.86360016031208886 0 -0.86360016031208886 -1.1902023305896554 0 0 0 0 165.35811053558973 5.6675710368052137 0 5.6675710368052137 28.928378090890277 0 0 0 0 153.03257214921905 104.90517639110374 0 104.90517639110374 54.287863180987017 0 0 0 0 -26.638899690588914 -52.693205892957067 0 -52.693205892957067 -18.574845172137429 0 0 0 0 38.33787417368876 9.631256716064172 0 9.631256716064172 15.346897655903604 0 0 0 0 20.920672758831643 -29.402456197487254 0 -29.402456197487254 -28.891113577537453 0 0 0 0 -6.4694832889144891 1.6115260412620955 0 1.6115260412620955 23.901480302953587 0 0 0 0 44.571464343678599 -9.4817086001508528 0 -9.4817086001508528 24.88986654294149 0 0 0 0 160.76701052639692 12.221880903126248 0 12.221880903126248 32.837414737056633 0 0 0 0 32.021335511897632 -5.2091924797296087 0 -5.2091924797296087 56.139424900007498 0 0 0 0 145.55328441553866 -34.306638100217469 0 -34.306638100217469 10.125353833923327 0 0 0 0 117.4504509799558 24.274960553310407 0 24.274960553310407 18.631581490810277 0 0 0 0 100.59855759062339 -39.048965566757261 0 -39.048965566757261 36.581307411396153 0 0 0 0 58.715954691437219 -3.1580651350083144 0 -3.1580651350083144 38.298085608558779 0 0 0 0 20.498040059886989 -24.981907311468404 0 -24.981907311468404 41.115936240224798 0 0 0 0 10.31875941666658 0.00056383649871349917 0 0.00056383649871349917 47.759184387811757 0 0 0 0 51.241242703748867 3.0402591931857472 0 3.0402591931857472 35.680782711201516 0 0 0 0 31.294110581638051 0.89562259167659874 0 0.89562259167659874 39.292635854435048 0 0 0 0 27.584808074432658 -3.1611629048746863 0 -3.1611629048746863 47.975954317356127 0 0 0 0 37.238758668416267 15.982657060262 0 15.982657060262 24.314189033399089 0 0 0 0 61.356159747443598 26.317838472115398 0 26.317838472115398 23.35740776922421 0 0 0 0 32.220211485328036 17.360401891532547 0 17.360401891532547 23.033509211679956 0 0 0 0 56.436890944492916 31.208091214842625 0 31.208091214842625 22.480398343818024 0 0 0 0 185.49902617649605 119.69848780501633 0 119.69848780501633 31.200757510066865 0 0 0 0 99.750995487480395 68.698224173191647 0 68.698224173191647 54.83442822315169 0 0 0 0 60.081593979561148 39.983341884304252 0 39.983341884304252 26.178885527529019 0 0 0 0 1.9314180462208981 -1.0238616019740761 0 -1.0238616019740761 -1.1112430011421273 0 0 0 0 44.089901641499637 3.4550467309064743 0 3.4550467309064743 6.6353275036972263 0 0 0 0 46.082217270570254 35.001276822533782 0 35.001276822533782 31.478062547704667 0 0 0 0 1.7779472464285817 -0.91450285439014678 0 -0.91450285439014678 -1.3603317246605968 0 0 0 0 80.148887769255452 41.333353931083366 0 41.333353931083366 -32.626818574899517 0 0 0 0 61.23737545813583 99.309587846579348 0 99.309587846579348 28.089670870705959 0 0 0 0 18.946251601330005 -31.225200381428294 0 -31.225200381428294 -46.277275793255058 0 0 0 0 42.534060604435581 48.806033417198705 0 48.806033417198705 -114.8900586909358 0 0 0 0 -175.13979599270533 -3.156652624182243 0 -3.156652624182243 134.38512877055018 0 0 0 0 37.813048097406863 32.390833063988339 0 32.390833063988339 -28.027336972786543 0 0 0 0 10.957167513126478 24.340744799711956 0 24.340744799711956 -30.303642104610844 0 0 0 0 44.013951228367659 7.1013971808988572 0 7.1013971808988572 -27.632613576985023 0 0 0 0 35.578405766809738 23.77550660964198 0 23.77550660964198 -34.287182296216997 0 0 0 0 45.554334308439138 11.018339016100526 0 11.018339016100526 -21.943466947654542 0 0 0 0 42.451304240246827 18.250793264041931 0 18.250793264041931 -24.386912302879864 0 0 0 0 47.863696299136791 13.393184556339747 0 13.393184556339747 -2.0234899914967173 0 0 0 0 36.945854794354091 16.157728724239746 0 16.157728724239746 -2.5541866039611705 0 0 0 0 -15.119567798335538 36.085749572310931 0 36.085749572310931 171.27454215115199 0 0 0 0 240.60809720138786 -218.74814927502712 0 -218.74814927502712 304.4323364649369 0 0 0 0 -37.534168051958204 296.3592300561927 0 296.3592300561927 -62.731218783697841 0 0 0 0 -176.94992215281036 153.43091534627195 0 153.43091534627195 391.81858146795366 0 0 0 0 955.14842797049096 -83.194523185538856 0 -83.194523185538856 -853.65405167541735 0 0 0 0 37.13869418745162 125.42018421300054 0 125.42018421300054 52.107995081361878 0 0 0 0 -91.764911798231878 -614.84396639842862 0 -614.84396639842862 324.28035011247812 0 0 0 0 10.172564623626926 3.6364168507260359 0 3.6364168507260359 1.8242413263053407 0 0 0 0 149.1656958583535 226.88398110854769 0 226.88398110854769 102.07484992644265 0 0 0 0 11.81808567860935 26.954268646270748 0 26.954268646270748 90.561288837247503 0 0 0 0 688.46952243891883 36.071342209383374 0 36.071342209383374 6.5743745611773647 0 0 0 0 258.05660004701258 67.589659385616528 0 67.589659385616528 44.054089204337743 0 0 0 0 171.2672757686687 157.96822135584534 0 157.96822135584534 57.761830035716685 0 0 0 0 266.62940211262503 80.583970664501805 0 80.583970664501805 59.913704464090642 0 0 0 0 195.90175978671687 131.46226438207719 0 131.46226438207719 46.760210879276237 0 0 0 0 226.3114978138583 78.288818162869944 0 78.288818162869944 124.45690953431243 0 0 0 0 288.83545328997616 63.124995726295531 0 63.124995726295531 150.77870332057398 0 0 0 0 38.1772257039338 -29.508040494202646 0 -29.508040494202646 182.80568682686157 0 0 0 0 290.9718345996007 31.806169665006792 0 31.806169665006792 74.134337030345591 0 0 0 0 -25.427273644885645 39.033987727191857 0 39.033987727191857 174.8898094926555 0 0 0 0 -0.81857346953124477 0.80011727605158711 0 0.80011727605158711 2.5799915815326595 0 0 0 0 280.24693978503092 60.629354358102034 0 60.629354358102034 -43.345091055205785 0 0 0 0 212.17867394580753 54.533969556290003 0 54.533969556290003 -7.5322034750013245 0 0 0 0 -24.054935821831805 69.959791760630992 0 69.959791760630992 -1.9969005880768691 0 0 0 0 71.725980700364744 -6.4043330067900115 0 -6.4043330067900115 -20.807857370715908 0 0 0 0 177.21072780944814 130.88266731341392 0 130.88266731341392 66.057026895623494 0 0 0 0 197.81409123185222 127.82953073741942 0 127.82953073741942 64.164705241824777 0 0 0 0 213.10548742604988 148.81423682129557 0 148.81423682129557 75.231157434402064 0 0 0 0 203.86685238557038 107.20964116170455 0 107.20964116170455 28.194098212046811 0 0 0 0 173.20269704332532 84.369271652621819 0 84.369271652621819 40.468441282713115 0 0 0 0 185.72437443970193 102.78286866511633 0 102.78286866511633 63.844419257769005 0 0 0 0 158.9550063030274 33.416308299153116 0 33.416308299153116 87.385017502214055 0 0 0 0 162.55081995921319 35.291944786460476 0 35.291944786460476 18.791442398387971 0 0 0 0 159.66885562546258 -15.313535652199306 0 -15.313535652199306 4.7856802387277639 0 0 0 0 73.007120067445499 33.313665270482716 0 33.313665270482716 -11.762778031502876 0 0 0 0 77.607899838912999 12.599479779426019 0 12.599479779426019 21.963700523881926 0 0 0 0 111.41792708327193 32.156587973252044 0 32.156587973252044 24.976097192990437 0 0 0 0 78.839037834182818 59.510900851145607 0 59.510900851145607 53.720447280458757 0 0 0 0 67.164541187572468 47.304564346121651 0 47.304564346121651 67.911086177294237 0 0 0 0 54.455582348425651 55.399706810900057 0 55.399706810900057 63.62485588967229 0 0 0 0 64.139594410260543 67.961891458785431 0 67.961891458785431 49.968304201612227 0 0 0 0 114.05550314754419 55.121146888270232 0 55.121146888270232 18.79583795365852 0 0 0 0 73.111179743262255 38.718099637342675 0 38.718099637342675 32.289845516896094 0 0 0 0 89.010851591307073 51.837724830491879 0 51.837724830491879 -71.367821266563624 0 0 0 0 91.173395843392427 23.912130360725314 0 23.912130360725314 -79.495814290808994 0 0 0 0 103.92195410250861 52.875655695146634 0 52.875655695146634 -150.06691446380501 0 0 0 0 121.01048599102796 1.9929765737670095 0 1.9929765737670095 -169.19428060972132 0 0 0 0 156.29586700493928 -0.91424084345362644 0 -0.91424084345362644 -87.623554495338794 0 0 0 0 106.67065174564868 36.773870009866414 0 36.773870009866414 -108.16101996466568 0 0 0 0 99.501427850798791 -29.705270294636648 0 -29.705270294636648 -156.68540977160592 0 0 0 0 132.3379819615671 24.251788800716291 0 24.251788800716291 -0.64142645917240015 0 0 0 0 149.46597443663632 22.635910889213847 0 22.635910889213847 -280.75006718694112 0 0 0 0 152.94836106974435 0.22800089607062546 0 0.22800089607062546 -277.47602726968034 0 0 0 0 85.743307540693422 96.03897223113745 0 96.03897223113745 -287.2270272713904 0 0 0 0 35.607430659918442 10.346114461723719 0 10.346114461723719 -16.785546140173622 0 0 0 0 108.08640139345516 38.940002252204977 0 38.940002252204977 -169.4807838158813 0 0 0 0 119.22082763501385 58.937058854153292 0 58.937058854153292 -188.1438534154463 0 0 0 0 187.86400982407577 73.42116811455071 0 73.42116811455071 -339.36856539540781 0 0 0 0 89.514369257944054 25.975952766742012 0 25.975952766742012 46.867825971369598 0 0 0 0 122.08320897551695 22.139109520369725 0 22.139109520369725 3.3118229481098629 0 0 0 0 237.59667310522127 -82.263370429832321 0 -82.263370429832321 -150.2533422104807 0 0 0 0 122.00764922814324 91.633573026969543 0 91.633573026969543 8.1784392892259348 0 0 0 0 174.31302925840464 216.93948703849424 0 216.93948703849424 -176.45543943522352 0 0 0 0 159.59292182985882 -103.76340866160263 0 -103.76340866160263 118.54780358371045 0 0 0 0 4.9420511590301146 1.8578327442033924 0 1.8578327442033924 -2.8065962108685145 0 0 0 0 265.87515902406403 406.90990069778024 0 406.90990069778024 506.44090336062982 0 0 0 0 -62.915651442901435 -237.05635469568006 0 -237.05635469568006 -249.62833234598338 0 0 0 0 414.29431912358996 31.535161590259122 0 31.535161590259122 -7.4392791221835068 0 0 0 0 199.89051520271278 61.394727427417365 0 61.394727427417365 25.955464083855986 0 0 0 0 113.06830122515976 54.001868417998367 0 54.001868417998367 63.419987254106672 0 0 0 0 159.20840228471207 -78.141637104349229 0 -78.141637104349229 -197.79155686889044 0 0 0 0 206.03402528032348 33.06559607269719 0 33.06559607269719 0.64066675396020401 0 0 0 0 55.348211698315026 76.228728213071463 0 76.228728213071463 43.362378371676641 0 0 0 0 189.8248875326135 -14.287919522446828 0 -14.287919522446828 -122.30492927597243 0 0 0 0 203.15588887506601 69.60707462217033 0 69.60707462217033 3.9260830963999069 0 0 0 0 139.05349321196263 107.68596422902169 0 107.68596422902169 -18.682114721766993 0 0 0 0 40.581586893822532 -31.38782294450175 0 -31.38782294450175 -99.408714805838827 0 0 0 0 61.956948276081675 -157.55690047935514 0 -157.55690047935514 -320.65211631605143 0 0 0 0 83.005117066364619 48.52185469628057 0 48.52185469628057 -89.096873167884041 0 0 0 0 141.47218294475169 6.2607256764363228 0 6.2607256764363228 -214.69181557306365 0 0 0 0 -54.234406486139051 -80.889010949826115 0 -80.889010949826115 -155.87452280469097 0 0 0 0 64.32387430520248 17.102239692686453 0 17.102239692686453 -270.28883434300587 0 0 0 0 147.22025921360182 108.44220975533017 0 108.44220975533017 73.373356230607897 0 0 0 0 166.15869036678669 151.16017848680133 0 151.16017848680133 90.743610757614078 0 0 0 0 131.05106071638147 111.32272170248052 0 111.32272170248052 171.96221854099485 0 0 0 0 179.99786599080107 179.53633955712758 0 179.53633955712758 151.85703615962575 0 0 0 0 164.46733557608491 116.2542719805285 0 116.2542719805285 76.613648021801055 0 0 0 0 174.65256583161681 102.13561827199646 0 102.13561827199646 -27.805676015965219 0 0 0 0 168.21327099741757 134.76833602512488 0 134.76833602512488 59.572256452119291 0 0 0 0 198.85272652364802 93.5196064854008 0 93.5196064854008 -19.942351351313846 0 0 0 0 188.52062585565727 125.53040887710085 0 125.53040887710085 126.34178480786159 0 0 0 0 199.02543504341156 173.26104471370854 0 173.26104471370854 56.181924647084088 0 0 0 0 184.57237811041705 42.979528155302432 0 42.979528155302432 -103.76558612805366 0 0 0 0 164.59501893602283 39.221263351013476 0 39.221263351013476 -180.68426469180667 0 0 0 0 151.6364787402199 61.265676889795941 0 61.265676889795941 -100.47213038033806 0 0 0 0 158.10865672837554 119.03388504876102 0 119.03388504876102 -34.888641517707583 0 0 0 0 175.57232421130902 52.066285945191339 0 52.066285945191339 -97.340026292686161 0 0 0 0 173.51411605234966 94.60058238144461 0 94.60058238144461 -24.513044487073785 0 0 0 0 158.95633816339978 47.906890629621557 0 47.906890629621557 -96.983599743396553 0 0 0 0 150.1772732951008 86.103292074071533 0 86.103292074071533 1.7402066083232057 0 0 0 0 173.36296756677802 44.581380780084601 0 44.581380780084601 -121.08019024202986 0 0 0 0 172.25551330355665 43.500242443584284 0 43.500242443584284 -120.53929408484873 0 0 0 0 114.07720226335393 17.790771253147305 0 17.790771253147305 2.9154513100252384 0 0 0 0 176.09503091579973 54.607178083262625 0 54.607178083262625 -106.25075536962595 0 0 0 0 140.16263818811785 64.70590293290752 0 64.70590293290752 -5.8436218697606819 0 0 0 0 33.799199503418834 14.205307941083028 0 14.205307941083028 3.1228423649703636 0 0 0 0 57.805457526854298 200.32198539131423 0 200.32198539131423 100.73721553532596 0 0 0 0 133.12695877899932 19.260623298627252 0 19.260623298627252 -155.87117224977192 0 0 0 0 126.35072617979313 15.435961028633756 0 15.435961028633756 -104.12909120088807 0 0 0 0 175.36066407398289 37.246139625697367 0 37.246139625697367 -158.5311885353949 0 0 0 0 49.05815881619128 44.14311985826771 0 44.14311985826771 -135.80043862487946 0 0 0 0 76.481884065924532 21.601680066267662 0 21.601680066267662 9.0092701250213878 0 0 0 0 74.816476094529065 17.295457029217182 0 17.295457029217182 2.675506061529493 0 0 0 0 74.901233005613904 15.414919714174175 0 15.414919714174175 -41.977506700845538 0 0 0 0 70.091415007031173 29.800140847967214 0 29.800140847967214 -4.1598597513498135 0 0 0 0 64.57682873099111 26.415239393084448 0 26.415239393084448 -41.077289800845392 0 0 0 0 128.58703759150393 132.71262267698506 0 132.71262267698506 -12.801976899019433 0 0 0 0 75.868505998383625 35.93704148818324 0 35.93704148818324 -9.1347531598576097 0 0 0 0 -254.267144292593 74.565222542943047 0 74.565222542943047 16.087263147039721 0 0 0 0 -6.7613444964280234 53.526664468010765 0 53.526664468010765 7.8519112752299227 0 0 0 0 100.01046870191121 60.728348800670815 0 60.728348800670815 -3.8051413890505597 0 0 0 0 29.503925554454327 59.172368352679769 0 59.172368352679769 -160.0157292306867 0 0 0 0 120.00773309913109 24.073695173544984 0 24.073695173544984 5.5983974067913973 0 0 0 0 748.11617185399518 -211.01451337299795 0 -211.01451337299795 9.2255618151775707 0 0 0 0 138.28417687056935 -272.77644993907097 0 -272.77644993907097 42.02198137742289 0 0 0 0 4.3956639016132613 3.7535820369640618 0 3.7535820369640618 -1.1339804332465402 0 0 0 0 304.22776049567619 -52.261285154537745 0 -52.261285154537745 -47.390618979690771 0 0 0 0 257.96939364584978 2.5589289569502398 0 2.5589289569502398 -13.528358096938973 0 0 0 0 -10.226404146378627 5.5340006043761605 0 5.5340006043761605 -103.83550657484739 0 0 0 0 -10.963351306309391 1.9216158035641797 0 1.9216158035641797 8.5587500439719815 0 0 0 0 589.73342662095092 -302.9281827134173 0 -302.9281827134173 192.37860254308907 0 0 0 0 9.0603431962052525 -0.73731839186397963 0 -0.73731839186397963 -3.9541786682300355 0 0 0 0 -22.907796689298266 415.1500061875804 0 415.1500061875804 403.27249706119255 0 0 0 0 99.369570181050221 -168.37600954289883 0 -168.37600954289883 -184.45020241269083 0 0 0 0 172.10287643741685 481.21356017016751 0 481.21356017016751 -149.83370946698051 0 0 0 0 307.1062439366433 -98.534252807758094 0 -98.534252807758094 16.823151378082912 0 0 0 0 125.79439157568413 79.436694251759036 0 79.436694251759036 -132.39929345994824 0 0 0 0 110.797254226316 34.379462635261007 0 34.379462635261007 -44.41599078640138 0 0 0 0 85.615254660185997 16.355062389411501 0 16.355062389411501 -2.1712793791626908 0 0 0 0 76.134725154981908 38.063147434715404 0 38.063147434715404 -4.9194471025393618 0 0 0 0 68.329513423726894 174.35881810724641 0 174.35881810724641 -172.44042194076792 0 0 0 0 87.290265722163895 49.679224676068316 0 49.679224676068316 -0.68339321559506061 0 0 0 0 117.86592345375902 40.303349921164227 0 40.303349921164227 -48.497823758263166 0 0 0 0 110.11459142058057 22.222811664700036 0 22.222811664700036 2.5517442110319544 0 0 0 0 26.974303919207088 15.077819662600461 0 15.077819662600461 -0.84646906479715511 0 0 0 0 147.65211310437007 10.896423853043245 0 10.896423853043245 -99.446546352732639 0 0 0 0 114.74753978406477 24.033483809809184 0 24.033483809809184 -1.4839933744044829 0 0 0 0 113.11592666785509 -8.4651161396464545 0 -8.4651161396464545 -5.0300636266156289 0 0 0 0 56.005516274831109 0.83426950896478047 0 0.83426950896478047 -7.1852240250676847 0 0 0 0 147.72827799966035 -50.835484610519188 0 -50.835484610519188 -15.290396180601931 0 0 0 0 15.90199741142888 7.5564428406523092 0 7.5564428406523092 1.012487571647521 0 0 0 0 27.10198199030674 65.089906547621069 0 65.089906547621069 -179.39169342707191 0 0 0 0 148.97985777725989 -45.117041405834243 0 -45.117041405834243 -45.661734903875868 0 0 0 0 133.22834591324136 -20.188061470000264 0 -20.188061470000264 -3.2214161247452466 0 0 0 0 41.919707521831668 27.701604627919579 0 27.701604627919579 5.1646994319662003 0 0 0 0 140.69361295099225 26.142978982319391 0 26.142978982319391 13.23186842301584 0 0 0 0 192.07347551014391 68.632669098995166 0 68.632669098995166 -16.729340547050015 0 0 0 0 169.9035138716863 31.995263342316775 0 31.995263342316775 -5.7040586662498356 0 0 0 0 208.61124848158943 30.779269770683186 0 30.779269770683186 -31.949787744086279 0 0 0 0 118.34143248022701 1.9612388410758967 0 1.9612388410758967 35.057551426993086 0 0 0 0 206.29810333688511 32.8753228624862 0 32.8753228624862 -5.6909809969783964 0 0 0 0 328.28448990135803 17.265351432442912 0 17.265351432442912 -31.040222049872682 0 0 0 0 22.102521715671173 49.586178039580773 0 49.586178039580773 -161.30122226793787 0 0 0 0 110.63949498563306 -0.64726150201590826 0 -0.64726150201590826 -2.0804983488310427 0 0 0 0 8.1469265602120515 9.6393081123111841 0 9.6393081123111841 -2.9761939217684183 0 0 0 0 122.16269594643381 59.13595193391501 0 59.13595193391501 11.304813646640469 0 0 0 0 136.17950721023954 143.63688213714818 0 143.63688213714818 30.025123893091518 0 0 0 0 156.56424522501766 79.43415658832555 0 79.43415658832555 7.8808236206175479 0 0 0 0 178.74301759066293 66.799604402375508 0 66.799604402375508 -15.95515027125748 0 0 0 0 68.822946218198922 -93.631510691160997 0 -93.631510691160997 -528.91537201324695 0 0 0 0 -1.4003841412736335 1.2683018121061593 0 1.2683018121061593 -1.1279289663830276 0 0 0 0 49.85504659300932 99.191736856004923 0 99.191736856004923 -265.41161980155744 0 0 0 0 114.23006135031028 35.704671464333671 0 35.704671464333671 -205.33807550420215 0 0 0 0 165.29484830661386 163.47462833304689 0 163.47462833304689 -236.8763844608826 0 0 0 0 89.351183796148689 67.511848434602371 0 67.511848434602371 -115.53511922900157 0 0 0 0 130.96121941581077 189.37057930744163 0 189.37057930744163 -287.09573470791656 0 0 0 0 -94.018332448671572 270.39891025815439 0 270.39891025815439 -193.22600480255142 0 0 0 0 7.6662050430746547 5.5613527344165874 0 5.5613527344165874 2.8642215410772556 0 0 0 0 217.79797302978841 -169.87890465403063 0 -169.87890465403063 62.059308561115813 0 0 0 0 -9.6291101670067292 80.568330281552335 0 80.568330281552335 -180.94994895137086 0 0 0 0 -5.1791153872472933 116.53137627291312 0 116.53137627291312 -202.08414233283074 0 0 0 0 504.4819920565933 -227.79537093452268 0 -227.79537093452268 121.74307449574962 0 0 0 0 192.12977751966537 -18.622055278295306 0 -18.622055278295306 -3.5030929207890722 0 0 0 0 400.59820696485258 170.07956713651834 0 170.07956713651834 67.156088177040829 0 0 0 0 112.28580412841984 86.696095629795764 0 86.696095629795764 69.705312966792917 0 0 0 0 305.96996335242875 191.70281789001751 0 191.70281789001751 -77.391302154264622 0 0 0 0 92.617712505059899 30.189945055777343 0 30.189945055777343 -54.591910115797873 0 0 0 0 -41.293751616001828 -5.6255561739512814 0 -5.6255561739512814 -63.343405763640931 0 0 0 0 329.1711615867971 -178.8005829863439 0 -178.8005829863439 -276.91827181497933 0 0 0 0 -61.225938946503447 44.219820178373084 0 44.219820178373084 643.8764394365553 0 0 0 0 2.8926686116704445 1.7814329800923083 0 1.7814329800923083 0.77607637985585587 0 0 0 0 191.63386417478614 58.385821291640468 0 58.385821291640468 -218.90211953571179 0 0 0 0 -177.04324130245368 505.30505650179657 0 505.30505650179657 448.89275728805569 0 0 0 0 134.21132419996138 58.808294089733408 0 58.808294089733408 54.731228828452458 0 0 0 0 194.5530482102622 223.70865369840953 0 223.70865369840953 262.61536560050354 0 0 0 0 263.59609614565852 206.26387929144335 0 206.26387929144335 -532.19378659566019 0 0 0 0 114.93689324390607 25.867606612925201 0 25.867606612925201 2.6004857187018788 0 0 0 0 135.53918236261597 54.571039613102357 0 54.571039613102357 -56.039913259698551 0 0 0 0 93.576475819852931 11.275448900700781 0 11.275448900700781 6.7430588236684343 0 0 0 0 108.17972600224311 12.767922318304954 0 12.767922318304954 46.662036812313772 0 0 0 0 167.90330703975633 12.561796528287914 0 12.561796528287914 -0.22891590536619333 0 0 0 0 134.00118180938807 5.7989737062966924 0 5.7989737062966924 -16.013198512421241 0 0 0 0 123.09706768424803 66.134190975000365 0 66.134190975000365 -59.066264408578718 0 0 0 0 114.18493604257571 27.464623550296064 0 27.464623550296064 4.0050104915783331 0 0 0 0 98.045332626308664 56.359100550679614 0 56.359100550679614 9.8485922223521811 0 0 0 0 136.15694045948476 7.4433055708441316 0 7.4433055708441316 -30.665944843086891 0 0 0 0 149.35833593029565 78.951975766441606 0 78.951975766441606 -227.31750796762753 0 0 0 0 159.694958471875 -89.96524621298056 0 -89.96524621298056 -85.642866983507929 0 0 0 0 73.333537310361862 162.41423366371464 0 162.41423366371464 -65.481747331087945 0 0 0 0 50.621727551595541 -30.463250876421398 0 -30.463250876421398 -178.42198032648525 0 0 0 0 -0.6716846411780466 -1.3205743437188175 0 -1.3205743437188175 2.0676283192010461 0 0 0 0 126.84411712556903 125.8546669549321 0 125.8546669549321 47.930038327597231 0 0 0 0 125.41495300427778 110.38164819543476 0 110.38164819543476 -3.0918657478223395 0 0 0 0 76.033519170523505 10.109821021016955 0 10.109821021016955 -103.1098219290991 0 0 0 0 47.334800057913526 66.520590109921841 0 66.520590109921841 3.9517863073924673 0 0 0 0 89.217284671962261 -16.514153289027973 0 -16.514153289027973 104.93003436373081 0 0 0 0 112.28193115209919 -0.6631922627982263 0 -0.6631922627982263 0.58800649071042044 0 0 0 0 170.78083324433828 118.874727133188 0 118.874727133188 -171.96779801007483 0 0 0 0 17.953561192049108 12.897819176756933 0 12.897819176756933 -2.4500449127775132 0 0 0 0 72.419072360004066 287.37566429643266 0 287.37566429643266 193.32954682986178 0 0 0 0 190.58951597403211 -19.365258060527026 0 -19.365258060527026 -262.44957153161795 0 0 0 0 127.89297514337159 -9.6466253878766679 0 -9.6466253878766679 50.806156540845677 0 0 0 0 64.882363648175669 -7.6889585226403199 0 -7.6889585226403199 51.827206815850673 0 0 0 0 61.851719019162829 20.660570350168882 0 20.660570350168882 5.6068761423781748 0 0 0 0 98.540140711367712 137.88186838163938 0 137.88186838163938 -91.962099707325024 0 0 0 0 101.6838486712586 16.156786852384585 0 16.156786852384585 -11.768256690618045 0 0 0 0 131.57698771444848 -2.5649428854287066 0 -2.5649428854287066 50.125869353349188 0 0 0 0 48.41269700355042 35.890338656775299 0 35.890338656775299 77.063837947956358 0 0 0 0 74.262230831685883 -20.220939282503423 0 -20.220939282503423 44.831220659842643 0 0 0 0 53.964658718241481 -73.005761167053436 0 -73.005761167053436 29.111153121470124 0 0 0 0 187.99454453989529 13.784066489681663 0 13.784066489681663 -83.874089105042003 0 0 0 0 81.185048782361264 48.854672086988046 0 48.854672086988046 17.683475331016211 0 0 0 0 111.67508371337317 31.688704059901283 0 31.688704059901283 35.808289837977298 0 0 0 0 55.191955124270464 -2.9604977745684877 0 -2.9604977745684877 11.922617272685951 0 0 0 0 74.830259311203477 19.328630568290947 0 19.328630568290947 10.169602289962056 0 0 0 0 58.988530077503214 2.4767107794954111 0 2.4767107794954111 3.1460829621868118 0 0 0 0 77.340552600828232 26.2011872821422 0 26.2011872821422 36.10985640384024 0 0 0 0 80.647777257923735 13.997100715798297 0 13.997100715798297 7.4852793793381807 0 0 0 0 69.26639165339293 0.44160048282128628 0 0.44160048282128628 12.405955480458942 0 0 0 0 104.92527679192426 55.723576028214723 0 55.723576028214723 84.021599917995388 0 0 0 0 57.118735677491401 -9.2517388465405332 0 -9.2517388465405332 6.7046832821722253 0 0 0 0 72.778624603908611 17.833350068795397 0 17.833350068795397 3.8914606131966138 0 0 0 0 18.257856275138948 -3.5438963115204558 0 -3.5438963115204558 5.466230785728035 0 0 0 0 73.104797063308069 21.841417246333322 0 21.841417246333322 -0.80228943640641148 0 0 0 0 89.624568778992398 27.846396428102423 0 27.846396428102423 -9.8610002666689525 0 0 0 0 55.92762225412298 1.4819941922291946 0 1.4819941922291946 34.612300322223746 0 0 0 0 99.434062969929073 -9.3823248885435078 0 -9.3823248885435078 -21.120011602346054 0 0 0 0 23.71176467363 -3.7678415230493556 0 -3.7678415230493556 -1.7951625976860708 0 0 0 0 143.71903878841476 0.38670400349747069 0 0.38670400349747069 -11.205842468494666 0 0 0 0 76.594166559290898 8.7647054864868181 0 8.7647054864868181 2.5397993755439705 0 0 0 0 126.85643090351368 1.2247011065906008 0 1.2247011065906008 5.718527182582875 0 0 0 0 102.7692635874846 2.9365428934124793 0 2.9365428934124793 2.8383167889876404 0 0 0 0 114.01915867853677 -13.444210976259455 0 -13.444210976259455 -9.7126850716381341 0 0 0 0 50.903654585727352 7.8385736792929777 0 7.8385736792929777 11.480128267183083 0 0 0 0 23.996505825804491 4.7564967003580563 0 4.7564967003580563 -9.7418331801434181 0 0 0 0 120.58022657531546 28.774943633968178 0 28.774943633968178 13.82855730958363 0 0 0 0 43.755102795141283 -22.544551842166584 0 -22.544551842166584 -16.900885588976962 0 0 0 0 122.7301712090848 -16.984964324872635 0 -16.984964324872635 64.319262343218725 0 0 0 0 -22.558856494313659 39.120555395512838 0 39.120555395512838 26.608772985746327 0 0 0 0 88.66729000435501 40.436640037943192 0 40.436640037943192 11.607806426604814 0 0 0 0 36.560691210906953 21.80859446861723 0 21.80859446861723 -37.258483346860885 0 0 0 0 99.955652547845261 -6.614155912373505 0 -6.614155912373505 0.51177242181863747 0 0 0 0 80.348561160748687 19.690702889595634 0 19.690702889595634 3.8616595715538313 0 0 0 0 16.332290089959422 -0.47595552245511641 0 -0.47595552245511641 4.8648643190975953 0 0 0 0 59.625032004289096 10.680540009756896 0 10.680540009756896 -24.074558283587066 0 0 0 0 93.787698046435253 -72.637391574306093 0 -72.637391574306093 21.446936749794986 0 0 0 0 54.528274998614506 13.82652052751223 0 13.82652052751223 -10.609834534953734 0 0 0 0 44.264967489787523 7.0531800404428395 0 7.0531800404428395 -13.116192266786129 0 0 0 0 26.175871500073853 1.6753397358615842 0 1.6753397358615842 -0.18170480475091821 0 0 0 0 9.3871958188095306 2.5899950191681995 0 2.5899950191681995 -3.4417587390283657 0 0 0 0 29.679825227183755 2.8404375695063209 0 2.8404375695063209 37.711670509772375 0 0 0 0 78.588880382471345 20.626336648452138 0 20.626336648452138 8.0981435336109371 0 0 0 0 0.053241878475091653 58.204340119736116 0 58.204340119736116 79.383882019528755 0 0 0 0 128.681903759345 106.90703343754922 0 106.90703343754922 -53.889915493901754 0 0 0 0 111.51374422958907 112.25049187298828 0 112.25049187298828 92.907060992675724 0 0 0 0 85.865204815705511 64.973579992256873 0 64.973579992256873 17.830443911083421 0 0 0 0 15.033218410760085 -2.5452825674580453 0 -2.5452825674580453 -1.9738942201933902 0 0 0 0 40.899827705536154 75.399157687988463 0 75.399157687988463 156.00745507692591 0 0 0 0 4.709702637799154 1.3443489984950574 0 1.3443489984950574 -3.0646508028777149 0 0 0 0 59.578068444185192 119.63296981369058 0 119.63296981369058 156.00997500424819 0 0 0 0 123.31673420516017 140.94266202825656 0 140.94266202825656 141.14986882592711 0 0 0 0 104.05387879185582 82.008502509504069 0 82.008502509504069 231.78637197039825 0 0 0 0 105.45907900721795 98.341315303354349 0 98.341315303354349 126.17551853233454 0 0 0 0 107.67494670943415 118.40182398517572 0 118.40182398517572 112.17771724576596 0 0 0 0 154.97210981317767 96.41137623236591 0 96.41137623236591 2.4632507348960644 0 0 0 0 106.84966985153005 90.737490537791928 0 90.737490537791928 106.80795407590267 0 0 0 0 102.72933557080614 25.400801691380366 0 25.400801691380366 -74.752194307897298 0 0 0 0 88.916200369294529 95.757188754415438 0 95.757188754415438 7.8869344316190109 0 0 0 0 49.720824500924209 67.343123158130766 0 67.343123158130766 -13.820779729488095 0 0 0 0 109.84970663450571 11.101032854672439 0 11.101032854672439 2.2244177143916257 0 0 0 0 90.688027996651641 27.88662903519467 0 27.88662903519467 6.8067782778079753 0 0 0 0 174.47564351648907 17.035149805189576 0 17.035149805189576 -67.936421019606314 0 0 0 0 59.00176424350866 29.469236974834075 0 29.469236974834075 37.48599583779469 0 0 0 0 116.49417827940852 69.043068017652331 0 69.043068017652331 -131.57499377231852 0 0 0 0 95.551177634552005 -97.277353343941286 0 -97.277353343941286 41.036776860169084 0 0 0 0 145.2027202610916 -50.136286525217884 0 -50.136286525217884 -91.594325638498049 0 0 0 0 -3.1547474901090027 72.47052644559426 0 72.47052644559426 82.176993292557199 0 0 0 0 541.8258368439856 94.957642699826465 0 94.957642699826465 -112.18071518454929 0 0 0 0 109.47774602516489 26.022831816599272 0 26.022831816599272 5.13493468732546 0 0 0 0 69.986942040297436 216.89684526265046 0 216.89684526265046 83.062845702277627 0 0 0 0 715.86405891540926 93.132307845035939 0 93.132307845035939 -83.947792515058609 0 0 0 0 346.46378825094143 146.81436049143667 0 146.81436049143667 -11.80983914852186 0 0 0 0 329.86213748008595 115.40914694190997 0 115.40914694190997 -42.258762794494942 0 0 0 0 390.20015396509552 3.7049516791289534 0 3.7049516791289534 -57.300145502395026 0 0 0 0 365.79140607520822 311.38518785609176 0 311.38518785609176 -17.501430362466408 0 0 0 0 251.05994914114126 52.107015452495943 0 52.107015452495943 -28.400700237073579 0 0 0 0 254.79018032300519 98.637960129880412 0 98.637960129880412 -35.35479964190381 0 0 0 0 218.58663612350938 105.72257724943847 0 105.72257724943847 -24.993723344189675 0 0 0 0 230.62622452314827 53.604399883722692 0 53.604399883722692 59.578280231286044 0 0 0 0 339.549881306928 -92.017252369476864 0 -92.017252369476864 12.854841095963138 0 0 0 0 70.456539301470912 12.686267040388884 0 12.686267040388884 -144.97816520213246 0 0 0 0 -1.6516652635396269 0.078526718552637931 0 0.078526718552637931 0.85976214635714143 0 0 0 0 331.58065890638682 37.923393375740261 0 37.923393375740261 -47.106408415189435 0 0 0 0 379.93663980924157 7.6051598709520505 0 7.6051598709520505 -201.49268241002665 0 0 0 0 391.25275331337252 140.93143389800366 0 140.93143389800366 -128.55514065939224 0 0 0 0 260.2634084286401 84.80929135139786 0 84.80929135139786 -41.480890055717396 0 0 0 0 276.53376818084507 108.6483761007562 0 108.6483761007562 -126.42156981279686 0 0 0 0 220.76581371897919 118.45143587817006 0 118.45143587817006 -48.696153840485749 0 0 0 0 133.45736043023317 189.38242398733638 0 189.38242398733638 -62.196761638255339 0 0 0 0 203.72947403856961 -141.74495693884455 0 -141.74495693884455 -315.44730121754083 0 0 0 0 336.32775495774695 50.52085317482306 0 50.52085317482306 -45.115369608774472 0 0 0 0 323.9645465232752 139.31804763763353 0 139.31804763763353 -457.03568266889079 0 0 0 0 308.16606965559185 -5.0143166700268011 0 -5.0143166700268011 -151.5576441964763 0 0 0 0 458.1598680969214 162.1772414515699 0 162.1772414515699 -103.50050153806478 0 0 0 0 468.12377151655528 -16.435449950891552 0 -16.435449950891552 -366.84268677553291 0 0 0 0 75.591353061157861 -188.62668378678836 0 -188.62668378678836 -323.23517251992189 0 0 0 0 2.1278117496864866 -0.91864319483703127 0 -0.91864319483703127 -0.096719554982595213 0 0 0 0 190.26405922335107 46.313223226260561 0 46.313223226260561 -149.04982897608829 0 0 0 0 3.989784651268252 -2.202022158503226 0 -2.202022158503226 0.28459673234337224 0 0 0 0 80.438447592874581 -32.946301743369531 0 -32.946301743369531 -147.62600782529069 0 0 0 0 67.04909249987395 -189.38105101803762 0 -189.38105101803762 -222.12843015357521 0 0 0 0 17.730640378649696 -13.493525038317955 0 -13.493525038317955 -118.99868212403499 0 0 0 0 -23.17403144445052 -90.503398558525419 0 -90.503398558525419 -134.36797161186587 0 0 0 0 71.341315818659496 3.7388886095768612 0 3.7388886095768612 -109.75144433296236 0 0 0 0 42.735494479333283 -16.488841821344067 0 -16.488841821344067 -21.228298086880997 0 0 0 0 64.070144024499314 16.664814673830506 0 16.664814673830506 -79.067116779860953 0 0 0 0 36.225494593891199 -1.217542480375414 0 -1.217542480375414 -1.7623696725641622 0 0 0 0 41.175450971306418 -16.451575241944511 0 -16.451575241944511 -67.753128810516046 0 0 0 0 7.4088845403767039 -7.1187480920029884 0 -7.1187480920029884 4.4221863161413602 0 0 0 0 69.817550965759438 88.747105526381119 0 88.747105526381119 53.028988697742989 0 0 0 0 50.829388047277462 -33.663892952283504 0 -33.663892952283504 -107.3990160916353 0 0 0 0 49.364614702014478 -12.75735557794529 0 -12.75735557794529 -68.770915047582093 0 0 0 0 33.219915980662336 -50.084979830579414 0 -50.084979830579414 -74.300229336334496 0 0 0 0 71.287412840960314 -52.733034492119259 0 -52.733034492119259 -108.09798536054222 0 0 0 0 24.11250813298102 -47.013440440152408 0 -47.013440440152408 -103.91423837258446 0 0 0 0 3.5109815918112872 -91.557125538990931 0 -91.557125538990931 -137.20126853103022 0 0 0 0 43.909467774923542 -43.653095287820179 0 -43.653095287820179 -113.46690881792415 0 0 0 0 5.9812842594282927 -5.2592416303413216 0 -5.2592416303413216 3.6627699135378418 0 0 0 0 -76.239545211843506 -203.58245405165542 0 -203.58245405165542 -113.04640973323058 0 0 0 0 97.609855503120343 -44.371882294382516 0 -44.371882294382516 61.212884798577306 0 0 0 0 81.099444508960005 108.88284840059725 0 108.88284840059725 95.859094136583138 0 0 0 0 30.670929769614304 40.718744862847075 0 40.718744862847075 90.009292281127045 0 0 0 0 7.890465883192519 -6.2358052228065759 0 -6.2358052228065759 3.9973215755900942 0 0 0 0 73.847088696847095 56.289276052895772 0 56.289276052895772 5.5271573662280389 0 0 0 0 43.179624901851639 64.108948954025664 0 64.108948954025664 91.96194517605133 0 0 0 0 108.89720533807122 78.434813653734182 0 78.434813653734182 49.365982428645566 0 0 0 0 108.8816371998837 64.970799752156381 0 64.970799752156381 6.6721665315567407 0 0 0 0 14.384259243779923 5.2419544716175039 0 5.2419544716175039 2.4967897330105977 0 0 0 0 11.813135836890069 129.19450261474231 0 129.19450261474231 -150.85140723007748 0 0 0 0 2.0577954830951057 5.1231533030679657 0 5.1231533030679657 12.897361609841255 0 0 0 0 13.916277135111159 -3.6374878741524981 0 -3.6374878741524981 8.539382784802001 0 0 0 0 22.021104708066559 18.616375918740459 0 18.616375918740459 29.168255224226414 0 0 0 0 0.45523237297311425 -40.707312810448002 0 -40.707312810448002 -50.326887018783964 0 0 0 0 15.465235277224565 -24.817706814359553 0 -24.817706814359553 -67.45853763705793 0 0 0 0 10.924291475087728 -0.65040684802051274 0 -0.65040684802051274 0.28194700553047003 0 0 0 0 -33.089206427510362 -94.380015402438858 0 -94.380015402438858 -40.484184014002039 0 0 0 0 -88.146367845700297 -108.27216205198411 0 -108.27216205198411 47.105888082564434 0 0 0 0 -35.756628837480093 -66.074501899088773 0 -66.074501899088773 -11.790143374707441 0 0 0 0 -36.021828057011589 -136.07615258276269 0 -136.07615258276269 15.332599355329648 0 0 0 0 -121.19466982001541 -61.221423743360106 0 -61.221423743360106 -41.220791168532287 0 0 0 0 -31.887829751383833 -158.48032771846226 0 -158.48032771846226 118.83603843894298 0 0 0 0 -34.396386176671513 -45.73572805826138 0 -45.73572805826138 132.20049939126557 0 0 0 0 315.54460773331812 -24.401353565644854 0 -24.401353565644854 -72.176693837747735 0 0 0 0 1.5081169914273858 -1.3388606718132081 0 -1.3388606718132081 0.74685914941278675 0 0 0 0 -117.66724492341746 -350.92849944494333 0 -350.92849944494333 51.191064773892776 0 0 0 0 8.0493464831524761 -180.84873466358783 0 -180.84873466358783 86.696231924789117 0 0 0 0 134.91267247203359 -89.905858541941143 0 -89.905858541941143 47.664022620756214 0 0 0 0 -16.650556137567037 -31.104806814855124 0 -31.104806814855124 -14.049082666380627 0 0 0 0 8.9599559044474404 -2.3538391048699112 0 -2.3538391048699112 -0.2364338989521057 0 0 0 0 3.6438781935285078 -67.386120325354568 0 -67.386120325354568 30.977466933470396 0 0 0 0 790.62158040051872 -10.403711385954693 0 -10.403711385954693 -94.620083639479049 0 0 0 0 34.048289752696292 91.859923002383539 0 91.859923002383539 262.83585757783487 0 0 0 0 3.8270420958702971 -1.0444182452227579 0 -1.0444182452227579 0.19125647346696212 0 0 0 0 702.23786404894781 302.68367670731368 0 302.68367670731368 249.2105495289702 0 0 0 0 775.93887708447437 -17.952546757092932 0 -17.952546757092932 156.76768725650618 0 0 0 0 211.03318621804647 -277.8969333310763 0 -277.8969333310763 461.45302699037779 0 0 0 0 -30.215252878635511 -116.96354123942706 0 -116.96354123942706 354.09895288505095 0 0 0 0 331.62448752659839 -150.56932562573911 0 -150.56932562573911 67.654796777526826 0 0 0 0 -133.80759865894561 -82.794130075824896 0 -82.794130075824896 58.526179905776189 0 0 0 0 261.97653347619053 -7.7371493771722726 0 -7.7371493771722726 -203.34545063438753 0 0 0 0 169.65302392694866 23.863219854339604 0 23.863219854339604 16.771995893025633 0 0 0 0 459.1071661609094 25.483392058274035 0 25.483392058274035 -0.89671485233748172 0 0 0 0 207.00182347695227 2.4202712910714581 0 2.4202712910714581 156.78645852599499 0 0 0 0 236.3810330462511 106.36606915203822 0 106.36606915203822 255.74058256343596 0 0 0 0 353.50054730055854 -29.844412822128106 0 -29.844412822128106 -138.42008471403778 0 0 0 0 355.56349455068994 1.2789838453684297 0 1.2789838453684297 -150.86744845076538 0 0 0 0 282.102244740483 -76.37830472845053 0 -76.37830472845053 84.297211028813763 0 0 0 0 234.83834859233502 91.947204179992923 0 91.947204179992923 137.14503147473124 0 0 0 0 228.04245041648392 -72.529922449719379 0 -72.529922449719379 514.28413766666654 0 0 0 0 442.71811375883408 274.21577196221449 0 274.21577196221449 358.95841366910736 0 0 0 0 198.72576228716571 164.19545844222625 0 164.19545844222625 181.59694693619576 0 0 0 0 139.04122333423584 208.65032047383011 0 208.65032047383011 450.95106646249815 0 0 0 0 191.09135234334462 212.99509166342835 0 212.99509166342835 456.41858342386308 0 0 0 0 74.754413866816321 -52.19629404102443 0 -52.19629404102443 -35.080222481895362 0 0 0 0 29.355051454695058 -13.742004727612539 0 -13.742004727612539 155.62292611445861 0 0 0 0 -0.19245615133614535 -0.86207742137929699 0 -0.86207742137929699 -2.358386403583669 0 0 0 0 -5.3783059455545299 217.51218049155548 0 217.51218049155548 265.4137340383636 0 0 0 0 62.982940371086443 -83.693470713315492 0 -83.693470713315492 -98.835528351806715 0 0 0 0 9.2523051949864055 6.8472791287360906 0 6.8472791287360906 4.5656755882035993 0 0 0 0 153.75406458190992 155.93684660753348 0 155.93684660753348 -249.97322518537067 0 0 0 0 163.91750039120961 200.13740890702837 0 200.13740890702837 -68.991300824899099 0 0 0 0 11.925264054792933 101.05279324111507 0 101.05279324111507 -75.433962863700799 0 0 0 0 -39.9208382926372 -6.6769155987224167 0 -6.6769155987224167 41.605001185705987 0 0 0 0 10.670364815579887 8.6853179039256361 0 8.6853179039256361 5.1643166139805405 0 0 0 0 62.688546587633027 17.92324234768671 0 17.92324234768671 -56.683437562299559 0 0 0 0 -121.31357964504696 225.42984880548198 0 225.42984880548198 -83.521234055624575 0 0 0 0 -137.69534132846547 48.694106026572271 0 48.694106026572271 25.645210892789692 0 0 0 0 -70.144226987285947 135.75107189751199 0 135.75107189751199 0.0014054617097232769 0 0 0 0 320.35117723116855 107.99973264688445 0 107.99973264688445 0.015837788074838134 0 0 0 0 48.952523741631012 -16.016573723058215 0 -16.016573723058215 40.23976681253049 0 0 0 0 54.107483443396632 153.32115029783108 0 153.32115029783108 42.001776260079218 0 0 0 0 363.70253358504851 61.221067920308656 0 61.221067920308656 -110.4939517554775 0 0 0 0 763.97997403093905 248.00898237177205 0 248.00898237177205 19.714077181106532 0 0 0 0 350.34854644455481 13.003499151133497 0 13.003499151133497 -92.253759509526844 0 0 0 0 645.16346695089305 -131.49604505692409 0 -131.49604505692409 126.2367613317155 0 0 0 0 876.05223689910054 274.50102650162438 0 274.50102650162438 -63.840755813318772 0 0 0 0 129.20925902108138 75.98226597755189 0 75.98226597755189 -0.068927670731287277 0 0 0 0 953.30583482492148 -106.0522892581085 0 -106.0522892581085 -139.53609579983379 0 0 0 0 4.3979330777438008 2.1204881311772539 0 2.1204881311772539 0.5970107581998888 0 0 0 0 -28.53158409333264 225.70767313374836 0 225.70767313374836 -64.062565907101686 0 0 0 0 112.56152971080155 32.86740242909633 0 32.86740242909633 -27.394015190177583 0 0 0 0 725.67557292575475 -44.140223221530135 0 -44.140223221530135 -118.17480771548139 0 0 0 0 785.35716747437255 154.38590371171927 0 154.38590371171927 -131.61713981315484 0 0 0 0 323.08074998825032 -64.384937626880742 0 -64.384937626880742 -141.34799559233375 0 0 0 0 4.3593341195616517 2.6147404343022629 0 2.6147404343022629 1.5799739994872271 0 0 0 0 931.19553424599872 -143.65672598203446 0 -143.65672598203446 -148.71968954194801 0 0 0 0 772.82049763453324 289.88002658474966 0 289.88002658474966 54.474105497176424 0 0 0 0 -57.800904602394439 -23.341548005279606 0 -23.341548005279606 97.482758700547947 0 0 0 0 -72.035955979575704 58.924071661196386 0 58.924071661196386 -65.000314993507914 0 0 0 0 -72.702690643163805 134.82632093622408 0 134.82632093622408 -149.59730619159143 0 0 0 0 112.13084716732556 144.89209230278544 0 144.89209230278544 -31.425755886725085 0 0 0 0 9.3826926154976036 5.4446672160632659 0 5.4446672160632659 2.1670210059776771 0 0 0 0 -121.71354355925359 32.230325976033484 0 32.230325976033484 -31.609954383094362 0 0 0 0 40.711473660696356 140.7116328267474 0 140.7116328267474 12.659060313929729 0 0 0 0 -73.583457510787412 66.21472414984072 0 66.21472414984072 0.083110997120653896 0 0 0 0 -61.391686790491804 89.914959786668476 0 89.914959786668476 -19.794202873117897 0 0 0 0 -27.997979924301035 36.59667318895201 0 36.59667318895201 -17.238750278686865 0 0 0 0 45.698475536686601 80.669653656385051 0 80.669653656385051 0.041933108011458421 0 0 0 0 40.227437431472936 54.14099315257581 0 54.14099315257581 -61.143486856457287 0 0 0 0 -70.572923325613374 77.932521742998858 0 77.932521742998858 -45.173756044701037 0 0 0 0 -33.661839348322246 107.50704991742955 0 107.50704991742955 -150.76509403699072 0 0 0 0 -89.394339930338901 158.95243219903398 0 158.95243219903398 -140.63854818087606 0 0 0 0 10.761455304452056 6.7835088157321763 0 6.7835088157321763 2.8956794504466452 0 0 0 0 -64.520919364498695 23.62441299199395 0 23.62441299199395 7.3936691880211924 0 0 0 0 -23.918651818061335 111.86737833073076 0 111.86737833073076 -113.73572289596757 0 0 0 0 -61.76327249899623 82.156223861545584 0 82.156223861545584 -136.92815544697925 0 0 0 0 124.53968111721042 114.3735111692647 0 114.3735111692647 15.722029514040514 0 0 0 0 178.44310648234386 81.434933916552836 0 81.434933916552836 -1.6692057966911449 0 0 0 0 145.72809836773376 151.03570627677027 0 151.03570627677027 47.050561261888333 0 0 0 0 62.945256256207358 110.00760647095649 0 110.00760647095649 31.256436601635414 0 0 0 0 96.707611076461035 105.69468822822228 0 105.69468822822228 14.726326810744467 0 0 0 0 50.378196712699719 97.858205185912084 0 97.858205185912084 33.181201809434242 0 0 0 0 66.8233269759221 86.090834976612314 0 86.090834976612314 36.803162332898182 0 0 0 0 68.851013994819368 77.905135085997244 0 77.905135085997244 -11.254112672374504 0 0 0 0 99.170965283387886 64.662439333149706 0 64.662439333149706 -17.480021844265138 0 0 0 0 93.531084775779163 69.473037974237286 0 69.473037974237286 -1.1436148390721996 0 0 0 0 67.231089921493549 40.024483217189299 0 40.024483217189299 -39.880096292771668 0 0 0 0 100.68131935734345 16.460915216554042 0 16.460915216554042 -23.554854216547028 0 0 0 0 94.115004999795929 3.7332007859286023 0 3.7332007859286023 -15.279085527002621 0 0 0 0 51.2829336302093 -13.928536420138698 0 -13.928536420138698 -45.997506051317032 0 0 0 0 30.128907869962859 -10.756758237344002 0 -10.756758237344002 -17.796122019153927 0 0 0 0 49.196006814556313 -26.522633634710246 0 -26.522633634710246 11.141397654802859 0 0 0 0 66.075324042751163 10.047840928061305 0 10.047840928061305 27.339791133928429 0 0 0 0 129.86192676040082 11.105993881421682 0 11.105993881421682 22.744214866498623 0 0 0 0 80.036342351551866 33.55190488819062 0 33.55190488819062 13.155255199576459 0 0 0 0 148.14683055407659 40.27713901296147 0 40.27713901296147 41.511421406641603 0 0 0 0 104.05267622327665 -35.333844419468733 0 -35.333844419468733 81.56796830958865 0 0 0 0 80.45599053913611 57.515545078277228 0 57.515545078277228 123.90164396750606 0 0 0 0 117.19190640449233 13.912423890367791 0 13.912423890367791 36.222405926664123 0 0 0 0 64.282971106353216 60.687226687944303 0 60.687226687944303 51.47572553619284 0 0 0 0 59.272716070001479 9.9659863028807649 0 9.9659863028807649 54.01997755712091 0 0 0 0 176.9897050486743 57.597069727970791 0 57.597069727970791 38.000617666569269 0 0 0 0 165.48528725986125 122.09380268283338 0 122.09380268283338 276.01349795075294 0 0 0 0 332.79252989903398 110.89166756460759 0 110.89166756460759 12.396797841047373 0 0 0 0 239.72475166938239 -34.344610413236069 0 -34.344610413236069 102.31095991736856 0 0 0 0 176.1449800692717 252.47250418653982 0 252.47250418653982 74.267849486870091 0 0 0 0 1.2704899872114765 216.46617812855663 0 216.46617812855663 93.401491645362967 0 0 0 0 2.8592325089744008 2.0108034068360041 0 2.0108034068360041 1.3363754660634637 0 0 0 0 -204.89336624492717 324.33134385021424 0 324.33134385021424 61.688044796053418 0 0 0 0 -26.794824071264884 146.88000975480782 0 146.88000975480782 21.320531860223127 0 0 0 0 143.7730039274029 229.10392617147249 0 229.10392617147249 60.627644364853722 0 0 0 0 -54.078938459584606 113.34191784190057 0 113.34191784190057 223.58977337524652 0 0 0 0 341.82637782303209 177.14852688414248 0 177.14852688414248 -69.002721988946178 0 0 0 0 86.719527212850153 99.458322924905161 0 99.458322924905161 110.75954545989771 0 0 0 0 693.05801949134911 264.33090695429792 0 264.33090695429792 154.32717921301355 0 0 0 0 -60.168264073377941 154.35739090638072 0 154.35739090638072 420.1900430720093 0 0 0 0 -110.58241466428444 -29.885775233606637 0 -29.885775233606637 243.55976909064111 0 0 0 0 2.4740823194006225 -25.037138097707384 0 -25.037138097707384 -12.347199394893323 0 0 0 0 1.793061392118446 2.4974802030135095 0 2.4974802030135095 5.2285402728725181 0 0 0 0 940.95154655320221 -139.77735636054831 0 -139.77735636054831 10.282676693934718 0 0 0 0 -63.447540787827165 143.57363808226455 0 143.57363808226455 128.51701744742422 0 0 0 0 -55.671112881205318 69.322415886867475 0 69.322415886867475 143.36236633783847 0 0 0 0 2.4348289412882878 40.515492590521717 0 40.515492590521717 154.00435442822914 0 0 0 0 66.45980753121512 61.971292905982637 0 61.971292905982637 31.3187214364998 0 0 0 0 31.565244015568169 101.56895818728162 0 101.56895818728162 135.82858097837527 0 0 0 0 1.3573255605151644 51.500106156519905 0 51.500106156519905 60.396316908118024 0 0 0 0 65.172039751256307 71.247046203184766 0 71.247046203184766 11.935798542237535 0 0 0 0 70.259725308380439 53.939029132044652 0 53.939029132044652 17.396171382970351 0 0 0 0 66.316263606320717 54.526440007497968 0 54.526440007497968 34.760571614193395 0 0 0 0 1.8262526243947548 1.0997590570863451 0 1.0997590570863451 0.68107663297272936 0 0 0 0 114.1435492146702 106.42106737501945 0 106.42106737501945 48.412220956891133 0 0 0 0 73.667574622304528 55.451659739521801 0 55.451659739521801 27.203930318800303 0 0 0 0 7.7220741926175833 70.404433403491112 0 70.404433403491112 -8.7593545352829096 0 0 0 0 31.700445526032127 19.781622449905171 0 19.781622449905171 21.238905969530606 0 0 0 0 112.40511721016082 96.980865626883315 0 96.980865626883315 39.38238111339524 0 0 0 0 58.07604538690066 24.446818191998318 0 24.446818191998318 -20.096149847264314 0 0 0 0 110.70725915496587 47.593613300636207 0 47.593613300636207 -18.458825989338948 0 0 0 0 15.747864266614727 -2.0768469391439623 0 -2.0768469391439623 -21.254903943539382 0 0 0 0 114.72098692046711 98.973668075939713 0 98.973668075939713 55.142959503898965 0 0 0 0 7.4333985179302289 7.1727570611782596 0 7.1727570611782596 2.7740074487883604 0 0 0 0 26.277619461605354 9.9593986912139947 0 9.9593986912139947 -10.189600245205639 0 0 0 0 175.31834736745805 89.880568924827458 0 89.880568924827458 34.944441292038391 0 0 0 0 209.97203325343435 -32.392891697714958 0 -32.392891697714958 42.751386400972251 0 0 0 0 549.34666585328523 61.460536713734882 0 61.460536713734882 5.6455173412518889 0 0 0 0 786.18309209492872 -149.95434117580942 0 -149.95434117580942 -122.32707309750595 0 0 0 0 4.2013179250754291 8.1137464323651614 0 8.1137464323651614 15.349895442228622 0 0 0 0 -116.88678632125084 61.028517544295482 0 61.028517544295482 47.439313110784497 0 0 0 0 586.80318749559228 -150.73615914389688 0 -150.73615914389688 -7.6809331777064926 0 0 0 0 596.37515589567829 -67.550250523784754 0 -67.550250523784754 -50.59896054895853 0 0 0 0 395.91744987876154 -57.339673710536772 0 -57.339673710536772 17.481171671366383 0 0 0 0 1.7986514795211264 -2.0816107928430085 0 -2.0816107928430085 -7.9112470833516815 0 0 0 0 511.43790587931289 -193.27842976527788 0 -193.27842976527788 22.00318279855037 0 0 0 0 999.33911943339626 -350.03843177141829 0 -350.03843177141829 72.00642229237782 0 0 0 0 459.04310172703117 -22.366290646329105 0 -22.366290646329105 60.632898984904728 0 0 0 0 419.17733522780691 162.37854876619605 0 162.37854876619605 200.05100492182635 0 0 0 0 922.44758105037909 177.4506442566925 0 177.4506442566925 8.3700841951686442 0 0 0 0 608.25443706681835 -104.05295490319918 0 -104.05295490319918 -30.148772216411601 0 0 0 0 391.2473963965931 -188.24196463571747 0 -188.24196463571747 -157.95724419064089 0 0 0 0 461.88363725905219 70.511602548313192 0 70.511602548313192 413.59236790192881 0 0 0 0 891.36657668669068 71.501605753337998 0 71.501605753337998 -1.7306183890864737 0 0 0 0 3.0191131918073637 1.1682218281414407 0 1.1682218281414407 -0.9200482606757201 0 0 0 0 -213.35522632827633 78.034382567114321 0 78.034382567114321 -10.69936657048455 0 0 0 0 755.12403349435772 253.34599240418686 0 253.34599240418686 73.969379488674718 0 0 0 0 3.4075280567052459 1.1066847003685467 0 1.1066847003685467 -1.5177696762453081 0 0 0 0 38.035945745628851 8.958471464242443 0 8.958471464242443 -11.819352287907748 0 0 0 0 44.235169133681666 14.160193504187408 0 14.160193504187408 -10.444675631182548 0 0 0 0 43.936192031500923 22.99457620942794 0 22.99457620942794 -4.5399728799107777 0 0 0 0 11.38533178230864 72.959116864753923 0 72.959116864753923 18.293185962284042 0 0 0 0 13.908804566456695 -1.0228741956747456 0 -1.0228741956747456 -21.864375278085056 0 0 0 0 7.4970842938636792 14.523543241584065 0 14.523543241584065 23.93992440292304 0 0 0 0 3.4170555579311355 2.9680544989752491 0 2.9680544989752491 -1.1083528601838701 0 0 0 0 13.816619637073018 34.180062081201001 0 34.180062081201001 28.469008699157975 0 0 0 0 6.4297984593240187 3.3742031720485102 0 3.3742031720485102 -1.7669413287156595 0 0 0 0 15.919413952564355 22.629064682198859 0 22.629064682198859 0.029134510335523955 0 0 0 0 4.691453852308257 4.8404400730813961 0 4.8404400730813961 3.7697422233312761 0 0 0 0 388.30427080774098 356.25543295593695 0 356.25543295593695 -3.5660517631855102 0 0 0 0 46.601705413340824 28.689487157203619 0 28.689487157203619 0.0090353013527328073 0 0 0 0 58.881907578601385 25.081583257012063 0 25.081583257012063 -4.328734313347546 0 0 0 0 45.94362828307203 31.874219011231972 0 31.874219011231972 -0.0045749055826964299 0 0 0 0 46.38501046532474 29.524433377274306 0 29.524433377274306 6.4015506538069644 0 0 0 0 50.297614440546567 22.174670932661403 0 22.174670932661403 -5.4312723803091387 0 0 0 0 51.290379857309745 37.479282465351439 0 37.479282465351439 5.868897476726076 0 0 0 0 35.509804860252189 27.070664336501181 0 27.070664336501181 20.954769481133781 0 0 0 0 80.94960033489042 60.158762792404893 0 60.158762792404893 22.316854742661661 0 0 0 0 -0.13091580883826737 0.12625463633972345 0 0.12625463633972345 0.80757594031033531 0 0 0 0 39.424185952389962 25.306392007427807 0 25.306392007427807 1.270082437328341 0 0 0 0 37.403726309523336 23.61845727847664 0 23.61845727847664 4.9684745153143091 0 0 0 0 31.58722530882369 17.612350129337262 0 17.612350129337262 -3.1243121898198751 0 0 0 0 36.716874438425293 16.50056514280071 0 16.50056514280071 -12.233059127120384 0 0 0 0 30.182440762682916 14.687817627570908 0 14.687817627570908 1.3589804564777723 0 0 0 0 45.109893614629982 16.870476231829372 0 16.870476231829372 -31.429641449478055 0 0 0 0 29.79816865491739 20.683647086586468 0 20.683647086586468 -13.802343228455868 0 0 0 0 34.207653834891971 17.283240883736273 0 17.283240883736273 5.9450737727770786 0 0 0 0 44.757953047781484 3.3254853729022855 0 3.3254853729022855 -18.210009098016172 0 0 0 0 19.556528420653194 28.97969259785231 0 28.97969259785231 21.356302230018812 0 0 0 0 35.505921153715462 38.419409703894416 0 38.419409703894416 -15.104021383921008 0 0 0 0 67.532136267109308 5.797725473578339 0 5.797725473578339 -67.381076128503992 0 0 0 0 27.464373149428866 19.633679772529831 0 19.633679772529831 -37.873932281269845 0 0 0 0 72.503246137726819 67.242483868028103 0 67.242483868028103 -22.233619025869302 0 0 0 0 58.819310279017373 72.281997134486119 0 72.281997134486119 -4.4438688772479509 0 0 0 0 40.732482649495068 26.694653363902034 0 26.694653363902034 -47.754219959327202 0 0 0 0 19.918460726887815 2.5455323375803118 0 2.5455323375803118 -10.34952263174041 0 0 0 0 11.939944822062863 5.1404654035280544 0 5.1404654035280544 -1.8188665796679473 0 0 0 0 0.94895371899474412 -7.7792189255180801 0 -7.7792189255180801 -11.545600066841814 0 0 0 0 52.653609311411856 2.1640197395590803 0 2.1640197395590803 -58.741143788574846 0 0 0 0 59.978390837291954 -1.9646882754404942 0 -1.9646882754404942 -71.038630753408142 0 0 0 0 41.328047649920336 -4.444241152275481 0 -4.444241152275481 -61.261679875060508 0 0 0 0 53.011443486684584 30.983664210282335 0 30.983664210282335 -6.1186180090551403 0 0 0 0 35.717714974536364 15.258483486906467 0 15.258483486906467 1.4457058223267656 0 0 0 0 33.345922389184125 21.133510508165067 0 21.133510508165067 9.5613996669654 0 0 0 0 8.9538608097147403 6.0297508537291264 0 6.0297508537291264 3.7378522328659853 0 0 0 0 7.6318945658877198 10.2150554344733 0 10.2150554344733 5.850646684566156 0 0 0 0 14.98649387389014 13.262832556912599 0 13.262832556912599 8.0759734937764733 0 0 0 0 1.5317177617629341 0.21832267399001992 0 0.21832267399001992 -1.8839690884191396 0 0 0 0 17.204161130153807 13.294539821734134 0 13.294539821734134 5.3157216761396739 0 0 0 0 14.01795102376127 16.633887544673939 0 16.633887544673939 5.0899590949522917 0 0 0 0 25.84916828101268 15.644911642812122 0 15.644911642812122 -0.89106949444112971 0 0 0 0 25.798641501518432 15.511595062631205 0 15.511595062631205 5.3968691021985578 0 0 0 0 24.842996300460072 31.671499078877297 0 31.671499078877297 0.00051530274998764017 0 0 0 0 4.6472731444519013 22.03663990113121 0 22.03663990113121 9.2169109457179843 0 0 0 0 -4.0069875140325166 21.491893637203493 0 21.491893637203493 10.197403627509249 0 0 0 0 4.0716752734646207 9.2384490353871911 0 9.2384490353871911 8.2831415433391662 0 0 0 0 9.4652387372334488 14.524446357513863 0 14.524446357513863 7.1213416770902462 0 0 0 0 10.975949523826785 2.3995771251578493 0 2.3995771251578493 -0.0067732205937318726 0 0 0 0 26.796320141063916 13.135588994080564 0 13.135588994080564 3.5504113121842238 0 0 0 0 -16.414745989284711 3.6666854221443268 0 3.6666854221443268 7.988200403966971 0 0 0 0 12.375566446804442 5.3541069342897307 0 5.3541069342897307 0.0072554439212325029 0 0 0 0 5.6336292587096182 5.8655143157282055 0 5.8655143157282055 4.9377767583223315 0 0 0 0 17.630535053902577 4.1401468601391684 0 4.1401468601391684 -1.3208032732682267 0 0 0 0 16.648227301251609 -1.0112972148359325 0 -1.0112972148359325 -0.96848435002969602 0 0 0 0 16.914687828780643 -0.44982101287979503 0 -0.44982101287979503 -4.4590756950513075 0 0 0 0 15.857316368434113 1.1492187955493836 0 1.1492187955493836 2.1649975066565017 0 0 0 0 23.404711561641307 3.9483547250305238 0 3.9483547250305238 -0.13872262048392248 0 0 0 0 22.941553828422911 -0.24376286216746568 0 -0.24376286216746568 0.0063739277086040562 0 0 0 0 30.40997585299192 3.0248175562731929 0 3.0248175562731929 -2.231796203916744 0 0 0 0 20.567687170056161 0.34519204120835401 0 0.34519204120835401 -0.59000551487396535 0 0 0 0 64.392764270742191 -31.108913151963748 0 -31.108913151963748 -19.522874015410707 0 0 0 0 16.094777275924685 -3.7366484890155647 0 -3.7366484890155647 -4.9467595682076766 0 0 0 0 8.636016210220987 16.085866780396827 0 16.085866780396827 7.4932882807747774 0 0 0 0 32.636244419860304 -20.54100653324744 0 -20.54100653324744 2.041143486838692 0 0 0 0 0.17397030517000189 0.17912204485691063 0 0.17912204485691063 0.14057796802771322 0 0 0 0 189.1589140053693 12.07267272152432 0 12.07267272152432 -18.714226069640617 0 0 0 0 124.77078572910978 25.547885384762818 0 25.547885384762818 -0.1088565840079448 0 0 0 0 3.3972552677312535 1.0663476386832258 0 1.0663476386832258 0.75706689947429351 0 0 0 0 191.95003593299771 49.450031142392447 0 49.450031142392447 -21.997335353110145 0 0 0 0 198.0140657920274 76.060949939521421 0 76.060949939521421 21.529127054650758 0 0 0 0 135.59512081599678 38.470197079135509 0 38.470197079135509 11.961036558236231 0 0 0 0 140.5383861143473 6.9956750768922529 0 6.9956750768922529 -39.822820157344012 0 0 0 0 160.01304746358073 -1.8017812588304594 0 -1.8017812588304594 -35.886648416401158 0 0 0 0 152.14301325861015 2.4417333535015473 0 2.4417333535015473 -28.186828337716236 0 0 0 0 46.974048917239998 8.6478289580667536 0 8.6478289580667536 -15.70084976595534 0 0 0 0 94.593690660411085 112.00527911951217 0 112.00527911951217 72.2582092531444 0 0 0 0 109.42671096201229 -28.783900619744259 0 -28.783900619744259 -29.598547445014617 0 0 0 0 3.4054853977509083 2.0892828010672417 0 2.0892828010672417 -0.45465128286319217 0 0 0 0 9.1443856480764225 -11.114393561320355 0 -11.114393561320355 0.57984640839782742 0 0 0 0 4.8823373234248066 -9.1651645133163413 0 -9.1651645133163413 -5.1388269893215623 0 0 0 0 175.74614070712414 -11.501903131695256 0 -11.501903131695256 -1.7579702622191888 0 0 0 0 316.12417753593763 -92.711071782952388 0 -92.711071782952388 74.002449816250561 0 0 0 0 307.82062757977837 234.53551367065114 0 234.53551367065114 -95.099380042569919 0 0 0 0 333.83715425699484 18.155822957037572 0 18.155822957037572 -43.50461321357966 0 0 0 0 147.61661675313371 135.9228558943478 0 135.9228558943478 33.734773768991317 0 0 0 0 -3.1079111812132965 -1.5811306131406724 0 -1.5811306131406724 1.1318531214278229 0 0 0 0 176.79016363545225 35.590235646575813 0 35.590235646575813 -17.114745851590214 0 0 0 0 24.331990025642881 12.870339651642979 0 12.870339651642979 3.0964300869613908 0 0 0 0 30.954171428239533 30.321289780700056 0 30.321289780700056 7.4130937397086516 0 0 0 0 46.485648974339711 63.489982185274542 0 63.489982185274542 30.428610347372327 0 0 0 0 63.127790419879602 18.761621416878796 0 18.761621416878796 22.876546492408941 0 0 0 0 110.57505168218631 14.935633982234918 0 14.935633982234918 18.252651973299407 0 0 0 0 38.142499672452686 16.212418713844897 0 16.212418713844897 8.0255389206208037 0 0 0 0 3.6596858217661179 13.786175273643623 0 13.786175273643623 2.387025975068128 0 0 0 0 91.760080667962029 68.449316594034656 0 68.449316594034656 19.389652234597207 0 0 0 0 35.296537215472199 -25.791839374946449 0 -25.791839374946449 11.250167727887117 0 0 0 0 0.44890861176190811 0.45447914080537366 0 0.45447914080537366 0.11728753222882071 0 0 0 0 20.333917870360892 35.861459096103545 0 35.861459096103545 38.762632782097398 0 0 0 0 51.347638690029271 42.549112838052338 0 42.549112838052338 27.687323035431803 0 0 0 0 75.437613250927825 -7.3956322441204065 0 -7.3956322441204065 -16.167921364121412 0 0 0 0 38.882505469227908 5.6017249919025289 0 5.6017249919025289 -17.734943856685049 0 0 0 0 1.4917614007244993 -11.284228036912594 0 -11.284228036912594 9.5510730920595961 0 0 0 0 17.375629852299312 -2.6495630169998634 0 -2.6495630169998634 -10.952891760135838 0 0 0 0 25.332970679732171 -34.715759603487442 0 -34.715759603487442 -20.217722719902667 0 0 0 0 28.911774873777176 -4.5578210461180788 0 -4.5578210461180788 -12.620801794983436 0 0 0 0 22.11581155085878 -3.3234080995521253 0 -3.3234080995521253 2.3039504667449364 0 0 0 0 2.2037173739963691 -12.710177125775687 0 -12.710177125775687 -5.2988379350363175 0 0 0 0 -0.11855125885631423 0.48719606251324876 0 0.48719606251324876 4.1759864873165498 0 0 0 0 36.859503010622575 10.955789211448518 0 10.955789211448518 3.2676316952972684 0 0 0 0 38.611946529577835 -7.6792020980124107 0 -7.6792020980124107 -23.52367796042634 0 0 0 0 13.814711201534223 -8.7057305855561253 0 -8.7057305855561253 -5.1305036468938603 0 0 0 0 64.905909710199921 16.39850494559073 0 16.39850494559073 -11.297412444559768 0 0 0 0 27.491836409977211 30.240841157723423 0 30.240841157723423 1.3279387890372729 0 0 0 0 131.837840301916 21.056994839843469 0 21.056994839843469 -12.290991728916111 0 0 0 0 63.584449434278213 24.006978022478293 0 24.006978022478293 -4.4185715428026242 0 0 0 0 62.738846770676901 25.435724367572647 0 25.435724367572647 -0.54457886062721172 0 0 0 0 48.161413534544408 19.470763676361685 0 19.470763676361685 0.85009514598004898 0 0 0 0 34.820773289113745 10.218327766138486 0 10.218327766138486 -10.018990170204995 0 0 0 0 25.795136296264559 0.22810124154696609 0 0.22810124154696609 -8.9785949711575075 0 0 0 0 59.270883315184619 7.9037510434257001 0 7.9037510434257001 -2.2802755957685577 0 0 0 0 68.458719543064944 13.020231672594264 0 13.020231672594264 -11.78053846614057 0 0 0 0 35.8409581920356 18.057303008956296 0 18.057303008956296 -3.2590327982105709 0 0 0 0 23.253239446541102 17.026167141497538 0 17.026167141497538 -4.1616958779188877 0 0 0 0 77.133844269697875 17.362194878769685 0 17.362194878769685 -0.63215445989544605 0 0 0 0 71.115472332261561 13.708949646719134 0 13.708949646719134 -0.74186062569447131 0 0 0 0 -7.2190869204059709 17.704588510840949 0 17.704588510840949 -2.5870329803818493 0 0 0 0 50.961718492503877 -1.1736059283169737 0 -1.1736059283169737 -13.754133755806365 0 0 0 0 9.7998105377051559 8.5803610007500879 0 8.5803610007500879 -0.60059313970750772 0 0 0 0 90.076517345354659 17.54374070333597 0 17.54374070333597 -44.53663159148573 0 0 0 0 61.536952605019906 22.713669799384661 0 22.713669799384661 0.12602431966115546 0 0 0 0 80.415906363690738 23.868090770167782 0 23.868090770167782 -46.356279308994999 0 0 0 0 31.791880109964865 -4.3366134949119726 0 -4.3366134949119726 -13.182777785327758 0 0 0 0 34.183000117729534 1.4157879612608468 0 1.4157879612608468 5.4577899117544177 0 0 0 0 85.237931407897122 22.1128295761402 0 22.1128295761402 11.02737940265412 0 0 0 0 14.633767577186703 8.2101263889218785 0 8.2101263889218785 -6.2180493326613071 0 0 0 0 11.89592232568117 1.1367708705322315 0 1.1367708705322315 -0.74355280527012146 0 0 0 0 86.057213256841351 25.766661430514155 0 25.766661430514155 0.16193692752520406 0 0 0 0 81.280326789688843 21.704112320963304 0 21.704112320963304 -13.522218422717742 0 0 0 0 37.323273589339806 13.836239207582139 0 13.836239207582139 1.4238036446893148 0 0 0 0 57.266584704098932 9.2631192100388944 0 9.2631192100388944 -1.9910844993146384 0 0 0 0 2.0030143248732202 58.859709623313847 0 58.859709623313847 14.807969721665586 0 0 0 0 13.556800469916197 19.690850082451107 0 19.690850082451107 10.235732726762421 0 0 0 0 13.822318538004765 59.085091245636704 0 59.085091245636704 -5.5487476306425378 0 0 0 0 10.80351400616928 25.07443122946961 0 25.07443122946961 32.925315826299084 0 0 0 0 28.033075057093811 -21.169638356690029 0 -21.169638356690029 53.315764335895437 0 0 0 0 19.351891107609845 35.505477838526758 0 35.505477838526758 53.11811290726564 0 0 0 0 -7.0459671430871822 12.16192029428214 0 12.16192029428214 29.937155186231394 0 0 0 0 108.11104766737117 -13.509765125736749 0 -13.509765125736749 -14.423380738735659 0 0 0 0 61.953133677634469 0.77775640677407409 0 0.77775640677407409 8.6184806234696225 0 0 0 0 12.043961665158406 -3.0759856146838729 0 -3.0759856146838729 3.8931543624773122 0 0 0 0 67.563771560860914 2.46559328610374 0 2.46559328610374 5.2917618930038799 0 0 0 0 179.88414363057018 41.750979290194209 0 41.750979290194209 -116.78575390153947 0 0 0 0 29.829488325623572 11.663095062064357 0 11.663095062064357 0.87717253956858521 0 0 0 0 34.961792665184475 -52.627448482608997 0 -52.627448482608997 -96.959387148828682 0 0 0 0 49.395303524623159 38.236356621500818 0 38.236356621500818 -112.68709940689405 0 0 0 0 13.749535085134553 6.3884883567263628 0 6.3884883567263628 0.15697469563952637 0 0 0 0 30.320723775337683 -72.065161437778443 0 -72.065161437778443 -92.828333433951002 0 0 0 0 66.801135262189518 10.864403401216357 0 10.864403401216357 -4.3193104019721691 0 0 0 0 -130.08230403462949 118.69802663860901 0 118.69802663860901 24.219065297757425 0 0 0 0 -168.83759090630338 -18.382951944688102 0 -18.382951944688102 -24.819638740780647 0 0 0 0 116.05878337507602 34.428620465456333 0 34.428620465456333 24.915652035841049 0 0 0 0 86.448678246408235 -8.5797394584383255 0 -8.5797394584383255 2.7053322961514823 0 0 0 0 58.166420687318265 8.4803810011648508 0 8.4803810011648508 -3.7579651861960457 0 0 0 0 86.586629468569299 46.30030202444641 0 46.30030202444641 51.519483805752316 0 0 0 0 85.496679699702497 14.021291347855879 0 14.021291347855879 -18.232252553114108 0 0 0 0 -61.444321591523476 -122.44352356385207 0 -122.44352356385207 1.7993983150645363 0 0 0 0 7.9776250316163555 -14.760529848413945 0 -14.760529848413945 -8.7515581499794131 0 0 0 0 115.473580241538 18.006796665789125 0 18.006796665789125 4.9224724839787086 0 0 0 0 33.014868864142045 -8.4768265566673762 0 -8.4768265566673762 -13.117053126812294 0 0 0 0 89.673732875700807 35.157472862086195 0 35.157472862086195 16.893389146182017 0 0 0 0 35.06206303223405 -2.6411668963351218 0 -2.6411668963351218 -11.13591881169204 0 0 0 0 62.358196412809775 20.300855480519601 0 20.300855480519601 5.5766192345208765 0 0 0 0 84.963186833105283 18.580988041808382 0 18.580988041808382 -0.21789265622237508 0 0 0 0 69.712966339473496 30.007955941450291 0 30.007955941450291 18.258963579114777 0 0 0 0 74.850164285526262 1.5443903088840898 0 1.5443903088840898 0.81585213405060131 0 0 0 0 71.536718467978062 5.1890371135575606 0 5.1890371135575606 1.5319911677611913 0 0 0 0 66.025796935788094 14.265212478526792 0 14.265212478526792 1.0790214131080234 0 0 0 0 67.780900521829608 24.368572911037802 0 24.368572911037802 -2.532276208829785 0 0 0 0 66.580686051514931 14.830786127425654 0 14.830786127425654 -0.78569922020120941 0 0 0 0 59.298916027822997 25.748747232181245 0 25.748747232181245 1.5630603068802884 0 0 0 0 55.001347710931441 15.059213428290491 0 15.059213428290491 1.7734750291841692 0 0 0 0 26.11487702796876 6.0819409276257375 0 6.0819409276257375 -4.9486156208853913 0 0 0 0 45.64778998613474 21.633271993721337 0 21.633271993721337 -2.635065800080838 0 0 0 0 30.482587466314726 17.575325916603163 0 17.575325916603163 38.461322617225505 0 0 0 0 68.9400547445548 62.244968620221698 0 62.244968620221698 -27.352841203588468 0 0 0 0 51.636763090064051 -3.7901660225772318 0 -3.7901660225772318 0.14453579748819756 0 0 0 0 -1.7409295164762995 -0.60666154927174887 0 -0.60666154927174887 1.5672842294252687 0 0 0 0 37.732945088813722 -6.4730632793372251 0 -6.4730632793372251 21.42399042811013 0 0 0 0 182.76752938002755 -22.932607337236732 0 -22.932607337236732 -2.6984630222029864 0 0 0 0 134.64827464731934 -35.756242793576746 0 -35.756242793576746 7.7369713508471634 0 0 0 0 93.851573544408893 7.7599833293347871 0 7.7599833293347871 13.419887374317739 0 0 0 0 117.99360753499786 -23.921083524623278 0 -23.921083524623278 9.0228611722577057 0 0 0 0 129.77199497513357 2.4689409972074827 0 2.4689409972074827 60.394153370824597 0 0 0 0 88.776506642025197 -90.238333966481036 0 -90.238333966481036 6.4491516004650293 0 0 0 0 40.970615942860604 -63.273120037153603 0 -63.273120037153603 64.889353708341559 0 0 0 0 80.077412319502969 0.11178432649279912 0 0.11178432649279912 -3.6025999685750949 0 0 0 0 76.041658602029202 -17.664102921264487 0 -17.664102921264487 -70.166882315967314 0 0 0 0 118.23748022264044 35.486598212111915 0 35.486598212111915 -107.64879061128067 0 0 0 0 161.16775951885211 -42.273352656068141 0 -42.273352656068141 -169.26055658205973 0 0 0 0 73.68346793303499 16.092575882580604 0 16.092575882580604 -73.834553942842831 0 0 0 0 35.53647208790062 -6.7532063796656985 0 -6.7532063796656985 -28.225167159868249 0 0 0 0 49.110225767931468 5.5069174435429744 0 5.5069174435429744 -1.2340332436299022 0 0 0 0 36.346779508844236 -0.40370161934248472 0 -0.40370161934248472 -2.2080313991359777 0 0 0 0 137.42469514079858 -94.557218604212267 0 -94.557218604212267 -30.891690574854806 0 0 0 0 243.49890528096876 77.691627008934859 0 77.691627008934859 -56.373353993197348 0 0 0 0 72.643075833238981 13.207504705620266 0 13.207504705620266 0.63995252942879688 0 0 0 0 57.888561116851633 23.640730103118244 0 23.640730103118244 -3.0261554244455056 0 0 0 0 32.869729215230507 1.5614817119987521 0 1.5614817119987521 -3.9354357104224871 0 0 0 0 34.421110356139252 5.1333442667460076 0 5.1333442667460076 -11.810389150948822 0 0 0 0 47.578714849821836 7.0771352373296459 0 7.0771352373296459 -1.871878962637521 0 0 0 0 31.502015571695182 8.0370243404490793 0 8.0370243404490793 1.5664127213175871 0 0 0 0 42.623810281646001 4.5049181083496705 0 4.5049181083496705 -13.032764042623967 0 0 0 0 -21.762680462852586 -83.075196408960664 0 -83.075196408960664 32.100062870250781 0 0 0 0 -31.888740559181315 -32.122691832561031 0 -32.122691832561031 -54.52381816938373 0 0 0 0 22.226166648812068 -72.625530651445672 0 -72.625530651445672 -64.580686849525819 0 0 0 0 78.417570852790959 -53.144649275092547 0 -53.144649275092547 -50.768574709383415 0 0 0 0 -54.981420355121372 -32.338630536218545 0 -32.338630536218545 -34.911888117612193 0 0 0 0 5.4027635981863682 -2.6622674475117662 0 -2.6622674475117662 -4.7751278592348738 0 0 0 0 -26.147258286706347 32.070464431243785 0 32.070464431243785 -15.186141704292197 0 0 0 0 -33.703786372745526 38.879269730567344 0 38.879269730567344 -46.237836430156371 0 0 0 0 44.066274615579459 -10.879332056778832 0 -10.879332056778832 -20.329503100347182 0 0 0 0 -0.85846632542771317 -1.1368880782619044 0 -1.1368880782619044 -0.82434537423685805 0 0 0 0 -221.81656553516223 -39.823408744263617 0 -39.823408744263617 34.255419347862464 0 0 0 0 4.4248265099886339 -171.79356411204881 0 -171.79356411204881 19.638104994064292 0 0 0 0 -83.841732647459139 111.19606098982693 0 111.19606098982693 55.380521938454649 0 0 0 0 146.45949562091846 -46.096858736339215 0 -46.096858736339215 -67.805184080629189 0 0 0 0 -172.63461600101436 -27.47574859907294 0 -27.47574859907294 0.1329802266290101 0 0 0 0 39.819574359855324 -35.827983426679914 0 -35.827983426679914 -78.864398802286217 0 0 0 0 3.8321632273950854 -0.51313169774017808 0 -0.51313169774017808 0.01370947899310123 0 0 0 0 95.699561036512023 69.749027103289322 0 69.749027103289322 91.671503715711339 0 0 0 0 349.13464955866584 259.19612657986767 0 259.19612657986767 175.22092639532278 0 0 0 0 257.60983331265743 -11.227344377547297 0 -11.227344377547297 -20.1594703709738 0 0 0 0 476.70366940864187 -84.164297843196422 0 -84.164297843196422 -41.050172253915306 0 0 0 0 233.12046102828754 16.489700890077874 0 16.489700890077874 -0.11401878211122958 0 0 0 0 172.34811483352678 -137.3449170220793 0 -137.3449170220793 220.62495394758349 0 0 0 0 460.8472903824877 131.71345479900424 0 131.71345479900424 56.735428422446645 0 0 0 0 -82.615770085438271 -33.029983965699067 0 -33.029983965699067 -0.041601256860929435 0 0 0 0 190.73658873422391 -176.63451929938626 0 -176.63451929938626 -133.60164489246088 0 0 0 0 -67.189684641329222 -47.367725763536747 0 -47.367725763536747 -126.43027431457257 0 0 0 0 -78.416851757880067 -230.72380175323326 0 -230.72380175323326 -212.06431660154209 0 0 0 0 79.806023047000053 76.264780528836127 0 76.264780528836127 55.113791658242462 0 0 0 0 9.9337873904113962 -2.8478916466760325 0 -2.8478916466760325 -2.1284710820704755 0 0 0 0 -104.78813364745292 37.493834091264489 0 37.493834091264489 -162.35397233064168 0 0 0 0 -204.99825709350989 -175.42799287348032 0 -175.42799287348032 -20.70350948138929 0 0 0 0 -8.9692781281191856 -95.663463574909741 0 -95.663463574909741 -94.213421387017974 0 0 0 0 -26.743135568642174 -67.71217644376388 0 -67.71217644376388 130.41208967548687 0 0 0 0 -86.351545826095389 -20.553936461112187 0 -20.553936461112187 68.473336855298044 0 0 0 0 52.998037492812728 -44.170510015036655 0 -44.170510015036655 0.23296740598824903 0 0 0 0 302.25710925531166 162.99573848383235 0 162.99573848383235 281.20981967675147 0 0 0 0 266.57255392574007 57.696806812345649 0 57.696806812345649 16.659132195721284 0 0 0 0 39.706168008415261 -20.327552318435718 0 -20.327552318435718 -10.398568820986071 0 0 0 0 432.24608554835868 92.634817410526736 0 92.634817410526736 -2.5992780930828201 0 0 0 0 4.0882333073159884 -1.4846341997059795 0 -1.4846341997059795 0.33854082263867669 0 0 0 0 587.96180741643184 551.05685756804087 0 551.05685756804087 211.50001742960887 0 0 0 0 -2.3174917987344088 -39.920299304294105 0 -39.920299304294105 -9.6252320198703387 0 0 0 0 143.60842368542217 260.3015985506629 0 260.3015985506629 270.45614379964786 0 0 0 0 321.85342418699292 -139.63677077852969 0 -139.63677077852969 100.47418556482683 0 0 0 0 257.21343603081186 -10.734039794891771 0 -10.734039794891771 -27.006211419474653 0 0 0 0 744.64478292470449 134.02134645007027 0 134.02134645007027 -100.62014443261683 0 0 0 0 165.176842034125 57.522999950656981 0 57.522999950656981 19.442918288349233 0 0 0 0 426.28136440285016 97.878109336959483 0 97.878109336959483 -88.45834115726484 0 0 0 0 7.0866495736991055 -90.619538582006385 0 -90.619538582006385 -15.804583909845192 0 0 0 0 261.30442003670032 -107.08511698957625 0 -107.08511698957625 -267.28741953241365 0 0 0 0 13.949182635716397 -5.8717688955908613 0 -5.8717688955908613 2.1641870951511746 0 0 0 0 29.2826566001022 -6.8209377883547404 0 -6.8209377883547404 -10.865223877264043 0 0 0 0 150.38436172458751 -279.50880450521288 0 -279.50880450521288 -414.77454278810239 0 0 0 0 122.81983227891033 7.175557252419253 0 7.175557252419253 -349.77257852519983 0 0 0 0 -161.99667855887674 -61.005683015218267 0 -61.005683015218267 -19.221266789465062 0 0 0 0 229.01478551500622 228.52556706372536 0 228.52556706372536 -82.238660516282607 0 0 0 0 482.56434551031271 194.56692509901245 0 194.56692509901245 -96.291159434795532 0 0 0 0 339.1273247897916 128.30327806174546 0 128.30327806174546 -4.1387776243193457 0 0 0 0 33.871221270965179 -43.487480612070385 0 -43.487480612070385 111.58469615204785 0 0 0 0 5.9425732878243593 -2.0314028920543876 0 -2.0314028920543876 0.64235576986287413 0 0 0 0 -23.027251718536718 10.258896246646145 0 10.258896246646145 81.329290946359833 0 0 0 0 70.272399738081731 -103.20139889140637 0 -103.20139889140637 24.327225842182088 0 0 0 0 159.9104858746432 -74.013536994501465 0 -74.013536994501465 -122.40506383317734 0 0 0 0 489.92011986937723 -227.12651888794198 0 -227.12651888794198 46.239344662105509 0 0 0 0 2.0156262464442989 -10.664034210156842 0 -10.664034210156842 -10.024793688438876 0 0 0 0 31.699750704923645 -18.27032518163378 0 -18.27032518163378 -10.236942799164353 0 0 0 0 -26.352642441735952 -23.360723428612346 0 -23.360723428612346 5.7438345263262818 0 0 0 0 15.51999645459 -48.597890863784414 0 -48.597890863784414 14.306696286153965 0 0 0 0 -66.211366824543802 10.511328552037412 0 10.511328552037412 -67.405329675154462 0 0 0 0 -172.86640843027271 -153.15302329531733 0 -153.15302329531733 -43.142820418474912 0 0 0 0 29.584633422258776 -28.893736856163287 0 -28.893736856163287 -13.882182524632299 0 0 0 0 20.890345772844739 -22.649554166337111 0 -22.649554166337111 -9.6784706697171714 0 0 0 0 40.251993024241528 -16.987389535194325 0 -16.987389535194325 -19.039117816246289 0 0 0 0 78.553783275558089 32.289934535590078 0 32.289934535590078 -2.0203444019234666 0 0 0 0 91.417492000269704 33.902463286305192 0 33.902463286305192 -39.770042415518901 0 0 0 0 36.731406379069085 -25.050395285575405 0 -25.050395285575405 -15.570038268776443 0 0 0 0 85.363172200789791 2.9789848991873846 0 2.9789848991873846 -4.663799144131092 0 0 0 0 84.189527269081736 33.412460208679477 0 33.412460208679477 -33.553035596719383 0 0 0 0 16.221707853768677 2.6674957264099532 0 2.6674957264099532 -5.1880685153360915 0 0 0 0 83.941005018466967 35.910905932025969 0 35.910905932025969 0.34730791607216815 0 0 0 0 -255.14076425955864 269.75619920759027 0 269.75619920759027 143.25955210492225 0 0 0 0 9.1712278105879932 9.5153180153738219 0 9.5153180153738219 1.2284354276930527 0 0 0 0 79.688897837084369 33.255844321164773 0 33.255844321164773 -4.2372151818103703 0 0 0 0 87.803990337444702 42.018793656750631 0 42.018793656750631 -31.544383806628048 0 0 0 0 103.45899114513304 70.267229981366341 0 70.267229981366341 10.167408891941022 0 0 0 0 93.977766186493682 38.421609496077281 0 38.421609496077281 -9.0773441759213256 0 0 0 0 79.6397227045818 48.517844354580347 0 48.517844354580347 35.798018435605172 0 0 0 0 70.59562386473408 38.253059613812638 0 38.253059613812638 45.224220529675677 0 0 0 0 77.861855636321707 35.567056618490028 0 35.567056618490028 32.613799801844834 0 0 0 0 80.259613496047677 34.251146726768638 0 34.251146726768638 1.3847202025854131 0 0 0 0 154.68347410238493 3.9857827020062899 0 3.9857827020062899 201.46559620509859 0 0 0 0 124.8919419527665 67.227880220301486 0 67.227880220301486 111.98068036088358 0 0 0 0 285.90802467003232 266.04634276797549 0 266.04634276797549 181.33471532377726 0 0 0 0 209.60822600178653 81.209490618880238 0 81.209490618880238 -28.324711519044378 0 0 0 0 -187.59227694847505 -53.994564771043422 0 -53.994564771043422 4.6777310881977101 0 0 0 0 7.5128798645746429 37.494581873539907 0 37.494581873539907 0.23071589922935973 0 0 0 0 -2.9646064495900646 -73.800216975601131 0 -73.800216975601131 -11.26952432543159 0 0 0 0 -15.432193359185476 140.43687971116671 0 140.43687971116671 66.462650003987093 0 0 0 0 -0.83560692241945844 0.76512154264382559 0 0.76512154264382559 -0.77364506565877744 0 0 0 0 -20.011390919986297 39.60523165002337 0 39.60523165002337 1.1509469981822349 0 0 0 0 -4.1922615578077966 -10.05078948369087 0 -10.05078948369087 -5.3840723740480314 0 0 0 0 -129.6288236103137 39.954805664081107 0 39.954805664081107 12.449813745279187 0 0 0 0 -65.459231026550697 -14.094062773329911 0 -14.094062773329911 0.73587779369434703 0 0 0 0 1.7834144470689353 30.664653995257819 0 30.664653995257819 17.918740480579327 0 0 0 0 1.0068584852062088 -2.5083605235872994 0 -2.5083605235872994 1.3517335842337697 0 0 0 0 62.870977498969296 10.131748338293818 0 10.131748338293818 -15.43049701660027 0 0 0 0 -11.853752432973124 -2.6304667672935587 0 -2.6304667672935587 15.920794676988159 0 0 0 0 -3.0176853500577749 2.2210721350610925 0 2.2210721350610925 -1.3075757262826111 0 0 0 0 35.444854790563113 -14.800928979009036 0 -14.800928979009036 -26.845779765780399 0 0 0 0 -27.758183668018319 0.4878137759297374 0 0.4878137759297374 -10.062059556414511 0 0 0 0 4.4737198412531143 19.809569299707636 0 19.809569299707636 19.427255000257986 0 0 0 0 5.2771241825309971 -2.6211868367241777 0 -2.6211868367241777 -2.2855537943697914 0 0 0 0 9.3834857056008332 -6.2353745731034991 0 -6.2353745731034991 2.2613174918742547 0 0 0 0 371.19879952282645 56.065807133884618 0 56.065807133884618 -70.781568670733577 0 0 0 0 329.93412477924721 12.918104456143283 0 12.918104456143283 -55.964028074347652 0 0 0 0 5.9871808097284998 -2.7089058184096757 0 -2.7089058184096757 -2.4802428908859744 0 0 0 0 630.79423684476933 -50.815485871206647 0 -50.815485871206647 -178.63587845097845 0 0 0 0 -21.11669738056662 179.44336124245865 0 179.44336124245865 400.70163624547354 0 0 0 0 503.40306554734707 183.61734247610502 0 183.61734247610502 -27.343643826232437 0 0 0 0 292.39890661276877 -234.39385221239354 0 -234.39385221239354 18.874992925241713 0 0 0 0 -381.68579432554543 -235.48967485387902 0 -235.48967485387902 51.332429763831897 0 0 0 0 14.837004464672646 -32.100927695875384 0 -32.100927695875384 -14.165053051586256 0 0 0 0 13.872706899333934 -9.5525767817874367 0 -9.5525767817874367 3.6133118700222173 0 0 0 0 -52.682217807858251 -36.490618106148304 0 -36.490618106148304 9.3710223051348294 0 0 0 0 -68.357836308103288 -54.047194981300891 0 -54.047194981300891 2.9386511556667188 0 0 0 0 -47.937599314369436 -13.280138404193764 0 -13.280138404193764 23.43625098973996 0 0 0 0 -180.41544363509456 -41.864232042344007 0 -41.864232042344007 120.97410673228444 0 0 0 0 -72.17752344175824 -93.308537882473615 0 -93.308537882473615 64.047152369581283 0 0 0 0 16.528352472611004 -84.016705422997575 0 -84.016705422997575 -81.95662720863794 0 0 0 0 -54.730000330018811 -154.65437240193739 0 -154.65437240193739 -64.050043329440314 0 0 0 0 -77.10149044357604 -72.372058143228472 0 -72.372058143228472 42.588346441351177 0 0 0 0 24.538353269392985 -5.0906207140535571 0 -5.0906207140535571 0.95252302711841796 0 0 0 0 -57.221885660661428 -81.895916409533527 0 -81.895916409533527 72.90106006663018 0 0 0 0 -142.76176962122554 -242.48969734211596 0 -242.48969734211596 -39.584425524835524 0 0 0 0 108.52021498097747 -35.704531082481594 0 -35.704531082481594 -143.34108492346923 0 0 0 0 50.035019148372157 -51.286704202880351 0 -51.286704202880351 314.10588269417735 0 0 0 0 63.408305474426015 -101.43369815480995 0 -101.43369815480995 68.489531619166456 0 0 0 0 -71.945397356804278 -87.451101117315105 0 -87.451101117315105 172.10137690335921 0 0 0 0 29.777496478724856 -14.75596191897888 0 -14.75596191897888 5.7001913748001343 0 0 0 0 39.605477452321793 -37.04329446456893 0 -37.04329446456893 -4.5436998994123314 0 0 0 0 84.57514663207985 4.7488896512204519 0 4.7488896512204519 24.536106356401433 0 0 0 0 62.282708427464172 -13.745880395008257 0 -13.745880395008257 -2.5552996538926323 0 0 0 0 101.78650020941859 -119.70443010508484 0 -119.70443010508484 -102.6330870508491 0 0 0 0 -69.477194257382507 -89.753865891738656 0 -89.753865891738656 2.9864255353722911 0 0 0 0 -44.296691876093973 -201.94321433144989 0 -201.94321433144989 -101.04147571172575 0 0 0 0 141.80574014762533 -214.59522183332774 0 -214.59522183332774 -190.27151220084943 0 0 0 0 59.750433912038062 -30.136075976772105 0 -30.136075976772105 6.1565551675367729 0 0 0 0 71.003652466800389 3.8465660605705096 0 3.8465660605705096 -1.0410430451783261 0 0 0 0 188.66119793787948 -119.77761796228287 0 -119.77761796228287 -484.63456804950965 0 0 0 0 53.598405603166611 17.883154456564398 0 17.883154456564398 55.895074537158962 0 0 0 0 9.1660423931012929 -13.820960518183242 0 -13.820960518183242 -0.13554076428200057 0 0 0 0 18.972951419826131 -116.82187455780036 0 -116.82187455780036 -301.68452723928317 0 0 0 0 10.852926599333387 -3.1646151227680086 0 -3.1646151227680086 1.3667280850158692 0 0 0 0 -172.70773207645107 -149.3055536207753 0 -149.3055536207753 449.26858976664698 0 0 0 0 81.430075513999327 -29.517316141383844 0 -29.517316141383844 -12.948988031140289 0 0 0 0 15.563474896174739 166.23762170812415 0 166.23762170812415 140.32258516290995 0 0 0 0 186.80477261515352 919.68465570803892 0 919.68465570803892 122.30043819991806 0 0 0 0 286.47020946185512 -251.33164478387789 0 -251.33164478387789 -126.85388006639141 0 0 0 0 84.66811309601195 -24.774788898064351 0 -24.774788898064351 4.2503987213237959 0 0 0 0 14.619743447088695 63.390561832113349 0 63.390561832113349 108.5377841492691 0 0 0 0 -2.3911810920690186 -1049.4270911948006 0 -1049.4270911948006 12.011632762861154 0 0 0 0 8.4602283393178368 35.936766693607296 0 35.936766693607296 -13.331810432014208 0 0 0 0 155.12764638720546 118.68206659820908 0 118.68206659820908 -34.619173050904777 0 0 0 0 133.645897495604 65.995128437138533 0 65.995128437138533 -156.41896398296285 0 0 0 0 178.04827963139815 -177.94013331720546 0 -177.94013331720546 -64.953274322746438 0 0 0 0 82.765408588740996 -0.18784396082203614 0 -0.18784396082203614 -1.5846004400484635 0 0 0 0 135.41906257469782 -8.3819855346066561 0 -8.3819855346066561 -26.738313944373658 0 0 0 0 126.39988640134106 -41.845009999537069 0 -41.845009999537069 7.3748709486735606 0 0 0 0 143.68703097263642 -24.87069671526956 0 -24.87069671526956 -7.1251340415674349 0 0 0 0 39.920104145716323 -61.974250052258867 0 -61.974250052258867 11.394303921342726 0 0 0 0 80.648924349814479 23.549294896253286 0 23.549294896253286 104.13488882276943 0 0 0 0 133.24129225945217 -132.07224561474595 0 -132.07224561474595 63.061081568400368 0 0 0 0 131.05449422671518 13.263343624769732 0 13.263343624769732 9.5459435947914244 0 0 0 0 65.841560500142293 -20.431542067467845 0 -20.431542067467845 5.1570774661770784 0 0 0 0 92.369789515119919 6.714120013995398 0 6.714120013995398 -31.775197458367984 0 0 0 0 100.1365161364447 -75.774152587344417 0 -75.774152587344417 20.680246480616916 0 0 0 0 1.8866173375863582 -17.484828717471828 0 -17.484828717471828 28.066421089351024 0 0 0 0 7.9231088072521629 -4.5645635862117544 0 -4.5645635862117544 0.070231432481550726 0 0 0 0 38.338751666982716 84.034030326922789 0 84.034030326922789 -64.898767208505888 0 0 0 0 252.32483430506545 79.017835107594692 0 79.017835107594692 -60.941107092496622 0 0 0 0 28.395292544053518 65.230191748934885 0 65.230191748934885 -56.485203283897135 0 0 0 0 11.499496426564548 7.8734496971322301 0 7.8734496971322301 -4.7523032259753606 0 0 0 0 30.550411834468832 88.561784987258761 0 88.561784987258761 -54.871548240750599 0 0 0 0 90.654421417013509 6.9093386970989741 0 6.9093386970989741 16.693610628024544 0 0 0 0 84.077371046572807 0.26362214515938831 0 0.26362214515938831 11.715046369897209 0 0 0 0 64.432807829017008 9.0874332685586552 0 9.0874332685586552 -1.0685844604988439 0 0 0 0 68.582992379597272 29.052824446238901 0 29.052824446238901 -21.339306675124703 0 0 0 0 32.076365265064439 -5.3971300409752416 0 -5.3971300409752416 -8.5643945376687594 0 0 0 0 77.184958108351566 35.991169885805562 0 35.991169885805562 -15.74285001790328 0 0 0 0 71.791704498202307 32.401515508982811 0 32.401515508982811 -16.203648380459185 0 0 0 0 144.38621864159359 8.5518978434583914 0 8.5518978434583914 -22.380471824215647 0 0 0 0 90.331377835744206 13.8896516403289 0 13.8896516403289 -6.701461465674015 0 0 0 0 120.72193795278145 -88.631744610949227 0 -88.631744610949227 -13.710651015607709 0 0 0 0 93.672407335485332 33.071763717244266 0 33.071763717244266 -29.884300895747856 0 0 0 0 117.57361537097313 -26.830627631455741 0 -26.830627631455741 18.263829660902502 0 0 0 0 117.34646907643764 -64.028193563282002 0 -64.028193563282002 13.912063257465462 0 0 0 0 180.80044802608609 -76.05660205743925 0 -76.05660205743925 -11.536872104069744 0 0 0 0 243.07048794220464 17.397202336884902 0 17.397202336884902 -35.592037194792056 0 0 0 0 -35.181347846781136 38.103190966526995 0 38.103190966526995 22.466531628871053 0 0 0 0 652.17140058164659 -292.65361488036569 0 -292.65361488036569 -53.781123044983588 0 0 0 0 87.306607995837112 79.374013024681517 0 79.374013024681517 -5.1746921907285923 0 0 0 0 27.358846364519373 0.0048103321162216162 0 0.0048103321162216162 -5.9042055571008358 0 0 0 0 85.300189524597954 24.542447011300055 0 24.542447011300055 -14.94525944799291 0 0 0 0 109.47950216889149 -11.296364915146114 0 -11.296364915146114 -11.046820938470773 0 0 0 0 78.380892870479727 -4.9962427048053435 0 -4.9962427048053435 -1.367219147761509 0 0 0 0 124.58340195904202 8.8097058219091799 0 8.8097058219091799 -12.387905123905966 0 0 0 0 13.566394477973745 9.0711350777392283 0 9.0711350777392283 -4.7775373135437924 0 0 0 0 89.912290243431926 -8.6657693685947379 0 -8.6657693685947379 -6.0131508069966912 0 0 0 0 85.126057450752796 -13.178167477181802 0 -13.178167477181802 -7.096207838497719 0 0 0 0 176.09615802855114 -160.88901315058501 0 -160.88901315058501 -113.07561153261213 0 0 0 0 90.570455316075822 -12.661384060340652 0 -12.661384060340652 -20.90222740881768 0 0 0 0 118.55630042476696 -40.440258395984529 0 -40.440258395984529 -148.85716961993603 0 0 0 0 157.2744964073645 -102.32428719713107 0 -102.32428719713107 13.90010845338702 0 0 0 0 91.749252649932203 -10.245363309398407 0 -10.245363309398407 -8.0292234828685061 0 0 0 0 85.305773663785658 9.3881575203399734 0 9.3881575203399734 -25.314560710945443 0 0 0 0 130.59532193977066 -35.653415504384611 0 -35.653415504384611 12.861063060540801 0 0 0 0 92.261126822781421 10.323252418965176 0 10.323252418965176 -10.60420127595042 0 0 0 0 106.84851614947547 -10.117442878802422 0 -10.117442878802422 -12.893059510718558 0 0 0 0 133.88396628128248 12.458240759111277 0 12.458240759111277 -4.9799325055028447 0 0 0 0 117.66264270390093 12.901529510739238 0 12.901529510739238 -0.88323915829732869 0 0 0 0 29.808013817917722 -0.53080249453553563 0 -0.53080249453553563 -11.772346763274733 0 0 0 0 138.28665124427789 14.031410916483765 0 14.031410916483765 -67.577963416961211 0 0 0 0 255.1203674838398 -817.43411445159109 0 -817.43411445159109 494.06310868178844 0 0 0 0 118.88828610409109 -0.58281630567489628 0 -0.58281630567489628 -35.922777166284504 0 0 0 0 134.51504036052211 1.3257712418726442 0 1.3257712418726442 -35.692255230942465 0 0 0 0 136.84528273344768 21.759785876341539 0 21.759785876341539 -95.231115085145575 0 0 0 0 116.07283808709326 -14.237475224484115 0 -14.237475224484115 -18.327197966365929 0 0 0 0 139.412644941076 -12.603055836350904 0 -12.603055836350904 -79.396851904994037 0 0 0 0 153.78351558480063 -40.058915395175973 0 -40.058915395175973 -27.897718964180967 0 0 0 0 131.73916637987895 -58.711021288231223 0 -58.711021288231223 -39.062146257940185 0 0 0 0 164.02094949963794 -78.210938246363185 0 -78.210938246363185 -28.007770834182338 0 0 0 0 200.76401610832545 -52.439065740687511 0 -52.439065740687511 -83.926472508379447 0 0 0 0 146.97223052253685 -109.86580352835199 0 -109.86580352835199 -47.146683554909941 0 0 0 0 140.75750638952013 9.9573875334190234 0 9.9573875334190234 -125.59763920331898 0 0 0 0 148.79985359075363 -54.852339949431553 0 -54.852339949431553 -186.16069019556016 0 0 0 0 498.73612745566061 1752.8993713812142 0 1752.8993713812142 -1809.7332710889787 0 0 0 0 140.3035022674303 -19.556440769323672 0 -19.556440769323672 -178.00631208615869 0 0 0 0 134.70903995239496 -13.977601244469042 0 -13.977601244469042 -90.309304480957508 0 0 0 0 157.25218266190495 -10.948909343832383 0 -10.948909343832383 -117.46863684238269 0 0 0 0 137.20431156005361 -48.857013557875689 0 -48.857013557875689 -142.53206544675049 0 0 0 0 169.24751759294304 -70.951894878850908 0 -70.951894878850908 -96.713519377276953 0 0 0 0 252.77437068616564 -23.34881020058674 0 -23.34881020058674 -74.296138737856381 0 0 0 0 145.95349027295015 107.33948876834938 0 107.33948876834938 -30.264265093528593 0 0 0 0 175.41443933662958 97.122388698313443 0 97.122388698313443 -35.036599947010018 0 0 0 0 -339.95823090238264 -15.052107938130575 0 -15.052107938130575 -58.196050751525036 0 0 0 0 10.464134503977306 1.634871410723612 0 1.634871410723612 0.040567998936589689 0 0 0 0 23.503498457430396 4.1021264440350933 0 4.1021264440350933 20.184280604004016 0 0 0 0 141.59857589533203 59.333363786296104 0 59.333363786296104 30.505104775025529 0 0 0 0 227.16927070831298 110.14963782624091 0 110.14963782624091 -168.28448297742349 0 0 0 0 395.41506232426036 -205.34136452809344 0 -205.34136452809344 53.615321871300694 0 0 0 0 822.56376857332543 -136.23288912012686 0 -136.23288912012686 -174.00378300565171 0 0 0 0 331.52794432963128 -105.21545872110437 0 -105.21545872110437 32.703622673412838 0 0 0 0 1.2495109246418963 -1.8544045745226754 0 -1.8544045745226754 1.9170059301065461 0 0 0 0 -54.281490463763475 121.36132116501904 0 121.36132116501904 -222.43200480184896 0 0 0 0 -7.90360042177781 211.73100783337395 0 211.73100783337395 -137.58111710108733 0 0 0 0 22.198458565438781 -2.5206397233567657 0 -2.5206397233567657 -2.9967807056946185 0 0 0 0 -112.00831418693997 113.55062148608886 0 113.55062148608886 -93.845421946763963 0 0 0 0 199.86016156639789 108.22461656345394 0 108.22461656345394 -106.9953972268886 0 0 0 0 155.71834078856045 62.726942278029128 0 62.726942278029128 -102.82499917464884 0 0 0 0 81.404436812736094 38.582109754553699 0 38.582109754553699 -36.468811331983943 0 0 0 0 85.100759849087638 15.344287973796099 0 15.344287973796099 -4.7003072070600025 0 0 0 0 26.255715470513678 83.943276732224149 0 83.943276732224149 29.03005765143098 0 0 0 0 76.171434451282039 11.323902478651441 0 11.323902478651441 -2.3464689928553417 0 0 0 0 107.87733400957222 31.028787529236808 0 31.028787529236808 -55.903274874570116 0 0 0 0 95.903479205211625 2.3008122705362553 0 2.3008122705362553 -22.539399476202334 0 0 0 0 112.74609733668331 41.506112756223047 0 41.506112756223047 -182.70611682805611 0 0 0 0 39.711081541696331 170.77710998778821 0 170.77710998778821 -75.090630993248851 0 0 0 0 -16.584378860905417 64.366085813169775 0 64.366085813169775 -38.84983054843542 0 0 0 0 32.072276281251106 -57.767465142564106 0 -57.767465142564106 5.4365839763104304 0 0 0 0 14.413454719513538 109.44957555661858 0 109.44957555661858 -162.29587518112612 0 0 0 0 7.4404958055820316 -17.155619155339082 0 -17.155619155339082 -202.20368292857529 0 0 0 0 -101.36075360170798 173.61832552759734 0 173.61832552759734 -185.29053066536835 0 0 0 0 1.6854608586709254 -0.69492951518759583 0 -0.69492951518759583 -0.18645438457150121 0 0 0 0 45.505549331894144 -6.433653749273617 0 -6.433653749273617 0.22658157323576233 0 0 0 0 21.195312881373553 5.8524180229141862 0 5.8524180229141862 1.7912383249704726 0 0 0 0 4.7296018705164897 3.064313792321002 0 3.064313792321002 -1.5623221057066985 0 0 0 0 15.498795908335552 4.4235779087099587 0 4.4235779087099587 0.85176188840410028 0 0 0 0 66.168134471183293 7.6394406106264796 0 7.6394406106264796 -9.6441044662992681 0 0 0 0 45.411268403250332 13.39289206478951 0 13.39289206478951 -8.3283477619033874 0 0 0 0 40.912560714030406 -0.48407732384259816 0 -0.48407732384259816 -8.3501306664093136 0 0 0 0 43.30655055099669 8.8038738956810221 0 8.8038738956810221 8.5088508384351371 0 0 0 0 84.548617347281834 6.6160467223572823 0 6.6160467223572823 -7.824501455782638 0 0 0 0 114.22470004648858 -30.461125268448541 0 -30.461125268448541 11.229981813101631 0 0 0 0 15.56878051798363 -3.03391993479093 0 -3.03391993479093 -4.9875759568950926 0 0 0 0 168.06479285441674 96.570500863288316 0 96.570500863288316 86.457756984035314 0 0 0 0 36.429614462246263 -14.271087338385428 0 -14.271087338385428 50.923665068325136 0 0 0 0 4.2780869366573722 -5.2633432492211369 0 -5.2633432492211369 -1.989121244218385 0 0 0 0 322.68006090136623 109.61330153281506 0 109.61330153281506 -31.490017881571816 0 0 0 0 436.26978921618866 -78.847009985109707 0 -78.847009985109707 -59.49345560841175 0 0 0 0 147.03482366426761 -212.23228645722384 0 -212.23228645722384 72.452959902825569 0 0 0 0 4.1224400252605164 -1.3355181840095813 0 -1.3355181840095813 -0.39911185228746993 0 0 0 0 244.04284438792092 -171.7885298886722 0 -171.7885298886722 -16.950310142754461 0 0 0 0 363.90080191139714 -184.13944982045359 0 -184.13944982045359 -16.87963006949758 0 0 0 0 344.53722020239366 30.841556900143132 0 30.841556900143132 -54.475673396183083 0 0 0 0 185.72198131223195 131.92212002003521 0 131.92212002003521 -113.96477517248422 0 0 0 0 219.45117445817596 -96.944608671321703 0 -96.944608671321703 49.522577637804545 0 0 0 0 232.93640775472886 -4.571102215517044 0 -4.571102215517044 -17.382241741242979 0 0 0 0 169.18687656481052 38.787737718524795 0 38.787737718524795 -44.707622373824734 0 0 0 0 101.0222408201048 305.79518157106213 0 305.79518157106213 197.96196146917646 0 0 0 0 169.88250178790628 -27.891181366796161 0 -27.891181366796161 -11.545804534812801 0 0 0 0 108.52282296983805 -18.770300888546558 0 -18.770300888546558 -58.242414684337746 0 0 0 0 123.13818210700356 210.85651551364026 0 210.85651551364026 -250.6333056126407 0 0 0 0 14.863461097059549 26.658668871666645 0 26.658668871666645 -41.50344779828351 0 0 0 0 99.685633399956259 40.69662544376115 0 40.69662544376115 -14.270980019315402 0 0 0 0 77.489827023448015 8.1976093887674324 0 8.1976093887674324 -34.449567662454214 0 0 0 0 73.815977083048125 2.6319270795865464 0 2.6319270795865464 -48.657336912648574 0 0 0 0 83.066296542030614 26.247052521696105 0 26.247052521696105 -27.669585078671389 0 0 0 0 79.402808357238271 23.228751749520516 0 23.228751749520516 -7.3913432058714434 0 0 0 0 106.9074299386134 14.410978049514597 0 14.410978049514597 -84.120975425203142 0 0 0 0 82.627501034126908 9.1873048222223588 0 9.1873048222223588 -8.4543755342979239 0 0 0 0 76.534383817004709 30.495717031184711 0 30.495717031184711 -0.18738854959929085 0 0 0 0 77.515543082600288 23.924988332170926 0 23.924988332170926 -2.3175929165390698 0 0 0 0 28.133162087314886 -12.016162432253026 0 -12.016162432253026 -12.810917793664824 0 0 0 0 171.03224675725505 -55.158904895296473 0 -55.158904895296473 -22.327932480334312 0 0 0 0 88.449654535194185 -23.760387379425978 0 -23.760387379425978 -17.530050828128267 0 0 0 0 67.320353407566813 8.2997761321084411 0 8.2997761321084411 -18.123716950871525 0 0 0 0 183.6717754044912 -179.22241813249661 0 -179.22241813249661 65.438466986363437 0 0 0 0 56.533984030214924 117.23994462722612 0 117.23994462722612 -62.674448117440534 0 0 0 0 3.7745695751733876 -1.1226484622971817 0 -1.1226484622971817 -0.32079264427860288 0 0 0 0 -161.82123152953864 -6.2207383160375684 0 -6.2207383160375684 27.73754199257894 0 0 0 0 -49.096287616423069 -54.540901272118845 0 -54.540901272118845 36.312328624814199 0 0 0 0 173.92843948098744 -88.348317138827042 0 -88.348317138827042 30.008268168292631 0 0 0 0 158.34656089502823 -6.3944819677565192 0 -6.3944819677565192 -196.21906184962972 0 0 0 0 263.38997061587725 58.428632242616459 0 58.428632242616459 -250.18473201288907 0 0 0 0 7.6387032781098867 -1.2455336617765482 0 -1.2455336617765482 -0.72230750454827497 0 0 0 0 -104.31075763596891 -11.564604814623635 0 -11.564604814623635 101.4359052607 0 0 0 0 -55.624233795977489 -160.97728237869296 0 -160.97728237869296 76.042469927700495 0 0 0 0 -99.356707154627657 -15.789448790063034 0 -15.789448790063034 9.3273763747922658 0 0 0 0 158.55975937543775 -27.793242147099228 0 -27.793242147099228 -6.6620263404922122 0 0 0 0 112.16892484700475 3.4169738459222572 0 3.4169738459222572 119.52689929881763 0 0 0 0 179.80336746486864 35.362624125320508 0 35.362624125320508 16.716270208544074 0 0 0 0 624.76947423219281 -160.60481852621888 0 -160.60481852621888 -586.82781110368501 0 0 0 0 74.62956548738714 -214.36017539240561 0 -214.36017539240561 47.312330874212421 0 0 0 0 30.842272416242167 -111.89081568841175 0 -111.89081568841175 -159.08874007428403 0 0 0 0 11.850623194290165 -101.96914478461048 0 -101.96914478461048 190.62822104679913 0 0 0 0 144.38206652058557 -31.586375542894025 0 -31.586375542894025 -7.5143161624928876 0 0 0 0 99.943975321383789 -111.08389191368587 0 -111.08389191368587 -267.28399534102755 0 0 0 0 3.5927596405981603 83.748313654827143 0 83.748313654827143 -150.79482999275933 0 0 0 0 145.71932586883486 -120.61297597757209 0 -120.61297597757209 4.8779247229892917 0 0 0 0 -28.89648252011466 64.609981613826676 0 64.609981613826676 -106.50569047285126 0 0 0 0 131.93506049722075 -33.693018802855413 0 -33.693018802855413 -7.6342294643244912 0 0 0 0 162.19837885058087 -75.126991101926251 0 -75.126991101926251 -252.5094506092114 0 0 0 0 -115.54761802661784 7.6081597756506198 0 7.6081597756506198 -274.96445728270373 0 0 0 0 66.038816183346171 -195.34199136284406 0 -195.34199136284406 -371.13404182033992 0 0 0 0 16.90642701592559 -5.3222618441295353 0 -5.3222618441295353 -0.72141930392807185 0 0 0 0 244.30635061637815 -2.8559231429990177 0 -2.8559231429990177 -663.11419149373251 0 0 0 0 53.544470923826907 -75.441101858181355 0 -75.441101858181355 26.857050966193128 0 0 0 0 -78.626945660102592 -58.889558326305632 0 -58.889558326305632 -236.15762185426684 0 0 0 0 249.90151047793398 241.04303941552098 0 241.04303941552098 -85.274359217970414 0 0 0 0 319.9387560860655 393.59774066591126 0 393.59774066591126 -176.98592611057938 0 0 0 0 6.9110246667626765 -3.4180727757783487 0 -3.4180727757783487 -0.18112920212065964 0 0 0 0 555.77937308234323 212.11140519211312 0 212.11140519211312 -172.78754024676527 0 0 0 0 487.16396032221792 322.56573058789763 0 322.56573058789763 -330.72224127689697 0 0 0 0 392.00347823862239 270.71840040214101 0 270.71840040214101 25.263654717660756 0 0 0 0 201.2606450760286 -865.32942853494023 0 -865.32942853494023 143.68281153207863 0 0 0 0 565.8000861281264 463.1766515301988 0 463.1766515301988 41.42743874261032 0 0 0 0 2.7052760585582476 3.58704534799935 0 3.58704534799935 -11.778812723962343 0 0 0 0 -185.33531476991493 215.7892107046423 0 215.7892107046423 -106.22077892027664 0 0 0 0 508.40114030357836 176.50414870965415 0 176.50414870965415 -817.22122365261112 0 0 0 0 -0.67148440425033673 1.0599858256514185 0 1.0599858256514185 -0.94646653692114313 0 0 0 0 -222.25793272196324 -472.30080658686666 0 -472.30080658686666 -587.82713341985254 0 0 0 0 777.39670975673539 656.88741551219664 0 656.88741551219664 309.55302817566303 0 0 0 0 392.58106335710409 288.84569946058582 0 288.84569946058582 387.53445964702632 0 0 0 0 415.35789821674655 163.15559359198141 0 163.15559359198141 184.8768634422413 0 0 0 0 502.79584443541529 316.30149751854242 0 316.30149751854242 71.457788180752686 0 0 0 0 497.31173063337587 121.78790727878322 0 121.78790727878322 -28.050244964073499 0 0 0 0 351.64341529146964 82.920138484197196 0 82.920138484197196 -20.975271602741486 0 0 0 0 297.49235173858307 106.11185316590854 0 106.11185316590854 153.23365121970346 0 0 0 0 735.62584253481168 283.35165657741845 0 283.35165657741845 -17.591980143605724 0 0 0 0 177.32387273800487 -62.082392438311672 0 -62.082392438311672 14.310834687636088 0 0 0 0 502.40040787557234 -3.2853378885488382 0 -3.2853378885488382 -8.9087122845621707 0 0 0 0 231.7219241395951 -80.213303584616369 0 -80.213303584616369 -23.920691033555329 0 0 0 0 13.156038098831687 -133.76476096624538 0 -133.76476096624538 -27.468784864082409 0 0 0 0 -1.264017154920648 4.6862969485037533 0 4.6862969485037533 -62.276051220730196 0 0 0 0 152.62025816311035 62.285876863592421 0 62.285876863592421 -124.5767918192978 0 0 0 0 104.86914550029633 91.456926771151302 0 91.456926771151302 -103.06743055738571 0 0 0 0 118.18901642443237 -17.171193691566259 0 -17.171193691566259 -74.958881398326412 0 0 0 0 132.92470650143991 27.467401762669112 0 27.467401762669112 -90.367208997733542 0 0 0 0 109.54193883410835 8.8475244153678432 0 8.8475244153678432 -56.904144975508643 0 0 0 0 108.2055765032606 17.927824498610448 0 17.927824498610448 -104.19099117092082 0 0 0 0 169.88592291788603 -3.8713327888929143 0 -3.8713327888929143 -88.972811088158778 0 0 0 0 16.895605831110625 5.5984712074156349 0 5.5984712074156349 -61.285440654654607 0 0 0 0 110.71848575409422 -55.435022303866845 0 -55.435022303866845 -34.080797940876437 0 0 0 0 49.358975533332341 29.750370190491594 0 29.750370190491594 -80.038880434701696 0 0 0 0 441.36076387259845 -98.832554895954672 0 -98.832554895954672 105.64875840067157 0 0 0 0 -31.930243008266189 -77.871860677867517 0 -77.871860677867517 -286.7816301703333 0 0 0 0 -4.9399793175053439 10.002099387627624 0 10.002099387627624 -21.554365033193022 0 0 0 0 -65.322720833542917 199.21320982893849 0 199.21320982893849 -362.1789830311161 0 0 0 0 -44.38220885991268 -53.11336256364757 0 -53.11336256364757 -97.543864163497346 0 0 0 0 -26.81771994450628 91.958897913835244 0 91.958897913835244 -81.803686312770878 0 0 0 0 52.261628418810687 96.758507099449162 0 96.758507099449162 -236.88800315422213 0 0 0 0 75.667374403313715 40.953143793852632 0 40.953143793852632 -103.84707293317115 0 0 0 0 30.144234786187553 107.52285959861888 0 107.52285959861888 -112.25084945702838 0 0 0 0 15.169169621261062 72.794410683742626 0 72.794410683742626 -73.515294782208002 0 0 0 0 -55.844993566032826 113.49286613369623 0 113.49286613369623 1.9486329801875399 0 0 0 0 -409.66662165661 122.93104071444304 0 122.93104071444304 72.988232712408717 0 0 0 0 -79.971600228263924 -104.66010373124664 0 -104.66010373124664 191.08713718413037 0 0 0 0 3.5508495322945848 2.2584810715057113 0 2.2584810715057113 1.4243774560692017 0 0 0 0 254.07665733468184 58.721840705702107 0 58.721840705702107 -221.66438840085721 0 0 0 0 515.85057689967414 -362.54659631733239 0 -362.54659631733239 138.97628940812137 0 0 0 0 240.89243956476548 76.336807444107308 0 76.336807444107308 -10.722228994291527 0 0 0 0 7.6982244162008655 64.181043639503656 0 64.181043639503656 -10.892193402856719 0 0 0 0 9.2668412748991358 11.271762260766785 0 11.271762260766785 -4.2600254942817664 0 0 0 0 8.3845613815919933 40.979453101441322 0 40.979453101441322 50.133724316917323 0 0 0 0 32.099113441150052 -1.712905547167793 0 -1.712905547167793 -19.901635848927981 0 0 0 0 0.26116269268061076 7.1827629174110363 0 7.1827629174110363 -22.997515360421925 0 0 0 0 5.7572184747318715 9.446796469733556 0 9.446796469733556 -23.743230582445904 0 0 0 0 2.4722243907691119 12.329248436107479 0 12.329248436107479 -31.732152475303927 0 0 0 0 77.324358007934279 35.291043788201023 0 35.291043788201023 -14.336222820660055 0 0 0 0 111.83609697220993 -25.553173269616877 0 -25.553173269616877 -80.365810887415137 0 0 0 0 6.5932836358723863 -3.6966339915258253 0 -3.6966339915258253 -15.473780584850893 0 0 0 0 106.56443641533099 -23.191478109253694 0 -23.191478109253694 -78.759059292386155 0 0 0 0 111.0222930449907 -9.523578489862075 0 -9.523578489862075 -73.34034409956439 0 0 0 0 137.50757278117632 21.540232353136162 0 21.540232353136162 -52.990193871841257 0 0 0 0 86.652587273969289 -35.071657037749901 0 -35.071657037749901 -61.918181158212974 0 0 0 0 91.800897150269464 -22.227678687118896 0 -22.227678687118896 -34.177026618053787 0 0 0 0 67.787284924442815 8.005853151111296 0 8.005853151111296 -55.530601298533838 0 0 0 0 70.509515834889726 -19.674563865055461 0 -19.674563865055461 -34.065856193883064 0 0 0 0 86.076719667704197 -40.687844728002801 0 -40.687844728002801 -35.374497301085285 0 0 0 0 93.118924677757377 -25.871049621486691 0 -25.871049621486691 -49.915699400558879 0 0 0 0 70.078435325945975 -48.931340175280184 0 -48.931340175280184 -70.074764033019164 0 0 0 0 107.3285013545501 -15.804096239035061 0 -15.804096239035061 -83.660228875403845 0 0 0 0 106.98925986368428 -10.570920716703881 0 -10.570920716703881 -139.50074237733861 0 0 0 0 106.64113325833978 7.7850262705205751 0 7.7850262705205751 -112.94734837046963 0 0 0 0 104.99144824721296 -12.992967573008912 0 -12.992967573008912 -258.92593472458248 0 0 0 0 60.447503296400555 74.752901046286752 0 74.752901046286752 -101.41678696180861 0 0 0 0 101.65759946438811 23.375516502811479 0 23.375516502811479 -89.469903686620455 0 0 0 0 98.816507982380699 36.825706814626756 0 36.825706814626756 -144.16961063253075 0 0 0 0 39.313312096687696 -72.963710558336061 0 -72.963710558336061 -183.87715462695633 0 0 0 0 41.552735923412456 117.37190718994134 0 117.37190718994134 -105.75859141689398 0 0 0 0 18.47545222717978 6.6035091145784968 0 6.6035091145784968 0.28347302941158858 0 0 0 0 -15.218848185340903 -41.376852830073403 0 -41.376852830073403 -108.34202108304817 0 0 0 0 66.730053460937597 70.039161187177342 0 70.039161187177342 -189.76443974569474 0 0 0 0 113.68424664534268 -7.4008454262475425 0 -7.4008454262475425 -257.8663782304875 0 0 0 0 93.959163092590643 12.44073498846592 0 12.44073498846592 -100.53871416936909 0 0 0 0 84.810538583938751 -4.0332616378153716 0 -4.0332616378153716 -94.924454137639259 0 0 0 0 95.982670448718181 -37.363115790911706 0 -37.363115790911706 -43.223958867690271 0 0 0 0 153.73188994556676 55.38615139202102 0 55.38615139202102 -86.956560979064079 0 0 0 0 118.8421101354777 49.894431944775533 0 49.894431944775533 -2.807515998926192 0 0 0 0 124.04038929376566 97.246758141505325 0 97.246758141505325 -0.59891736124063755 0 0 0 0 174.83621005178202 66.41196485357932 0 66.41196485357932 -87.631883445351377 0 0 0 0 107.79182015172773 40.457797958441915 0 40.457797958441915 -85.111940206573934 0 0 0 0 39.390247007284415 80.541198645572422 0 80.541198645572422 25.155440707367006 0 0 0 0 111.78593023408757 53.465379568324806 0 53.465379568324806 -67.844838347966288 0 0 0 0 79.108968953978547 37.04846806671776 0 37.04846806671776 -55.053099337015738 0 0 0 0 94.840029229808351 97.509072004712834 0 97.509072004712834 10.074057296884348 0 0 0 0 96.083600737396409 77.142338749560622 0 77.142338749560622 -97.707011382209203 0 0 0 0 105.31716986066749 43.422504148318694 0 43.422504148318694 -175.98389111984579 0 0 0 0 119.21943275144872 34.813340596818762 0 34.813340596818762 -145.46784748147456 0 0 0 0 57.481178742409611 52.523283787160835 0 52.523283787160835 -150.37769519479434 0 0 0 0 125.69866108930546 64.968481374705334 0 64.968481374705334 -201.21926522466492 0 0 0 0 80.859931072201434 26.933815818983 0 26.933815818983 5.7616893255961381 0 0 0 0 98.531449650923605 55.504020688116725 0 55.504020688116725 -175.88772309852357 0 0 0 0 144.92520472189017 40.491573672765298 0 40.491573672765298 -170.42121372872134 0 0 0 0 114.3173512769888 20.22983276504074 0 20.22983276504074 -160.64917776557195 0 0 0 0 127.95407122825509 80.612270633462231 0 80.612270633462231 -95.984964333766584 0 0 0 0 128.05418891803674 34.223693561779328 0 34.223693561779328 -206.35791186471761 0 0 0 0 95.414455180489313 10.182904445592612 0 10.182904445592612 -165.93778312425911 0 0 0 0 31.947134432631174 26.65857590935525 0 26.65857590935525 99.186504283332397 0 0 0 0 43.359218308774871 0.14362143545804429 0 0.14362143545804429 -5.432952356873102 0 0 0 0 83.090296959571702 20.641873539549511 0 20.641873539549511 2.9443902144303178 0 0 0 0 90.998324518128356 24.487785485572203 0 24.487785485572203 -66.211540072959451 0 0 0 0 70.670011949041964 45.364314111629028 0 45.364314111629028 22.646757268716101 0 0 0 0 85.846912764434819 39.843688176682008 0 39.843688176682008 23.931588658173951 0 0 0 0 98.133673275322508 23.223825089880393 0 23.223825089880393 21.832479305837296 0 0 0 0 68.268550953999693 21.295889973744636 0 21.295889973744636 21.939568430634608 0 0 0 0 13.370950264184078 3.2716116646239612 0 3.2716116646239612 -0.019025945975759129 0 0 0 0 102.7842396499982 31.021150881840185 0 31.021150881840185 10.081873335453565 0 0 0 0 55.112651556801211 26.280777116926856 0 26.280777116926856 -7.9477374526431959 0 0 0 0 120.18806520996441 166.4189182289565 0 166.4189182289565 64.077688585168289 0 0 0 0 77.990486569382483 64.022175177017743 0 64.022175177017743 -18.409300442925087 0 0 0 0 103.79230975390237 17.279619989770708 0 17.279619989770708 -37.151701893302914 0 0 0 0 43.973277244838428 23.337499969993416 0 23.337499969993416 -2.0390337284937097 0 0 0 0 85.020986898267893 3.8595325189610321 0 3.8595325189610321 5.5542752807377838 0 0 0 0 80.114518539197888 45.471604408102394 0 45.471604408102394 -11.909238356392052 0 0 0 0 143.72197549819975 3.3121158014005232 0 3.3121158014005232 1.3099542822210424 0 0 0 0 45.005131578780073 24.95796180267422 0 24.95796180267422 5.1825247445960159 0 0 0 0 112.76297984207486 27.508910306327834 0 27.508910306327834 -20.404204239010141 0 0 0 0 116.94314169989957 425.54647493372204 0 425.54647493372204 -174.25900635207881 0 0 0 0 98.634522532614511 33.317766724499073 0 33.317766724499073 6.0193530546982625 0 0 0 0 12.156621748261387 15.612602060513836 0 15.612602060513836 -139.79002353130272 0 0 0 0 75.512566354700539 141.40640225820584 0 141.40640225820584 -31.614168418328518 0 0 0 0 -58.610066770183039 -15.989347390450348 0 -15.989347390450348 -14.901992539526873 0 0 0 0 6.2797444595433944 9.6085525930257987 0 9.6085525930257987 2.2230941395232104 0 0 0 0 -73.716357273224276 0.85634193658916047 0 0.85634193658916047 19.599991600328849 0 0 0 0 68.607531582480931 32.948201622311039 0 32.948201622311039 5.4901276136038275 0 0 0 0 43.689815247107617 38.859444234762577 0 38.859444234762577 -24.24974050511355 0 0 0 0 100.81100184132265 32.908689519251993 0 32.908689519251993 53.798850664130441 0 0 0 0 -46.488855749834329 93.790977054846735 0 93.790977054846735 -5.2473810760093329 0 0 0 0 72.00969130826158 29.144230767897923 0 29.144230767897923 -0.28219983358126122 0 0 0 0 40.204828698872632 35.354679311342167 0 35.354679311342167 -0.52627653994697488 0 0 0 0 20.098821382140159 38.430041969081685 0 38.430041969081685 -6.6459896999513148 0 0 0 0 35.117429154129127 16.056613140667721 0 16.056613140667721 2.7072150048393788 0 0 0 0 37.916380563932762 14.355662787425899 0 14.355662787425899 -8.8157658588916092 0 0 0 0 16.224434682852007 49.836133826300056 0 49.836133826300056 -9.1125757899308155 0 0 0 0 25.553879702139241 17.588523859696906 0 17.588523859696906 -2.8758999652086121 0 0 0 0 27.258957491139881 45.731658306556255 0 45.731658306556255 -19.914879610135358 0 0 0 0 27.37826631753677 32.259898633535926 0 32.259898633535926 -4.6425369980983433 0 0 0 0 14.182821973867249 38.789579528647209 0 38.789579528647209 -29.913886909263965 0 0 0 0 54.118439289239802 12.702344643025555 0 12.702344643025555 -8.8037740583058461 0 0 0 0 0.84100425308008653 49.014858224199024 0 49.014858224199024 0.77053404153258587 0 0 0 0 21.751793444465875 69.039117011363317 0 69.039117011363317 -80.114918851395487 0 0 0 0 -6.5810695437830873 99.733062795316982 0 99.733062795316982 -110.22901003394099 0 0 0 0 6.0639304358205663 10.087203467021638 0 10.087203467021638 -1.6900489242784733 0 0 0 0 -14.356042304105358 71.755554899173148 0 71.755554899173148 -5.0683212574076606 0 0 0 0 -15.332146775472211 70.328207646659394 0 70.328207646659394 19.664035069761894 0 0 0 0 -66.592161216627574 108.48537096809741 0 108.48537096809741 -59.210091876071601 0 0 0 0 4.7554645780182909 59.935110552856713 0 59.935110552856713 -38.659553325604065 0 0 0 0 36.239175732690043 4.6312777792497286 0 4.6312777792497286 -5.5438388144591197 0 0 0 0 47.121443794720108 7.5549654186438602 0 7.5549654186438602 -7.9848074960091253 0 0 0 0 79.503093203169556 38.466491391910949 0 38.466491391910949 35.991315157330973 0 0 0 0 50.595430415050643 6.1895928717381032 0 6.1895928717381032 -3.5339626791136256 0 0 0 0 87.283150547977129 40.563534244214225 0 40.563534244214225 24.292371935026495 0 0 0 0 94.895564155682223 52.711439448075907 0 52.711439448075907 -44.062025465506849 0 0 0 0 49.116436154060352 14.184582679317145 0 14.184582679317145 -0.80151880786018381 0 0 0 0 44.94876934337239 6.6624444093963859 0 6.6624444093963859 -0.34199029890892163 0 0 0 0 33.625019197799702 0.21091786530723766 0 0.21091786530723766 -20.294331292016068 0 0 0 0 56.571786873799283 28.459309364188016 0 28.459309364188016 -11.270622360524612 0 0 0 0 49.203710820671404 19.681576352218144 0 19.681576352218144 -23.282264399310861 0 0 0 0 66.423977616992488 10.980625336914159 0 10.980625336914159 -3.0229419845636585 0 0 0 0 39.570920499937586 11.979876113398397 0 11.979876113398397 -3.7909927575758235 0 0 0 0 32.179721864929888 7.3333842036900023 0 7.3333842036900023 -5.5959362854073333 0 0 0 0 34.93575774517879 10.498053154727682 0 10.498053154727682 -1.831782305110645 0 0 0 0 29.737678898236481 6.1595459001964628 0 6.1595459001964628 -5.2422850469147306 0 0 0 0 31.584833202650771 7.3490823863230617 0 7.3490823863230617 -4.6337489691056817 0 0 0 0 33.588054026113241 8.2379068747328574 0 8.2379068747328574 -5.2702258787676328 0 0 0 0 61.515217168522035 7.1629314328097138 0 7.1629314328097138 -8.2891313046411117 0 0 0 0 25.044631376925281 -4.7618182489627863 0 -4.7618182489627863 -5.0153113975362524 0 0 0 0 27.175152331416029 -2.3752647476840139 0 -2.3752647476840139 -17.667427505523847 0 0 0 0 31.440862791263498 -1.8276200168470496 0 -1.8276200168470496 -18.272419837820053 0 0 0 0 239.26634644429214 -33.685619643652274 0 -33.685619643652274 -187.0841547965772 0 0 0 0 49.820701366321401 2.8929094850548616 0 2.8929094850548616 -4.6105816436341032 0 0 0 0 65.229309272454117 13.317696254133722 0 13.317696254133722 -2.9133711281207217 0 0 0 0 156.73080781953468 -59.440526591598996 0 -59.440526591598996 236.34368774549966 0 0 0 0 22.321945730875065 0.43766084641539749 0 0.43766084641539749 -4.1032244133499809 0 0 0 0 66.003196824911356 10.450916936798478 0 10.450916936798478 -1.6490397373268024 0 0 0 0 88.39602511904377 134.70716207764974 0 134.70716207764974 16.750598912189616 0 0 0 0 33.447289141156944 106.56353525770896 0 106.56353525770896 99.593357455457863 0 0 0 0 83.22655569294875 43.970660981045626 0 43.970660981045626 -136.11456882041387 0 0 0 0 89.534897532226751 119.11616822581902 0 119.11616822581902 -54.484336775384691 0 0 0 0 82.208102759439498 11.894628998917142 0 11.894628998917142 -10.396919935858932 0 0 0 0 49.006691948821668 -2.0265901137096805 0 -2.0265901137096805 -10.009395285252669 0 0 0 0 30.223020897824014 15.922568412653213 0 15.922568412653213 -1.7041609144821832 0 0 0 0 27.489525198438059 40.660361082102405 0 40.660361082102405 35.266039876778905 0 0 0 0 84.207299535650236 32.513354896409055 0 32.513354896409055 -7.0769222339613691 0 0 0 0 79.064326557592722 54.570162641604611 0 54.570162641604611 -35.076460777441525 0 0 0 0 38.915007517052203 18.154559536102717 0 18.154559536102717 0.95735581865083752 0 0 0 0 24.233729618439611 67.851052431527705 0 67.851052431527705 69.059228495755178 0 0 0 0 27.500115728049423 40.904268215562979 0 40.904268215562979 -3.390248050916739 0 0 0 0 23.846069499486475 57.540580764328297 0 57.540580764328297 30.455490235682646 0 0 0 0 20.872577114438172 13.749950577427171 0 13.749950577427171 50.622583037507184 0 0 0 0 2.5712288399586782 -0.27544651717142798 0 -0.27544651717142798 -2.9802865439687851 0 0 0 0 60.796184667095076 6.8009692457044366 0 6.8009692457044366 -14.080974218249025 0 0 0 0 8.2965530217625201 46.691412474808658 0 46.691412474808658 109.91254153433212 0 0 0 0 55.614266470438452 -72.565715375885702 0 -72.565715375885702 37.513360231500258 0 0 0 0 19.920461527333828 -18.891256576606565 0 -18.891256576606565 -66.343255910278458 0 0 0 0 44.023847518973781 11.720042954077705 0 11.720042954077705 -25.398706313038183 0 0 0 0 49.319234359652953 15.75771079262833 0 15.75771079262833 -13.164642674714464 0 0 0 0 23.175710155133856 10.902577720255522 0 10.902577720255522 -19.878961014161177 0 0 0 0 28.191601517757306 21.33704761093211 0 21.33704761093211 -4.6765618099283266 0 0 0 0 49.638059494525194 5.908100195990869 0 5.908100195990869 -5.1017493923751127 0 0 0 0 54.532941858517006 2.4136964896879363 0 2.4136964896879363 -6.1617742064390768 0 0 0 0 43.22415185781032 1.8891728465731319 0 1.8891728465731319 -19.764504753926321 0 0 0 0 108.1553127895022 66.72735893556569 0 66.72735893556569 -27.087641091486148 0 0 0 0 54.285097700027109 27.740776569869013 0 27.740776569869013 -17.523043237246952 0 0 0 0 41.713015159462827 23.250582939213739 0 23.250582939213739 2.4697693405331695 0 0 0 0 49.774890003038763 25.158654771388921 0 25.158654771388921 3.860650523985484 0 0 0 0 54.577698083710857 25.434586055427644 0 25.434586055427644 -14.995366609951816 0 0 0 0 38.287193237774247 19.997076307465417 0 19.997076307465417 -2.7144803022540787 0 0 0 0 52.945621822917019 33.28821464961311 0 33.28821464961311 -10.304409751405302 0 0 0 0 32.85700949013335 22.56661677483919 0 22.56661677483919 -9.7656682868282587 0 0 0 0 26.552797661274653 3.4828705199735239 0 3.4828705199735239 -3.5703459009625345 0 0 0 0 28.502103286460624 14.502576280600806 0 14.502576280600806 -16.145670939543379 0 0 0 0 39.976081538901781 23.850931060884704 0 23.850931060884704 -15.014244649510147 0 0 0 0 46.537596180532546 28.572352781042195 0 28.572352781042195 -1.4974481690041266 0 0 0 0 72.050837038346799 26.568117130662358 0 26.568117130662358 14.236799728908977 0 0 0 0 30.945453901606996 -2.1215394998722914 0 -2.1215394998722914 -14.523803971378776 0 0 0 0 75.579328502808494 31.108996511686996 0 31.108996511686996 14.979715137203584 0 0 0 0 83.304711341988877 42.340211047713751 0 42.340211047713751 7.5075364648073446 0 0 0 0 38.596078838796529 18.390232479656618 0 18.390232479656618 -1.946843304794811 0 0 0 0 13.62955277309387 7.4327622894253871 0 7.4327622894253871 -0.57994507627766279 0 0 0 0 43.612165880549583 9.6547763802427653 0 9.6547763802427653 -2.3412054123086818 0 0 0 0 69.784557950741146 13.885927969613022 0 13.885927969613022 -1.65837278199308 0 0 0 0 34.517338225836809 20.058818463224512 0 20.058818463224512 3.0666172146953592 0 0 0 0 61.787472920535947 34.129263581304258 0 34.129263581304258 -6.9190561728119064 0 0 0 0 77.789634773340367 17.948577317312584 0 17.948577317312584 -1.3180025209885571 0 0 0 0 63.998389883137861 20.484786887493556 0 20.484786887493556 4.9998871098568998 0 0 0 0 83.367506044545735 37.786235110399048 0 37.786235110399048 7.7492928273204598 0 0 0 0 77.117589366524044 25.802365802042686 0 25.802365802042686 -13.752733794399774 0 0 0 0 81.103881805761375 32.13244392998584 0 32.13244392998584 -4.2357449661312785 0 0 0 0 75.20895131591169 19.186733070606806 0 19.186733070606806 -14.876603486333352 0 0 0 0 72.98543255450204 29.698134568413479 0 29.698134568413479 -8.2715369190700585 0 0 0 0 79.82967266605192 29.359930142951043 0 29.359930142951043 -33.203819230066529 0 0 0 0 83.604345483877069 46.259231800663656 0 46.259231800663656 -98.545050495756186 0 0 0 0 74.137807046125545 49.118489094482356 0 49.118489094482356 -68.467375497513785 0 0 0 0 75.195344539610403 21.707265101577146 0 21.707265101577146 4.1560744919981731 0 0 0 0 61.889686438705922 39.752497717472068 0 39.752497717472068 -12.068457891236903 0 0 0 0 66.228250998057774 22.314063777549791 0 22.314063777549791 -14.77528417644362 0 0 0 0 80.367603414060795 18.747783484406114 0 18.747783484406114 -29.577813515689286 0 0 0 0 70.547344447072092 22.249187533298105 0 22.249187533298105 2.5728036345641714 0 0 0 0 70.973250427698076 19.277371222223792 0 19.277371222223792 -22.169141958008822 0 0 0 0 22.781234205076334 15.969811717617375 0 15.969811717617375 -7.6721574555354159 0 0 0 0 69.786523879832657 -20.0025213111021 0 -20.0025213111021 -108.90917813601754 0 0 0 0 17.820261471446429 33.04555963772782 0 33.04555963772782 39.372072646714514 0 0 0 0 168.93299435351219 60.701622929299447 0 60.701622929299447 -50.612450022054418 0 0 0 0 82.047626823967022 23.002647692914085 0 23.002647692914085 1.8924220222318189 0 0 0 0 3.2521225240575404 0.029803554647696018 0 0.029803554647696018 -2.6059523870384513 0 0 0 0 156.37218735383431 -93.460503089685972 0 -93.460503089685972 28.747989599356515 0 0 0 0 256.78672853367607 2.2393077946121593 0 2.2393077946121593 -148.90722916791674 0 0 0 0 45.998747913396528 3.4143915253381465 0 3.4143915253381465 -4.4699094314694845 0 0 0 0 38.177241309561737 0.36625218937752635 0 0.36625218937752635 -10.586384402325676 0 0 0 0 28.718242768638447 6.5445897640289559 0 6.5445897640289559 -10.652627700088487 0 0 0 0 49.045622657467902 -12.592405184374002 0 -12.592405184374002 -13.411373445655045 0 0 0 0 40.829690454840701 7.2115198274074572 0 7.2115198274074572 -6.9972812387771235 0 0 0 0 72.435225769404497 22.282851887232709 0 22.282851887232709 -20.824838862802608 0 0 0 0 66.23690039482608 18.973396420564313 0 18.973396420564313 -17.564079126034812 0 0 0 0 66.024954848128345 16.644505101466535 0 16.644505101466535 -20.419458194390245 0 0 0 0 54.120482706392067 23.815233174262175 0 23.815233174262175 -20.858356009700401 0 0 0 0 41.934283397649111 12.587959745148801 0 12.587959745148801 -5.8750306516676112 0 0 0 0 12.396266803494655 10.086561866513875 0 10.086561866513875 -9.1689702992935054 0 0 0 0 15.273622795215488 63.455761632790768 0 63.455761632790768 44.758600482806287 0 0 0 0 35.327003062649162 12.0503382516793 0 12.0503382516793 1.6033797490331434 0 0 0 0 59.678548826806946 0.37304306093665218 0 0.37304306093665218 -32.847055008565349 0 0 0 0 7.4814555723961718 12.267133257638063 0 12.267133257638063 -1.5409741341582723 0 0 0 0 90.413810289774119 11.219162776263147 0 11.219162776263147 -29.028562130115461 0 0 0 0 67.366998457364389 17.198353387578663 0 17.198353387578663 -21.63353852097589 0 0 0 0 67.608092035050504 21.062361031400542 0 21.062361031400542 -17.603447096142546 0 0 0 0 69.280366172271897 19.324071259956327 0 19.324071259956327 -20.444309066896857 0 0 0 0 1711.8898529212238 -588.62181616179237 0 -588.62181616179237 21.697498022531647 0 0 0 0 2153.4332268234139 -724.04599491985209 0 -724.04599491985209 -310.22313921674106 0 0 0 0 -1.1982623048458905 -8.0936655045440915 0 -8.0936655045440915 -7.5774442434154565 0 0 0 0 2136.9643119995017 -903.44766704227447 0 -903.44766704227447 -305.11608320299911 0 0 0 0 3500.5642755421577 -858.28847787329448 0 -858.28847787329448 -427.75165180821182 0 0 0 0 2606.9670585009553 -289.95797750875681 0 -289.95797750875681 -323.83857328950165 0 0 0 0 2500.5462609008537 -476.07556017530658 0 -476.07556017530658 -19.002320821799003 0 0 0 0 218.49879004919057 -67.824437758915792 0 -67.824437758915792 -2.5935118634968148 0 0 0 0 226.7969107556346 56.912250919961934 0 56.912250919961934 -156.40126663763419 0 0 0 0 52.723099148162873 70.8124862986773 0 70.8124862986773 -46.056378343787173 0 0 0 0 235.61015551013952 -29.172234857166615 0 -29.172234857166615 -65.600857006513706 0 0 0 0 103.20409547321469 -4.1599005080693132 0 -4.1599005080693132 -0.37569205039039844 0 0 0 0 169.28919430713722 20.848047271018686 0 20.848047271018686 -68.771843756293947 0 0 0 0 -31.022715329076163 274.14733418819424 0 274.14733418819424 -254.42414946018289 0 0 0 0 86.544804155691907 19.954864275564759 0 19.954864275564759 -1.2627849741444974 0 0 0 0 116.88947361407918 75.809039012236525 0 75.809039012236525 -85.378645148863143 0 0 0 0 -111.366435039512 132.00846163790675 0 132.00846163790675 25.603843007928845 0 0 0 0 -43.491791400796501 104.89611117993013 0 104.89611117993013 -9.2701168152252649 0 0 0 0 -42.693848210443321 111.31716125730168 0 111.31716125730168 9.4393422309558446 0 0 0 0 2.5064583334315103 116.27407784118918 0 116.27407784118918 -81.744486759816482 0 0 0 0 92.037718701125812 26.64407087477192 0 26.64407087477192 -4.2381378668923713 0 0 0 0 288.30728427154827 98.154273882382512 0 98.154273882382512 -221.45279265948426 0 0 0 0 71.282344385806937 36.13355043911406 0 36.13355043911406 -8.3413139491908623 0 0 0 0 40.962560976338494 19.094324470563095 0 19.094324470563095 -9.6373136018015 0 0 0 0 59.263384131307248 116.90461748080179 0 116.90461748080179 -47.561719692252154 0 0 0 0 26.359707970504246 10.678555087570274 0 10.678555087570274 -9.6480642839508324 0 0 0 0 39.604673705151072 5.7966976855095425 0 5.7966976855095425 -13.214668269863935 0 0 0 0 34.091951647112353 3.3545934906941568 0 3.3545934906941568 -8.1759471480045196 0 0 0 0 216.43700312971851 -387.39204538937673 0 -387.39204538937673 981.92086009057618 0 0 0 0 15.462222826845142 -10.263961956988638 0 -10.263961956988638 -16.92529194241887 0 0 0 0 3493.6599540125899 -1995.0053167527399 0 -1995.0053167527399 176.52863969378265 0 0 0 0 66.9312066892453 -165.4371652002329 0 -165.4371652002329 592.92227074381628 0 0 0 0 11.807751545357718 -3.9790401357741843 0 -3.9790401357741843 5.3525863304193502 0 0 0 0 3481.8174056245334 -3.3401389398498917 0 -3.3401389398498917 5.8869325292900401 0 0 0 0 466.9332237438166 -1114.6150074212073 0 -1114.6150074212073 1717.7436252523353 0 0 0 0 8.8247688250143597 1.158025492756579 0 1.158025492756579 3.8526640592536467 0 0 0 0 1779.8350394679583 1187.5611625080292 0 1187.5611625080292 558.46170726932587 0 0 0 0 -6.2555897792917676 203.97368626977959 0 203.97368626977959 769.32539366694675 0 0 0 0 23.665018215995588 6.0275555146186761 0 6.0275555146186761 3.8508242180631669 0 0 0 0 9.0006033964550767 16.750393511925722 0 16.750393511925722 -4.8645915804491349 0 0 0 0 49.971269662142731 11.37827293195005 0 11.37827293195005 41.679997734553638 0 0 0 0 10.996801678081027 1.0567338296354336 0 1.0567338296354336 -5.616486929928227 0 0 0 0 29.777291127085846 3.5529240493039054 0 3.5529240493039054 -2.320144640414167 0 0 0 0 3.6668507302899656 10.417517545812331 0 10.417517545812331 -0.19724131626085392 0 0 0 0 3495.0641434213212 243.63608514442222 0 243.63608514442222 -418.06963591870556 0 0 0 0 4.1565581967590575 4.4935269052710112 0 4.4935269052710112 0.79926311037155073 0 0 0 0 29.152303520608257 6.2896382822367043 0 6.2896382822367043 -2.41303717604635 0 0 0 0 3138.7379074277069 153.03191358583129 0 153.03191358583129 1.9468927169356416 0 0 0 0 2.5800003478434519 0.53123583875234692 0 0.53123583875234692 0.0056266492856173848 0 0 0 0 -0.2197656256088294 0.26339646631600999 0 0.26339646631600999 -0.24657753712456484 0 0 0 0 10.391372706319089 8.0593103004271089 0 8.0593103004271089 2.1081960352234406 0 0 0 0 16.624147993439692 1.5970328217512755 0 1.5970328217512755 0.0036915870313087898 0 0 0 0 11.581089681683807 7.7802413565059725 0 7.7802413565059725 7.2820206061831874 0 0 0 0 -1.1651458698271995 0.61917958012895724 0 0.61917958012895724 -0.54178274109140356 0 0 0 0 9.2897659299196675 0.74929772498883906 0 0.74929772498883906 0.32071920197221271 0 0 0 0 -4.5406674582627602 69.328936080542434 0 69.328936080542434 -27.236803287773625 0 0 0 0 -133.27363598995726 1.7688173935547553 0 1.7688173935547553 61.129714042136385 0 0 0 0 -100.4528222362278 -81.265782118122388 0 -81.265782118122388 7.7028257428395648 0 0 0 0 -15.594514069991419 -30.512695473888868 0 -30.512695473888868 -6.7675646648319798 0 0 0 0 -3.734132572099611 0.34893809364588435 0 0.34893809364588435 0.38147345734154792 0 0 0 0 4.1526401696973494 2.3185361100451303 0 2.3185361100451303 -1.5455119011095027 0 0 0 0 -1.020430272154556 7.706959462400178 0 7.706959462400178 -2.6219418267460219 0 0 0 0 60.322571936296299 33.421217252092902 0 33.421217252092902 -26.034737366192019 0 0 0 0 -35.535962849055068 84.085865826994223 0 84.085865826994223 12.384613045623937 0 0 0 0 -29.294138320910861 72.045099775239237 0 72.045099775239237 35.4911253064721 0 0 0 0 -40.722389202171144 38.152485394873082 0 38.152485394873082 132.57315486826519 0 0 0 0 -127.93814985766949 -79.018851664738378 0 -79.018851664738378 207.66744619716181 0 0 0 0 -115.85785710600248 154.80569802287476 0 154.80569802287476 269.51798607294972 0 0 0 0 173.54239528880862 -140.71131978877307 0 -140.71131978877307 321.34503089305184 0 0 0 0 392.32493206794607 -79.832672727933186 0 -79.832672727933186 214.23979026917141 0 0 0 0 401.88911241730966 -6.4983328617979623 0 -6.4983328617979623 423.74721250816719 0 0 0 0 523.84128190321644 78.472720555318006 0 78.472720555318006 -41.577649942408925 0 0 0 0 20.518922155533801 113.86501655452329 0 113.86501655452329 14.877482623356457 0 0 0 0 301.35137304918317 2.7911958288940326 0 2.7911958288940326 -9.209346407111326 0 0 0 0 15.106704354315298 -209.95796175246562 0 -209.95796175246562 -40.265716934875684 0 0 0 0 344.20061244503449 -68.698296275520775 0 -68.698296275520775 -36.827395172237857 0 0 0 0 260.41981382892118 68.047441169196333 0 68.047441169196333 -0.16536639057437574 0 0 0 0 8.8003567900013877 -43.596883591377718 0 -43.596883591377718 46.540539565379802 0 0 0 0 7.5198181723098969 -56.188298312163951 0 -56.188298312163951 18.060120299339321 0 0 0 0 428.13565222024044 129.65627367086705 0 129.65627367086705 -43.977637559740771 0 0 0 0 428.9581598243094 103.04566840386263 0 103.04566840386263 -0.082985752768881635 0 0 0 0 342.90886831522221 5.0500628445787683 0 5.0500628445787683 -66.136038011127681 0 0 0 0 514.12159217696171 157.97613470916218 0 157.97613470916218 -34.998193795160148 0 0 0 0 555.29594352800632 48.147822453812495 0 48.147822453812495 -85.087481769633357 0 0 0 0 486.29243724221669 277.86092832455449 0 277.86092832455449 57.737303562980742 0 0 0 0 527.56702981450326 150.69727649972992 0 150.69727649972992 -31.943727891885032 0 0 0 0 555.02578322088812 392.46829678355584 0 392.46829678355584 199.94495023075285 0 0 0 0 414.40237758633157 245.12531453129415 0 245.12531453129415 77.229106914973841 0 0 0 0 793.96406186821696 217.77054068889447 0 217.77054068889447 -18.470420251642594 0 0 0 0 1625.6531769164285 135.97767554359052 0 135.97767554359052 96.432275882223735 0 0 0 0 845.54316760975053 -182.65427382500843 0 -182.65427382500843 125.0411233031939 0 0 0 0 789.38358085408981 268.80249403498328 0 268.80249403498328 143.54219697113695 0 0 0 0 1092.7210336361895 660.06381392154503 0 660.06381392154503 483.2727706177252 0 0 0 0 675.90738944735494 668.12939311911316 0 668.12939311911316 771.00146806398448 0 0 0 0 722.61654203996295 334.63009469248118 0 334.63009469248118 216.02705419479628 0 0 0 0 208.3263538107858 451.06303190377685 0 451.06303190377685 681.60857866976107 0 0 0 0 -427.71262382557688 -1622.3969903754632 0 -1622.3969903754632 -475.47553649730798 0 0 0 0 19.883996807587152 -6.1012535300805055 0 -6.1012535300805055 1.9189147417705859 0 0 0 0 219.34886258811457 -1388.8142366507109 0 -1388.8142366507109 -472.58599679706805 0 0 0 0 11.954960159826214 -9.9472249593436572 0 -9.9472249593436572 6.3690456507101345 0 0 0 0 1555.9553796797991 860.60595575035745 0 860.60595575035745 173.53915811916798 0 0 0 0 974.831099850795 514.93060674032449 0 514.93060674032449 223.10443590616475 0 0 0 0 1207.5147774749057 436.78492935722795 0 436.78492935722795 -34.248927406993516 0 0 0 0 451.41789754887577 -397.11914407908989 0 -397.11914407908989 -1334.8823928859915 0 0 0 0 42.310195276544846 -17.914178683636706 0 -17.914178683636706 8.2632360638214983 0 0 0 0 274.14427864293975 440.49061908794056 0 440.49061908794056 1303.1153115398261 0 0 0 0 1016.7837533216225 647.92081158224357 0 647.92081158224357 -593.01462812465343 0 0 0 0 1214.9170264660424 -560.02940583773125 0 -560.02940583773125 727.31787387938698 0 0 0 0 -24.369524570065551 239.81035219886053 0 239.81035219886053 562.75030628431409 0 0 0 0 357.51972551294602 341.79369180061258 0 341.79369180061258 -230.4515162289149 0 0 0 0 -1.4869337444251869 189.11562163980295 0 189.11562163980295 -9.7879853912681938 0 0 0 0 -98.352321191996452 205.03672918290022 0 205.03672918290022 15.044380395528151 0 0 0 0 154.7483899625513 249.68434596152406 0 249.68434596152406 -501.4399060095916 0 0 0 0 70.910649308483698 194.73108511672353 0 194.73108511672353 -258.78874698790844 0 0 0 0 80.099222546030802 12.105776338853957 0 12.105776338853957 -3.9405481770364155 0 0 0 0 52.959696392070327 77.068530516442252 0 77.068530516442252 -11.418619715411296 0 0 0 0 8.8523976082220486 7.5030478206619051 0 7.5030478206619051 -4.942153880566833 0 0 0 0 230.45844550873881 -158.07915565920979 0 -158.07915565920979 -152.25633798592844 0 0 0 0 237.59177482061205 547.16529087131858 0 547.16529087131858 614.06076800132837 0 0 0 0 371.0292905424576 340.07468341083836 0 340.07468341083836 867.22013675757785 0 0 0 0 425.38269879671861 -97.540060373990514 0 -97.540060373990514 615.64921409097497 0 0 0 0 629.70766813513183 311.05564242109449 0 311.05564242109449 30.000855820920606 0 0 0 0 953.97272428092401 643.77405540273207 0 643.77405540273207 356.10894921357658 0 0 0 0 313.99750602475251 -63.836493730681468 0 -63.836493730681468 70.910007679376122 0 0 0 0 10.865161228887928 1.4309902473692944 0 1.4309902473692944 3.859213570639791 0 0 0 0 1162.7988621750119 58.4143527231181 0 58.4143527231181 10.63660806650546 0 0 0 0 -0.2968668138128514 0.041493570422915127 0 0.041493570422915127 2.1712553572765163 0 0 0 0 -777.36633880576119 -195.94409518839652 0 -195.94409518839652 527.67765624613867 0 0 0 0 26.493313903876697 -206.3391702749185 0 -206.3391702749185 -170.78992206043313 0 0 0 0 506.99179843399907 324.59268118857381 0 324.59268118857381 330.65600601809228 0 0 0 0 142.88848460451118 -33.601001017433532 0 -33.601001017433532 262.23460650592784 0 0 0 0 -272.4344177160965 109.86992973165789 0 109.86992973165789 637.81275129914945 0 0 0 0 -9.1031833614979405 117.51299782405124 0 117.51299782405124 637.6176478738796 0 0 0 0 298.67490868637105 247.05938179945042 0 247.05938179945042 685.72367731747113 0 0 0 0 304.54186854842214 380.77200653678926 0 380.77200653678926 611.80837263092462 0 0 0 0 447.68101128506532 -152.91030144718377 0 -152.91030144718377 448.60556997176832 0 0 0 0 529.13274808306596 264.82414501650521 0 264.82414501650521 745.04433708769636 0 0 0 0 729.03503670744249 42.486809308349279 0 42.486809308349279 131.43964973147541 0 0 0 0 570.08906649854907 339.83207478413431 0 339.83207478413431 257.47181514851502 0 0 0 0 1080.494039246405 736.00113976615432 0 736.00113976615432 268.96371965948356 0 0 0 0 814.91648604934016 318.14915139189486 0 318.14915139189486 -82.82233943989263 0 0 0 0 0.66145396074958285 -0.1634299662841272 0 -0.1634299662841272 5.1124019232874556 0 0 0 0 35.825650627833966 -6.1540691700517982 0 -6.1540691700517982 65.44707518326652 0 0 0 0 89.615840260521509 53.165389030997289 0 53.165389030997289 27.562517478318114 0 0 0 0 44.657821662796778 45.53825333764371 0 45.53825333764371 29.455502846444233 0 0 0 0 1296.6257257886609 498.63340188032271 0 498.63340188032271 -30.262105600507539 0 0 0 0 832.99378985905787 150.77521683466284 0 150.77521683466284 1336.8240959202476 0 0 0 0 44.057658535020892 24.155582453215629 0 24.155582453215629 28.485429735868365 0 0 0 0 32.820902369650867 29.367483617422749 0 29.367483617422749 26.118439447220226 0 0 0 0 -1.0141266738320667 -1.0204292669294261 0 -1.0204292669294261 13.735317199754977 0 0 0 0 52.719935453496873 16.441816363999351 0 16.441816363999351 6.1786616961953769 0 0 0 0 88.63508973865828 20.704777245451282 0 20.704777245451282 3.4451070455020272 0 0 0 0 54.647093895859143 19.067693318047304 0 19.067693318047304 8.4392490334303147 0 0 0 0 -448.02370342721406 225.81604972782833 0 225.81604972782833 -46.09036019894711 0 0 0 0 11.942177490086175 5.1968130176357192 0 5.1968130176357192 -7.0165098761292199 0 0 0 0 63.004786274645539 14.265565772933542 0 14.265565772933542 -1.0073045117142101 0 0 0 0 -96.10635222158453 428.99997606207103 0 428.99997606207103 53.376473323565278 0 0 0 0 -673.65899698496855 -87.972537289099947 0 -87.972537289099947 319.20483062568564 0 0 0 0 133.1660098615248 36.317783297392225 0 36.317783297392225 2.5332956775200728 0 0 0 0 -1.3176158451615185 2.5468603767610318 0 2.5468603767610318 1.3070472131839592 0 0 0 0 238.68675156979589 330.0867981295753 0 330.0867981295753 -21.002202861562296 0 0 0 0 411.31817674123158 23.442871990043727 0 23.442871990043727 127.29950103861893 0 0 0 0 1851.0280776846339 -50.116406701600908 0 -50.116406701600908 -63.548571476308325 0 0 0 0 140.46667643788351 -170.99919596455274 0 -170.99919596455274 1142.7076360214951 0 0 0 0 228.58177927204815 234.87915792958313 0 234.87915792958313 -216.19117052179899 0 0 0 0 -43.306154091842473 1465.5027205615845 0 1465.5027205615845 118.47280794268723 0 0 0 0 47.713800284986064 -7.8858412397362656 0 -7.8858412397362656 -1.7097868210979241 0 0 0 0 156.31604843390232 43.317400266179447 0 43.317400266179447 70.397015781640505 0 0 0 0 409.2071552847483 379.78796703449007 0 379.78796703449007 -1135.8922817547939 0 0 0 0 4.2728234124806477 98.431772362876956 0 98.431772362876956 283.67713112406193 0 0 0 0 -215.1760286262579 80.620005416859101 0 80.620005416859101 -269.77668545561869 0 0 0 0 22.362285514691621 33.238706358037604 0 33.238706358037604 72.458984010092479 0 0 0 0 128.11943490317253 107.74762650390669 0 107.74762650390669 103.26469713012227 0 0 0 0 241.32262213897775 177.34990150746458 0 177.34990150746458 78.16444837211796 0 0 0 0 179.04220794470166 152.94537017193289 0 152.94537017193289 135.5198971158614 0 0 0 0 14.696403053687236 1.6545285456933811 0 1.6545285456933811 0.14152085132097381 0 0 0 0 247.65235602052417 222.13980220664342 0 222.13980220664342 131.55123372976044 0 0 0 0 299.19901184918126 311.40281156759625 0 311.40281156759625 262.81644766756699 0 0 0 0 185.74428265859024 155.58989027381691 0 155.58989027381691 103.66196876073798 0 0 0 0 371.34419386852096 177.52064974010804 0 177.52064974010804 -1.9602395736279732 0 0 0 0 165.8349853347172 117.38368465438829 0 117.38368465438829 44.341569763286174 0 0 0 0 237.49371721360512 184.8851727950136 0 184.8851727950136 21.668451244995623 0 0 0 0 299.07779873279651 126.96203825747109 0 126.96203825747109 0.0093890435940315875 0 0 0 0 405.65130398294787 192.92167947191524 0 192.92167947191524 -2.6351980974060893 0 0 0 0 67.48171729954629 58.436452757309482 0 58.436452757309482 25.438085844307011 0 0 0 0 106.03333211902645 130.0530195070159 0 130.0530195070159 20.109714775239894 0 0 0 0 146.07764290209161 113.85888623966214 0 113.85888623966214 0.030082607139606171 0 0 0 0 91.276413057261379 80.015709096421816 0 80.015709096421816 -4.0119255080415144 0 0 0 0 139.78771660976054 151.91055581866522 0 151.91055581866522 5.6371587130248599 0 0 0 0 58.0031081412817 108.40971223627797 0 108.40971223627797 -27.006308337383018 0 0 0 0 35.061332810888416 39.665311080189944 0 39.665311080189944 -60.032171938266288 0 0 0 0 35.623286163187686 2.6243762701118811 0 2.6243762701118811 -3.6461325014572061 0 0 0 0 83.38887604935735 8.7773712713413374 0 8.7773712713413374 -242.49743379034084 0 0 0 0 47.471887209176202 18.767371348520783 0 18.767371348520783 11.065427261908098 0 0 0 0 11.871776455940562 -0.46170894048643163 0 -0.46170894048643163 -38.031767950337724 0 0 0 0 71.801398114577751 41.130250580656082 0 41.130250580656082 -38.632412518391462 0 0 0 0 52.544288396980846 2.1220693944637787 0 2.1220693944637787 -10.469150871067086 0 0 0 0 41.324674035646979 1.5662232890834176 0 1.5662232890834176 -5.4992632065703768 0 0 0 0 39.595384303145693 18.674729865983863 0 18.674729865983863 14.465220238081656 0 0 0 0 36.74666706318385 5.5248921275533576 0 5.5248921275533576 11.537912493901786 0 0 0 0 46.776851388232899 13.681982090634847 0 13.681982090634847 17.776924970509754 0 0 0 0 398.67552305126219 316.57812512081318 0 316.57812512081318 159.03462482242367 0 0 0 0 1.7995708932574672 0.97949799672525728 0 0.97949799672525728 14.063035914749314 0 0 0 0 587.19351792470479 411.95728445490005 0 411.95728445490005 -275.17848399942432 0 0 0 0 49.362439908756642 17.667886898623919 0 17.667886898623919 11.524509973506611 0 0 0 0 746.21012094290927 647.37415976951979 0 647.37415976951979 -235.4495165659373 0 0 0 0 563.72944208137778 443.73714197070814 0 443.73714197070814 121.094212382975 0 0 0 0 731.66872456457349 411.92443773041896 0 411.92443773041896 118.87968151088262 0 0 0 0 580.0002315834281 576.63862760015616 0 576.63862760015616 98.431931135360173 0 0 0 0 708.44825071297237 662.96370814188867 0 662.96370814188867 148.72388264706115 0 0 0 0 600.89355609909398 523.86963646684967 0 523.86963646684967 238.85157031899848 0 0 0 0 460.47658151105861 377.96692871532787 0 377.96692871532787 386.72758137960545 0 0 0 0 692.59189816756407 452.37189373316755 0 452.37189373316755 171.47318047329486 0 0 0 0 720.61736026281142 622.59622874747254 0 622.59622874747254 359.04253103277455 0 0 0 0 214.74851893023151 -254.70524357487042 0 -254.70524357487042 -185.21495154876652 0 0 0 0 12.282589510938465 1.8843862443822417 0 1.8843862443822417 2.1327498543386989 0 0 0 0 616.32532428554259 777.10494361925885 0 777.10494361925885 932.86216516126865 0 0 0 0 634.35126235944335 519.25750195105309 0 519.25750195105309 495.74922728825715 0 0 0 0 557.70094650637475 616.27410536242121 0 616.27410536242121 759.91271521693636 0 0 0 0 360.91086828982225 466.96806332272763 0 466.96806332272763 851.54271192815827 0 0 0 0 927.27922643550846 820.4733952584279 0 820.4733952584279 706.02752821681634 0 0 0 0 34.312534818454878 131.67374153815939 0 131.67374153815939 -151.67034346052543 0 0 0 0 403.25750952656381 432.31244519002894 0 432.31244519002894 700.89113692527462 0 0 0 0 -145.01858228926721 24.299274408409389 0 24.299274408409389 -30.337028211537699 0 0 0 0 3.4414553958340548 99.948020621474512 0 99.948020621474512 9.391464272920274 0 0 0 0 182.80357683936018 -43.314741081422852 0 -43.314741081422852 -20.529192098762337 0 0 0 0 679.07180500816321 -205.63596366847676 0 -205.63596366847676 -181.96980830055065 0 0 0 0 169.49395619626739 -40.137162270591126 0 -40.137162270591126 8.1140394782599259 0 0 0 0 635.75851828396844 76.076857133891451 0 76.076857133891451 -0.122662341447555 0 0 0 0 263.24607160896994 -118.36863665115224 0 -118.36863665115224 25.08852442136202 0 0 0 0 190.61412882441073 89.813602099245045 0 89.813602099245045 0.14881324826654502 0 0 0 0 607.82074991778063 105.42267858790993 0 105.42267858790993 -0.11371196152182939 0 0 0 0 619.11413549142162 104.01508838387969 0 104.01508838387969 -45.011612411637032 0 0 0 0 1257.1314078407304 399.5809022960654 0 399.5809022960654 55.390390613337786 0 0 0 0 409.27375661653059 74.778807908239372 0 74.778807908239372 658.4459268080202 0 0 0 0 411.81897107158147 98.41704317119391 0 98.41704317119391 159.0292904356786 0 0 0 0 1017.195880417974 -77.851377442741523 0 -77.851377442741523 198.33730634943788 0 0 0 0 1298.8179237519653 601.63203520417869 0 601.63203520417869 303.46658716116843 0 0 0 0 517.28898374424898 311.09562464288774 0 311.09562464288774 179.4583253150538 0 0 0 0 874.45599455535921 316.97129450804226 0 316.97129450804226 140.36415107444714 0 0 0 0 610.28591913561831 -10.873972373864689 0 -10.873972373864689 8.3319338462197265 0 0 0 0 377.23167117344565 -87.632999862143606 0 -87.632999862143606 12.528250578956289 0 0 0 0 349.88389560164069 167.24880626947652 0 167.24880626947652 78.165732433256949 0 0 0 0 679.78627954674812 226.81252870568071 0 226.81252870568071 52.18997015181867 0 0 0 0 350.71389227088366 28.611364359602817 0 28.611364359602817 259.43001986187221 0 0 0 0 382.37228988953575 -92.083016202929002 0 -92.083016202929002 33.256425291107689 0 0 0 0 104.88601115296478 -83.414114641377182 0 -83.414114641377182 62.409301174635175 0 0 0 0 262.84283213922754 -204.49315264608663 0 -204.49315264608663 -82.432259590876583 0 0 0 0 156.66000464755962 -127.67028686345029 0 -127.67028686345029 -135.42746878510297 0 0 0 0 307.86329726487747 -8.479944836668551 0 -8.479944836668551 -76.576126377795845 0 0 0 0 120.55122149053204 -105.51564438385367 0 -105.51564438385367 -102.93554924916589 0 0 0 0 207.75737913722696 -150.97504939288297 0 -150.97504939288297 -266.39435858473371 0 0 0 0 172.07555606414098 -174.85785441922098 0 -174.85785441922098 -152.85160087636655 0 0 0 0 122.15849480262841 -58.583313767695927 0 -58.583313767695927 -104.11356468473375 0 0 0 0 216.81888763583265 -1.2198100222622088 0 -1.2198100222622088 -228.37039156394667 0 0 0 0 154.31161670858273 3.8091633159810954 0 3.8091633159810954 -26.904920076513918 0 0 0 0 122.03320343550877 -28.711691400651489 0 -28.711691400651489 -57.264541074061526 0 0 0 0 135.87198561798141 83.878091811300351 0 83.878091811300351 -271.12362612770175 0 0 0 0 152.95443508715834 4.8476046927908101 0 4.8476046927908101 9.5372556218990212 0 0 0 0 15.670661796287561 3.2762158705454283 0 3.2762158705454283 -3.3295876312530002 0 0 0 0 246.33158672022546 75.478979055545096 0 75.478979055545096 -50.968893597322676 0 0 0 0 -17.455475740061956 -155.19796006040042 0 -155.19796006040042 -301.90122622894432 0 0 0 0 154.69281286362093 96.88770046153968 0 96.88770046153968 -20.878210093293092 0 0 0 0 300.59231726481812 15.20881002622059 0 15.20881002622059 -272.99046872784436 0 0 0 0 435.14165238883288 153.56396049016985 0 153.56396049016985 -54.953465464564033 0 0 0 0 208.53671412644326 341.68437971048706 0 341.68437971048706 184.40502292667475 0 0 0 0 -71.620647762232693 265.26638359505523 0 265.26638359505523 189.2203270559603 0 0 0 0 465.18549333479314 607.94598661298676 0 607.94598661298676 312.05828331373141 0 0 0 0 257.10363313810376 40.601819746171486 0 40.601819746171486 -255.78187279392705 0 0 0 0 225.8760100552463 760.84278260746601 0 760.84278260746601 980.7244602160165 0 0 0 0 1253.2472725617117 1233.0252493178159 0 1233.0252493178159 -126.8583625936817 0 0 0 0 722.50117694307119 577.01349667869999 0 577.01349667869999 -444.21593601564246 0 0 0 0 8.2588178329284574 5.0161355622028765 0 5.0161355622028765 3.0338352741478367 0 0 0 0 922.5273023062764 -219.78766017962465 0 -219.78766017962465 47.208268285636677 0 0 0 0 25.319374202790982 8.6911998221949176 0 8.6911998221949176 6.9185360909887761 0 0 0 0 21.485391446840367 19.124521070473065 0 19.124521070473065 29.047476056110668 0 0 0 0 13.136825640947791 -18.484150528343775 0 -18.484150528343775 160.76948765539089 0 0 0 0 78.395290914195357 -55.813296713132672 0 -55.813296713132672 -2.8837173523172623 0 0 0 0 -9.1771695359426531 -10.679653320265864 0 -10.679653320265864 8.9491471896901889 0 0 0 0 585.16241185908439 394.0264727311104 0 394.0264727311104 125.24143383897012 0 0 0 0 151.08454597718082 -139.81836295756483 0 -139.81836295756483 92.721546468958422 0 0 0 0 245.72888847668946 9.7244872465219032 0 9.7244872465219032 79.196490776925998 0 0 0 0 109.16831904686114 122.22399014435541 0 122.22399014435541 62.261731961585383 0 0 0 0 67.092504472879227 -119.19193364188141 0 -119.19193364188141 44.832451403617142 0 0 0 0 -207.2438878312023 -63.485322857794586 0 -63.485322857794586 133.32588939926541 0 0 0 0 77.008366392715914 -56.526882539778455 0 -56.526882539778455 18.168399571492866 0 0 0 0 269.9523983111867 -92.758040350463489 0 -92.758040350463489 6.5563530817080391 0 0 0 0 366.11752394073119 -139.29801993672936 0 -139.29801993672936 -42.678113489382781 0 0 0 0 224.01905591053946 -62.273147286965468 0 -62.273147286965468 -53.192711054363258 0 0 0 0 287.04128176900849 39.736329038225449 0 39.736329038225449 -106.41201938327231 0 0 0 0 275.15141990896518 -91.322735793874472 0 -91.322735793874472 -49.609455798768067 0 0 0 0 122.0230498338351 50.533263586529756 0 50.533263586529756 -54.451168239256049 0 0 0 0 24.409236787621609 8.5119650091167713 0 8.5119650091167713 -6.7534312839810546 0 0 0 0 40.406650605425966 -69.290807041406197 0 -69.290807041406197 -5.7913773376221798 0 0 0 0 45.869629746302962 -16.6999481786861 0 -16.6999481786861 15.167981156532733 0 0 0 0 73.405282207779123 17.892896516281823 0 17.892896516281823 -14.439784856501255 0 0 0 0 96.954233600774927 -4.7257913143516781 0 -4.7257913143516781 -14.508938705336451 0 0 0 0 50.045030031003989 -13.32653457192464 0 -13.32653457192464 -62.751317063011811 0 0 0 0 115.42202021733101 139.75426743782737 0 139.75426743782737 33.59951720241952 0 0 0 0 94.291156127508231 -26.083019014618273 0 -26.083019014618273 -0.21027405928474785 0 0 0 0 45.32093523137155 -21.090254164376347 0 -21.090254164376347 -14.751507819039489 0 0 0 0 -5.6103223125974182 -14.644249346702736 0 -14.644249346702736 45.248986671674629 0 0 0 0 92.230984120158951 -23.138200553715549 0 -23.138200553715549 4.9271482168895941 0 0 0 0 81.89524103806761 -15.433821206219228 0 -15.433821206219228 4.7842784048652245 0 0 0 0 50.496842995310061 -4.3705680651905823 0 -4.3705680651905823 10.14899942889266 0 0 0 0 87.8358963219016 -5.4977898673818117 0 -5.4977898673818117 68.171245782603364 0 0 0 0 374.86400665179826 -83.313827573809249 0 -83.313827573809249 -127.62392423964866 0 0 0 0 150.89865967388505 -33.018289020842815 0 -33.018289020842815 -66.842360967622653 0 0 0 0 154.95818339855032 0.7036322054386801 0 0.7036322054386801 29.450801803314221 0 0 0 0 321.22912742185144 -111.62709025780714 0 -111.62709025780714 -2.8505788435470549 0 0 0 0 170.54496104551072 -127.92177179169607 0 -127.92177179169607 -4.0883090731670109 0 0 0 0 277.97341095923912 24.965030194362214 0 24.965030194362214 30.954458553118457 0 0 0 0 182.20509204974587 -123.82598327612141 0 -123.82598327612141 195.08374937429699 0 0 0 0 135.70768556131952 -44.107260251926164 0 -44.107260251926164 58.663750365748228 0 0 0 0 137.63830433321709 -32.856318164497225 0 -32.856318164497225 -9.8775033940744379 0 0 0 0 61.227769400413379 -57.399290279713284 0 -57.399290279713284 13.539402537057356 0 0 0 0 63.004166271915892 -63.233471663556202 0 -63.233471663556202 34.212130854789393 0 0 0 0 9.9169524503049615 136.518931082271 0 136.518931082271 406.54281820440451 0 0 0 0 -294.20390320083243 -361.1428236972389 0 -361.1428236972389 121.07690272216564 0 0 0 0 81.894630434700957 -33.041102605883111 0 -33.041102605883111 -29.344633102405169 0 0 0 0 90.782823353679262 -47.609272090315159 0 -47.609272090315159 -3.7653949955669903 0 0 0 0 -17.731734984656214 -400.11012936373527 0 -400.11012936373527 -120.58230381988778 0 0 0 0 93.205124983425776 -3.1392149042662822 0 -3.1392149042662822 33.075284317976873 0 0 0 0 -101.33706835489556 123.64947703026155 0 123.64947703026155 278.14743904254283 0 0 0 0 208.67359492242758 -239.26315287810939 0 -239.26315287810939 1.555418784619178 0 0 0 0 100.86482877233794 -47.274309778594244 0 -47.274309778594244 1.5235761015730294 0 0 0 0 76.212426347250585 -139.81057480569143 0 -139.81057480569143 218.10755519691884 0 0 0 0 33.551457711409263 -5.3998041249619888 0 -5.3998041249619888 4.6453007031762752 0 0 0 0 174.9923912058548 -445.86740584451945 0 -445.86740584451945 -194.17229032378327 0 0 0 0 103.46050622501207 -82.627916187573646 0 -82.627916187573646 -454.44048905700947 0 0 0 0 335.29563784173115 647.2523255410706 0 647.2523255410706 -810.79214185335877 0 0 0 0 284.57431987208838 -377.88374625203869 0 -377.88374625203869 482.28272187345101 0 0 0 0 9.9701712108176253 1.5425275975054973 0 1.5425275975054973 -3.7194662666567382 0 0 0 0 357.18084534354421 -523.05665561278875 0 -523.05665561278875 443.15367307234646 0 0 0 0 775.66647723366987 -381.39479812404534 0 -381.39479812404534 42.323263928900815 0 0 0 0 296.15765851782771 -56.305524239416627 0 -56.305524239416627 -40.154942924717034 0 0 0 0 476.83188712876472 -37.501511912785645 0 -37.501511912785645 -341.30946091624719 0 0 0 0 118.33784353761834 -33.446032209126614 0 -33.446032209126614 -9.3341891479903012 0 0 0 0 272.03690915174229 -187.81145020094846 0 -187.81145020094846 -152.57631873432547 0 0 0 0 0.1753093373226875 131.19123104408027 0 131.19123104408027 42.686842560317018 0 0 0 0 490.67554235741773 144.01715593380686 0 144.01715593380686 -71.100989343187393 0 0 0 0 114.83055537052678 -32.097032545130787 0 -32.097032545130787 -564.09784866995517 0 0 0 0 19.439293942070289 -5.9901885583324983 0 -5.9901885583324983 -0.87505044799278697 0 0 0 0 119.94543118094043 -137.02032186636006 0 -137.02032186636006 -551.95710027428504 0 0 0 0 -558.81442649695964 -296.45396650206385 0 -296.45396650206385 446.16790546450648 0 0 0 0 -103.59105994803576 3.4597682459880161 0 3.4597682459880161 -200.22377340179446 0 0 0 0 9.4556597053483173 -3.7373484112675612 0 -3.7373484112675612 -0.42691015386760833 0 0 0 0 414.54044556637382 438.54697620645265 0 438.54697620645265 -704.5789802975014 0 0 0 0 256.84221286980937 -349.77907590563154 0 -349.77907590563154 82.602949398547935 0 0 0 0 10.943631512785942 -211.43855239015465 0 -211.43855239015465 7.9471576076794008 0 0 0 0 325.56110987577631 -361.17663168057334 0 -361.17663168057334 -72.17992546491223 0 0 0 0 112.39268385587275 -236.53012512981877 0 -236.53012512981877 -91.726706003206345 0 0 0 0 149.55651057976138 -207.96490340451419 0 -207.96490340451419 -149.22082715818942 0 0 0 0 -17.805513825944217 -83.856214804438423 0 -83.856214804438423 -190.90661418085074 0 0 0 0 128.18266745932669 -236.02987499876872 0 -236.02987499876872 -118.43676578275426 0 0 0 0 205.51973820026615 -227.94946000915843 0 -227.94946000915843 -30.692812758403761 0 0 0 0 122.18786577453557 -183.62225546230184 0 -183.62225546230184 -52.308393801642524 0 0 0 0 189.29619396000817 -293.96488425536427 0 -293.96488425536427 -80.091999882316713 0 0 0 0 277.52826676651966 -235.58128770216035 0 -235.58128770216035 -71.935349267554557 0 0 0 0 255.63994962917423 -225.92773845871397 0 -225.92773845871397 -73.304330566324552 0 0 0 0 195.38820328977408 -217.06435897020492 0 -217.06435897020492 -0.56258149531640811 0 0 0 0 274.07115174187129 -184.00324321359085 0 -184.00324321359085 2.0861537494310483 0 0 0 0 190.12258587196266 -110.53787849026321 0 -110.53787849026321 -51.406174020436083 0 0 0 0 229.29283746636429 -135.74628039201161 0 -135.74628039201161 -61.401332648641528 0 0 0 0 171.57100304348205 -112.25875325124252 0 -112.25875325124252 -17.731743971655305 0 0 0 0 163.19771796470013 -82.878453071638432 0 -82.878453071638432 -66.152962337524286 0 0 0 0 193.35195397964344 -129.30977857045218 0 -129.30977857045218 -26.860329928160354 0 0 0 0 263.19127318628398 -209.8450801821341 0 -209.8450801821341 -40.94659269413205 0 0 0 0 212.4367696339923 -188.00762618214776 0 -188.00762618214776 -37.869268129752527 0 0 0 0 282.75710513050171 -120.34664248267791 0 -120.34664248267791 -106.75423781332211 0 0 0 0 292.97950305256199 -199.86314951296117 0 -199.86314951296117 -81.166354865787071 0 0 0 0 280.85104277469691 -234.88706625162331 0 -234.88706625162331 -119.47586708919698 0 0 0 0 238.59510242212855 -113.44028776179039 0 -113.44028776179039 -102.29319653192761 0 0 0 0 189.20824474066649 -90.344539761945271 0 -90.344539761945271 -92.334909124565456 0 0 0 0 238.25352669399581 -115.37451524303651 0 -115.37451524303651 -111.22568641762246 0 0 0 0 189.55119607905044 -36.206551394529242 0 -36.206551394529242 -22.467205101620493 0 0 0 0 220.91807198612878 -113.06324619006591 0 -113.06324619006591 -76.103708448395992 0 0 0 0 389.69889372213947 -84.131293218142673 0 -84.131293218142673 -115.84850731672486 0 0 0 0 410.09343109686961 -251.8710680305594 0 -251.8710680305594 -135.93131801282652 0 0 0 0 347.52549998281302 -248.95205689887234 0 -248.95205689887234 -122.90211514916155 0 0 0 0 682.78615098440059 -332.96672492977814 0 -332.96672492977814 -116.97565512277106 0 0 0 0 631.5090877124926 85.486946928484258 0 85.486946928484258 7.8732109407610551 0 0 0 0 83.53849557065405 -69.267905785181938 0 -69.267905785181938 264.16121789761928 0 0 0 0 -30.146751439790933 -278.01789704651856 0 -278.01789704651856 22.833083196463122 0 0 0 0 -99.094322066559471 -171.65128073652886 0 -171.65128073652886 -141.1918169840028 0 0 0 0 -267.74599628525903 -334.06865546952758 0 -334.06865546952758 -39.440847017540364 0 0 0 0 -216.21561648196075 -4.7564263184685842 0 -4.7564263184685842 263.25988420476369 0 0 0 0 23.279024595026428 -31.451263732265588 0 -31.451263732265588 35.714007574270127 0 0 0 0 -143.84318855607853 -185.25472083347086 0 -185.25472083347086 -140.18051088913762 0 0 0 0 -9.7533681166714814 -128.25531267477345 0 -128.25531267477345 -44.224067713759723 0 0 0 0 -54.938628202875407 -259.49105032379794 0 -259.49105032379794 -109.54118053711863 0 0 0 0 178.54683152204962 -69.315209533873713 0 -69.315209533873713 -77.004751367865538 0 0 0 0 49.142597528029 -144.37072082606846 0 -144.37072082606846 -83.32495171195842 0 0 0 0 166.30005147320844 -112.0154015136286 0 -112.0154015136286 -57.17201995560572 0 0 0 0 159.26402032155966 -93.307018817268727 0 -93.307018817268727 -106.54844019989196 0 0 0 0 76.831859869555046 -170.75437285762746 0 -170.75437285762746 -102.07426270959979 0 0 0 0 -2.7285024590407971 1.2114504810466826 0 1.2114504810466826 1.9318238945206758 0 0 0 0 38.988483500361326 -192.95430429790213 0 -192.95430429790213 -453.23841506799363 0 0 0 0 32.690908121905522 -245.93423330045766 0 -245.93423330045766 -147.95909524531453 0 0 0 0 37.87224270022125 -198.95001981489622 0 -198.95001981489622 -108.585900994658 0 0 0 0 157.46828657459992 -134.13916396284822 0 -134.13916396284822 -168.08750806277567 0 0 0 0 -0.34221800483507181 2.5189044896957995 0 2.5189044896957995 -1.3442861325711917 0 0 0 0 -435.27851123207438 -119.94609911786847 0 -119.94609911786847 138.49212883795644 0 0 0 0 140.57424096969862 -199.69711270287144 0 -199.69711270287144 -251.50652060178982 0 0 0 0 279.43072503647272 -54.87426033713632 0 -54.87426033713632 -132.29087224730756 0 0 0 0 153.04690184542414 -61.480990437696164 0 -61.480990437696164 -96.080018632730344 0 0 0 0 143.43029227032093 -78.465857533946291 0 -78.465857533946291 1.5780023251772946 0 0 0 0 126.49207568215934 -118.5921284093356 0 -118.5921284093356 -81.005349255652618 0 0 0 0 18.728877074543981 -23.561385634023978 0 -23.561385634023978 24.58713683990203 0 0 0 0 175.03190606352291 -132.56752071347546 0 -132.56752071347546 -113.05741408493896 0 0 0 0 -441.18884794882615 -317.34526723857289 0 -317.34526723857289 -180.22208177911762 0 0 0 0 -564.28312726598415 -354.46613886510431 0 -354.46613886510431 -135.56458924482104 0 0 0 0 22.37250433259166 -28.923535781437998 0 -28.923535781437998 31.67762401547148 0 0 0 0 211.33830236913491 79.671695053121766 0 79.671695053121766 -49.934061077463866 0 0 0 0 382.99770230487047 -30.974346233731467 0 -30.974346233731467 -198.01398822318697 0 0 0 0 348.45983049693314 -67.925914662653895 0 -67.925914662653895 46.864589993734626 0 0 0 0 77.709378126193769 40.948992330771944 0 40.948992330771944 24.847521837664544 0 0 0 0 -458.84015428372186 -336.42101656288742 0 -336.42101656288742 -191.54166290427929 0 0 0 0 -128.44441588562404 -358.37507107777492 0 -358.37507107777492 130.25334032003411 0 0 0 0 212.12532822570938 616.37419791046113 0 616.37419791046113 677.88171028082797 0 0 0 0 235.05734801296785 -295.640366343501 0 -295.640366343501 740.47280544140176 0 0 0 0 237.5863112649713 289.69602852124626 0 289.69602852124626 -14.069273461982448 0 0 0 0 98.001960615103599 181.53418431028786 0 181.53418431028786 25.832721005842359 0 0 0 0 93.155953783821872 -38.143056520259215 0 -38.143056520259215 19.405880625950481 0 0 0 0 326.06888023350984 -295.56173533691344 0 -295.56173533691344 -697.78541204421344 0 0 0 0 860.55378708285934 69.639079979809139 0 69.639079979809139 -636.60294256643283 0 0 0 0 66.739880359309609 71.461530608758039 0 71.461530608758039 -174.69139438854654 0 0 0 0 112.55744756823697 133.15546331391761 0 133.15546331391761 -9.7224266063167306 0 0 0 0 133.10782815816492 85.577943591411895 0 85.577943591411895 -246.80581063478166 0 0 0 0 142.06900481729826 27.984030981644537 0 27.984030981644537 -163.45621341702645 0 0 0 0 128.02375321785075 97.087816590153125 0 97.087816590153125 -202.02211441842883 0 0 0 0 144.59828889271739 153.86762422974425 0 153.86762422974425 -124.82522554044499 0 0 0 0 82.678196877089249 197.12362497454842 0 197.12362497454842 119.76390410716431 0 0 0 0 96.993847762831138 89.297225848287781 0 89.297225848287781 25.001214166140926 0 0 0 0 33.968396758913059 -30.853370083028231 0 -30.853370083028231 34.324398894448642 0 0 0 0 4.0945905888620473 -195.52287537808843 0 -195.52287537808843 -136.04343126653703 0 0 0 0 77.269265300164989 60.020179748317787 0 60.020179748317787 5.293144809673322 0 0 0 0 150.21350707630336 8.4275396582825124 0 8.4275396582825124 31.730009581083323 0 0 0 0 95.609917761838972 -40.380757898170373 0 -40.380757898170373 15.235223480190321 0 0 0 0 122.98652686489896 -28.117570179769093 0 -28.117570179769093 -8.9967628766548469 0 0 0 0 77.888713852851652 -46.338161481244242 0 -46.338161481244242 -23.984006976247201 0 0 0 0 141.96248062999285 -32.786068358252997 0 -32.786068358252997 7.727684992131536 0 0 0 0 149.57664361169304 -0.6626904077300928 0 -0.6626904077300928 -2.5642295468869341 0 0 0 0 116.70259642864403 48.057499587812345 0 48.057499587812345 -34.44435815129782 0 0 0 0 123.93681616008689 70.498958591695555 0 70.498958591695555 -76.680014602519805 0 0 0 0 115.96143814531388 59.603637495927615 0 59.603637495927615 -43.623407026396308 0 0 0 0 140.56883342966239 47.090428887093367 0 47.090428887093367 -58.590624150594522 0 0 0 0 485.15152258551097 -382.97841425980641 0 -382.97841425980641 -135.88112150401867 0 0 0 0 19.038655461126211 -18.746470587587496 0 -18.746470587587496 6.9514102471325447 0 0 0 0 281.72860402773949 380.66314577387129 0 380.66314577387129 -226.38279489872048 0 0 0 0 348.94585921363614 555.56844358209401 0 555.56844358209401 342.51540433069255 0 0 0 0 182.95147592367721 -28.544364763920839 0 -28.544364763920839 46.14814913110331 0 0 0 0 323.74461638600042 -67.902862400339473 0 -67.902862400339473 -469.32847877541957 0 0 0 0 54.100913433270762 -2.2771323786641915 0 -2.2771323786641915 -160.68771674449363 0 0 0 0 859.02054067357676 302.41539553641303 0 302.41539553641303 -120.08165411103934 0 0 0 0 618.54422142572002 -451.72901382499856 0 -451.72901382499856 -188.11148976790219 0 0 0 0 720.00060372080134 -14.214661013075109 0 -14.214661013075109 226.66080355992403 0 0 0 0 5.7234088172319275 -2.5948599005263446 0 -2.5948599005263446 0.9063320806576276 0 0 0 0 132.30255288133048 -326.65921850845189 0 -326.65921850845189 85.251856773153349 0 0 0 0 -282.41201130308036 27.136093507111298 0 27.136093507111298 269.22870035342658 0 0 0 0 293.96491648614756 -301.15771462951921 0 -301.15771462951921 77.074228637065914 0 0 0 0 283.57117565557996 122.36323650236292 0 122.36323650236292 277.24968428852412 0 0 0 0 71.859692123092827 22.736261067768737 0 22.736261067768737 485.95980221046466 0 0 0 0 -11.27586279832758 255.43165117642184 0 255.43165117642184 220.76840285967478 0 0 0 0 100.82806416915264 165.04450393969023 0 165.04450393969023 243.43284180533101 0 0 0 0 96.782703133576433 -60.250727830625067 0 -60.250727830625067 356.27320978611158 0 0 0 0 122.00677251267916 172.20061994143626 0 172.20061994143626 407.85197590499575 0 0 0 0 29.592179021812115 -2.7853213682060183 0 -2.7853213682060183 6.2162166001349135 0 0 0 0 27.424060790639487 97.32413382816253 0 97.32413382816253 175.12448132360214 0 0 0 0 252.69030170854967 84.075808826523144 0 84.075808826523144 -103.65039872096031 0 0 0 0 161.45867966619699 35.60867334451666 0 35.60867334451666 57.125611952358668 0 0 0 0 131.96083231387132 -22.474675465824845 0 -22.474675465824845 3.8486381324929284 0 0 0 0 73.920896292445832 -81.541645531169252 0 -81.541645531169252 -110.98526581145006 0 0 0 0 28.334712309132414 2.7467796791873127 0 2.7467796791873127 -4.1785292408162666 0 0 0 0 78.617971125142503 335.97619263768684 0 335.97619263768684 -76.686400493600559 0 0 0 0 9.7372738159772325 5.1670916916356671 0 5.1670916916356671 0.81164724794202492 0 0 0 0 323.00336492749921 662.46250995022615 0 662.46250995022615 1004.0966133675504 0 0 0 0 188.76639686313865 -140.97402795129869 0 -140.97402795129869 271.96232822207838 0 0 0 0 -11.480809274718922 239.36482272066215 0 239.36482272066215 494.73509890536002 0 0 0 0 286.0250163092569 -44.060440346750909 0 -44.060440346750909 27.520622294714599 0 0 0 0 938.61832795032387 401.14486127299705 0 401.14486127299705 336.30307310219075 0 0 0 0 744.15071607064237 701.90704043061987 0 701.90704043061987 270.0497637663513 0 0 0 0 660.29422887188412 857.42481309535549 0 857.42481309535549 522.44643116745908 0 0 0 0 77.02002358133177 451.33890007020767 0 451.33890007020767 402.52332686120729 0 0 0 0 702.36252802842318 87.363289494327276 0 87.363289494327276 610.56491215851929 0 0 0 0 407.38222117244368 653.4128908039612 0 653.4128908039612 856.83519935101856 0 0 0 0 1106.9435412778621 322.7181061295027 0 322.7181061295027 116.3446970059033 0 0 0 0 27.880416726577096 194.16456584217735 0 194.16456584217735 217.27270045220644 0 0 0 0 257.61531036796896 526.41171060490319 0 526.41171060490319 522.56789502371612 0 0 0 0 328.17847722738952 20.742776309251894 0 20.742776309251894 -53.643185380292834 0 0 0 0 42.690528333923112 -24.881556102873795 0 -24.881556102873795 14.194800517248426 0 0 0 0 65.569665540305778 -39.380922780207392 0 -39.380922780207392 21.44436177976884 0 0 0 0 29.444699604515336 47.608396300421191 0 47.608396300421191 75.200598527392913 0 0 0 0 249.61566650743407 -337.65143658482879 0 -337.65143658482879 -78.819102354549614 0 0 0 0 -54.938486205224763 -93.468010272151105 0 -93.468010272151105 83.495267738851226 0 0 0 0 1075.5296990634233 -388.12109141150177 0 -388.12109141150177 -422.5438002702258 0 0 0 0 -204.9882839400816 -575.47197774818778 0 -575.47197774818778 -432.31831100603574 0 0 0 0 12.0929102756254 -6.3338600399250637 0 -6.3338600399250637 3.709766689729034 0 0 0 0 -293.82289013344416 -189.31324108159652 0 -189.31324108159652 320.68192809588913 0 0 0 0 210.34004821146664 202.725416869117 0 202.725416869117 218.27551859820437 0 0 0 0 1152.5509793286255 -88.406500382165632 0 -88.406500382165632 45.603534269913325 0 0 0 0 841.19869367412321 600.07706992545582 0 600.07706992545582 443.08533606635228 0 0 0 0 710.56673065001087 35.440669392803784 0 35.440669392803784 -126.9933825295434 0 0 0 0 354.37609595156937 50.356114492008487 0 50.356114492008487 -91.613461348305464 0 0 0 0 608.34970541135499 309.53739693463643 0 309.53739693463643 39.922972741027479 0 0 0 0 349.49576806953701 176.78495285696022 0 176.78495285696022 -18.224469492288108 0 0 0 0 422.50430240033165 109.86765685231921 0 109.86765685231921 -51.678240278813789 0 0 0 0 479.35363645194485 153.69170907411888 0 153.69170907411888 -55.023368945141556 0 0 0 0 227.25680237905908 50.792185620949112 0 50.792185620949112 -18.008215772983931 0 0 0 0 480.24803803834948 55.639028748187457 0 55.639028748187457 -130.11654982789196 0 0 0 0 134.97473874533898 55.702114008591252 0 55.702114008591252 41.156852230497861 0 0 0 0 183.08787328933249 40.6997856017083 0 40.6997856017083 12.819589519258329 0 0 0 0 358.37012932570133 117.79805328229762 0 117.79805328229762 8.2923036510546808 0 0 0 0 120.35006722194521 86.17201096496683 0 86.17201096496683 69.492787605051717 0 0 0 0 70.132472033068552 -21.951645570207688 0 -21.951645570207688 23.840733534962055 0 0 0 0 234.89464992761259 94.872595214548284 0 94.872595214548284 53.757951275969845 0 0 0 0 39.076196222374364 -14.73764088777147 0 -14.73764088777147 4.904379770672822 0 0 0 0 -335.91680353487754 -681.58851617843993 0 -681.58851617843993 -362.6596382122716 0 0 0 0 -318.49301769079693 -389.39893865287945 0 -389.39893865287945 -53.2376060640172 0 0 0 0 -431.3550049561527 270.52514862391439 0 270.52514862391439 521.0597416232431 0 0 0 0 13.846694322733214 -8.320022432407491 0 -8.320022432407491 5.9877153108485883 0 0 0 0 937.49430205405224 396.15458622458459 0 396.15458622458459 211.27406456479207 0 0 0 0 1140.6021216641311 49.348849797029175 0 49.348849797029175 523.07004188438259 0 0 0 0 752.6788544577139 -300.92567481848732 0 -300.92567481848732 814.62202399230057 0 0 0 0 173.19138106809987 94.087439201541656 0 94.087439201541656 917.00128180637034 0 0 0 0 348.51446844579186 204.3662268874491 0 204.3662268874491 984.6309935392967 0 0 0 0 356.90857208628586 719.900438416214 0 719.900438416214 -380.37627575385704 0 0 0 0 -70.465069032783504 616.83158353524004 0 616.83158353524004 1147.4993550537363 0 0 0 0 58.318511332172392 -17.538649530484758 0 -17.538649530484758 2.2196549252287214 0 0 0 0 920.33158309254213 -1553.494612767468 0 -1553.494612767468 -1409.1617742233454 0 0 0 0 125.42490876829106 -38.777518297343022 0 -38.777518297343022 -42.091840926992518 0 0 0 0 15.727786539202498 -13.554680954893456 0 -13.554680954893456 8.1311891476257188 0 0 0 0 56.632408412719087 -35.222673316785858 0 -35.222673316785858 -8.6546890814133803 0 0 0 0 60.368168293745924 -7.1181999618281466 0 -7.1181999618281466 1.3246388057197374 0 0 0 0 307.64564769789285 -19.305150469164801 0 -19.305150469164801 -1147.8029919017429 0 0 0 0 41.210041651226675 -13.880703810435222 0 -13.880703810435222 2.5138522293409551 0 0 0 0 41.497478376964864 -19.562763440184881 0 -19.562763440184881 39.238961692128214 0 0 0 0 125.13790289390045 -29.672984440534776 0 -29.672984440534776 9.0807565645336581 0 0 0 0 15.718100944287784 -1.1554997071940356 0 -1.1554997071940356 4.6841375778458314 0 0 0 0 500.79218850144389 -862.02382954848417 0 -862.02382954848417 741.30873391618104 0 0 0 0 2826.5495087598683 -1176.5021602485767 0 -1176.5021602485767 33.261218462375496 0 0 0 0 -106.54481298967585 581.7209412338716 0 581.7209412338716 136.52732892218663 0 0 0 0 16.735384786763234 5.3402161517771987 0 5.3402161517771987 5.2181138731954366 0 0 0 0 8.0720830327336444 643.38204623508466 0 643.38204623508466 -645.43891738090224 0 0 0 0 29.123606865673423 15.587899524653992 0 15.587899524653992 15.100782827469354 0 0 0 0 1510.3994519755579 852.29041585080085 0 852.29041585080085 496.40462994913423 0 0 0 0 3494.5972403080905 -641.40127625185755 0 -641.40127625185755 -475.89928804809176 0 0 0 0 -775.72327636558475 1214.3317579908301 0 1214.3317579908301 1732.5317684315701 0 0 0 0 7.6410659659553062 7.8183925648456238 0 7.8183925648456238 9.4725434189374287 0 0 0 0 4476.1421841741103 -168.27500685767035 0 -168.27500685767035 -276.98931650018517 0 0 0 0 -21.78567659111286 -105.83580054375102 0 -105.83580054375102 -105.67755767894562 0 0 0 0 170.7972714369389 787.23920720470755 0 787.23920720470755 1085.3686091826903 0 0 0 0 759.96896259758796 709.05768786314025 0 709.05768786314025 845.82238958183439 0 0 0 0 3483.9640811175632 1797.5165815533405 0 1797.5165815533405 474.0094404400707 0 0 0 0 3503.4541434802813 2033.1793926448224 0 2033.1793926448224 3063.0594271096988 0 0 0 0 1477.0280940488155 2550.3173222905662 0 2550.3173222905662 1814.9375114739362 0 0 0 0 2419.8689119363116 1587.1250889906373 0 1587.1250889906373 432.79782070498987 0 0 0 0 1954.2317635457403 668.2971818205134 0 668.2971818205134 269.92819907120736 0 0 0 0 3497.8804393171158 1243.9617748859009 0 1243.9617748859009 -174.54815315843973 0 0 0 0 2164.3957251966785 385.00232854271201 0 385.00232854271201 -241.30499800412915 0 0 0 0 2908.9492759930799 814.50671650493143 0 814.50671650493143 -6.8832276984801553 0 0 0 0 2077.3191422704476 248.45616848074016 0 248.45616848074016 167.99225855410441 0 0 0 0 1279.3560696416826 1086.1606220528399 0 1086.1606220528399 1057.9000596625067 0 0 0 0 869.56256267553545 260.98670581518138 0 260.98670581518138 562.12388823848289 0 0 0 0 1040.6778836157882 409.56126108191017 0 409.56126108191017 691.10903314120378 0 0 0 0 661.86725653527537 350.14237963252435 0 350.14237963252435 500.45371674927992 0 0 0 0 797.44812494433427 417.52594107300268 0 417.52594107300268 390.0694026572063 0 0 0 0 370.65310097870679 512.62002454117567 0 512.62002454117567 496.68369307091768 0 0 0 0 633.78665712698421 232.69955065860171 0 232.69955065860171 509.33548673434507 0 0 0 0 1142.6501529148518 504.17059524936315 0 504.17059524936315 560.35792225698788 0 0 0 0 1071.7562013861316 309.32794844698736 0 309.32794844698736 331.10758532886132 0 0 0 0 233.85892828737997 -166.23208290768707 0 -166.23208290768707 159.32202899235949 0 0 0 0 396.79505528701702 -96.36341737537893 0 -96.36341737537893 -60.985725898598048 0 0 0 0 167.97510109309223 -59.061513663378548 0 -59.061513663378548 20.632334914714079 0 0 0 0 1.2393694344283261 -3.094477590136151 0 -3.094477590136151 -2.6166355309243814 0 0 0 0 2475.9572703931699 -210.15156968838716 0 -210.15156968838716 -219.12911622380204 0 0 0 0 2269.9868043043389 -270.79830812803027 0 -270.79830812803027 -195.55579804468471 0 0 0 0 2469.2589285894937 -167.9557196467087 0 -167.9557196467087 -359.60321357085684 0 0 0 0 3499.1572518034723 218.21841836239039 0 218.21841836239039 -486.59061545917677 0 0 0 0 997.9015207378734 -65.030235792219116 0 -65.030235792219116 115.21869666479176 0 0 0 0 162.9612581740148 183.88993759829117 0 183.88993759829117 191.28780919233299 0 0 0 0 1596.0116385978181 -1536.6602806912281 0 -1536.6602806912281 869.11590999050463 0 0 0 0 15.39744862973312 -3.132927355519902 0 -3.132927355519902 1.1572677806374621 0 0 0 0 3492.5415452665839 -1121.2039502411701 0 -1121.2039502411701 -393.93146405489591 0 0 0 0 2147.6530036051226 -677.1062020900348 0 -677.1062020900348 -34.161380280274102 0 0 0 0 233.49106267865136 -572.58689002585072 0 -572.58689002585072 631.47292478671818 0 0 0 0 224.89726092822571 262.96849933753771 0 262.96849933753771 15.847680915337762 0 0 0 0 18.057570324020162 123.78341369826214 0 123.78341369826214 -13.13763169277081 0 0 0 0 35.736791197415812 -4.3731455680883826 0 -4.3731455680883826 0.31076944534184225 0 0 0 0 120.87675865227175 33.629309186380226 0 33.629309186380226 -302.63961432140718 0 0 0 0 -10.636754972358176 -50.114482449532261 0 -50.114482449532261 74.868571194293139 0 0 0 0 46.514315847824037 -9.2692707939418142 0 -9.2692707939418142 -29.191620621750246 0 0 0 0 23.242204097845985 -0.23807985387341191 0 -0.23807985387341191 -0.38297907259994202 0 0 0 0 27.374847507273444 -5.4486701890009215 0 -5.4486701890009215 16.853105566335216 0 0 0 0 25.234403468776378 3.4093663957962956 0 3.4093663957962956 -2.0188031241622286 0 0 0 0 61.011958026789216 15.259596328746678 0 15.259596328746678 -7.3517465872325261 0 0 0 0 122.15725182604729 -173.82355569938471 0 -173.82355569938471 120.76362579073506 0 0 0 0 991.10752679477082 149.14238258020916 0 149.14238258020916 -160.33325779317161 0 0 0 0 980.19842349082319 407.55625660967183 0 407.55625660967183 -209.02889065684897 0 0 0 0 3449.039778536644 -385.59758147272152 0 -385.59758147272152 -264.37957866921397 0 0 0 0 3490.910667582586 1886.5861107133512 0 1886.5861107133512 439.10873408025634 0 0 0 0 11.748243770198968 2.1365412324049871 0 2.1365412324049871 -0.22044912816316042 0 0 0 0 3500.9161194362277 417.75927669714144 0 417.75927669714144 -420.49754997764757 0 0 0 0 1441.9443645549527 -951.82461182591317 0 -951.82461182591317 138.68006039202865 0 0 0 0 2265.7881922644265 72.531753078684389 0 72.531753078684389 -264.89420755963403 0 0 0 0 3325.0507253884716 -167.31639065657023 0 -167.31639065657023 -222.01806935145683 0 0 0 0 3500.7987329628231 -365.16619222076906 0 -365.16619222076906 -69.209816416242191 0 0 0 0 2997.7749802897397 -876.46110982739424 0 -876.46110982739424 89.084424238399748 0 0 0 0 10.203758506810914 3.6751258954402601 0 3.6751258954402601 -0.42986183762786268 0 0 0 0 -9.2582993487812928 474.44502859356407 0 474.44502859356407 -374.41468360327315 0 0 0 0 2664.6805606947601 -78.332217432742851 0 -78.332217432742851 -288.11871963205328 0 0 0 0 602.13745325982018 -53.174647333767311 0 -53.174647333767311 33.111311242813599 0 0 0 0 349.37341311608907 -302.11955034604358 0 -302.11955034604358 -47.558345417618312 0 0 0 0 3493.3543751919569 -844.86420604061584 0 -844.86420604061584 -529.25706763890889 0 0 0 0 2524.0554351909723 -730.68755137950518 0 -730.68755137950518 -196.90223534213806 0 0 0 0 104.67091308964154 5.7442055891538644 0 5.7442055891538644 29.630956470545527 0 0 0 0 4.960574567598826 6.4968986830297979 0 6.4968986830297979 5.8591118009408767 0 0 0 0 -359.57644388121116 120.57771366666856 0 120.57771366666856 106.98271457065462 0 0 0 0 -187.67082200429286 -26.265024121060435 0 -26.265024121060435 29.422145097803778 0 0 0 0 2.9036978666906492 2.2514726758096373 0 2.2514726758096373 1.402288100513795 0 0 0 0 -98.844159685329942 -18.111378794431602 0 -18.111378794431602 -69.335484261961795 0 0 0 0 -160.28464184876429 362.20860883720434 0 362.20860883720434 -80.613880495853493 0 0 0 0 502.00550584461598 249.32033429054192 0 249.32033429054192 142.67621312361291 0 0 0 0 17.858360076790532 8.8029636935040472 0 8.8029636935040472 -1.480330949244407 0 0 0 0 368.8505431179874 61.145096135985682 0 61.145096135985682 -288.78502505441605 0 0 0 0 327.46538356260135 -99.378398856594004 0 -99.378398856594004 -201.49549563643103 0 0 0 0 263.56762236185023 -112.12022474253411 0 -112.12022474253411 -389.43425595681043 0 0 0 0 244.67449617481179 -19.986865031785328 0 -19.986865031785328 -244.05235068710613 0 0 0 0 175.37161864401423 -313.07045303862401 0 -313.07045303862401 -768.51867902157028 0 0 0 0 95.466846773008001 397.62908344173798 0 397.62908344173798 -504.36270067862483 0 0 0 0 189.89298670488733 108.67374736499403 0 108.67374736499403 153.43660784035077 0 0 0 0 232.99307396788208 -21.904236851538528 0 -21.904236851538528 -48.968665090060369 0 0 0 0 276.57265549778822 88.261184764301419 0 88.261184764301419 145.66473373090389 0 0 0 0 433.01733515278829 23.660643499577418 0 23.660643499577418 13.102362816147888 0 0 0 0 333.57779597474291 120.20839660599142 0 120.20839660599142 148.4232036197707 0 0 0 0 328.69042969026123 98.53322961608967 0 98.53322961608967 77.16985446320291 0 0 0 0 469.68345382904954 -51.763670653788566 0 -51.763670653788566 180.64505479267385 0 0 0 0 373.93422757041481 30.02335354975628 0 30.02335354975628 50.797986761643187 0 0 0 0 143.78695143063851 -43.628262196008734 0 -43.628262196008734 40.329183091452251 0 0 0 0 331.65011610568035 72.701678080850343 0 72.701678080850343 10.572206463433041 0 0 0 0 12.687055815219495 -15.80884533742276 0 -15.80884533742276 16.458109024933794 0 0 0 0 419.80180419761564 126.12171896416612 0 126.12171896416612 17.075907814107723 0 0 0 0 391.24246624973603 130.43015082990655 0 130.43015082990655 16.426023000945406 0 0 0 0 405.92451149982662 140.37007263809892 0 140.37007263809892 2.9976064620337866 0 0 0 0 527.78480226881948 214.05253351328597 0 214.05253351328597 152.9274555815926 0 0 0 0 396.85340188390546 102.36813456060099 0 102.36813456060099 86.378358893458199 0 0 0 0 -720.97493685111112 -192.11254371955735 0 -192.11254371955735 -183.86568900854348 0 0 0 0 -794.6422860777534 -858.39531193979894 0 -858.39531193979894 -249.77636140251775 0 0 0 0 79.017863681336166 -121.69894351792666 0 -121.69894351792666 -96.933281395616291 0 0 0 0 -190.73401221432869 -436.25200536980401 0 -436.25200536980401 -219.58733890423639 0 0 0 0 3.0095255642885661 -5.1001354023646712 0 -5.1001354023646712 7.503664917380692 0 0 0 0 1108.9776107387952 230.47168390941738 0 230.47168390941738 3.0566837356827818 0 0 0 0 -200.4416449075361 -590.09920363815581 0 -590.09920363815581 -633.54576773044619 0 0 0 0 797.20901964523364 -453.60831459678172 0 -453.60831459678172 16.79220126040218 0 0 0 0 0.97182229821584087 -11.374051885306919 0 -11.374051885306919 -6.5668107387903056 0 0 0 0 -77.520762761378137 -93.366058357601901 0 -93.366058357601901 -52.267049244770078 0 0 0 0 62.501060145121301 -53.134720006055431 0 -53.134720006055431 -1016.4822642751686 0 0 0 0 -1098.7613075734989 -422.78256178931065 0 -422.78256178931065 677.00997793631859 0 0 0 0 1141.5597180775003 -815.04228743107797 0 -815.04228743107797 -927.72488882712605 0 0 0 0 -30.230534492409788 -6.4712909476929781 0 -6.4712909476929781 -26.111680308765472 0 0 0 0 -186.64184464850405 -231.78500175854219 0 -231.78500175854219 -161.94191660680553 0 0 0 0 -39.762581180897541 -132.10623287061753 0 -132.10623287061753 -183.06624572012754 0 0 0 0 24.345295044477098 -56.946146203301851 0 -56.946146203301851 37.130991302935286 0 0 0 0 -333.50487765017533 -609.60739120912103 0 -609.60739120912103 -212.95665220366755 0 0 0 0 -49.417639803985367 -42.799947462772252 0 -42.799947462772252 -211.75730948313429 0 0 0 0 2.3107724249603336 -0.31733153237778566 0 -0.31733153237778566 0.82667608524482006 0 0 0 0 270.52779464452033 -87.37727758336996 0 -87.37727758336996 -20.319378510383103 0 0 0 0 63.323207365985581 24.717022539686752 0 24.717022539686752 9.964287393847826 0 0 0 0 37.997362047364732 -23.922199070535896 0 -23.922199070535896 -1.6877823341237672 0 0 0 0 5.7555882030264911 -38.814383842613353 0 -38.814383842613353 0.31720274237932244 0 0 0 0 -4.2567191411462773 10.749472850291937 0 10.749472850291937 14.499144762730339 0 0 0 0 104.7375054683946 -54.277387974016577 0 -54.277387974016577 9.0824747769415808 0 0 0 0 42.455690071571752 -25.976502529331654 0 -25.976502529331654 -0.29809659596955829 0 0 0 0 99.61980325803961 25.772185939953033 0 25.772185939953033 -56.48781380291905 0 0 0 0 32.220424025275861 -144.14772160710027 0 -144.14772160710027 -53.299219949991539 0 0 0 0 -1.04016648343719 -9.0655770466878369 0 -9.0655770466878369 2.1339860133642787 0 0 0 0 646.10623565081914 -220.39077922125193 0 -220.39077922125193 -145.10534494658873 0 0 0 0 34.017789854667129 -24.463176860074185 0 -24.463176860074185 -4.5979101286065553 0 0 0 0 -252.69187836030324 13.108131417275672 0 13.108131417275672 108.05747532174337 0 0 0 0 528.08959957487968 50.255912405893241 0 50.255912405893241 -107.58945085455662 0 0 0 0 -132.29591365520901 327.17412382219936 0 327.17412382219936 306.58183055428049 0 0 0 0 9.8562892029003706 25.371311495104237 0 25.371311495104237 -41.384389838358175 0 0 0 0 79.303959326163749 -54.217483723266469 0 -54.217483723266469 -139.86789346502928 0 0 0 0 4.6982562149478326 -52.405479913597489 0 -52.405479913597489 -123.86673204630688 0 0 0 0 89.811228291822772 -175.71141804376236 0 -175.71141804376236 -4.6714752554901224 0 0 0 0 117.72633076521743 -266.26837081451504 0 -266.26837081451504 -311.86617609630252 0 0 0 0 6.9614431084687567 2.6953819667075578 0 2.6953819667075578 -2.7609021355204959 0 0 0 0 103.42644954555726 -115.68425463080655 0 -115.68425463080655 -78.798937496065037 0 0 0 0 65.606453446132946 -45.717950832362931 0 -45.717950832362931 -207.6340506026072 0 0 0 0 130.15927414056569 187.50839792387626 0 187.50839792387626 -341.68981310006723 0 0 0 0 19.485943005497234 5.2277899839833211 0 5.2277899839833211 -5.0542824388457426 0 0 0 0 45.909827441217203 -5.2133207878161922 0 -5.2133207878161922 -10.267414736106019 0 0 0 0 56.144725716585526 55.657012177880006 0 55.657012177880006 20.916969235775696 0 0 0 0 71.944795177085325 98.127827426504609 0 98.127827426504609 42.90168503502241 0 0 0 0 36.32520969943667 3.5599524407180994 0 3.5599524407180994 -3.0929996404427054 0 0 0 0 94.46863127186225 7.0714478489423982 0 7.0714478489423982 -105.34000396614101 0 0 0 0 51.197584605484735 -24.655168289783205 0 -24.655168289783205 -7.175793189892147 0 0 0 0 74.599382101947413 49.816239142850293 0 49.816239142850293 -32.4574191016236 0 0 0 0 27.648946589586558 68.389184750001959 0 68.389184750001959 185.31802052315425 0 0 0 0 32.389025251585601 -3.9523854808569467 0 -3.9523854808569467 -8.3985996655352473 0 0 0 0 16.961725769506302 -3.8355646091000608 0 -3.8355646091000608 -16.427820671442078 0 0 0 0 28.242258927362855 -4.7327217471557219 0 -4.7327217471557219 20.553670159390094 0 0 0 0 52.741554703464288 -4.175767416565618 0 -4.175767416565618 -11.918711092187609 0 0 0 0 25.160746810437558 63.580855021446446 0 63.580855021446446 -38.290283895676311 0 0 0 0 3.7934405552155184 -0.59390727922989939 0 -0.59390727922989939 -2.3713713825732161 0 0 0 0 42.15354824522511 -0.56284222242947024 0 -0.56284222242947024 -4.8711809014972847 0 0 0 0 44.712877855241885 -1.0078852488380809 0 -1.0078852488380809 -0.63041949747293391 0 0 0 0 69.24256408711517 58.879586649200064 0 58.879586649200064 -93.765495557900536 0 0 0 0 21.161533071353915 38.005885782192109 0 38.005885782192109 83.735646848249274 0 0 0 0 3.1681678413895895 6.918524260217275 0 6.918524260217275 0.71259132721698748 0 0 0 0 27.784992696678074 -7.4760675518937969 0 -7.4760675518937969 -3.3881141964662262 0 0 0 0 297.3157535032442 -280.97878860688058 0 -280.97878860688058 -99.674975947266091 0 0 0 0 -52.805317368271062 141.37048973761159 0 141.37048973761159 79.979769929464538 0 0 0 0 7.1991840038881492 -10.525240774885901 0 -10.525240774885901 71.489025519275344 0 0 0 0 4.62327050142747 -1.0977775822775611 0 -1.0977775822775611 0.44930014266735352 0 0 0 0 9.6149787024805846 -7.8592587128360378 0 -7.8592587128360378 -0.74941944827725138 0 0 0 0 55.135734693644821 15.566613168660727 0 15.566613168660727 -17.632570129291366 0 0 0 0 56.871184262961634 -51.622052099431109 0 -51.622052099431109 -39.216174505625787 0 0 0 0 32.854614134957458 -12.323240135105259 0 -12.323240135105259 -0.72693361561065339 0 0 0 0 106.17953680337814 -108.83433784846562 0 -108.83433784846562 1.6587784489589978 0 0 0 0 45.680486640747404 25.137370396297456 0 25.137370396297456 56.175565330119625 0 0 0 0 -36.147313613364531 -15.684643602550068 0 -15.684643602550068 129.05888080720717 0 0 0 0 42.845668801323427 -7.6660938639240612 0 -7.6660938639240612 25.274503414997696 0 0 0 0 55.622197235480598 -18.866719978086621 0 -18.866719978086621 12.073350142065465 0 0 0 0 44.114230256199335 -32.586768923699537 0 -32.586768923699537 39.747523615291357 0 0 0 0 46.333855753759508 -21.459974536434629 0 -21.459974536434629 50.229178432370645 0 0 0 0 21.483476963534486 -15.199989963136431 0 -15.199989963136431 -1.3638092566748128 0 0 0 0 49.768118235997576 -36.348320509588973 0 -36.348320509588973 19.612617746348405 0 0 0 0 7.212968696138029 -4.9351307166692564 0 -4.9351307166692564 -0.55486253237872241 0 0 0 0 44.512341139075033 -12.755637515427225 0 -12.755637515427225 12.471303420650656 0 0 0 0 6.9922619293502066 -3.8318377195168978 0 -3.8318377195168978 -5.5497036282104091 0 0 0 0 18.99347082511456 -14.362293496694651 0 -14.362293496694651 -1.7552404800787877 0 0 0 0 16.496397293620515 -5.5028300735323104 0 -5.5028300735323104 -4.6768011102577365 0 0 0 0 16.736646002630472 -11.303530660044267 0 -11.303530660044267 -6.0317830004345048 0 0 0 0 23.529926348463157 -18.143323016511015 0 -18.143323016511015 2.1701658408953115 0 0 0 0 10.996675855383593 -7.18953044849889 0 -7.18953044849889 3.1166875326482724 0 0 0 0 42.95140250557597 9.1442062153068377 0 9.1442062153068377 25.688329547193007 0 0 0 0 -4.8318676070011861 -6.767236934141124 0 -6.767236934141124 3.6257709228193562 0 0 0 0 16.998916469576784 -14.138941418811756 0 -14.138941418811756 2.8302397298075244 0 0 0 0 39.058275355733713 -4.9933223702491887 0 -4.9933223702491887 2.4216096118616122 0 0 0 0 44.948465088808234 -9.6100511117125507 0 -9.6100511117125507 6.0021808675101056 0 0 0 0 31.872927855570197 -15.681487023382147 0 -15.681487023382147 1.7559239286570971 0 0 0 0 34.569052002977514 -15.5832584997288 0 -15.5832584997288 1.5075641329231075 0 0 0 0 45.37242929615104 -8.3721882892591566 0 -8.3721882892591566 4.2177859178364088 0 0 0 0 36.714474002809766 -14.285311943644047 0 -14.285311943644047 -27.215258549895225 0 0 0 0 44.448973173146214 -13.246008967975001 0 -13.246008967975001 -12.227140688180953 0 0 0 0 38.657359706945499 -20.092818819260401 0 -20.092818819260401 -9.9172334157280488 0 0 0 0 13.023430387208691 -21.167223486451348 0 -21.167223486451348 -12.166660496197437 0 0 0 0 25.497556591632701 -51.104338462033411 0 -51.104338462033411 -51.560583250062621 0 0 0 0 14.350810406535629 1.862465995724051 0 1.862465995724051 37.77303823031616 0 0 0 0 42.450611691608231 -4.0993946137634794 0 -4.0993946137634794 -40.439473819738851 0 0 0 0 29.69292852283786 10.170380113961983 0 10.170380113961983 2.4836499946522963 0 0 0 0 42.475748514203133 -19.793535307014736 0 -19.793535307014736 -17.000526317339791 0 0 0 0 35.467039221865889 -22.708469238008092 0 -22.708469238008092 14.865493232290191 0 0 0 0 29.307014067371256 -10.074380807137459 0 -10.074380807137459 1.015577150102672 0 0 0 0 28.178340666839176 -27.761700402995757 0 -27.761700402995757 2.5087139414590638 0 0 0 0 38.602422378880874 -41.302583682770944 0 -41.302583682770944 13.505011173842149 0 0 0 0 18.174627832542829 -2.5362057757080914 0 -2.5362057757080914 -9.7541593827803545 0 0 0 0 27.446534505524596 -14.463342091988807 0 -14.463342091988807 2.0808736507819958 0 0 0 0 38.353371605011148 -53.118961971689259 0 -53.118961971689259 -44.375322100833728 0 0 0 0 80.007494570751078 -23.149670368656643 0 -23.149670368656643 -1.982663891413722 0 0 0 0 25.16604856635513 -11.852326888253003 0 -11.852326888253003 0.93136882298517776 0 0 0 0 23.462422829686147 -8.4085937045796868 0 -8.4085937045796868 -5.8796899137794298 0 0 0 0 23.929994922658807 -11.126876909007706 0 -11.126876909007706 -5.2064091729921245 0 0 0 0 30.951476956463011 -13.994853387401349 0 -13.994853387401349 -5.3517099983967 0 0 0 0 24.168154922073882 -8.5530421759940509 0 -8.5530421759940509 -9.7622589803399933 0 0 0 0 17.954472509962407 -4.1373219223771942 0 -4.1373219223771942 -8.9053465094172672 0 0 0 0 31.700998732092557 -35.488777215115078 0 -35.488777215115078 51.949612532934225 0 0 0 0 34.090452427086348 -16.449164148875752 0 -16.449164148875752 19.039287416162551 0 0 0 0 18.527241434363987 -29.056813199836142 0 -29.056813199836142 55.27768403289565 0 0 0 0 24.277624570084299 -10.932517623993817 0 -10.932517623993817 -10.771729207837211 0 0 0 0 18.279623294816702 -2.3206687483427686 0 -2.3206687483427686 -13.604549824293855 0 0 0 0 14.452913542871192 -0.039272234420556273 0 -0.039272234420556273 -5.0624112163741568 0 0 0 0 22.01189119362607 -5.8870672505946686 0 -5.8870672505946686 -6.7183254779552044 0 0 0 0 17.345125987082305 -5.0756239573358517 0 -5.0756239573358517 -2.4493456370600564 0 0 0 0 5.0785815725291883 -3.7714350942398269 0 -3.7714350942398269 -2.0331757486339757 0 0 0 0 23.84915249991991 -7.9369169380420885 0 -7.9369169380420885 -1.4707972898895605 0 0 0 0 26.483242693398097 -12.777870999231681 0 -12.777870999231681 -5.5096864802328582 0 0 0 0 26.912743867858808 -15.601010995123488 0 -15.601010995123488 0.97965368571726685 0 0 0 0 27.581121609396178 -13.521513124358023 0 -13.521513124358023 -7.1600865637505819 0 0 0 0 22.186887275223086 -11.274224874101701 0 -11.274224874101701 3.6442554552128841 0 0 0 0 23.968249793664199 -15.48241561094207 0 -15.48241561094207 -3.3890916727892204 0 0 0 0 27.572633415773453 -13.07230571509831 0 -13.07230571509831 2.1297096758721636 0 0 0 0 50.073382686903642 -44.095648005735256 0 -44.095648005735256 41.545219566757623 0 0 0 0 0.31219528704829358 -3.7940107386731263 0 -3.7940107386731263 1.5237455975086114 0 0 0 0 28.512984990649784 -12.368996224597595 0 -12.368996224597595 2.2811997236424304 0 0 0 0 27.653984779790335 -15.870908804837882 0 -15.870908804837882 7.7112359518760059 0 0 0 0 33.298408648199256 -12.520659699429075 0 -12.520659699429075 5.9861676372394754 0 0 0 0 12.357366280682925 -10.398473494425687 0 -10.398473494425687 6.9481461917602569 0 0 0 0 29.542778285215718 -9.9236489162057069 0 -9.9236489162057069 4.6899916628885876 0 0 0 0 21.015414349213799 -15.103060074221204 0 -15.103060074221204 8.1321059796943125 0 0 0 0 16.559314720376278 -15.165827035864822 0 -15.165827035864822 2.7203468540733411 0 0 0 0 24.237643689166362 -14.800612691348306 0 -14.800612691348306 1.8217932145857958 0 0 0 0 16.994505354756257 35.17545247559201 0 35.17545247559201 81.094828129215784 0 0 0 0 22.224597800217708 -5.2562951526552339 0 -5.2562951526552339 -0.1092137515131153 0 0 0 0 11.059931061059245 -9.929827233333139 0 -9.929827233333139 3.1071248672936846 0 0 0 0 12.866409438336737 -4.3229518059043635 0 -4.3229518059043635 -0.86645538741116113 0 0 0 0 30.06928597606975 -1.9326801697301903 0 -1.9326801697301903 -0.47431982676971529 0 0 0 0 22.116274995587446 -15.747588800252117 0 -15.747588800252117 -0.93583175220851444 0 0 0 0 16.719753055746001 -11.976941891269124 0 -11.976941891269124 0.32452940090770266 0 0 0 0 40.01033943762377 -8.6990535156032536 0 -8.6990535156032536 -5.5028364016876594 0 0 0 0 24.294363520640445 -9.8153318400646743 0 -9.8153318400646743 0.44515433379916036 0 0 0 0 23.194467411599746 -9.2975073985213736 0 -9.2975073985213736 0.78588404775380916 0 0 0 0 22.671963230541223 -2.1282210876892691 0 -2.1282210876892691 -7.4537535406634561 0 0 0 0 22.746553934449242 -9.8192420128329161 0 -9.8192420128329161 -3.3821203906614272 0 0 0 0 25.039221714228916 -11.413105057990947 0 -11.413105057990947 -3.8976723840117984 0 0 0 0 49.612299852360593 -19.35070427022788 0 -19.35070427022788 -12.894068531862473 0 0 0 0 45.429593647073489 -15.285101079409969 0 -15.285101079409969 -1.1894306837007207 0 0 0 0 38.369224388079047 -14.280638086633456 0 -14.280638086633456 -1.0469371842938973 0 0 0 0 62.15825885488448 -19.675173423125671 0 -19.675173423125671 27.99123511797734 0 0 0 0 27.026634548547023 -5.4906792948692917 0 -5.4906792948692917 -6.0832497448122167 0 0 0 0 26.270926135432092 -75.227075955994678 0 -75.227075955994678 41.084387951770168 0 0 0 0 -84.983756008721684 -19.110085787505341 0 -19.110085787505341 31.932587517786487 0 0 0 0 -0.81349213998328196 -95.860597612356059 0 -95.860597612356059 -23.036934200983524 0 0 0 0 -118.67640291960561 -87.189421459511607 0 -87.189421459511607 -7.1245303347965319 0 0 0 0 -133.5585593545984 23.267603719001841 0 23.267603719001841 -72.052696767738155 0 0 0 0 155.20566603118277 35.790656661371372 0 35.790656661371372 -72.002316558541224 0 0 0 0 42.216553510676022 -37.112229286264665 0 -37.112229286264665 45.633762582199779 0 0 0 0 -2.1916941982344724 -25.52697895518736 0 -25.52697895518736 -66.248227587567271 0 0 0 0 -18.775980874685047 1.4293814766124342 0 1.4293814766124342 22.807650995266158 0 0 0 0 68.676855810008419 30.474345568308763 0 30.474345568308763 -65.158988588106695 0 0 0 0 102.60846490914992 -28.351086977521391 0 -28.351086977521391 -13.861040819512255 0 0 0 0 52.792959693149896 106.82699050447081 0 106.82699050447081 22.451111810152725 0 0 0 0 -21.151411537171953 -54.89036931524781 0 -54.89036931524781 -134.68265668607035 0 0 0 0 -43.730621734517626 -23.940141571167715 0 -23.940141571167715 -53.242158452697637 0 0 0 0 -253.81641104604205 -138.50651398001361 0 -138.50651398001361 2.8283304702506484 0 0 0 0 -129.11836406812654 -59.846266994908547 0 -59.846266994908547 -3.6724408799327648 0 0 0 0 -167.62176257875035 -23.669969387853769 0 -23.669969387853769 156.1628200278119 0 0 0 0 -184.841834403127 -126.75400577032352 0 -126.75400577032352 100.86134571578032 0 0 0 0 -439.96251005498925 -313.58195664752111 0 -313.58195664752111 -34.071097176728472 0 0 0 0 90.269449693701972 -96.206718058147658 0 -96.206718058147658 -434.08964443553941 0 0 0 0 -25.623434371038456 -71.518915604516621 0 -71.518915604516621 -306.59844984336013 0 0 0 0 -112.38900575513253 -47.893875266473856 0 -47.893875266473856 -39.598728189130668 0 0 0 0 -157.00293462928676 -285.39416417368562 0 -285.39416417368562 -255.3525965459088 0 0 0 0 -149.73311445582294 -58.539408294850091 0 -58.539408294850091 -319.78922350452467 0 0 0 0 -544.16284449418163 -390.36632138167079 0 -390.36632138167079 -96.589829468859079 0 0 0 0 -3.0564000395512281 1.6496818364575248 0 1.6496818364575248 2.4814131476035133 0 0 0 0 -97.525326791339467 -31.300410890006333 0 -31.300410890006333 -231.77230092275204 0 0 0 0 -24.041011587512912 -114.97010120143739 0 -114.97010120143739 -170.10615830550341 0 0 0 0 -396.76829626809194 -58.119182833429932 0 -58.119182833429932 -50.746794101917658 0 0 0 0 -173.03982558862481 -181.25433869349672 0 -181.25433869349672 -19.798653820185905 0 0 0 0 -464.56825329022831 -199.68925085690307 0 -199.68925085690307 2.6892984811256611 0 0 0 0 -275.71447022543725 -289.94766095727073 0 -289.94766095727073 -233.94428507583234 0 0 0 0 -2.5287440870472011 0.82923969216113136 0 0.82923969216113136 1.5357453662707456 0 0 0 0 127.34501361262301 -88.548646474031557 0 -88.548646474031557 24.9102974058369 0 0 0 0 109.70933257378795 -68.722702586378489 0 -68.722702586378489 3.0524907253329729 0 0 0 0 182.83944995107231 -8.0457726802424077 0 -8.0457726802424077 -2.1644270591641543 0 0 0 0 110.37501032546425 -27.129152689720286 0 -27.129152689720286 37.264501336215289 0 0 0 0 22.80448242265993 -68.365288340461518 0 -68.365288340461518 28.259469204639458 0 0 0 0 109.45655525183793 -73.264565732244819 0 -73.264565732244819 0.55781600470618287 0 0 0 0 -0.60187675960334719 1.999377207998684 0 1.999377207998684 -3.0974659906239079 0 0 0 0 0.54937946897473822 2.6723380127989529 0 2.6723380127989529 1.7194861099067893 0 0 0 0 162.7933751194887 6.3691893635703138 0 6.3691893635703138 -21.33745436660945 0 0 0 0 126.00678665627311 -16.509649779187384 0 -16.509649779187384 12.168032021483668 0 0 0 0 91.263826122308274 -65.799653997055088 0 -65.799653997055088 30.724939877616634 0 0 0 0 71.150248381148231 -69.211495027637341 0 -69.211495027637341 30.905890641013912 0 0 0 0 2.3972669479121294 1.6614870625534834 0 1.6614870625534834 1.4214192097606813 0 0 0 0 10.455286461579817 30.909719819916404 0 30.909719819916404 0.13096245254246242 0 0 0 0 -6.4782013243820984 59.942429321552481 0 59.942429321552481 -48.263096469867378 0 0 0 0 43.440008112207579 -21.264208508956017 0 -21.264208508956017 2.1864902243141842 0 0 0 0 2.8411288215367989 -4.6024303759180025 0 -4.6024303759180025 -1.4298470169970978 0 0 0 0 -21.793936242109339 -22.992768122948064 0 -22.992768122948064 -12.536780884509199 0 0 0 0 72.767736613899615 -46.317496972122399 0 -46.317496972122399 -11.412217065561435 0 0 0 0 -122.24023868132645 -104.62669068575599 0 -104.62669068575599 27.172957801857407 0 0 0 0 -42.195852538752661 169.04263118020475 0 169.04263118020475 50.676808239099273 0 0 0 0 5.701441534676789 0.13332923789823781 0 0.13332923789823781 -2.5607081457622285 0 0 0 0 53.557670401860378 -17.747732619774979 0 -17.747732619774979 -18.717276663843222 0 0 0 0 27.655137105410589 -2.7237017968752717 0 -2.7237017968752717 -3.2184587320855917 0 0 0 0 34.466947587434333 -14.996449697653006 0 -14.996449697653006 7.6300434543931024 0 0 0 0 4.5239466620429525 1.3524787098085369 0 1.3524787098085369 0.26939687569873794 0 0 0 0 84.053775073801262 1.0334055491446748 0 1.0334055491446748 -5.4828416594809823 0 0 0 0 32.192024661232608 -10.689847150138036 0 -10.689847150138036 13.127081770085852 0 0 0 0 11.130004373221254 -6.4635862814842469 0 -6.4635862814842469 5.591111937502566 0 0 0 0 13.985196628565689 -10.561631689733055 0 -10.561631689733055 5.4805660276762858 0 0 0 0 11.188241139514503 -5.1380199602697303 0 -5.1380199602697303 4.5532256691381008 0 0 0 0 0.7708024859221041 -9.8200003465356644 0 -9.8200003465356644 6.0792477357117605 0 0 0 0 -0.74483647549672582 -12.417080929925849 0 -12.417080929925849 12.853892714445415 0 0 0 0 54.358064042241949 -34.645977413378546 0 -34.645977413378546 11.366936165555671 0 0 0 0 57.69961114810144 -18.103954563632151 0 -18.103954563632151 -10.594942712825059 0 0 0 0 36.390404190293005 -18.974653508219014 0 -18.974653508219014 6.8548288021621433 0 0 0 0 6.5967308929838424 -4.4943104719076334 0 -4.4943104719076334 3.2861008236824838 0 0 0 0 38.365220225702117 -5.9590795005527166 0 -5.9590795005527166 -4.4850676163352343 0 0 0 0 50.324107541475314 -31.84628305263206 0 -31.84628305263206 7.5234914870454901 0 0 0 0 25.655072363439103 0.87904679287728271 0 0.87904679287728271 -1.2683439343084046 0 0 0 0 28.869699875116588 -7.1108110153683608 0 -7.1108110153683608 -7.1553788878861653 0 0 0 0 40.544297602805273 9.6374982186316629 0 9.6374982186316629 -28.37223867779251 0 0 0 0 61.715797137450863 -3.7295636923458915 0 -3.7295636923458915 11.921710293496744 0 0 0 0 71.359254298346059 -68.139795732473885 0 -68.139795732473885 30.03147558957653 0 0 0 0 28.455530694791378 -83.585134656485138 0 -83.585134656485138 99.34839772663986 0 0 0 0 107.30292131544047 15.536821189735747 0 15.536821189735747 -17.908081247840641 0 0 0 0 110.45105188828529 -77.301833034416632 0 -77.301833034416632 32.341603929568237 0 0 0 0 134.0528349138167 -108.71877722606951 0 -108.71877722606951 45.674227058281303 0 0 0 0 110.00422868326632 -74.674416072409485 0 -74.674416072409485 74.636765872404339 0 0 0 0 125.12934360598001 -142.83130763455358 0 -142.83130763455358 109.18350433094565 0 0 0 0 101.22966120640922 -89.752449938445807 0 -89.752449938445807 88.812160593022554 0 0 0 0 69.377818679919073 -111.62323569372052 0 -111.62323569372052 92.652102948297397 0 0 0 0 199.01255446838263 -168.2055189845376 0 -168.2055189845376 24.570861100355614 0 0 0 0 188.91185070517713 -173.46028170493173 0 -173.46028170493173 26.464951543917209 0 0 0 0 125.69368935281454 -94.165310110965947 0 -94.165310110965947 25.698471951529427 0 0 0 0 173.83385835575609 -129.60718259398936 0 -129.60718259398936 7.7130045447847806 0 0 0 0 357.79556275589994 -236.28350921043238 0 -236.28350921043238 22.88505945028237 0 0 0 0 247.41651030298408 -215.36275782640132 0 -215.36275782640132 77.964237969231363 0 0 0 0 219.57984473491342 -212.29062889522993 0 -212.29062889522993 43.140478241122764 0 0 0 0 186.09132860899626 -177.05282028328429 0 -177.05282028328429 57.784374040628222 0 0 0 0 245.38518041242423 -218.29868776560352 0 -218.29868776560352 80.292909175270324 0 0 0 0 120.01189481076062 -210.02554734179671 0 -210.02554734179671 198.73516114019958 0 0 0 0 249.27321921793555 -219.93321634917186 0 -219.93321634917186 80.322130023105444 0 0 0 0 400.3433612299059 -323.3963921587997 0 -323.3963921587997 134.96397718993876 0 0 0 0 248.9770478341751 -216.70033292408331 0 -216.70033292408331 78.35348466627147 0 0 0 0 146.09700686044926 -260.83392926225861 0 -260.83392926225861 300.50636670819358 0 0 0 0 510.9928923064208 -346.53245808889301 0 -346.53245808889301 139.79887315017032 0 0 0 0 110.56536880212934 -297.14257628882183 0 -297.14257628882183 302.33113294674467 0 0 0 0 166.0287658076777 -292.07829955073407 0 -292.07829955073407 264.31007914954625 0 0 0 0 230.46888109263955 -241.41654976836685 0 -241.41654976836685 281.11277694091655 0 0 0 0 31.360262128526301 -113.35337399598438 0 -113.35337399598438 151.21516158494626 0 0 0 0 45.120711269687945 -110.44397378522046 0 -110.44397378522046 148.48758907173078 0 0 0 0 -19.236794936281512 -12.336721078149822 0 -12.336721078149822 140.6675888741039 0 0 0 0 5.9578004472902428 0.093760239475301432 0 0.093760239475301432 -2.3892462251766649 0 0 0 0 27.127286817219176 -8.9667586783376088 0 -8.9667586783376088 -4.3341473999005027 0 0 0 0 23.165172965498186 26.076577816411827 0 26.076577816411827 -44.063366868757839 0 0 0 0 -30.551831400931405 108.25609408952141 0 108.25609408952141 308.10588154972538 0 0 0 0 21.140820403941234 -75.268589818701741 0 -75.268589818701741 23.445619230873717 0 0 0 0 49.763842653719621 -54.053762563766924 0 -54.053762563766924 14.153605751963823 0 0 0 0 -14.135518690295612 -36.630197168595714 0 -36.630197168595714 77.196848018413334 0 0 0 0 15.822008148560631 2.3647022993282025 0 2.3647022993282025 2.9575974319545457 0 0 0 0 -15.554762043346273 -11.084758107252014 0 -11.084758107252014 7.0782874925814525 0 0 0 0 -2.2045109734790458 -4.6405500869636853 0 -4.6405500869636853 5.6632656622872446 0 0 0 0 25.557445804811771 -5.7895625699947271 0 -5.7895625699947271 -1.8065210671548115 0 0 0 0 20.867774275303418 -59.899408755908894 0 -59.899408755908894 -28.217740034094504 0 0 0 0 23.469284442121335 -7.6544496788651486 0 -7.6544496788651486 -9.7493316933996539 0 0 0 0 18.54868259287246 -1.1043311250673948 0 -1.1043311250673948 -6.1235263690725477 0 0 0 0 27.004072994842318 -8.4456720640177991 0 -8.4456720640177991 -11.873755678222551 0 0 0 0 36.068875882575412 -5.984700661802691 0 -5.984700661802691 3.3331140607901943 0 0 0 0 33.495200324096686 3.2704211646632473 0 3.2704211646632473 8.2965646733127869 0 0 0 0 25.361597335790066 -14.550387205405514 0 -14.550387205405514 -0.87290482782304935 0 0 0 0 83.434126638323505 9.6197711089039331 0 9.6197711089039331 4.3167069564919984 0 0 0 0 26.325197115969786 11.332017461154464 0 11.332017461154464 27.999875362905641 0 0 0 0 78.458801867182046 -47.270513591252438 0 -47.270513591252438 3.6943579048468109 0 0 0 0 69.881297081588855 -44.92087174911353 0 -44.92087174911353 7.3737105910290559 0 0 0 0 65.022367795794707 -12.083410826897079 0 -12.083410826897079 -4.2592351518450755 0 0 0 0 64.146201398800258 -12.026434731161999 0 -12.026434731161999 -3.1658512468629851 0 0 0 0 78.795224300715745 -18.292642650545787 0 -18.292642650545787 -1.3747534847530005 0 0 0 0 106.80835615216711 -8.8806318747488149 0 -8.8806318747488149 -3.3829739920438442 0 0 0 0 85.546375177978916 -52.958254051766062 0 -52.958254051766062 5.2725722351842705 0 0 0 0 62.68461050282167 -72.989946374285864 0 -72.989946374285864 17.115183934894958 0 0 0 0 29.956987632215714 -7.7476030637262738 0 -7.7476030637262738 -10.781566517035571 0 0 0 0 14.567664938641325 1.3595026575795597 0 1.3595026575795597 -8.7648505287433682 0 0 0 0 61.921921846463192 -2.2045787391825797 0 -2.2045787391825797 47.017150560086975 0 0 0 0 114.75119879100748 -83.900644133107107 0 -83.900644133107107 -34.344091427612284 0 0 0 0 0.3315619946117998 0.3012934927057227 0 0.3012934927057227 -0.17457575610824527 0 0 0 0 -4.3237702241340976 -4.1642147128682385 0 -4.1642147128682385 3.8398589901910958 0 0 0 0 96.58356680835459 36.290379839437264 0 36.290379839437264 29.079309122916129 0 0 0 0 140.8239694384938 -50.783353767480094 0 -50.783353767480094 5.2832903389817147 0 0 0 0 158.53624279669384 -9.8972498511820959 0 -9.8972498511820959 -3.9103254886849754 0 0 0 0 11.706623091967685 -14.798159044740032 0 -14.798159044740032 -9.2571588217997487 0 0 0 0 13.118674063779808 -14.405947947891935 0 -14.405947947891935 1.3234230471341561 0 0 0 0 20.514786381336922 -3.5670623879098144 0 -3.5670623879098144 1.9952244286940011 0 0 0 0 -15.64511624327497 -10.94634373943336 0 -10.94634373943336 4.7973857792808303 0 0 0 0 4.9362834401753801 -3.1885088177109631 0 -3.1885088177109631 -1.9682721970582122 0 0 0 0 8.7691577917914909 -25.816548958256593 0 -25.816548958256593 -3.9156706945449553 0 0 0 0 27.563013847171533 -44.945796943831738 0 -44.945796943831738 0.67875833624202642 0 0 0 0 28.027013015248055 -28.550646811282277 0 -28.550646811282277 4.0657168757318827 0 0 0 0 35.272667273457046 -43.712315762730242 0 -43.712315762730242 4.5978435180072665 0 0 0 0 22.351291326551291 -46.347605599816234 0 -46.347605599816234 4.8264081576228719 0 0 0 0 27.668018634637065 -13.989761280809262 0 -13.989761280809262 -0.42041229965445837 0 0 0 0 31.666987329821495 -17.588450960418413 0 -17.588450960418413 2.0217362023413443 0 0 0 0 2.9950349515271677 -0.10444558345397548 0 -0.10444558345397548 -1.9991172937899624 0 0 0 0 22.166575106647542 -12.272468291826385 0 -12.272468291826385 -0.027836003725951741 0 0 0 0 39.566454424609375 -2.6810622222021028 0 -2.6810622222021028 -14.572129950302823 0 0 0 0 19.90561871895261 -14.596125379749381 0 -14.596125379749381 -6.1270908929864163 0 0 0 0 19.921105567362076 -14.843670525165372 0 -14.843670525165372 -3.0755490881979313 0 0 0 0 10.879762338912187 -15.170663996689832 0 -15.170663996689832 0.94844280490427879 0 0 0 0 9.6748669942863206 -17.528775828987069 0 -17.528775828987069 -6.9074127744573888 0 0 0 0 5.8161095657078477 -21.353330208561374 0 -21.353330208561374 -39.115693772388568 0 0 0 0 4.210568653712528 -1.7119674555725943 0 -1.7119674555725943 -3.3667638785264851 0 0 0 0 9.3852698359653406 -5.9134916156208153 0 -5.9134916156208153 -1.687014991980079 0 0 0 0 37.846806825908061 -28.143329584936964 0 -28.143329584936964 14.681047314637908 0 0 0 0 32.184791724099796 -82.370733932282064 0 -82.370733932282064 117.31414766318312 0 0 0 0 0.098840147758743058 -12.068805894833865 0 -12.068805894833865 0.74191127635229126 0 0 0 0 12.649160634284218 -6.8648096406859143 0 -6.8648096406859143 -0.69262653920149808 0 0 0 0 10.521702962583269 -15.28882072478925 0 -15.28882072478925 0.26724036638526005 0 0 0 0 168.45949207347439 -37.447475805596468 0 -37.447475805596468 -2.9050528251425476 0 0 0 0 0.5319664506233579 -0.1347029085618523 0 -0.1347029085618523 1.2697513918794305 0 0 0 0 80.939515601545281 -97.195448107583843 0 -97.195448107583843 81.231938699683724 0 0 0 0 145.93113901589413 -98.123885139884052 0 -98.123885139884052 49.339150038577827 0 0 0 0 141.87488324789047 -98.49065103161422 0 -98.49065103161422 -2.3593633236981759 0 0 0 0 80.585570082935959 8.4569496039330474 0 8.4569496039330474 -127.88939877679445 0 0 0 0 38.672647891439738 132.41615402341114 0 132.41615402341114 -138.72970456661005 0 0 0 0 105.70223246937712 36.36132226954183 0 36.36132226954183 -0.72080914209914226 0 0 0 0 9.2809445028904278 6.1587632131743879 0 6.1587632131743879 3.2863311381913927 0 0 0 0 127.97233511007835 -69.542449888028273 0 -69.542449888028273 -44.510302873714409 0 0 0 0 61.917458172090392 2.4587121776218623 0 2.4587121776218623 -90.818367408134691 0 0 0 0 -15.447504162351834 59.11482468390318 0 59.11482468390318 10.965892781708476 0 0 0 0 2.1145549792317979 -13.300613161780689 0 -13.300613161780689 49.24840882047738 0 0 0 0 126.65307878397471 254.09306956908142 0 254.09306956908142 47.226295377146926 0 0 0 0 -21.04617360260454 56.759643913016703 0 56.759643913016703 -70.475055573630101 0 0 0 0 -179.39630048857543 196.76712366864615 0 196.76712366864615 -178.93835661619505 0 0 0 0 -0.76115870137498121 -1.6090505200868535 0 -1.6090505200868535 1.2416158037354237 0 0 0 0 -0.11238702958890201 0.59178160362368537 0 0.59178160362368537 1.4141269722155354 0 0 0 0 424.94711259382393 34.095561327889804 0 34.095561327889804 54.693799012805982 0 0 0 0 49.35724971079253 -58.961191622138386 0 -58.961191622138386 98.639475950163799 0 0 0 0 109.29706530429758 -17.633099131171345 0 -17.633099131171345 17.913722700731714 0 0 0 0 2.368082486357153 0.48107887074253952 0 0.48107887074253952 2.7615556295083419 0 0 0 0 40.666013225902134 3.7019032578933206 0 3.7019032578933206 -21.749344365119185 0 0 0 0 88.906405317098688 -69.883946970017945 0 -69.883946970017945 49.846601335493247 0 0 0 0 62.502422301635306 -61.186740597201691 0 -61.186740597201691 17.948763039153903 0 0 0 0 37.743598340930475 98.94791135922793 0 98.94791135922793 -148.4668126865526 0 0 0 0 11.90113548556176 -1.566424001608306 0 -1.566424001608306 -2.706261162534036 0 0 0 0 0.84824275028213947 -5.5924478766882864 0 -5.5924478766882864 1.3306071187834441 0 0 0 0 22.869008554398533 -22.838097122109879 0 -22.838097122109879 6.6459581643013976 0 0 0 0 10.21821978648768 -8.7563851927262704 0 -8.7563851927262704 2.7436825414715713 0 0 0 0 144.00403075660233 -81.413864235580206 0 -81.413864235580206 -215.56987058065283 0 0 0 0 35.731598364884242 -8.0867097480668306 0 -8.0867097480668306 -2.6097928661462633 0 0 0 0 56.998990206821418 -52.133708520622292 0 -52.133708520622292 -37.943799225114269 0 0 0 0 3.5728453588162665 72.873897603533237 0 72.873897603533237 -101.31633576219258 0 0 0 0 81.17019711811372 29.42098453913718 0 29.42098453913718 -100.93902908811879 0 0 0 0 80.408962548463933 122.71640214878532 0 122.71640214878532 69.941593695077813 0 0 0 0 -3.992555185839592 48.082975515263342 0 48.082975515263342 -136.39393990395507 0 0 0 0 59.87609407661148 95.510477915567094 0 95.510477915567094 -101.67047834676123 0 0 0 0 -1.123268290040869 -54.133401478746237 0 -54.133401478746237 27.366981967283209 0 0 0 0 42.703460579494276 14.085764142012181 0 14.085764142012181 -162.68863618848835 0 0 0 0 61.095902350542019 -12.139553225508735 0 -12.139553225508735 55.39722476723307 0 0 0 0 94.135382214897618 -51.376455078645222 0 -51.376455078645222 93.142331144540549 0 0 0 0 224.30523815436118 -64.170988591742571 0 -64.170988591742571 34.096509251882935 0 0 0 0 106.27998991099048 -120.95079394728259 0 -120.95079394728259 139.80852786176621 0 0 0 0 149.12109794538947 3.3284613123831406 0 3.3284613123831406 -16.414951685128472 0 0 0 0 192.7688669523759 49.372219721225747 0 49.372219721225747 16.237603084573266 0 0 0 0 150.87043994267037 -12.066785223221103 0 -12.066785223221103 119.04356590724137 0 0 0 0 186.53757634777867 99.476614520238172 0 99.476614520238172 186.15239528164 0 0 0 0 228.45286953022696 32.873104953818256 0 32.873104953818256 111.6557145962164 0 0 0 0 63.080226912004946 83.183906122023075 0 83.183906122023075 148.3175303171688 0 0 0 0 495.79115239859607 225.86083408765003 0 225.86083408765003 -82.830535201936982 0 0 0 0 488.54495745893473 117.26321853788795 0 117.26321853788795 11.561295453002003 0 0 0 0 283.48961290575517 148.2066906857022 0 148.2066906857022 71.878980665784638 0 0 0 0 502.40920920104145 -43.391216754927314 0 -43.391216754927314 186.72103114618176 0 0 0 0 329.08510963902563 75.749297472466765 0 75.749297472466765 35.497542293889637 0 0 0 0 469.12270131105834 250.40372836026768 0 250.40372836026768 242.8859039164181 0 0 0 0 291.41420673427729 165.32442175433999 0 165.32442175433999 36.290677142098048 0 0 0 0 178.93148656877565 117.81513842686422 0 117.81513842686422 24.266907271102014 0 0 0 0 368.45426240565575 -98.244112496318166 0 -98.244112496318166 -99.180068051803573 0 0 0 0 284.40188100315754 169.78070730210823 0 169.78070730210823 -80.928394167922534 0 0 0 0 -96.138776624901311 230.60970709379552 0 230.60970709379552 -89.910604362254617 0 0 0 0 220.51348633151611 -81.16998521164021 0 -81.16998521164021 -142.36868669327851 0 0 0 0 145.46358714697635 77.783351690962718 0 77.783351690962718 -223.33266475847847 0 0 0 0 581.78131850696082 0.45238142949870053 0 0.45238142949870053 -21.63799159390237 0 0 0 0 279.59276007294466 159.57528129889329 0 159.57528129889329 134.50242720669212 0 0 0 0 409.34619657184703 -275.41273328552802 0 -275.41273328552802 65.140523443781376 0 0 0 0 3.8500551113114057 1.2338367151387333 0 1.2338367151387333 0.18961477425240059 0 0 0 0 162.00817299879782 10.43762412052547 0 10.43762412052547 142.54097532991318 0 0 0 0 268.83538171037799 -27.759900661814413 0 -27.759900661814413 -8.1786601993280783 0 0 0 0 300.95830939301413 132.16488903951904 0 132.16488903951904 -26.338435564058273 0 0 0 0 127.31896294329454 40.051578505230736 0 40.051578505230736 24.704750279043083 0 0 0 0 327.53166249529659 85.29035015674981 0 85.29035015674981 -13.92435992175615 0 0 0 0 178.01315897861241 43.55247980043373 0 43.55247980043373 15.795956402657794 0 0 0 0 68.080846775308601 34.788581346176215 0 34.788581346176215 21.624549993621258 0 0 0 0 187.47309521903207 8.0855065410423208 0 8.0855065410423208 -13.805013559271174 0 0 0 0 14.107720113728647 -50.617195434878113 0 -50.617195434878113 22.262898669342576 0 0 0 0 1.6826872120236906 -3.5753844676452537 0 -3.5753844676452537 8.8188338972098581 0 0 0 0 -59.707159477045934 -38.418770694727542 0 -38.418770694727542 37.006346867664277 0 0 0 0 24.47609710326833 38.991136076125699 0 38.991136076125699 -5.4100149457472639 0 0 0 0 11.085762039615474 23.085011774335641 0 23.085011774335641 16.659470413112103 0 0 0 0 124.86773785217156 -15.561582274465536 0 -15.561582274465536 -50.556323352614527 0 0 0 0 -5.9299783122587542 27.790480782201939 0 27.790480782201939 23.724491702742398 0 0 0 0 157.05644368265371 -24.083909557652106 0 -24.083909557652106 -7.5678534751241386 0 0 0 0 96.599853347917815 62.426191190110785 0 62.426191190110785 103.57247948755139 0 0 0 0 60.394956967724283 -20.233526239232788 0 -20.233526239232788 -44.720931816959819 0 0 0 0 0.86795771835224755 -5.7983407365209345 0 -5.7983407365209345 14.640000629887261 0 0 0 0 69.004534645966487 -12.265513600330451 0 -12.265513600330451 -113.30640992294684 0 0 0 0 -76.392210877012985 -85.861038115461156 0 -85.861038115461156 21.693515171795752 0 0 0 0 92.999519548997341 11.618961525465238 0 11.618961525465238 -53.260726410656389 0 0 0 0 -225.54326409343412 16.195060332192725 0 16.195060332192725 85.697520116038504 0 0 0 0 59.830026346958221 87.17426552498705 0 87.17426552498705 71.503367110552063 0 0 0 0 -58.028174169179692 108.98871378540298 0 108.98871378540298 -97.919160789490547 0 0 0 0 -147.95988810884228 -38.009771752645747 0 -38.009771752645747 93.441808649528866 0 0 0 0 117.61447308488277 90.758202446422274 0 90.758202446422274 49.950628738484738 0 0 0 0 117.3739969042399 87.674336758964728 0 87.674336758964728 101.1682977624323 0 0 0 0 207.41421738931058 40.599978528729253 0 40.599978528729253 29.670839292053643 0 0 0 0 13.334661648685904 -8.5929710306550682 0 -8.5929710306550682 3.1104713607211565 0 0 0 0 13.450258911878322 -18.807644847021315 0 -18.807644847021315 21.768331852639868 0 0 0 0 34.551968102330648 2.4426571333214042 0 2.4426571333214042 27.128012072574734 0 0 0 0 8.7641961739724863 -3.4864115102133368 0 -3.4864115102133368 20.003780489576947 0 0 0 0 -154.69334105905 -195.68213687270872 0 -195.68213687270872 146.56676047494693 0 0 0 0 59.17238238225741 -40.380402449584835 0 -40.380402449584835 26.671168950770607 0 0 0 0 5.9024681008269555 -17.325511142065423 0 -17.325511142065423 15.566811562293434 0 0 0 0 -3.8119211866651312 -16.758597020832497 0 -16.758597020832497 22.716387016911852 0 0 0 0 15.497185820141112 -20.567409858812425 0 -20.567409858812425 31.799857983558695 0 0 0 0 58.910813130460667 -45.594759687439932 0 -45.594759687439932 36.985585648594679 0 0 0 0 43.640901035393767 -20.215010668666309 0 -20.215010668666309 15.080709522954294 0 0 0 0 32.075152325078022 -21.47329641002375 0 -21.47329641002375 39.543762542976765 0 0 0 0 34.618728844735983 -20.430773211962276 0 -20.430773211962276 20.894664713207476 0 0 0 0 26.936177309576124 -1.7990132330829169 0 -1.7990132330829169 7.4021647733936788 0 0 0 0 22.356984209393431 1.517833840827052 0 1.517833840827052 25.269805005434819 0 0 0 0 6.5176081461771416 -16.267977718846829 0 -16.267977718846829 8.2092385132181569 0 0 0 0 21.692462165585653 -3.8559182379117374 0 -3.8559182379117374 6.7806689962958444 0 0 0 0 31.038468210182373 1.4754697146241824 0 1.4754697146241824 7.0117941533642352 0 0 0 0 25.811523796238816 -12.012718990199971 0 -12.012718990199971 -13.220792614868969 0 0 0 0 38.406459878874557 4.129405030737189 0 4.129405030737189 -19.26120453169176 0 0 0 0 29.274722428053622 -11.512710283715052 0 -11.512710283715052 -22.725341683225906 0 0 0 0 22.326089591316645 -21.557465577588658 0 -21.557465577588658 -30.444301990807844 0 0 0 0 8.1767661926473121 -12.759984668805917 0 -12.759984668805917 9.380214490789589 0 0 0 0 0.67548986069800776 -44.516864320255991 0 -44.516864320255991 -28.433235326933755 0 0 0 0 19.257854490953832 -35.456993759538136 0 -35.456993759538136 -38.532540221195632 0 0 0 0 13.845647581448304 -27.536402312455039 0 -27.536402312455039 -20.537704388349908 0 0 0 0 17.184444835658724 -27.850099290079697 0 -27.850099290079697 -25.222125336371391 0 0 0 0 0.81235840182694119 -33.183722382456949 0 -33.183722382456949 -18.85884761970965 0 0 0 0 0.67461221530811599 -36.510652604862116 0 -36.510652604862116 -21.499980564966336 0 0 0 0 9.3172656053943683 -41.542633842186262 0 -41.542633842186262 -31.458642427786344 0 0 0 0 11.57567648227996 -20.78927784530697 0 -20.78927784530697 -0.92725716051268137 0 0 0 0 9.7327461339937145 -28.805773752144432 0 -28.805773752144432 -14.073913506943882 0 0 0 0 10.103600515479229 -24.760982841613668 0 -24.760982841613668 -26.243659545821174 0 0 0 0 23.698216651999701 -19.814733186836236 0 -19.814733186836236 -16.684151986876827 0 0 0 0 13.563624225591525 -19.918587011325712 0 -19.918587011325712 -5.7989339810211504 0 0 0 0 27.448565276287809 -0.79649399872764093 0 -0.79649399872764093 4.4909191589185866 0 0 0 0 30.545805214594566 -10.6301144629021 0 -10.6301144629021 13.313968475780712 0 0 0 0 28.263300779020824 -2.681438259389509 0 -2.681438259389509 -8.0472778974885841 0 0 0 0 -107.21168359171315 -39.159693573807601 0 -39.159693573807601 49.152242575035814 0 0 0 0 48.06217842157821 -0.97976399845026663 0 -0.97976399845026663 -12.0810956351188 0 0 0 0 5.2795610378423552 -14.725035033210593 0 -14.725035033210593 0.32244012667883726 0 0 0 0 29.884849713977928 57.39071012792958 0 57.39071012792958 69.070582533922106 0 0 0 0 4.5716982172198186 -31.750251515890966 0 -31.750251515890966 -73.66296633212346 0 0 0 0 0.85766045438283811 -1.4161266198370654 0 -1.4161266198370654 2.7115204486117643 0 0 0 0 32.065593317454045 -16.350027239002884 0 -16.350027239002884 -25.314912653037027 0 0 0 0 11.234012450883711 -27.624998483160198 0 -27.624998483160198 -9.4476379030365933 0 0 0 0 13.754008633923611 -13.67589910698832 0 -13.67589910698832 -9.2198298299929284 0 0 0 0 -86.492707786635947 -105.0663990231705 0 -105.0663990231705 124.46829743336218 0 0 0 0 12.772688052820477 -14.591403662206242 0 -14.591403662206242 6.8059825383249368 0 0 0 0 273.1500881212387 -220.67869371847684 0 -220.67869371847684 49.804123917444372 0 0 0 0 -25.868939657113515 -56.241889461434937 0 -56.241889461434937 -38.530253798895785 0 0 0 0 78.991120033373306 -17.750248692168469 0 -17.750248692168469 -14.862869673237327 0 0 0 0 7.2607692426681751 -69.44115136968216 0 -69.44115136968216 -145.81667803230823 0 0 0 0 39.188592133395858 -13.843741120986016 0 -13.843741120986016 -1.5250175531376329 0 0 0 0 56.34200328182952 3.7869884860966891 0 3.7869884860966891 -32.442281617948481 0 0 0 0 11.504674766601511 -30.822719063161287 0 -30.822719063161287 -2.0575948012029244 0 0 0 0 34.523729496375381 -109.5954274995097 0 -109.5954274995097 -16.471486143177287 0 0 0 0 2.5411793031071284 -10.442315037639325 0 -10.442315037639325 -6.040682384726594 0 0 0 0 8.0712342711863734 -0.22578183856813125 0 -0.22578183856813125 -0.88249691319518719 0 0 0 0 -58.017773798257053 -50.842882192828938 0 -50.842882192828938 -5.1402167176790954 0 0 0 0 44.825846854934753 -27.014173377690284 0 -27.014173377690284 -26.21462751463303 0 0 0 0 43.995122299356126 -31.564170507159616 0 -31.564170507159616 -15.957395015980637 0 0 0 0 32.913557762108212 -34.568304482346676 0 -34.568304482346676 -9.6693785573937419 0 0 0 0 35.601254966249144 -25.370291562544594 0 -25.370291562544594 -17.841472912634117 0 0 0 0 8.67063006650306 -12.653815158731284 0 -12.653815158731284 0.69154858798086916 0 0 0 0 17.83791366427522 -24.3872431680104 0 -24.3872431680104 -3.0859323769420826 0 0 0 0 -25.535635449846268 -30.763044024073707 0 -30.763044024073707 25.071598902757501 0 0 0 0 25.474017180144074 -8.9606213140931601 0 -8.9606213140931601 -0.98477544703109743 0 0 0 0 -15.045811533686901 -13.549601477821739 0 -13.549601477821739 7.9130835097013232 0 0 0 0 12.859567533886548 -18.934165224905541 0 -18.934165224905541 -26.935234847479478 0 0 0 0 -11.583468989836547 -33.873085056595301 0 -33.873085056595301 -20.985607562790392 0 0 0 0 -11.583468989830635 -33.873085056595755 0 -33.873085056595755 -20.98560756281222 0 0 0 0 -11.583468989832681 -33.873085056598484 0 -33.873085056598484 -20.985607562814039 0 0 0 0 0.47462894618411156 -23.69022700272285 0 -23.69022700272285 -34.915983896871694 0 0 0 0 12.55826077738487 -11.402432601477202 0 -11.402432601477202 8.5185530158795189 0 0 0 0 15.049638295050499 -36.049973723163248 0 -36.049973723163248 -34.631228577348338 0 0 0 0 47.367927880643947 42.095989942347728 0 42.095989942347728 -45.613948789047527 0 0 0 0 14.218731977346579 -35.319313945788963 0 -35.319313945788963 -35.256185164890411 0 0 0 0 9.2984474877976027 -34.715840150752229 0 -34.715840150752229 -22.527296888705678 0 0 0 0 10.50383915817747 -37.152720767811388 0 -37.152720767811388 -23.086778682634645 0 0 0 0 21.491108614472978 -24.025493542699678 0 -24.025493542699678 -19.933549994572786 0 0 0 0 -2.6356058865012528 -46.289331191326028 0 -46.289331191326028 -8.8528461568436967 0 0 0 0 1.9095529604883748 -0.17160348785219659 0 -0.17160348785219659 -1.1035101489281454 0 0 0 0 61.295532281032138 -9.0664446980065634 0 -9.0664446980065634 -22.229817974755036 0 0 0 0 66.563847644340058 -34.178948874717491 0 -34.178948874717491 -21.71297106173148 0 0 0 0 124.94297119740077 -30.808874051050019 0 -30.808874051050019 -19.694125015721546 0 0 0 0 15.735659655651368 -11.837256321010134 0 -11.837256321010134 -4.4389488942021664 0 0 0 0 9.3467318204329786 -45.640783490399997 0 -45.640783490399997 9.7254516652511711 0 0 0 0 15.268520717538195 -41.600269457727165 0 -41.600269457727165 33.122462395547927 0 0 0 0 9.4714495436255675 -17.546380469086671 0 -17.546380469086671 -26.936863086630694 0 0 0 0 68.64960261030501 -74.287178727050986 0 -74.287178727050986 51.874972361141545 0 0 0 0 206.12379167143081 -59.475920801225783 0 -59.475920801225783 -23.618522515539098 0 0 0 0 234.19269699952201 25.199752033366906 0 25.199752033366906 -43.209274245225402 0 0 0 0 32.201095795655419 220.82893224161876 0 220.82893224161876 46.915511040905841 0 0 0 0 15.800827396567648 -6.99785852365493 0 -6.99785852365493 3.585226720216971 0 0 0 0 30.313798797580603 -20.561408879384402 0 -20.561408879384402 -19.313295288756535 0 0 0 0 -56.905610352944677 -26.741489544376961 0 -26.741489544376961 1.3565467440417365 0 0 0 0 -227.49871876459474 -55.230543778874079 0 -55.230543778874079 8.1416610646929257 0 0 0 0 6.6822838231887971 2.0274150559126944 0 2.0274150559126944 -0.080953491409856415 0 0 0 0 -16.428541241228231 31.561054250007942 0 31.561054250007942 43.815203795855837 0 0 0 0 9.4153712740308038 5.2389218544805516 0 5.2389218544805516 11.444124406300375 0 0 0 0 -0.7199407517673535 22.837865865532471 0 22.837865865532471 -2.7264000452094592 0 0 0 0 39.227535864141828 18.300242263453356 0 18.300242263453356 -2.5472223371761231 0 0 0 0 68.29677755060402 64.071143228167941 0 64.071143228167941 -45.07645048274636 0 0 0 0 49.402848460180394 51.273625056669339 0 51.273625056669339 13.323340612984651 0 0 0 0 58.937091519637761 6.4132344293943504 0 6.4132344293943504 -13.165919714031588 0 0 0 0 35.174728128338757 0.49599086936444792 0 0.49599086936444792 -11.354231206955092 0 0 0 0 14.851169496388138 2.1119754578829273 0 2.1119754578829273 -1.5686270720453876 0 0 0 0 18.322093018023224 12.396159522410869 0 12.396159522410869 -0.047167418230628755 0 0 0 0 17.022970273287182 0.45956186415390654 0 0.45956186415390654 -4.0797233892405398 0 0 0 0 174.60418905176994 -195.70047748043243 0 -195.70047748043243 124.89372883712872 0 0 0 0 183.64342909994048 19.470035764534146 0 19.470035764534146 -1.8090288692592367 0 0 0 0 38.176270244452098 -4.0707144100889536 0 -4.0707144100889536 -8.4610289601486102 0 0 0 0 25.64705437128309 1.6960899407503618 0 1.6960899407503618 -2.6085512455860171 0 0 0 0 -67.116458721454819 -87.009580119978978 0 -87.009580119978978 -53.883017576431598 0 0 0 0 37.436670741949911 -6.9172267945452148 0 -6.9172267945452148 -6.3090078107345562 0 0 0 0 5.7997321462997302 -5.2397351294988761 0 -5.2397351294988761 -3.5588751771748734 0 0 0 0 1.852592523833664 -100.12430606597712 0 -100.12430606597712 -149.24914434394864 0 0 0 0 48.995157881499836 -14.079104288722192 0 -14.079104288722192 -186.24302771171415 0 0 0 0 1.4545115641695823 -59.005772787396488 0 -59.005772787396488 -72.956283234321972 0 0 0 0 27.834304391136136 -11.589282282775775 0 -11.589282282775775 3.1314177983524516 0 0 0 0 53.430080044439364 -10.635678469288976 0 -10.635678469288976 -21.931171572139021 0 0 0 0 35.776121213626084 -25.040581362989258 0 -25.040581362989258 -19.227782105661163 0 0 0 0 38.946931979822693 -12.104683487748503 0 -12.104683487748503 -10.610599366260516 0 0 0 0 22.28647245427419 -24.407884164810639 0 -24.407884164810639 -16.603097613676994 0 0 0 0 15.495366707282756 -59.590348919118696 0 -59.590348919118696 -64.965643763529158 0 0 0 0 26.65448065837581 -17.30224911575397 0 -17.30224911575397 4.3325562235103678 0 0 0 0 12.499760042624985 -63.298835339836842 0 -63.298835339836842 -60.611356029524359 0 0 0 0 3.3313159550789351 -39.482525095936126 0 -39.482525095936126 -30.702251417786783 0 0 0 0 21.569893705266168 -45.356710836903403 0 -45.356710836903403 -39.605896353985514 0 0 0 0 -23.868787714410814 -64.170457151486971 0 -64.170457151486971 -44.953571871599706 0 0 0 0 8.0784472424609124 -3.187268226706963 0 -3.187268226706963 -3.6633180214548053 0 0 0 0 30.528976730658997 -24.531705000926877 0 -24.531705000926877 -37.618980081017277 0 0 0 0 10.669878410212277 -38.620885429586224 0 -38.620885429586224 -36.897630571332115 0 0 0 0 19.310176229141462 -35.787607850797315 0 -35.787607850797315 -45.279389066609838 0 0 0 0 29.126105019638999 -39.773866780738445 0 -39.773866780738445 -62.318268122818651 0 0 0 0 60.474685204108027 -1.9879010293011561 0 -1.9879010293011561 -96.788399189830784 0 0 0 0 41.500575359761115 -12.292757456694517 0 -12.292757456694517 -52.232606790003047 0 0 0 0 34.724458937962936 -1.5316142787398803 0 -1.5316142787398803 -17.573723700104438 0 0 0 0 45.352708464384705 10.561075858930963 0 10.561075858930963 -18.804316234544785 0 0 0 0 22.283551665532286 8.6652700020217708 0 8.6652700020217708 65.40366665532747 0 0 0 0 13.652348865258318 39.306615489039018 0 39.306615489039018 -115.28130314015289 0 0 0 0 -70.764912980653207 -53.838936761068453 0 -53.838936761068453 17.508769648658927 0 0 0 0 1.4919035509665264 28.187881412029583 0 28.187881412029583 -22.179014876262954 0 0 0 0 37.093152823103992 -29.670189488539108 0 -29.670189488539108 -87.7592266098236 0 0 0 0 107.86471024863476 15.649793980107461 0 15.649793980107461 -24.128013962212435 0 0 0 0 30.843827620420598 39.839544086646356 0 39.839544086646356 113.152192046241 0 0 0 0 58.697892861328683 -113.8987839666753 0 -113.8987839666753 43.50150053447851 0 0 0 0 155.67541466181456 83.348797726287557 0 83.348797726287557 -158.29154353614558 0 0 0 0 2.5066910204825001 0.86705588147989321 0 0.86705588147989321 -1.3732038447694741 0 0 0 0 140.10369948898051 -71.1397497882312 0 -71.1397497882312 38.688320569885946 0 0 0 0 48.079604452134163 -31.407310378429884 0 -31.407310378429884 43.531293302456106 0 0 0 0 48.602700744562981 -68.328178972881233 0 -68.328178972881233 127.03002820282353 0 0 0 0 24.107994704916564 -84.356631836758424 0 -84.356631836758424 2.1888743587692261 0 0 0 0 0.17501104372382459 1.5056931348809011 0 1.5056931348809011 -0.39738916837139016 0 0 0 0 -93.709244140788996 256.15604337876175 0 256.15604337876175 48.048110417144926 0 0 0 0 520.95021394156379 -212.02758065109822 0 -212.02758065109822 -71.332251319747229 0 0 0 0 401.19024378570032 120.83177239547263 0 120.83177239547263 -0.6884768954860192 0 0 0 0 33.415524189800408 -21.511547930296729 0 -21.511547930296729 456.5175167530515 0 0 0 0 31.150733927111219 -96.843706564201511 0 -96.843706564201511 -1.3194071553864433 0 0 0 0 7.8203935609165249 -0.50792834734445869 0 -0.50792834734445869 -0.51334059836375623 0 0 0 0 256.54175490285797 -350.40636815200696 0 -350.40636815200696 386.83261311529691 0 0 0 0 118.73672742019153 -135.45347714902232 0 -135.45347714902232 52.715007552491443 0 0 0 0 237.67722417884124 -174.71543169125334 0 -174.71543169125334 39.176479223474416 0 0 0 0 193.01287537546978 -219.58961554018202 0 -219.58961554018202 40.8690512529638 0 0 0 0 123.53870272829863 -75.448621351859629 0 -75.448621351859629 66.212449796521014 0 0 0 0 1.3888959853798042 -157.93854706012786 0 -157.93854706012786 37.552620168030899 0 0 0 0 2.196144724183057 0.66006354089161867 0 0.66006354089161867 1.9884417049772356 0 0 0 0 -27.234834570056591 -34.174985012312391 0 -34.174985012312391 -231.86811332097068 0 0 0 0 158.5755522996169 -223.6107182443036 0 -223.6107182443036 82.835863236850443 0 0 0 0 223.36522576228163 -217.56955069650263 0 -217.56955069650263 12.123067432331709 0 0 0 0 346.57464602175969 -214.95013265990417 0 -214.95013265990417 -60.321697320704232 0 0 0 0 135.36678159175062 -46.687538669077526 0 -46.687538669077526 -96.820030203604347 0 0 0 0 171.88545382793563 -140.95974487150397 0 -140.95974487150397 87.117930197571013 0 0 0 0 215.68611744209647 -132.97701464815464 0 -132.97701464815464 -25.986801186803859 0 0 0 0 53.273363216301732 -40.569827520571835 0 -40.569827520571835 12.22807096280485 0 0 0 0 150.71244936150379 -103.701206015259 0 -103.701206015259 41.267466301615059 0 0 0 0 87.088566520301356 18.248337067509965 0 18.248337067509965 -63.138618385992231 0 0 0 0 29.100956743728602 3.2507178979794844 0 3.2507178979794844 -47.04507138844474 0 0 0 0 16.770377494065997 18.369554681468799 0 18.369554681468799 -36.69592605676371 0 0 0 0 26.628972508646257 11.455486464367823 0 11.455486464367823 -87.916353212323429 0 0 0 0 20.747607648562557 0.90773865171588497 0 0.90773865171588497 0.14185475119156266 0 0 0 0 4372.8291770617379 -640.90123594776389 0 -640.90123594776389 116.07142599145814 0 0 0 0 3500.2440755982425 -908.89050724200104 0 -908.89050724200104 34.355504800412788 0 0 0 0 67.197322342280131 66.802999143249053 0 66.802999143249053 43.412523866829531 0 0 0 0 11.145971799202142 2.2829264891068664 0 2.2829264891068664 -5.0483197186381235 0 0 0 0 30.218780919090023 18.360796839502655 0 18.360796839502655 -56.581837616543908 0 0 0 0 21.755678700780937 0.62899380111195313 0 0.62899380111195313 -31.248455886158425 0 0 0 0 55.787315979090636 13.494027697150614 0 13.494027697150614 -44.149355697577448 0 0 0 0 29.854997701817652 6.528299172513309 0 6.528299172513309 -5.5702187006567021 0 0 0 0 27.944977686078346 20.236784898505448 0 20.236784898505448 -45.398402274774526 0 0 0 0 3499.9665456714652 217.00994387190136 0 217.00994387190136 548.51702370288876 0 0 0 0 0.49111858840026912 7.5545668073278645 0 7.5545668073278645 -6.8739900107303429 0 0 0 0 4146.434106322853 -394.23517489166039 0 -394.23517489166039 -224.95260214357617 0 0 0 0 4126.1396145652834 -580.07882760777693 0 -580.07882760777693 277.0244079137496 0 0 0 0 3317.8940885823536 -170.14700053580444 0 -170.14700053580444 -14.258572181843135 0 0 0 0 9.8187289871784369 16.07786380522089 0 16.07786380522089 -18.452179804246732 0 0 0 0 2587.0867320482043 880.87670698408897 0 880.87670698408897 262.06575154945637 0 0 0 0 -38.25161043339358 82.417582375309166 0 82.417582375309166 -65.558121592858242 0 0 0 0 59.868514361121925 36.040647573830938 0 36.040647573830938 -70.459205211232984 0 0 0 0 103.18051120534165 86.275037748833427 0 86.275037748833427 -220.72333215909475 0 0 0 0 146.51171204939601 -33.269280655783177 0 -33.269280655783177 -80.68117012783307 0 0 0 0 107.7657103806705 -56.52693329124611 0 -56.52693329124611 -204.8312160513637 0 0 0 0 172.57603782875776 14.685886735287795 0 14.685886735287795 -209.71859925259469 0 0 0 0 3501.4120038203037 -151.55931581753086 0 -151.55931581753086 -138.9819206080245 0 0 0 0 3.8123184822832155 7.0630713702288617 0 7.0630713702288617 -5.3095567076323329 0 0 0 0 4504.2596393167569 602.48399818616713 0 602.48399818616713 -43.030111930992746 0 0 0 0 -679.31278182828373 459.9523612694959 0 459.9523612694959 154.40765692068862 0 0 0 0 2579.0298593143762 353.63007057881674 0 353.63007057881674 763.42328794655975 0 0 0 0 3498.7134506670482 1028.0777935786327 0 1028.0777935786327 18.866805293748254 0 0 0 0 66.605189348329077 -456.32365419705093 0 -456.32365419705093 1110.2334603850668 0 0 0 0 9.2918178202219295 -6.3117746421691727 0 -6.3117746421691727 2.2070024552861112 0 0 0 0 2354.5018403171853 976.38175263641108 0 976.38175263641108 -224.50332976488343 0 0 0 0 1630.7750987805862 -849.18800447905608 0 -849.18800447905608 339.05690289025301 0 0 0 0 411.69319440623622 -318.52929667298758 0 -318.52929667298758 111.27370192877737 0 0 0 0 372.97567424147564 946.33663965571748 0 946.33663965571748 -167.55463362238089 0 0 0 0 800.95224796020875 -284.6649914924717 0 -284.6649914924717 -131.81332648124567 0 0 0 0 424.65966404038772 -381.23281033914577 0 -381.23281033914577 107.49736922071085 0 0 0 0 102.8047451464663 -128.39441865232391 0 -128.39441865232391 62.463165964831887 0 0 0 0 204.73391060039717 -278.16231034525089 0 -278.16231034525089 147.29325120581871 0 0 0 0 41.395627924524888 -189.61228589010625 0 -189.61228589010625 200.28093445912685 0 0 0 0 11.750237973982969 -6.1792774039442122 0 -6.1792774039442122 -4.2543850961192478 0 0 0 0 108.25280061810008 -321.43516143712725 0 -321.43516143712725 440.81796162224299 0 0 0 0 148.12894312902972 -17.544693551686578 0 -17.544693551686578 200.52408497553779 0 0 0 0 418.19595623118948 -329.47828300498554 0 -329.47828300498554 94.029489506729419 0 0 0 0 15.508288562440391 -6.5233541048877406 0 -6.5233541048877406 0.46532862225531096 0 0 0 0 -19.922663598563304 589.38119059353971 0 589.38119059353971 5.7638303590445048 0 0 0 0 5.0411632930899941 -14.029849703193847 0 -14.029849703193847 -3.6984009012252557 0 0 0 0 3.6861180428495572 -0.12297459776927155 0 -0.12297459776927155 6.4553375569124398 0 0 0 0 2.9299661181612464 185.16135530833395 0 185.16135530833395 19.817046493468297 0 0 0 0 -60.729142911448434 -13.057029320096206 0 -13.057029320096206 68.576541631806421 0 0 0 0 433.36124197064419 -239.37604872900505 0 -239.37604872900505 319.58721379794929 0 0 0 0 1199.7039044593002 -312.14395359475031 0 -312.14395359475031 -118.89641671650088 0 0 0 0 949.04102640462588 147.89950165565017 0 147.89950165565017 -37.580083407085681 0 0 0 0 2511.2980400431043 53.445587388776829 0 53.445587388776829 -343.26079267438593 0 0 0 0 2172.8875396792373 -584.24223618856365 0 -584.24223618856365 -459.98660512480842 0 0 0 0 2693.058902667166 -562.6763151271241 0 -562.6763151271241 -481.80828180665389 0 0 0 0 3500.8926158255981 -50.701770065209757 0 -50.701770065209757 -493.63928357938272 0 0 0 0 2707.248167838623 -382.604676898344 0 -382.604676898344 166.06619163632743 0 0 0 0 3103.9899727697284 74.102828000529257 0 74.102828000529257 -421.17138092769699 0 0 0 0 1908.9287528071072 972.639600349283 0 972.639600349283 511.60617582255747 0 0 0 0 4.0201976171976952 -4.9329566719661422 0 -4.9329566719661422 -1.5924392206527291 0 0 0 0 1197.6744570550327 -132.49763935817111 0 -132.49763935817111 -30.872475790025742 0 0 0 0 1349.9361442481677 324.8154110532966 0 324.8154110532966 -120.12944251111526 0 0 0 0 -32.446146758419431 -20.846638908795285 0 -20.846638908795285 199.5081772479424 0 0 0 0 122.13915691898683 120.54664485114736 0 120.54664485114736 119.29391673560531 0 0 0 0 186.80659542909802 261.8203666624305 0 261.8203666624305 345.03081364824482 0 0 0 0 366.93421567311907 129.38262775181943 0 129.38262775181943 40.262638805587812 0 0 0 0 320.59945382220229 316.12135450858091 0 316.12135450858091 124.85466652907849 0 0 0 0 177.48602942827813 46.426572888291048 0 46.426572888291048 336.86673013443271 0 0 0 0 122.10900649961596 184.95193822244065 0 184.95193822244065 62.668053665335492 0 0 0 0 144.27359107128089 337.29968737908678 0 337.29968737908678 471.29336086556106 0 0 0 0 0.36993979270427213 -0.50985029817413707 0 -0.50985029817413707 4.8274282038509142 0 0 0 0 532.23797696878785 373.4729754210266 0 373.4729754210266 180.10468976041693 0 0 0 0 247.7255667993154 163.87732819565497 0 163.87732819565497 31.480087439824501 0 0 0 0 -7.5040442892785535 -1.6008251524194748 0 -1.6008251524194748 -9.110579042050631 0 0 0 0 -0.25181056564842219 -0.31307275170231286 0 -0.31307275170231286 12.325258165553906 0 0 0 0 10.927081268448148 69.703871358362107 0 69.703871358362107 190.40364862707293 0 0 0 0 153.88869062332719 54.841035367379163 0 54.841035367379163 -3.1000531473910087 0 0 0 0 149.79280410048489 62.239345361645832 0 62.239345361645832 40.263112985698172 0 0 0 0 47.437730797609674 74.219952099287639 0 74.219952099287639 44.853499555641292 0 0 0 0 20.740267721235796 32.617571157879411 0 32.617571157879411 38.042666995366403 0 0 0 0 5.5633701971419214 83.583865950014456 0 83.583865950014456 58.205615263056245 0 0 0 0 9.3549117012098577 97.213635179955872 0 97.213635179955872 27.750838813020209 0 0 0 0 -15.159806575482435 40.957714226601183 0 40.957714226601183 132.66477566598201 0 0 0 0 -61.861463121635097 13.232720058726159 0 13.232720058726159 163.14901102752958 0 0 0 0 -28.845590474466007 97.581770491990369 0 97.581770491990369 28.722104655665873 0 0 0 0 -17.922781747193312 32.733760514804828 0 32.733760514804828 131.09303818928129 0 0 0 0 -21.457172609067356 -49.302671967773755 0 -49.302671967773755 133.05022823127979 0 0 0 0 -35.100965426666789 22.731886072339904 0 22.731886072339904 184.18404430186931 0 0 0 0 73.545934499402392 37.354177075581021 0 37.354177075581021 88.838765916730267 0 0 0 0 63.006129970355232 73.432260756878875 0 73.432260756878875 125.31820273669547 0 0 0 0 -5.464629810624956 19.076882495295337 0 19.076882495295337 127.14299742452528 0 0 0 0 156.53003826167287 89.71807469483997 0 89.71807469483997 97.377560826865476 0 0 0 0 104.14033862708993 42.157032438488613 0 42.157032438488613 96.251383932852605 0 0 0 0 101.7396690330126 91.509790019211266 0 91.509790019211266 156.97644243656487 0 0 0 0 -4.6177158885529934 47.808377692417935 0 47.808377692417935 16.108225716312518 0 0 0 0 15.111897058125578 -7.8601295815581125 0 -7.8601295815581125 76.671783528888909 0 0 0 0 -0.28003413648789177 1.734915288919769 0 1.734915288919769 3.6366193526732618 0 0 0 0 1.987324337951577 3.642277049198583 0 3.642277049198583 42.609211263298675 0 0 0 0 -0.92233706993794584 0.8594969957203249 0 0.8594969957203249 2.6119080029587174 0 0 0 0 -50.275942967443143 71.602225129001681 0 71.602225129001681 167.66562473312433 0 0 0 0 108.41366718173776 157.43865032191707 0 157.43865032191707 108.92350108015989 0 0 0 0 198.28589019096671 119.45814052241099 0 119.45814052241099 -21.19653070543086 0 0 0 0 151.38039880043857 121.69566759832418 0 121.69566759832418 155.03660947467097 0 0 0 0 157.5881420396945 124.97530814715196 0 124.97530814715196 123.04016757457521 0 0 0 0 139.18726867428495 106.36205644595907 0 106.36205644595907 134.28648305117076 0 0 0 0 197.91906594861393 88.225768022049579 0 88.225768022049579 -0.48285869370010914 0 0 0 0 184.01570505834093 80.76496162830972 0 80.76496162830972 -13.268118932939615 0 0 0 0 307.3490290508899 -20.775083785780339 0 -20.775083785780339 -65.131441821537919 0 0 0 0 94.198990569372654 -13.641772361035692 0 -13.641772361035692 -22.737747299323246 0 0 0 0 113.07724495189268 -129.36618502963938 0 -129.36618502963938 -69.2530511384698 0 0 0 0 229.61550548941887 157.53022537379934 0 157.53022537379934 98.296814338812055 0 0 0 0 234.40094774815452 49.779174133558968 0 49.779174133558968 94.839705521480539 0 0 0 0 3.900696418638244 1.3093668584907627 0 1.3093668584907627 -0.81842288235381 0 0 0 0 182.59028260818332 279.53648119020295 0 279.53648119020295 153.34323504643362 0 0 0 0 350.66427612984023 246.59986124906578 0 246.59986124906578 29.216925732316668 0 0 0 0 370.09421174935812 175.02019291024322 0 175.02019291024322 105.91051996925535 0 0 0 0 19.387519388004876 105.86640996883148 0 105.86640996883148 -123.14736781726992 0 0 0 0 136.2050791762988 8.5722075173215444 0 8.5722075173215444 -46.135024889790202 0 0 0 0 203.8873333614645 201.7665617166044 0 201.7665617166044 21.766987352089473 0 0 0 0 -23.999695130539749 -184.02202264358493 0 -184.02202264358493 -87.591222518783297 0 0 0 0 13.278245302888081 3.8605724416520388 0 3.8605724416520388 -27.328927527559813 0 0 0 0 -174.81691276990978 123.44467933498254 0 123.44467933498254 -50.346664469942425 0 0 0 0 268.03399111340309 -0.059896399027138614 0 -0.059896399027138614 -295.36914658868386 0 0 0 0 161.36193558853938 -10.684150767926781 0 -10.684150767926781 -269.41644537037928 0 0 0 0 6.6485444069879804 -4.7620513371122115 0 -4.7620513371122115 -198.79986917189058 0 0 0 0 6.4389553582197259 1.5189027333633165 0 1.5189027333633165 -1.5638117250023384 0 0 0 0 137.00438183815052 -96.634013693258623 0 -96.634013693258623 47.164716942045743 0 0 0 0 -0.18130961864658879 0.99951015927118014 0 0.99951015927118014 2.1385866906711808 0 0 0 0 170.46562207167972 -0.26169907261532899 0 -0.26169907261532899 -38.29771245941447 0 0 0 0 28.165490369929557 -13.455724070673568 0 -13.455724070673568 15.998806907802646 0 0 0 0 92.395958386997791 -47.294073383977434 0 -47.294073383977434 -20.589694428939765 0 0 0 0 87.527503494048915 -22.408113865245923 0 -22.408113865245923 16.813414540388067 0 0 0 0 72.968082900939635 -26.913219080844101 0 -26.913219080844101 -21.682170345991381 0 0 0 0 52.312311610236577 -32.000010989929251 0 -32.000010989929251 24.890442734652424 0 0 0 0 92.540947038250778 -41.031226085232049 0 -41.031226085232049 -14.985687185002462 0 0 0 0 1.4232413457538522 4.2972604728465811 0 4.2972604728465811 -0.30374882127905778 0 0 0 0 54.082026354661139 -17.971322074081854 0 -17.971322074081854 -9.6088587980211742 0 0 0 0 48.050188650276255 -13.880235250389831 0 -13.880235250389831 -9.8177416289690882 0 0 0 0 -22.986978667601761 -15.124838344205727 0 -15.124838344205727 -9.3084024292199956 0 0 0 0 9.8551902926465118 16.963116594473831 0 16.963116594473831 -32.02804151771511 0 0 0 0 -9.2677328935074001 16.475840598574059 0 16.475840598574059 -41.189339006540649 0 0 0 0 0.70559368159513669 0.29095922855844947 0 0.29095922855844947 -14.194890342569302 0 0 0 0 -1.6363988196926353 9.020110019225978 0 9.020110019225978 -12.07216405611574 0 0 0 0 -10.851619273389215 17.549761093294403 0 17.549761093294403 -16.884030361164619 0 0 0 0 -17.731212677403619 2.5473235800975544 0 2.5473235800975544 -12.930215546109821 0 0 0 0 -27.967454705733417 53.356611538202401 0 53.356611538202401 -22.043954548115835 0 0 0 0 18.02203113662523 -25.226931523730187 0 -25.226931523730187 -237.26726550942931 0 0 0 0 -7.8096635163577677 10.32841220385669 0 10.32841220385669 -12.178823518608745 0 0 0 0 12.602495392771971 -5.8961191840066789 0 -5.8961191840066789 -86.630175491722866 0 0 0 0 -18.815891027966245 131.93458421679748 0 131.93458421679748 -216.45513206158876 0 0 0 0 10.572768188911141 80.9852135961371 0 80.9852135961371 -176.72628945388624 0 0 0 0 -116.03822199224487 39.972838191648634 0 39.972838191648634 0.92424035252292924 0 0 0 0 27.785100398186842 104.62076829637454 0 104.62076829637454 -209.09002333021624 0 0 0 0 70.700159251872719 77.533674939265097 0 77.533674939265097 -286.535153069118 0 0 0 0 -46.767852697415037 324.60359860589841 0 324.60359860589841 -509.42698670433947 0 0 0 0 90.932939868918425 20.064015572947852 0 20.064015572947852 -239.49252396548377 0 0 0 0 76.725599005495496 70.23484337544528 0 70.23484337544528 -223.51180257317947 0 0 0 0 72.848428389673245 40.907919334038979 0 40.907919334038979 -197.99398858988263 0 0 0 0 70.309606647963392 92.610645750456911 0 92.610645750456911 144.59264036641002 0 0 0 0 52.553664917835704 -17.73699679812421 0 -17.73699679812421 -77.680669062724746 0 0 0 0 110.15692691362079 -4.9166060920782044 0 -4.9166060920782044 -156.17570528554643 0 0 0 0 119.45788528045654 78.54178158683365 0 78.54178158683365 -168.78819534696368 0 0 0 0 44.560702248666985 27.945334252694579 0 27.945334252694579 -100.23985896099771 0 0 0 0 13.845477847226562 -8.5182927932049779 0 -8.5182927932049779 -155.02492141313633 0 0 0 0 -1.944610557087799 -24.695823727360448 0 -24.695823727360448 -157.35696212724707 0 0 0 0 -3.7530845282950054 -46.886017173027398 0 -46.886017173027398 -175.44389854497877 0 0 0 0 17.722563880509028 -30.439817037582912 0 -30.439817037582912 -176.82987121764336 0 0 0 0 -41.681882855089498 25.047964901614023 0 25.047964901614023 8.7173854087347991 0 0 0 0 -40.505236499847342 33.194581621480211 0 33.194581621480211 -195.35286024392462 0 0 0 0 -154.61955943910471 -67.273702112001956 0 -67.273702112001956 -58.66904456805014 0 0 0 0 -268.87817260043812 48.532555180399868 0 48.532555180399868 -88.932193203221004 0 0 0 0 -251.82499603898214 181.39466539520254 0 181.39466539520254 -233.13108466165056 0 0 0 0 -120.89993436535133 226.39804210692569 0 226.39804210692569 -353.69708888175592 0 0 0 0 -62.990639936318075 137.30617463447652 0 137.30617463447652 -314.17048272191028 0 0 0 0 -28.223141001304839 -19.502596327025856 0 -19.502596327025856 -41.767824187772021 0 0 0 0 90.867006024801412 -41.522130554562409 0 -41.522130554562409 -517.20825026877105 0 0 0 0 6.4579700005760969 132.91264199343971 0 132.91264199343971 -66.471424663164385 0 0 0 0 -95.333602700861775 -120.34551836019523 0 -120.34551836019523 -225.06866145665163 0 0 0 0 14.692368873165833 -42.366400123210155 0 -42.366400123210155 -137.30078793255097 0 0 0 0 5.2380809975391003 -11.94609172192952 0 -11.94609172192952 -76.190921692260872 0 0 0 0 -429.66883205259364 403.17270072913288 0 403.17270072913288 -211.85958029841095 0 0 0 0 -0.17666472883070106 -0.34972657797205642 0 -0.34972657797205642 -5.0705121472098797 0 0 0 0 -18.380415484434707 -53.976044184428815 0 -53.976044184428815 -73.74556191387137 0 0 0 0 3.0742597165614072 1.2867542430201393 0 1.2867542430201393 -1.2379281684214161 0 0 0 0 -361.84422192598277 237.33583200629835 0 237.33583200629835 -157.21527012479078 0 0 0 0 607.67378560497127 -109.82040232279951 0 -109.82040232279951 -735.29677949343204 0 0 0 0 665.75871276957582 -164.99922544398373 0 -164.99922544398373 -54.647183142262293 0 0 0 0 394.00923440031499 -89.021543908661556 0 -89.021543908661556 -74.837884354536982 0 0 0 0 486.43743838656053 63.575646435256658 0 63.575646435256658 -211.1440505813016 0 0 0 0 336.59705568367599 -40.301637381268392 0 -40.301637381268392 -73.965029758126093 0 0 0 0 565.45623251865504 -77.84068621625579 0 -77.84068621625579 -71.882499938461024 0 0 0 0 677.83885185866427 112.26367433424502 0 112.26367433424502 -5.7737999553201007 0 0 0 0 1205.1120088351743 -125.37937754133162 0 -125.37937754133162 -73.620134497390126 0 0 0 0 491.33757791287098 431.39699551900628 0 431.39699551900628 363.40055116571182 0 0 0 0 525.15862839521651 145.81049313742562 0 145.81049313742562 2.2502197853241341 0 0 0 0 407.95710468852656 203.41447935951146 0 203.41447935951146 -270.20281724256893 0 0 0 0 181.04818406477898 -1.3215843358918846 0 -1.3215843358918846 -114.60477227677347 0 0 0 0 273.96579636753904 408.16956165336342 0 408.16956165336342 131.80436050489925 0 0 0 0 226.31882006078831 101.38761548715752 0 101.38761548715752 84.966217942942876 0 0 0 0 79.890632804144389 35.937166979688072 0 35.937166979688072 -200.81153460205064 0 0 0 0 21.144755089877776 -299.8436552382326 0 -299.8436552382326 -488.35549699889509 0 0 0 0 96.379957662950346 41.012783812012117 0 41.012783812012117 289.25011439777177 0 0 0 0 168.70044159343797 60.734796361728058 0 60.734796361728058 -120.77615764052484 0 0 0 0 348.82630241896777 76.784297328561138 0 76.784297328561138 -290.14548015890864 0 0 0 0 206.20561546968634 103.49103167239144 0 103.49103167239144 435.29590530339146 0 0 0 0 -3.2916695421877264 3.5901086375816371 0 3.5901086375816371 -3.3077613243264752 0 0 0 0 730.54223218741288 228.09467741100815 0 228.09467741100815 -106.6530084945112 0 0 0 0 1741.4796989676081 145.66004015452813 0 145.66004015452813 -206.41596600996297 0 0 0 0 586.78658881466345 -667.47663847410081 0 -667.47663847410081 783.17802196315552 0 0 0 0 1752.2555453984969 -629.60350013340303 0 -629.60350013340303 136.5891973576488 0 0 0 0 414.27010783478818 243.86282746578217 0 243.86282746578217 165.91264943582382 0 0 0 0 112.7870210642912 -223.36546651332483 0 -223.36546651332483 788.4756735945025 0 0 0 0 14.041135272211484 -6.529988473385643 0 -6.529988473385643 3.5300453333120076 0 0 0 0 505.56888961674122 -634.29736435646623 0 -634.29736435646623 697.14582578057741 0 0 0 0 1233.4308072170563 -697.04679573087549 0 -697.04679573087549 179.72132691287973 0 0 0 0 625.09008400346693 -471.94376132850806 0 -471.94376132850806 177.60148659581813 0 0 0 0 217.48517790978167 -139.0523885113015 0 -139.0523885113015 -0.18018951082876811 0 0 0 0 46.831659339369253 -63.802518842285721 0 -63.802518842285721 200.74451732996499 0 0 0 0 366.87286971543449 421.97209104321303 0 421.97209104321303 46.387491464202867 0 0 0 0 105.45326715337478 12.677196688878269 0 12.677196688878269 -193.33677478240998 0 0 0 0 13.678326933013762 -2.0948299068883305 0 -2.0948299068883305 1.7073310400291128 0 0 0 0 4.9208033743548132 1.7852041232943252 0 1.7852041232943252 0.88045493231443039 0 0 0 0 1731.6663141340596 -700.68934482805025 0 -700.68934482805025 -60.125647604253345 0 0 0 0 1336.3419381140784 -90.065295818413972 0 -90.065295818413972 -141.50592013140965 0 0 0 0 1014.3665731500555 -448.1096820151509 0 -448.1096820151509 226.30877538515051 0 0 0 0 791.86106425243725 -189.77584988522494 0 -189.77584988522494 97.903814003108096 0 0 0 0 725.50654339839639 -467.40666054633385 0 -467.40666054633385 316.62943145621648 0 0 0 0 920.08510468387203 -179.38232848150869 0 -179.38232848150869 441.41985074519835 0 0 0 0 361.53785382711021 -103.59878537560394 0 -103.59878537560394 318.15496519849864 0 0 0 0 309.40577796443449 -184.44601330652154 0 -184.44601330652154 196.92410998659545 0 0 0 0 668.21984569822507 -266.518985560234 0 -266.518985560234 242.67606415331591 0 0 0 0 -94.618492930112552 -33.247919630654053 0 -33.247919630654053 307.06328223653003 0 0 0 0 0.083537807559391553 0.76019834948212583 0 0.76019834948212583 1.9122075401171732 0 0 0 0 308.26254484437027 94.399593177011496 0 94.399593177011496 343.31048270338772 0 0 0 0 859.00738288746106 -99.15978518429938 0 -99.15978518429938 -73.946034975750862 0 0 0 0 741.22471077859404 158.42458668712945 0 158.42458668712945 89.649574345629475 0 0 0 0 843.80561512913755 -108.64248398298542 0 -108.64248398298542 465.40850111417967 0 0 0 0 897.89265445085584 -43.664382940737056 0 -43.664382940737056 175.48469793781175 0 0 0 0 942.82605963563174 -49.399943418068801 0 -49.399943418068801 3.7870357104274035 0 0 0 0 783.17646546955621 52.08436395287373 0 52.08436395287373 -42.486967727803062 0 0 0 0 1126.2819862677707 139.25762927802029 0 139.25762927802029 119.35050760771011 0 0 0 0 -16.630086203411338 275.59126172991114 0 275.59126172991114 303.9945477979872 0 0 0 0 934.23868249731072 -284.09201592188657 0 -284.09201592188657 30.684412353198468 0 0 0 0 4.5850931298876638 2.4322839204148679 0 2.4322839204148679 1.7366062877586501 0 0 0 0 429.08160006828257 -283.92239220081956 0 -283.92239220081956 92.005789757828722 0 0 0 0 139.76647866565963 103.80787515478167 0 103.80787515478167 117.37262725258542 0 0 0 0 290.28240684752564 -20.651789712224343 0 -20.651789712224343 210.16504626482256 0 0 0 0 -17.001499793112089 35.176091098364395 0 35.176091098364395 205.01572314514002 0 0 0 0 140.57047480899894 181.61843685328299 0 181.61843685328299 213.28311217023676 0 0 0 0 168.78515694704265 218.60680287664928 0 218.60680287664928 245.35995263870871 0 0 0 0 34.269247098239703 193.49633754815659 0 193.49633754815659 226.92609566082638 0 0 0 0 41.272377802645224 19.083281917512608 0 19.083281917512608 82.189368390002755 0 0 0 0 57.417307752482941 7.082074738559669 0 7.082074738559669 133.5548638514166 0 0 0 0 -85.724394800638038 110.85816199620012 0 110.85816199620012 62.932394757645852 0 0 0 0 -42.946080766267528 -58.531463808328112 0 -58.531463808328112 73.444046752221766 0 0 0 0 -47.505681347621049 -56.105101596326676 0 -56.105101596326676 81.032048366764229 0 0 0 0 21.470422226991104 -27.783876810028801 0 -27.783876810028801 205.90675654962297 0 0 0 0 24.654727520780398 -64.368766583029469 0 -64.368766583029469 74.238351815818362 0 0 0 0 -28.623460203332797 1.8462702532165167 0 1.8462702532165167 163.5239188909967 0 0 0 0 143.27235830796394 30.357757534846726 0 30.357757534846726 350.61040396346402 0 0 0 0 48.415504017952571 -98.974127110505606 0 -98.974127110505606 174.3132084825661 0 0 0 0 32.581360102860344 -140.49643562230631 0 -140.49643562230631 316.40750821318272 0 0 0 0 -20.259405695580426 -93.513021020355097 0 -93.513021020355097 302.27589032552089 0 0 0 0 61.94895919825467 -69.743653532752859 0 -69.743653532752859 188.7724624502016 0 0 0 0 53.03496457013398 -112.73699958788984 0 -112.73699958788984 288.24276774978495 0 0 0 0 26.927290707391876 -132.47536021491823 0 -132.47536021491823 320.33535909435454 0 0 0 0 -61.065092185769572 -77.785614040005839 0 -77.785614040005839 365.88810987597481 0 0 0 0 -2.8591138299898375 -109.4362920321889 0 -109.4362920321889 -0.78709573744163208 0 0 0 0 61.718811368728439 -43.113384909046175 0 -43.113384909046175 59.733532865903044 0 0 0 0 16.818085047203112 -41.255272221918347 0 -41.255272221918347 605.45268477926095 0 0 0 0 478.11317686231541 -217.17617927703029 0 -217.17617927703029 283.53258730199673 0 0 0 0 55.610074005193837 -111.70499820021418 0 -111.70499820021418 261.01929734159904 0 0 0 0 239.21142827161577 234.6159391198176 0 234.6159391198176 224.08881264214921 0 0 0 0 50.674232816984158 153.80519836863937 0 153.80519836863937 311.71014995399014 0 0 0 0 591.01214756658919 302.45549722622661 0 302.45549722622661 179.62450418234027 0 0 0 0 5.9596136289017458 3.9019707960171504 0 3.9019707960171504 2.7267240038365741 0 0 0 0 821.15125889538513 -318.33426842342919 0 -318.33426842342919 -201.03742173798548 0 0 0 0 854.53307982047954 -248.28090205376702 0 -248.28090205376702 -200.05904004591821 0 0 0 0 763.48282092302043 -312.63848852659498 0 -312.63848852659498 -171.57831193094549 0 0 0 0 7.4397003050768937 2.2468109787101964 0 2.2468109787101964 0.77941764166487981 0 0 0 0 346.60664462756358 328.36231825705192 0 328.36231825705192 189.22213532318051 0 0 0 0 913.9895726337644 160.9094277457645 0 160.9094277457645 26.232137742738018 0 0 0 0 -69.569205460743433 -101.49157296568757 0 -101.49157296568757 -9.1742977475022371 0 0 0 0 183.64861851646401 240.82549719257071 0 240.82549719257071 -330.79281476103574 0 0 0 0 -143.93583510732424 -8.2779219586169006 0 -8.2779219586169006 184.12277984216735 0 0 0 0 10.381224359481287 1.1717313975406281 0 1.1717313975406281 -1.4860125762169154 0 0 0 0 -157.00807985426309 195.35817329394416 0 195.35817329394416 26.501253923228443 0 0 0 0 60.914991825460675 -12.746747424279818 0 -12.746747424279818 -10.999966198940911 0 0 0 0 4.3283681583144373 0.56841402136360308 0 0.56841402136360308 0.3218629222857079 0 0 0 0 308.20326372014188 -307.15412164753855 0 -307.15412164753855 265.03359438555572 0 0 0 0 1.9658491294188813 -3.9474714220792091 0 -3.9474714220792091 -5.8220236944379398 0 0 0 0 18.05381800089075 5.8905583476462056 0 5.8905583476462056 0.063441322627602936 0 0 0 0 235.39658194299227 -149.63811400753326 0 -149.63811400753326 -71.285365352601275 0 0 0 0 26.987950700004149 -35.891359261571893 0 -35.891359261571893 -48.672060948844575 0 0 0 0 722.14320103770842 -265.28612871454658 0 -265.28612871454658 -129.36170044160627 0 0 0 0 329.10544772693447 -531.30812415489436 0 -531.30812415489436 25.5493392840566 0 0 0 0 488.92299080131306 148.6856167530816 0 148.6856167530816 -284.06178328633263 0 0 0 0 6.1943004315270898 -0.81225910344659447 0 -0.81225910344659447 -0.24962108726027388 0 0 0 0 742.81067082133904 -192.00379695240053 0 -192.00379695240053 -25.112736325118703 0 0 0 0 157.57149958261562 -188.56644375303415 0 -188.56644375303415 418.94632107301481 0 0 0 0 106.26938270435653 200.09574709983642 0 200.09574709983642 -0.32293919028597884 0 0 0 0 -0.99077904893736957 -0.70859384406714021 0 -0.70859384406714021 -0.35362476725235714 0 0 0 0 421.49889849361989 132.77859670466364 0 132.77859670466364 -68.039377010348971 0 0 0 0 584.9055025638927 158.49463939690233 0 158.49463939690233 -216.31334827200337 0 0 0 0 736.55053498716131 325.78385715115007 0 325.78385715115007 -64.773961100898418 0 0 0 0 670.77253945895268 -236.35415563139463 0 -236.35415563139463 59.389624349856717 0 0 0 0 1.8700482081508198 -26.691681025237628 0 -26.691681025237628 30.390769720800904 0 0 0 0 602.10749685425708 50.985142417239103 0 50.985142417239103 34.018769660773216 0 0 0 0 261.91956136381714 253.1639105799494 0 253.1639105799494 165.20263617478554 0 0 0 0 448.10046426083591 325.45230519283109 0 325.45230519283109 87.865186200079052 0 0 0 0 544.4901940136715 397.26915328875532 0 397.26915328875532 169.48448052494444 0 0 0 0 889.36968012605303 74.413820968739259 0 74.413820968739259 218.80629553049158 0 0 0 0 458.86113257893157 258.88001051100025 0 258.88001051100025 42.599000087745139 0 0 0 0 476.35968054754994 310.67009797630215 0 310.67009797630215 105.2998061277828 0 0 0 0 687.43834908712779 89.088281333600833 0 89.088281333600833 312.1626469196716 0 0 0 0 726.1036540141763 -4.0458049618786731 0 -4.0458049618786731 93.200867705013707 0 0 0 0 648.29067470302834 -120.0836408578179 0 -120.0836408578179 486.71707342984303 0 0 0 0 3.6177506551077805 0.40442633636409786 0 0.40442633636409786 0.51535781634992595 0 0 0 0 39.243033024864417 82.472677524865389 0 82.472677524865389 80.192284186750612 0 0 0 0 325.90811737208878 -296.93204487260584 0 -296.93204487260584 153.21131625765656 0 0 0 0 591.76003946218225 -657.95973360068388 0 -657.95973360068388 637.52772001180665 0 0 0 0 41.199329150933409 -369.96520360551392 0 -369.96520360551392 135.58675883370776 0 0 0 0 12.226074604595286 -1.1962166628221818 0 -1.1962166628221818 -0.74177190187693065 0 0 0 0 337.98854403159294 -127.06074240374232 0 -127.06074240374232 -589.6305189821187 0 0 0 0 87.461006746243584 38.902046364426269 0 38.902046364426269 98.188016733501982 0 0 0 0 296.62550664395712 92.841235544670411 0 92.841235544670411 -275.38383187595696 0 0 0 0 525.54790005258474 282.84383074441098 0 282.84383074441098 -45.469500157933226 0 0 0 0 -57.89519120423256 109.8921593248117 0 109.8921593248117 -70.043015992022902 0 0 0 0 767.1435418500414 156.51345537367496 0 156.51345537367496 -65.347316083214082 0 0 0 0 6.1226805690902708 -0.0061676484692352318 0 -0.0061676484692352318 -0.33151248514738008 0 0 0 0 552.74076577961387 400.13520838985107 0 400.13520838985107 -142.80034808966565 0 0 0 0 258.38198359270427 -165.63831462724966 0 -165.63831462724966 -90.466546083255878 0 0 0 0 237.722378805267 -326.09429863642436 0 -326.09429863642436 -62.288353192664317 0 0 0 0 652.09562147367387 -137.11269717404866 0 -137.11269717404866 -102.97780002212448 0 0 0 0 -40.940263832008895 -44.561763732180566 0 -44.561763732180566 -11.705868283304198 0 0 0 0 269.34164257163502 -108.16465202904305 0 -108.16465202904305 -12.662156835401159 0 0 0 0 233.84512180985621 -153.46685841266469 0 -153.46685841266469 -44.179804886749025 0 0 0 0 137.1083734667136 -77.856188636366596 0 -77.856188636366596 -355.82878834226767 0 0 0 0 -39.931058764855607 64.672204265870391 0 64.672204265870391 17.110050547151104 0 0 0 0 227.45651460151203 156.5498310883047 0 156.5498310883047 70.281162382940238 0 0 0 0 298.76654568152026 105.78117310364007 0 105.78117310364007 -29.601094202277636 0 0 0 0 284.82847826572743 128.17532832262941 0 128.17532832262941 53.565113095394281 0 0 0 0 330.53207944967289 151.74254544007965 0 151.74254544007965 29.908773730753182 0 0 0 0 361.84605934151477 200.04792681123809 0 200.04792681123809 85.264903979185647 0 0 0 0 463.71513268557646 77.098215140469165 0 77.098215140469165 19.749212872530279 0 0 0 0 148.55589109839048 -28.736783331791571 0 -28.736783331791571 -11.897755677023724 0 0 0 0 378.30889150815142 -132.83024355009337 0 -132.83024355009337 -85.555656844032001 0 0 0 0 181.74299485514166 -102.02323841266525 0 -102.02323841266525 -19.194112974641257 0 0 0 0 220.9757415458771 -54.720321848689309 0 -54.720321848689309 -112.00210214701679 0 0 0 0 234.38922716227717 -127.89246440795046 0 -127.89246440795046 -33.985875619457147 0 0 0 0 572.31692217875388 39.305151820651417 0 39.305151820651417 175.22222464030801 0 0 0 0 1008.5193479253903 219.04206949037484 0 219.04206949037484 232.97098820061092 0 0 0 0 1.8402973590408198 2.3962545451958608 0 2.3962545451958608 6.1782370261421544 0 0 0 0 -1.5054670922490914 -21.483724489131419 0 -21.483724489131419 266.50679626149486 0 0 0 0 1095.5334139803786 -129.87302971042777 0 -129.87302971042777 38.920681643699936 0 0 0 0 29.573327898078787 -57.409848333898481 0 -57.409848333898481 194.0609348110811 0 0 0 0 -131.12499421962275 -85.958176620015365 0 -85.958176620015365 540.6874916069246 0 0 0 0 835.33176445204936 136.97955342531043 0 136.97955342531043 -86.151707461424849 0 0 0 0 232.02651450682424 238.54798148199211 0 238.54798148199211 310.38138748769461 0 0 0 0 593.72726529334977 -172.04773030792421 0 -172.04773030792421 53.347259351794605 0 0 0 0 548.99542642280539 -224.21736236658046 0 -224.21736236658046 307.51151588956873 0 0 0 0 514.42681624043507 26.681574346314164 0 26.681574346314164 529.38967247945516 0 0 0 0 545.56220381182129 -10.184748893451342 0 -10.184748893451342 114.37182553345338 0 0 0 0 508.69449615121221 -105.89605578595683 0 -105.89605578595683 -49.692905520336808 0 0 0 0 384.41333141798168 110.75196483269565 0 110.75196483269565 51.500151954900616 0 0 0 0 511.43234169010429 -141.30853565098982 0 -141.30853565098982 222.73369243566185 0 0 0 0 310.58471763268608 57.397943867827621 0 57.397943867827621 118.75378854141672 0 0 0 0 440.89001262350939 9.2303033589284951 0 9.2303033589284951 232.54161110908672 0 0 0 0 487.81103494636227 163.63303474283657 0 163.63303474283657 142.87532046062461 0 0 0 0 437.31105740670819 19.406280985747117 0 19.406280985747117 108.74633756801904 0 0 0 0 360.07877828334131 118.4323259147252 0 118.4323259147252 176.37515476566227 0 0 0 0 348.28214853908867 157.71563051756402 0 157.71563051756402 134.40914162245826 0 0 0 0 327.07472456880168 179.93234457631979 0 179.93234457631979 79.84160955219329 0 0 0 0 280.46196812766539 262.21536281332737 0 262.21536281332737 133.21436970050445 0 0 0 0 241.15290639093837 -12.04403825274585 0 -12.04403825274585 107.6346422360748 0 0 0 0 164.79897669471757 168.38805995819189 0 168.38805995819189 146.70325956544934 0 0 0 0 553.99448249154193 -93.120198771691321 0 -93.120198771691321 40.023602626556112 0 0 0 0 565.76480058556444 -100.3066653079652 0 -100.3066653079652 44.400414005979201 0 0 0 0 424.90072549906654 41.037670567077157 0 41.037670567077157 92.830712649475572 0 0 0 0 682.59052675336898 88.350090771339183 0 88.350090771339183 117.25823192155235 0 0 0 0 564.27731445035261 -78.543491781501189 0 -78.543491781501189 27.919694267602608 0 0 0 0 826.79317493597409 -126.63790198889046 0 -126.63790198889046 40.259472760364588 0 0 0 0 487.34609605606056 -171.13213916940776 0 -171.13213916940776 81.187592264532668 0 0 0 0 757.13919878899105 -241.47634965476482 0 -241.47634965476482 92.600810344742968 0 0 0 0 640.2530554656696 -239.0616221529508 0 -239.0616221529508 92.822170416048039 0 0 0 0 668.80858024918416 -64.835004751537781 0 -64.835004751537781 28.367803279669715 0 0 0 0 468.3896239692931 -129.63177700935046 0 -129.63177700935046 91.57165634742978 0 0 0 0 568.05498623231506 -96.817570416122635 0 -96.817570416122635 33.230287642765518 0 0 0 0 581.16518556445408 -94.529608997540436 0 -94.529608997540436 33.581459026861012 0 0 0 0 528.46294170810415 -42.917648048990714 0 -42.917648048990714 23.683224244066878 0 0 0 0 440.88057518232745 -135.29453936096797 0 -135.29453936096797 96.858867427453333 0 0 0 0 -4.9875354077612428 17.343152854360596 0 17.343152854360596 122.75401303906074 0 0 0 0 4.7337584909009074 7.75684972903084 0 7.75684972903084 13.176582110777549 0 0 0 0 -62.282354166949517 -30.493427365292519 0 -30.493427365292519 -36.456080088480121 0 0 0 0 74.615955090128409 2.4485927142532091 0 2.4485927142532091 -79.185826454267044 0 0 0 0 79.640312611815716 38.494572058471931 0 38.494572058471931 -123.44925927002987 0 0 0 0 55.287760676584639 -17.96608718396692 0 -17.96608718396692 -66.187527464569939 0 0 0 0 99.237277709362388 -25.35849793370835 0 -25.35849793370835 -77.414544381128508 0 0 0 0 163.55276204337042 -5.3265969285894244 0 -5.3265969285894244 -76.603349160779544 0 0 0 0 130.80414990409463 21.725738067567363 0 21.725738067567363 -59.991522028232794 0 0 0 0 88.756814270238465 19.728538076565201 0 19.728538076565201 -58.850758864256932 0 0 0 0 95.475379824209085 93.648613588637545 0 93.648613588637545 60.299900963284017 0 0 0 0 99.545210216834676 183.74280676712442 0 183.74280676712442 210.66607441250017 0 0 0 0 112.31005029443958 -7.2606125411163021 0 -7.2606125411163021 -20.085223074165697 0 0 0 0 297.19507831455303 81.187493929248376 0 81.187493929248376 5.1720335078325661 0 0 0 0 -74.663335342041137 18.218320299200968 0 18.218320299200968 357.46869140402032 0 0 0 0 -70.246450463078872 -11.450670629288197 0 -11.450670629288197 103.57751363580064 0 0 0 0 363.19985832752127 -10.125355029315642 0 -10.125355029315642 -507.50708420481442 0 0 0 0 -124.07924422256838 83.513591895038189 0 83.513591895038189 131.30814854853816 0 0 0 0 -1.1910151972705947 0.15555931568811143 0 0.15555931568811143 3.5919726951716413 0 0 0 0 -13.54495873067026 11.232902108708913 0 11.232902108708913 34.421551897633435 0 0 0 0 -73.394557691695809 116.3063348444648 0 116.3063348444648 147.35935729226549 0 0 0 0 -80.112011346302097 47.004576982293656 0 47.004576982293656 120.84486014267986 0 0 0 0 27.440082816290214 63.351591435597584 0 63.351591435597584 -158.37481278525593 0 0 0 0 27.318153445782173 63.5944026164766 0 63.5944026164766 -34.256926848239345 0 0 0 0 48.50026860545222 -67.346066091626199 0 -67.346066091626199 -63.878262407090915 0 0 0 0 24.443528399321135 1.314621017084975 0 1.314621017084975 -2.0913587366370106 0 0 0 0 20.689423596409249 -9.0485087178487298 0 -9.0485087178487298 -3.4410395159460485 0 0 0 0 149.71674607803624 -77.885661847656479 0 -77.885661847656479 -70.697929348147227 0 0 0 0 -75.26166775519755 -5.116293089307419 0 -5.116293089307419 123.9291074103121 0 0 0 0 -130.71741973399321 55.710046063284608 0 55.710046063284608 -5.0187111734962855 0 0 0 0 62.376556988495963 -129.43807334118128 0 -129.43807334118128 236.22275856810484 0 0 0 0 3.758414611860097 -0.085159319583153703 0 -0.085159319583153703 -2.9473484674337129 0 0 0 0 -15.888912761074295 205.48010813770861 0 205.48010813770861 189.50099243595332 0 0 0 0 2.1462976984684579 1.54343017903083 0 1.54343017903083 1.0800228628912851 0 0 0 0 -28.184612534583287 -109.44220983543318 0 -109.44220983543318 376.30774798572429 0 0 0 0 -107.08148158945971 121.71969532728997 0 121.71969532728997 102.28883304941974 0 0 0 0 4.9553964777512363 4.9630958775539664 0 4.9630958775539664 5.6619223745903753 0 0 0 0 43.105626290994337 44.770310665717261 0 44.770310665717261 -15.341880207260147 0 0 0 0 12.008288221877137 35.626750114484366 0 35.626750114484366 139.95778689573876 0 0 0 0 -3.5304279384054098 -94.799061484842696 0 -94.799061484842696 45.119175061912756 0 0 0 0 21.279054346419798 -39.665728322359428 0 -39.665728322359428 164.87025022561238 0 0 0 0 31.907886959836105 -41.674171628479598 0 -41.674171628479598 65.861066096058039 0 0 0 0 -29.9507982696623 -63.966381430011552 0 -63.966381430011552 155.27003956564295 0 0 0 0 0.0033103409252690508 -1.4453122940501153 0 -1.4453122940501153 3.0016251441869493 0 0 0 0 -116.5550743895119 -121.28429992020551 0 -121.28429992020551 195.32516661420368 0 0 0 0 225.66483912964577 208.34873019153702 0 208.34873019153702 70.402439784567378 0 0 0 0 -159.76275291574166 32.805237444373915 0 32.805237444373915 56.059948363282729 0 0 0 0 0.68044155024820008 -0.13463123427447421 0 -0.13463123427447421 7.8510788907825422 0 0 0 0 -83.378348739037392 86.57933520205961 0 86.57933520205961 83.946707786725256 0 0 0 0 59.04580397421887 -3.9993515445639787 0 -3.9993515445639787 42.774048450222381 0 0 0 0 -74.418527647238079 87.004571115181079 0 87.004571115181079 95.684517544562709 0 0 0 0 408.58654265219798 74.820824396598994 0 74.820824396598994 -216.31483318077403 0 0 0 0 -56.565166307138838 124.21800709648804 0 124.21800709648804 -75.798410695764233 0 0 0 0 -0.91582249861113141 -0.0033389240958636712 0 -0.0033389240958636712 0.12764167056287445 0 0 0 0 7.8662936382545467 -164.7161108164062 0 -164.7161108164062 58.85270209459965 0 0 0 0 91.864186850138708 23.08762424693704 0 23.08762424693704 -83.337616298973828 0 0 0 0 147.34699542376438 136.61442836744564 0 136.61442836744564 -172.27938537869474 0 0 0 0 -26.400539347839299 -1.6372264142526092 0 -1.6372264142526092 29.575042318330816 0 0 0 0 1.7070898562890184 8.4827858336377435 0 8.4827858336377435 20.327258758146684 0 0 0 0 -0.54689573884177012 1.3008917332816106 0 1.3008917332816106 5.9243995857138305 0 0 0 0 -113.81557722412663 -47.2447664094327 0 -47.2447664094327 3.0129533021196258 0 0 0 0 -5.8711347977459329 0.18818428605487147 0 0.18818428605487147 5.3409770481151844 0 0 0 0 49.336533508426044 65.846046867494351 0 65.846046867494351 33.996572526721138 0 0 0 0 -3.1150575185514526 -19.566134759376382 0 -19.566134759376382 28.43092356377656 0 0 0 0 -0.95084234642979482 -7.2597109931725754 0 -7.2597109931725754 96.62294317895703 0 0 0 0 29.368209400142188 -119.62276647864601 0 -119.62276647864601 137.68061525872145 0 0 0 0 31.797747350146153 -107.85088994075795 0 -107.85088994075795 149.17380593897542 0 0 0 0 35.499908679161649 -122.66721340769118 0 -122.66721340769118 56.924408630532525 0 0 0 0 180.99307618812833 -117.02290322010049 0 -117.02290322010049 -102.82540971337676 0 0 0 0 173.47806151801655 -57.714368914188043 0 -57.714368914188043 87.45538776605099 0 0 0 0 146.46878084935548 -102.0829027501095 0 -102.0829027501095 27.969372033824811 0 0 0 0 148.09830860497428 -75.784599878259542 0 -75.784599878259542 -205.89426118210122 0 0 0 0 189.27969808394104 -194.07327065526113 0 -194.07327065526113 54.33277198430369 0 0 0 0 1.5253048804785221 0.33390906945336063 0 0.33390906945336063 -0.21951257653842937 0 0 0 0 182.57795705340732 -171.53761880148659 0 -171.53761880148659 -208.89632836278724 0 0 0 0 288.89246092934866 -61.15243352159905 0 -61.15243352159905 -113.61086775469812 0 0 0 0 -2.4366961036934356 -156.6220256778729 0 -156.6220256778729 -110.96708006211497 0 0 0 0 8.1522965826483329 1.2757998779816635 0 1.2757998779816635 -0.10941240920651008 0 0 0 0 654.46592124601023 128.68212168010814 0 128.68212168010814 -455.63633198554817 0 0 0 0 156.73088650064687 238.10357854824156 0 238.10357854824156 282.16264127944214 0 0 0 0 142.86757239377687 601.70478399858439 0 601.70478399858439 1055.6801380093639 0 0 0 0 47.273856374453544 -32.566202453513142 0 -32.566202453513142 11.28961844011701 0 0 0 0 3.0740809066228394 378.79724351179215 0 378.79724351179215 75.772174729540922 0 0 0 0 9.8531362305115096 9.709305624341571 0 9.709305624341571 10.435671547638195 0 0 0 0 -51.806300056948203 316.57077625193057 0 316.57077625193057 493.77344895463051 0 0 0 0 114.09208611047507 -132.88298999944928 0 -132.88298999944928 554.69645635484392 0 0 0 0 2.5796036116021863 2.3558417545155468 0 2.3558417545155468 12.339109842860587 0 0 0 0 13.4449397945545 0.69392483886008449 0 0.69392483886008449 -10.006053078447849 0 0 0 0 -148.68917146130698 102.40777890491231 0 102.40777890491231 388.458110536194 0 0 0 0 222.83881999557457 -133.3201075519728 0 -133.3201075519728 -177.41296788777163 0 0 0 0 159.80758752437703 -6.076849280634633 0 -6.076849280634633 -483.29654185865093 0 0 0 0 -42.426081586043779 34.465507625495775 0 34.465507625495775 -98.313726487539043 0 0 0 0 41.35974614566976 50.329112455701534 0 50.329112455701534 -133.90629082545365 0 0 0 0 31.998296210409588 3.1943768612446934 0 3.1943768612446934 -0.94527430727962103 0 0 0 0 67.741580854407857 66.70159360237335 0 66.70159360237335 -7.8776549133999652 0 0 0 0 22.157885066582935 2.3009016872454247 0 2.3009016872454247 -0.63486912283901198 0 0 0 0 90.671781681864047 -91.936055904333898 0 -91.936055904333898 -427.40382874340537 0 0 0 0 -18.892152143317652 9.4687821871274025 0 9.4687821871274025 -113.88842345085959 0 0 0 0 -33.348397891657811 -38.274476886120965 0 -38.274476886120965 -112.61392628863268 0 0 0 0 106.34855825819724 -4.6494246677875708 0 -4.6494246677875708 -108.3308326973808 0 0 0 0 16.935821429808271 -134.13086481934988 0 -134.13086481934988 93.840029221830264 0 0 0 0 76.338944272006586 -81.886551026789675 0 -81.886551026789675 -103.86113399387779 0 0 0 0 56.192816050861538 -74.671670289648887 0 -74.671670289648887 104.85634326131276 0 0 0 0 151.88838947561206 4.8170800598882124 0 4.8170800598882124 165.54466642177522 0 0 0 0 79.995941166528922 -120.65360597986 0 -120.65360597986 168.58081065709575 0 0 0 0 105.98762101243267 100.0534426562017 0 100.0534426562017 269.13331310112926 0 0 0 0 182.37798312538908 -133.16928191873376 0 -133.16928191873376 66.22843980399557 0 0 0 0 195.1426699585584 191.75855035080218 0 191.75855035080218 58.605512896013352 0 0 0 0 202.00178759848086 85.554864916294719 0 85.554864916294719 -114.37295948689075 0 0 0 0 5.6505936984244372 -1.1484934602501813 0 -1.1484934602501813 0.7070362293604795 0 0 0 0 64.545880360311159 -142.63732328341348 0 -142.63732328341348 233.32201694981632 0 0 0 0 576.1670734906545 344.1203631025287 0 344.1203631025287 383.8837405255731 0 0 0 0 211.51537554365541 -136.29856120078239 0 -136.29856120078239 392.26401440682366 0 0 0 0 94.263123387617327 103.91719724048107 0 103.91719724048107 569.77865392983358 0 0 0 0 534.03410343492953 36.565231115063852 0 36.565231115063852 27.307862952990035 0 0 0 0 342.473030310019 213.2406381871665 0 213.2406381871665 374.30846140302674 0 0 0 0 366.36032908729749 -205.55249138338922 0 -205.55249138338922 105.88992061963972 0 0 0 0 89.355667494759388 -15.346598974855169 0 -15.346598974855169 4.6820625538025524 0 0 0 0 120.41375774921852 77.352992611958143 0 77.352992611958143 277.21756465534031 0 0 0 0 117.74218512975403 59.815299623139254 0 59.815299623139254 399.53078872274557 0 0 0 0 82.908426169471625 45.468445838239404 0 45.468445838239404 397.8138714341967 0 0 0 0 177.00478054126205 177.94525190712147 0 177.94525190712147 -58.008160600803421 0 0 0 0 76.99979901482709 184.81943867879272 0 184.81943867879272 -83.082331699611586 0 0 0 0 184.26755943962527 -37.261708105373813 0 -37.261708105373813 78.193249344183641 0 0 0 0 165.01424706042545 -20.58298420749702 0 -20.58298420749702 79.541639132985438 0 0 0 0 159.81673114891379 -49.584303699978591 0 -49.584303699978591 -115.43758310603062 0 0 0 0 98.007378528215099 140.34393696845609 0 140.34393696845609 82.280401624538626 0 0 0 0 108.14057544837294 134.22494745797349 0 134.22494745797349 -182.60759230380563 0 0 0 0 22.606516369260589 123.16472448704189 0 123.16472448704189 -42.137922715577588 0 0 0 0 112.50470709382989 -8.8001307801309849 0 -8.8001307801309849 -481.03391377551088 0 0 0 0 -1.9537176377936296 -0.78020995117493008 0 -0.78020995117493008 0.75611439057091978 0 0 0 0 4.6295356167958728 11.647983370721064 0 11.647983370721064 -5.5011377548653257 0 0 0 0 273.3475485501549 -31.38335688856796 0 -31.38335688856796 -93.331238147360637 0 0 0 0 261.65850210633164 70.031007896636311 0 70.031007896636311 20.560258721784521 0 0 0 0 264.30404813532175 -80.03532774259611 0 -80.03532774259611 9.0101984260122663 0 0 0 0 215.73027812738246 29.157651928977657 0 29.157651928977657 -96.72667913803889 0 0 0 0 193.25330357197527 -9.1746024668686914 0 -9.1746024668686914 -89.762561160668042 0 0 0 0 155.14077638389074 0.22139199157118128 0 0.22139199157118128 -95.11983130909357 0 0 0 0 198.27011917381378 -9.0164551904008476 0 -9.0164551904008476 -95.24631608420168 0 0 0 0 98.349891994070504 53.854388942180776 0 53.854388942180776 -96.608256628292381 0 0 0 0 150.57550988840308 -0.16278103083504902 0 -0.16278103083504902 -73.705932127159713 0 0 0 0 160.37867701660053 9.7312112756121678 0 9.7312112756121678 -78.340349365125348 0 0 0 0 146.50349161399163 -0.77441528491635836 0 -0.77441528491635836 -81.580603338213677 0 0 0 0 151.42464724912998 0.25632794516229751 0 0.25632794516229751 -81.367797041396443 0 0 0 0 117.37176019174152 -15.08129801709771 0 -15.08129801709771 -7.2777955726453598 0 0 0 0 30.452951283029307 27.086501883044548 0 27.086501883044548 -18.922029642502821 0 0 0 0 47.948997971680122 94.212102108857152 0 94.212102108857152 -25.340713337777743 0 0 0 0 64.340943187126939 14.502972999432231 0 14.502972999432231 -9.3927918733386626 0 0 0 0 100.33382003496342 70.44580895861327 0 70.44580895861327 -77.361816588909278 0 0 0 0 63.645941969041708 19.233697978797501 0 19.233697978797501 -5.7452731749438666 0 0 0 0 82.705453903348371 -0.072654746416901617 0 -0.072654746416901617 0.022284903874606243 0 0 0 0 81.259471174529608 8.9905628710262135 0 8.9905628710262135 -7.4941450884962251 0 0 0 0 90.239157374981005 5.1291651323872429 0 5.1291651323872429 -2.5470931676645705 0 0 0 0 95.423664133815691 -10.161236280338358 0 -10.161236280338358 8.665124034469045 0 0 0 0 75.305519488983919 9.5653889255008266 0 9.5653889255008266 -29.21315162589508 0 0 0 0 76.660864828074409 2.4361399630251981 0 2.4361399630251981 0.52285286979804368 0 0 0 0 -249.288376273842 100.41659098044806 0 100.41659098044806 -147.36178417619203 0 0 0 0 -258.85207924953284 290.93399681122764 0 290.93399681122764 -145.42067897417894 0 0 0 0 1586.5560770051379 -560.15492410588558 0 -560.15492410588558 -374.65020279380587 0 0 0 0 648.01479183416086 852.03042924432384 0 852.03042924432384 -297.81610722892663 0 0 0 0 82.969613930128077 -14.183232290159971 0 -14.183232290159971 -5.5279966902396218 0 0 0 0 119.86702574429 -99.519317592087191 0 -99.519317592087191 -46.837986181226768 0 0 0 0 21.637357640046616 -2.526011308923799 0 -2.526011308923799 1.0510507302321077 0 0 0 0 -46.259999748923292 216.17341554706059 0 216.17341554706059 -81.746251808460784 0 0 0 0 71.839047793306236 4.052240805772179 0 4.052240805772179 -10.967069677154873 0 0 0 0 83.602870490921717 12.097865042242558 0 12.097865042242558 -11.418909645145396 0 0 0 0 81.322033084491522 -74.31069363636044 0 -74.31069363636044 52.136580650241058 0 0 0 0 -44.8894847099873 138.26831923162763 0 138.26831923162763 -48.31862302923787 0 0 0 0 375.6848300859856 -172.75969579133402 0 -172.75969579133402 58.712285066736968 0 0 0 0 -174.85589851014447 378.12699048199215 0 378.12699048199215 -218.72922818484858 0 0 0 0 22.291327749263161 15.987531092871613 0 15.987531092871613 10.54853041399164 0 0 0 0 -116.1469329534375 63.149432293288555 0 63.149432293288555 -121.85965297666917 0 0 0 0 980.77737322666508 -570.00528370538063 0 -570.00528370538063 141.27034021731606 0 0 0 0 6.6817681804901952 5.3617848932711496 0 5.3617848932711496 4.9570444740646167 0 0 0 0 -61.734169244045916 103.28458471112754 0 103.28458471112754 192.91932844739949 0 0 0 0 -198.72858889963391 -109.10691960422105 0 -109.10691960422105 125.58663091683502 0 0 0 0 367.51471716736705 -72.594408844449845 0 -72.594408844449845 -44.096276892913011 0 0 0 0 263.02762205657928 -129.55026514329211 0 -129.55026514329211 199.9156524094692 0 0 0 0 273.40565223237718 -107.09252275024721 0 -107.09252275024721 -0.63550413515167747 0 0 0 0 10.882861622917005 11.599574938912596 0 11.599574938912596 -10.883984145268894 0 0 0 0 122.34985727303501 43.932866143550314 0 43.932866143550314 3.9692034088561741 0 0 0 0 -165.25070271838922 91.333245290605646 0 91.333245290605646 -60.397768592038346 0 0 0 0 211.82705146711669 -51.507383730707261 0 -51.507383730707261 4.2761291597382467 0 0 0 0 234.89818916385411 -110.71653728229489 0 -110.71653728229489 53.14624183908964 0 0 0 0 258.08964916783589 -89.063945085472824 0 -89.063945085472824 28.807985376813463 0 0 0 0 248.4939480167086 -74.175361462962314 0 -74.175361462962314 223.75779695045003 0 0 0 0 210.88617443729163 -84.648637189756528 0 -84.648637189756528 29.346661835341365 0 0 0 0 239.69056686416297 16.531505954226361 0 16.531505954226361 -85.26135657190207 0 0 0 0 40.854819823201979 -148.08251052399237 0 -148.08251052399237 24.086600917546093 0 0 0 0 128.14948960577385 139.7158161805462 0 139.7158161805462 -444.01395837671771 0 0 0 0 1.6941702357244139 0.097054266369028142 0 0.097054266369028142 -5.4967488975818171 0 0 0 0 153.29765828538802 -29.002446308944855 0 -29.002446308944855 -129.5646387401938 0 0 0 0 149.78743836737067 -60.780056510520069 0 -60.780056510520069 -151.36866355733582 0 0 0 0 71.566317828946922 -174.06222986487728 0 -174.06222986487728 131.23883807596803 0 0 0 0 71.941674626257736 -206.94771266871544 0 -206.94771266871544 -32.21887172926381 0 0 0 0 62.359012314984284 -414.57983248926166 0 -414.57983248926166 -85.143630875718372 0 0 0 0 219.79003555694362 -330.83025721347713 0 -330.83025721347713 -436.72044543635991 0 0 0 0 -1.386383554279746 81.575133880040994 0 81.575133880040994 -153.62764345949836 0 0 0 0 441.49442493752576 101.67640023169315 0 101.67640023169315 -527.85238500233754 0 0 0 0 553.81780375738163 293.57660683294444 0 293.57660683294444 -149.72567134948736 0 0 0 0 324.61022554543888 200.80757208828027 0 200.80757208828027 -246.25995719406183 0 0 0 0 275.79376918563503 113.42114485228649 0 113.42114485228649 -234.7803243646913 0 0 0 0 212.28335947279265 -39.147884722000526 0 -39.147884722000526 -50.458544371109383 0 0 0 0 77.51767139176809 134.86781847252996 0 134.86781847252996 -263.47655072562111 0 0 0 0 166.76115354127978 -187.38461079371882 0 -187.38461079371882 -463.80833145301506 0 0 0 0 128.37133576859196 -32.496884858845078 0 -32.496884858845078 -14.947196049379272 0 0 0 0 162.14109298589756 -78.681281057885826 0 -78.681281057885826 -56.280878753593697 0 0 0 0 31.840377475875599 -3.0209996210036394 0 -3.0209996210036394 -20.243756717686558 0 0 0 0 -111.58137486293344 -204.72246407591251 0 -204.72246407591251 -115.71759610088884 0 0 0 0 -36.470882245815119 -19.386742200404683 0 -19.386742200404683 22.243059949214512 0 0 0 0 -8.0253941259106796 -122.68706132311354 0 -122.68706132311354 5.4698784128086118 0 0 0 0 121.94073008498526 -31.231663771295644 0 -31.231663771295644 24.427699557028973 0 0 0 0 116.168256593265 -48.093781501957309 0 -48.093781501957309 15.870345211683027 0 0 0 0 159.73595363554887 -323.5760645356346 0 -323.5760645356346 -15.727801819156866 0 0 0 0 3.4744390547602961 -104.71371649717867 0 -104.71371649717867 -17.328687822569691 0 0 0 0 118.04959062255719 -51.836878836764356 0 -51.836878836764356 17.264474569766531 0 0 0 0 138.32594115795655 -53.913779887451255 0 -53.913779887451255 26.677581626481697 0 0 0 0 170.27663370476512 -281.44243546790551 0 -281.44243546790551 -225.24878811518181 0 0 0 0 169.15712468812126 -66.427991216674855 0 -66.427991216674855 -53.808816103446588 0 0 0 0 140.2176593520926 -42.495930655724806 0 -42.495930655724806 -127.5730371330967 0 0 0 0 180.84310792441829 -89.63687212453533 0 -89.63687212453533 -10.369901715079322 0 0 0 0 38.633163879519998 -15.757424388001176 0 -15.757424388001176 -7.6750084168334141 0 0 0 0 134.99909597922669 -40.822254149561559 0 -40.822254149561559 -118.2843184738249 0 0 0 0 104.64274355840811 -44.192737576515128 0 -44.192737576515128 15.348235378328981 0 0 0 0 865.47463448453527 -17.028744188367682 0 -17.028744188367682 -530.74219453104433 0 0 0 0 28.812013067412469 -6.9972948927229552 0 -6.9972948927229552 -1.1092290596715504 0 0 0 0 350.67809487112754 238.01996345576731 0 238.01996345576731 646.69241785763552 0 0 0 0 548.30401252477895 482.65119472602328 0 482.65119472602328 590.70774288552457 0 0 0 0 365.0885974210953 -494.60058542526076 0 -494.60058542526076 -56.611222724352046 0 0 0 0 988.65139574237583 223.63426905672986 0 223.63426905672986 -218.51282371809612 0 0 0 0 729.67241469016517 -535.84810969268483 0 -535.84810969268483 -984.2553491239305 0 0 0 0 9.640648521744879 -194.7723327402523 0 -194.7723327402523 256.60555850041055 0 0 0 0 -29.293973320738587 14.462336469709953 0 14.462336469709953 194.17527534280941 0 0 0 0 0.40752911234312705 -0.5728413685507121 0 -0.5728413685507121 5.7313574335497517 0 0 0 0 2.1462383661491913 -3.153682922714097 0 -3.153682922714097 19.753109600918833 0 0 0 0 0.89934857232695364 -5.0620698736048553 0 -5.0620698736048553 15.745522212866177 0 0 0 0 0.21903454927678112 -3.7216154838751976 0 -3.7216154838751976 0.19621262624417568 0 0 0 0 13.428968835911292 -31.925963511717782 0 -31.925963511717782 12.110609526680491 0 0 0 0 24.733612503740005 34.676636049017475 0 34.676636049017475 182.30948375720118 0 0 0 0 0.90914435484048184 5.0886274518068308 0 5.0886274518068308 1.1968412776583861 0 0 0 0 339.28496881575302 -52.234206101449672 0 -52.234206101449672 17.698212439057897 0 0 0 0 228.81816510110457 41.937526902506477 0 41.937526902506477 -40.172397716845808 0 0 0 0 214.38964055634278 -40.608789602980323 0 -40.608789602980323 116.94419843215746 0 0 0 0 102.64989665257599 -0.69708787355693858 0 -0.69708787355693858 19.936032808075197 0 0 0 0 96.605951439907074 -19.137298879057003 0 -19.137298879057003 -2.9082722910072221 0 0 0 0 119.32146405557069 -20.932276849614937 0 -20.932276849614937 6.6959279129105198 0 0 0 0 47.791570733355911 -50.44122986532193 0 -50.44122986532193 49.422678941338745 0 0 0 0 26.32833448338679 -4.9519084514269416 0 -4.9519084514269416 6.7196100484235242 0 0 0 0 89.313744313167263 -20.569512827283688 0 -20.569512827283688 6.702422881340155 0 0 0 0 90.172987074933189 0.33612761973745364 0 0.33612761973745364 -1.7610088874116627 0 0 0 0 79.541586710362026 -10.987019573579346 0 -10.987019573579346 2.601282521489793 0 0 0 0 72.252789853078411 -18.512573735032447 0 -18.512573735032447 9.1223722157847078 0 0 0 0 69.241085962166835 -9.5100614458506243 0 -9.5100614458506243 5.1354196536922245 0 0 0 0 41.521951790295134 -16.852143054534281 0 -16.852143054534281 9.5846550514293085 0 0 0 0 38.569820251799953 -6.6745266439240005 0 -6.6745266439240005 -0.5940133568196746 0 0 0 0 25.126424295925972 -1.7663000743182238 0 -1.7663000743182238 -5.3863021934739663 0 0 0 0 68.193922094895242 -3.9715350112828673 0 -3.9715350112828673 4.115667864210991 0 0 0 0 78.765242604109517 -2.9430485788161604 0 -2.9430485788161604 6.0373226189212801 0 0 0 0 485.44753451252473 -156.23845056409527 0 -156.23845056409527 64.250558866595043 0 0 0 0 75.227780322100443 9.6245639939329521 0 9.6245639939329521 -12.36366807502236 0 0 0 0 6.9539858084112112 2.8320135012454415 0 2.8320135012454415 -2.5472693675193909 0 0 0 0 188.90999575539354 -204.51617985680195 0 -204.51617985680195 133.39807723302147 0 0 0 0 192.76144144808677 -227.88031987888462 0 -227.88031987888462 4.702442449451155 0 0 0 0 258.86210436084366 -99.999395891729819 0 -99.999395891729819 -117.27072255485291 0 0 0 0 265.73701493910085 -35.632904001225597 0 -35.632904001225597 105.68155996170844 0 0 0 0 310.57349707332742 -106.26942748784666 0 -106.26942748784666 65.397817966677394 0 0 0 0 12.004974990127835 -6.7504390356690855 0 -6.7504390356690855 5.9329379164344545 0 0 0 0 14.568005961222298 -3.5871765556053106 0 -3.5871765556053106 2.5184884030859394 0 0 0 0 34.806001604341873 1.0732417987392182 0 1.0732417987392182 -9.7796874902287527 0 0 0 0 -0.81119360589218559 40.272796475812356 0 40.272796475812356 14.033335998234179 0 0 0 0 43.363574928262096 50.16025941029875 0 50.16025941029875 12.008412733964633 0 0 0 0 17.273721309204596 1.2273047025749158 0 1.2273047025749158 10.217299918982906 0 0 0 0 19.260056839274377 7.2335341228215899 0 7.2335341228215899 4.052593951063054 0 0 0 0 10.407406853246357 57.334119430563987 0 57.334119430563987 -62.65652565637356 0 0 0 0 23.308816666670964 -6.7951078807264267 0 -6.7951078807264267 2.1997709546115036 0 0 0 0 10.904987941572472 6.0526894355025433 0 6.0526894355025433 16.122062969340732 0 0 0 0 55.340270371019869 -8.7227733648487629 0 -8.7227733648487629 -30.324873105644656 0 0 0 0 3.4307337592185831 24.002710670213673 0 24.002710670213673 -12.051509285105567 0 0 0 0 47.630983767679936 22.426148803655451 0 22.426148803655451 -91.971613207124392 0 0 0 0 6.0585003397872956 2.8955452047169095 0 2.8955452047169095 5.2065229992568938 0 0 0 0 71.659414583919897 -19.871540870043646 0 -19.871540870043646 -65.257149959099479 0 0 0 0 6.2106215341857869 10.682384529097707 0 10.682384529097707 15.688838449524901 0 0 0 0 17.031463703648114 7.3470643027503684 0 7.3470643027503684 22.85839813733628 0 0 0 0 351.9779803495494 -228.59779921724203 0 -228.59779921724203 62.342745019080873 0 0 0 0 260.19234904667064 -73.248755114854475 0 -73.248755114854475 74.718822426148108 0 0 0 0 359.97524454466475 -123.99034164356635 0 -123.99034164356635 97.303458972318367 0 0 0 0 429.30904257961174 4.634855809802616 0 4.634855809802616 3.7021650778733601 0 0 0 0 341.81364291430327 20.108433107955079 0 20.108433107955079 2.9341256020143192 0 0 0 0 2.1614841956497237 1.2612735776640775 0 1.2612735776640775 0.75610056531887793 0 0 0 0 28.079508982902553 10.31491240213677 0 10.31491240213677 121.82636368592603 0 0 0 0 740.60904098070205 -218.44142780289519 0 -218.44142780289519 -4.9290715697284213 0 0 0 0 258.35868807018051 -105.54031498145741 0 -105.54031498145741 81.496765542313142 0 0 0 0 288.08015946010255 -12.558175538277965 0 -12.558175538277965 16.535102557004393 0 0 0 0 352.78637460535629 87.90588996964857 0 87.90588996964857 81.167444993520803 0 0 0 0 339.42181575862742 -98.96128265667312 0 -98.96128265667312 168.65097054830539 0 0 0 0 291.23434151168249 68.663890301655499 0 68.663890301655499 -0.54277692432788172 0 0 0 0 -167.27292550069978 -75.141736507782298 0 -75.141736507782298 58.913755497168495 0 0 0 0 -43.166404391902688 120.43145687658034 0 120.43145687658034 102.81501179784618 0 0 0 0 -1.2253321316677699 1.1870796593652706 0 1.1870796593652706 -0.40634684918695996 0 0 0 0 319.95092103686147 252.92450307053969 0 252.92450307053969 132.52765033116111 0 0 0 0 -1.1874176461807764 4.0385590795845729 0 4.0385590795845729 -2.3370324880854394 0 0 0 0 320.32064053143404 259.32882673321114 0 259.32882673321114 152.99250841554203 0 0 0 0 235.47492963696459 171.17855789762189 0 171.17855789762189 193.95879854277177 0 0 0 0 -28.008587768581492 43.561542432936676 0 43.561542432936676 11.693168517982031 0 0 0 0 9.9873413375680684 54.830728402019759 0 54.830728402019759 7.748551124439814 0 0 0 0 14.814698736619903 20.343660283340796 0 20.343660283340796 99.848617228016565 0 0 0 0 37.573735024687608 2.4299322807331407 0 2.4299322807331407 -120.48832158848518 0 0 0 0 40.428427769307746 77.194033729108241 0 77.194033729108241 -14.254989252268615 0 0 0 0 -47.438691711744468 10.090871405061193 0 10.090871405061193 -15.331586100356617 0 0 0 0 14.256432837311635 2.3307586678742025 0 2.3307586678742025 -1.6708702473990815 0 0 0 0 5.5879019948761197 47.838636698535538 0 47.838636698535538 -30.182385674432226 0 0 0 0 16.395876529568405 5.0312062462298508 0 5.0312062462298508 -2.0962644589105777 0 0 0 0 95.573463707994961 1.2179906401208882 0 1.2179906401208882 -291.37726266662037 0 0 0 0 14.200349042925154 0.79490343239581307 0 0.79490343239581307 -9.080639420109037 0 0 0 0 64.122917442142352 6.3042152099661735 0 6.3042152099661735 -2.2004706617067882 0 0 0 0 19.407315812861199 5.4317450327070667 0 5.4317450327070667 0.31104343944306057 0 0 0 0 76.305377031301759 112.94754225204917 0 112.94754225204917 -239.72204587241771 0 0 0 0 2.6871865170318472 2.9075956754534804 0 2.9075956754534804 0.1924142537671778 0 0 0 0 373.68543448102719 -343.82212006000532 0 -343.82212006000532 296.28306417763679 0 0 0 0 561.78075342252487 28.122975598502308 0 28.122975598502308 -28.247931939085447 0 0 0 0 24.786695922384752 -18.58453701576866 0 -18.58453701576866 27.159978769884219 0 0 0 0 448.63361372820145 -202.77402106712543 0 -202.77402106712543 -63.355133845200662 0 0 0 0 594.56090940934155 -99.749660658527318 0 -99.749660658527318 8.7496134434586565 0 0 0 0 303.87638861168671 -246.23028677624507 0 -246.23028677624507 -129.25129053830983 0 0 0 0 577.89130408855999 -67.899535898810655 0 -67.899535898810655 -42.648160022983575 0 0 0 0 99.291109436677971 -204.23513262158141 0 -204.23513262158141 68.117387068675271 0 0 0 0 124.37358433238114 100.12314570743888 0 100.12314570743888 -16.185773400851758 0 0 0 0 0.25826219048209254 -1.3257586975650479 0 -1.3257586975650479 0.58677591246965743 0 0 0 0 56.668844962670846 415.45940091020884 0 415.45940091020884 -34.413007294254385 0 0 0 0 793.73151613369191 -162.70243852396629 0 -162.70243852396629 -54.144095866613611 0 0 0 0 4.2291017243006053 1.6747457381904161 0 1.6747457381904161 0.39951615300480281 0 0 0 0 461.82526653883542 281.34414742934177 0 281.34414742934177 247.23819857315289 0 0 0 0 653.59802935232779 353.48287599593766 0 353.48287599593766 126.66175161263527 0 0 0 0 526.91665165681661 245.41985402404293 0 245.41985402404293 56.440566602941999 0 0 0 0 322.77897726183801 244.65341390184017 0 244.65341390184017 191.83480043574491 0 0 0 0 461.62049788470364 285.94186802469807 0 285.94186802469807 180.27969097815549 0 0 0 0 323.70368452150069 221.5441929207941 0 221.5441929207941 214.2590287492294 0 0 0 0 366.57656184271036 134.36583338752234 0 134.36583338752234 47.329334194196008 0 0 0 0 254.41835656451985 306.55476843774568 0 306.55476843774568 246.19646987810302 0 0 0 0 0.10384172288716798 0.14398417544786435 0 0.14398417544786435 -0.7637640920890707 0 0 0 0 13.93116765843348 0.30537517864272345 0 0.30537517864272345 -3.9196765300494056 0 0 0 0 9.8068631629028395 -0.96091129197359848 0 -0.96091129197359848 -4.2439609953866437 0 0 0 0 15.342810312144138 2.7454789509770308 0 2.7454789509770308 -7.069326058758179 0 0 0 0 651.54095773468089 613.98760332780364 0 613.98760332780364 461.43753395016483 0 0 0 0 286.79385289356742 200.53046796752892 0 200.53046796752892 246.37810812843327 0 0 0 0 660.70356439636271 168.34101258891542 0 168.34101258891542 188.11111265260763 0 0 0 0 526.85180443112768 298.82661230257918 0 298.82661230257918 126.98770596510349 0 0 0 0 740.55212273467805 286.62681098211465 0 286.62681098211465 68.69190218126414 0 0 0 0 799.1433152442969 245.46501461393063 0 245.46501461393063 -1.5899857319645889 0 0 0 0 1146.258648425166 295.2291844780475 0 295.2291844780475 33.995366494457357 0 0 0 0 889.73417513700406 -39.238787798905832 0 -39.238787798905832 358.59987266833468 0 0 0 0 831.92479753106272 66.338715501975116 0 66.338715501975116 179.83638982724369 0 0 0 0 324.99207110538191 86.002656563907749 0 86.002656563907749 201.64640345367707 0 0 0 0 674.50155399157848 26.75198061586957 0 26.75198061586957 205.30639260839189 0 0 0 0 1551.1449723470432 266.77578149189117 0 266.77578149189117 -27.658865724045427 0 0 0 0 1208.291866105088 -46.538899029967411 0 -46.538899029967411 -30.701626084568488 0 0 0 0 942.90957258042363 181.70544131020904 0 181.70544131020904 71.812529093791454 0 0 0 0 542.43890780711808 35.788490169257784 0 35.788490169257784 365.41381957227622 0 0 0 0 944.99200417341217 170.90608431530313 0 170.90608431530313 124.14230051987852 0 0 0 0 1173.7530358361219 511.63913354824035 0 511.63913354824035 536.67617418163366 0 0 0 0 1254.6722788652969 487.48048078885199 0 487.48048078885199 -65.664091795549211 0 0 0 0 2.526906373437356 -1.3785846400622894 0 -1.3785846400622894 -1.1675494335879044 0 0 0 0 1534.4280650540313 444.90151740464557 0 444.90151740464557 -93.188502915905588 0 0 0 0 -385.07398730046225 -454.97291711797538 0 -454.97291711797538 -146.17366853641283 0 0 0 0 183.88371939094213 -82.773160045618852 0 -82.773160045618852 -311.30211658008761 0 0 0 0 7.4944497734607651 -0.34105214754440638 0 -0.34105214754440638 -5.5119031425364522 0 0 0 0 6.6951010351046918 -1.947706005365303 0 -1.947706005365303 -1.428540584105038 0 0 0 0 -141.03235230031351 -271.60898575024828 0 -271.60898575024828 -205.99282407755072 0 0 0 0 374.40649480108186 -207.87842974370733 0 -207.87842974370733 105.86844512308767 0 0 0 0 37.592806754040794 -77.44196216206592 0 -77.44196216206592 -281.76548362739629 0 0 0 0 172.62903781348905 24.889884875107327 0 24.889884875107327 -190.10655632056796 0 0 0 0 41.492986195253252 24.586237360490941 0 24.586237360490941 34.740992956938953 0 0 0 0 157.57640647339031 -10.877657012948013 0 -10.877657012948013 38.15287897576809 0 0 0 0 227.97089502423751 214.51736428777701 0 214.51736428777701 167.88266769612301 0 0 0 0 31.526958489790374 -15.42812839985077 0 -15.42812839985077 8.4526993234100427 0 0 0 0 106.54850031569549 285.2406368608074 0 285.2406368608074 501.29475795137114 0 0 0 0 926.99989361664484 453.2152335089653 0 453.2152335089653 502.73842195763905 0 0 0 0 81.545048689849864 61.760946965374444 0 61.760946965374444 330.83939425864355 0 0 0 0 890.18740779123618 -171.46925854904953 0 -171.46925854904953 -232.13105799105091 0 0 0 0 778.07495281214688 -69.335444119840304 0 -69.335444119840304 119.65371090382473 0 0 0 0 983.69143845894723 -229.62475405090083 0 -229.62475405090083 134.66556586320078 0 0 0 0 760.16842350246952 -32.287766929455756 0 -32.287766929455756 57.968493053154361 0 0 0 0 76.195531272209337 230.89554891581497 0 230.89554891581497 237.45737854893628 0 0 0 0 189.06464589560164 151.58797927538467 0 151.58797927538467 54.108286343863938 0 0 0 0 118.38811696712582 236.59684080945476 0 236.59684080945476 11.640047528721425 0 0 0 0 78.626154351659352 106.13330437442073 0 106.13330437442073 120.2361917504993 0 0 0 0 6.7376406606229082 2.3287976281540299 0 2.3287976281540299 1.085144879240227 0 0 0 0 36.97039290957764 267.74151386450694 0 267.74151386450694 1.0763424391707304 0 0 0 0 -73.993747262340548 181.91422244223338 0 181.91422244223338 82.960114022282141 0 0 0 0 27.15913911473217 -1.1585056336876391 0 -1.1585056336876391 -49.600472994464326 0 0 0 0 37.740103654507948 -16.131636836868125 0 -16.131636836868125 -103.46745353806227 0 0 0 0 -4.6984016722071829 -97.758729889041319 0 -97.758729889041319 -147.11544242744685 0 0 0 0 97.531467390437683 -27.898344907910769 0 -27.898344907910769 36.9711083145271 0 0 0 0 99.356013959852135 13.932493164506354 0 13.932493164506354 198.16794257138758 0 0 0 0 148.39262321145725 112.32321708825498 0 112.32321708825498 -69.3522712075291 0 0 0 0 133.2549862181769 226.70080640485816 0 226.70080640485816 352.96200675398541 0 0 0 0 100.41906595217006 -262.92701622035474 0 -262.92701622035474 -187.84391235906332 0 0 0 0 56.053771916758222 -24.672817390631852 0 -24.672817390631852 11.036443257463764 0 0 0 0 155.9661239836496 50.146899937925355 0 50.146899937925355 257.46072872031937 0 0 0 0 146.71230579299879 155.82469139248269 0 155.82469139248269 117.10200557689313 0 0 0 0 -60.974060869997629 -152.27975194428222 0 -152.27975194428222 172.76232121007729 0 0 0 0 -65.614195811784157 -104.8780064489556 0 -104.8780064489556 -31.678589891728961 0 0 0 0 3.9850002855218918 -70.025734167413816 0 -70.025734167413816 -34.801409700108707 0 0 0 0 226.70993567741971 3.279922980090987 0 3.279922980090987 -34.36119628813266 0 0 0 0 80.686239838524742 -33.910942401405009 0 -33.910942401405009 14.46837919831856 0 0 0 0 136.1557902036584 -45.903055140439847 0 -45.903055140439847 -205.86741108783235 0 0 0 0 81.154640209089848 -58.71029725601511 0 -58.71029725601511 -123.04009260393468 0 0 0 0 93.066265945322812 -128.05769044404587 0 -128.05769044404587 -243.44595722497252 0 0 0 0 91.654298723675311 -33.999816102822024 0 -33.999816102822024 -127.12315329658668 0 0 0 0 87.24666731893376 -108.23694618483705 0 -108.23694618483705 -75.502535156286513 0 0 0 0 -0.76916926014382625 -87.270944690873762 0 -87.270944690873762 183.67219563411527 0 0 0 0 -32.132761477216263 -95.168578633400728 0 -95.168578633400728 200.76696143913034 0 0 0 0 55.914415718711098 -90.571048364822616 0 -90.571048364822616 101.93877677159571 0 0 0 0 45.45180958842684 -94.076575995251659 0 -94.076575995251659 187.61014602391833 0 0 0 0 -22.479212450911291 -14.899656825698003 0 -14.899656825698003 115.58277544179145 0 0 0 0 74.316121669900895 -117.02185144398987 0 -117.02185144398987 139.94555475706375 0 0 0 0 205.6502199496972 -218.33851333337952 0 -218.33851333337952 179.02011401199002 0 0 0 0 209.67357281476143 -138.58849585335338 0 -138.58849585335338 51.35509058676098 0 0 0 0 48.515172544965026 -34.619630932705206 0 -34.619630932705206 247.24196093265118 0 0 0 0 16.079438910937824 -131.12270241364229 0 -131.12270241364229 290.72200128822647 0 0 0 0 -1.9909002925468542 -4.058707185173688 0 -4.058707185173688 5.5420865592104747 0 0 0 0 -70.984922235264094 -127.41474661831683 0 -127.41474661831683 252.92096018806558 0 0 0 0 188.68039247415436 -313.23866002958783 0 -313.23866002958783 127.20040512467403 0 0 0 0 -68.817727198791545 -153.98976010279893 0 -153.98976010279893 -112.09818402256042 0 0 0 0 -126.10735770153769 -200.82371224432063 0 -200.82371224432063 177.10256207896236 0 0 0 0 9.5810163360667246 -2.0685724741024174 0 -2.0685724741024174 4.3764523902356878 0 0 0 0 38.974902124231448 29.253164221471025 0 29.253164221471025 -5.2850754066007539 0 0 0 0 4.0364166602157638 -67.102821782266346 0 -67.102821782266346 -79.238622347369756 0 0 0 0 138.61116599501838 45.858194851072767 0 45.858194851072767 31.052560869208662 0 0 0 0 355.32835207801509 10.610342393415902 0 10.610342393415902 22.911874919539798 0 0 0 0 54.882853550667278 -0.39045025324116978 0 -0.39045025324116978 10.096906702325668 0 0 0 0 91.847336878032365 29.987910722085871 0 29.987910722085871 -35.741766377163913 0 0 0 0 16.947930493910462 11.760471516430755 0 11.760471516430755 12.380897348819872 0 0 0 0 34.656396714544684 4.6412339036295762 0 4.6412339036295762 -10.604735965926039 0 0 0 0 98.152827447775053 -36.88249003280248 0 -36.88249003280248 16.672844290841567 0 0 0 0 30.090108366335812 6.6232760678259126 0 6.6232760678259126 2.9508492948919072 0 0 0 0 36.069574901468513 37.991876955440034 0 37.991876955440034 -3.2494034035885306 0 0 0 0 58.817472874827217 -31.821534892023919 0 -31.821534892023919 21.722925919205863 0 0 0 0 24.746869568145584 1.4128987187036444 0 1.4128987187036444 -10.955211349130495 0 0 0 0 84.801578403832536 -17.426640825214236 0 -17.426640825214236 -12.265761434979822 0 0 0 0 66.642812997248257 22.294658601173978 0 22.294658601173978 -36.988469852340131 0 0 0 0 66.997062501228356 -4.2172390652631293 0 -4.2172390652631293 4.6097173551333981 0 0 0 0 40.600377906194922 3.1861478139235686 0 3.1861478139235686 -8.790300040580167 0 0 0 0 22.286648762354162 -8.3224336182684056 0 -8.3224336182684056 -16.100165683012165 0 0 0 0 48.351459534799375 -27.386822525998284 0 -27.386822525998284 12.746210839612674 0 0 0 0 59.249532832340265 -5.2909353352763446 0 -5.2909353352763446 -69.374457954381796 0 0 0 0 38.342887179190001 -13.386169204472282 0 -13.386169204472282 0.77320996586198731 0 0 0 0 46.059256798883624 -9.9790357668452572 0 -9.9790357668452572 3.3211640182159661 0 0 0 0 4.6114676423676428 -10.037820779035428 0 -10.037820779035428 -26.422291219007093 0 0 0 0 64.789310566804488 -57.552474603919791 0 -57.552474603919791 -0.63183884266197765 0 0 0 0 202.7763413238863 100.85949042448647 0 100.85949042448647 -129.99257520709989 0 0 0 0 48.24334849005308 -24.077798993429315 0 -24.077798993429315 11.910710948590609 0 0 0 0 7.7232315903291635 2.1335463302895548 0 2.1335463302895548 0.60956997595677009 0 0 0 0 38.318903122817574 -23.300480122984368 0 -23.300480122984368 2.4662187785270362 0 0 0 0 99.402488506981172 -43.486159768629591 0 -43.486159768629591 9.0222505698559416 0 0 0 0 123.41767773343599 -109.42159403758978 0 -109.42159403758978 -14.85559922803759 0 0 0 0 -29.878619898128818 -175.23359102869131 0 -175.23359102869131 247.80723720411515 0 0 0 0 107.86636083534358 -27.728850175345912 0 -27.728850175345912 78.122455076462757 0 0 0 0 103.85826716555493 -65.240197688031458 0 -65.240197688031458 8.4580857539058343 0 0 0 0 92.320023906286224 -115.47015374586317 0 -115.47015374586317 94.964559300797191 0 0 0 0 120.85378267316992 -72.502922217997252 0 -72.502922217997252 5.1200265868419592 0 0 0 0 39.193175663036527 -100.19231313258751 0 -100.19231313258751 -9.8577076599103748 0 0 0 0 53.828282966191182 -63.157900859696383 0 -63.157900859696383 7.5622767483123425 0 0 0 0 121.73946003387209 -43.283109039436795 0 -43.283109039436795 -17.06881183405676 0 0 0 0 536.88556169225194 229.05098207763348 0 229.05098207763348 117.0418981304922 0 0 0 0 708.00026263049222 305.52911532856501 0 305.52911532856501 87.498088685234848 0 0 0 0 716.77991896895401 372.7267132907391 0 372.7267132907391 -249.89568497971686 0 0 0 0 609.45054843907201 -76.45572735679167 0 -76.45572735679167 602.19509741667173 0 0 0 0 492.21107705382201 322.19132928925688 0 322.19132928925688 590.92430450249651 0 0 0 0 767.84125537706132 60.53318578837127 0 60.53318578837127 -286.08295507864688 0 0 0 0 622.78835057714605 513.58739509245925 0 513.58739509245925 269.96651805286911 0 0 0 0 1247.717564625169 -60.646192124623752 0 -60.646192124623752 -326.35255825668355 0 0 0 0 184.96601675807324 -262.57797484773937 0 -262.57797484773937 -398.14757937100785 0 0 0 0 357.99405155724162 -460.45889988770989 0 -460.45889988770989 -209.548076285457 0 0 0 0 101.47571125666582 -31.548253271630642 0 -31.548253271630642 -52.171353193526102 0 0 0 0 9.2580440679172682 -5.6217929535408153 0 -5.6217929535408153 4.6845412808240905 0 0 0 0 668.68787087146666 -520.11969131211549 0 -520.11969131211549 362.64321556806726 0 0 0 0 -72.746193436742033 56.591783367060884 0 56.591783367060884 913.58305707153875 0 0 0 0 -146.27433804320754 -178.31240542519413 0 -178.31240542519413 165.83578504136176 0 0 0 0 -503.15617980071693 -168.52187800478919 0 -168.52187800478919 361.7074051315941 0 0 0 0 46.62343125928237 25.711615636324382 0 25.711615636324382 214.93788858060498 0 0 0 0 -409.78507953172084 -333.58259608601247 0 -333.58259608601247 -257.16573621049201 0 0 0 0 -225.47092534512558 -402.62100191052934 0 -402.62100191052934 -213.69903711882034 0 0 0 0 -438.52993910446821 -538.47436447212749 0 -538.47436447212749 -463.63801095638155 0 0 0 0 104.76468241767498 -79.26011732193156 0 -79.26011732193156 -408.39994694680445 0 0 0 0 -592.47208367882922 -421.15159519146709 0 -421.15159519146709 -202.48263778796536 0 0 0 0 18.812124234658853 -8.9352126456991954 0 -8.9352126456991954 -6.9018446809256373 0 0 0 0 18.568722547289667 -4.2329346934639744 0 -4.2329346934639744 -5.6759250274059569 0 0 0 0 73.446814539602201 -84.758006585465409 0 -84.758006585465409 -445.28475160363382 0 0 0 0 108.63736326752769 -22.602948663204415 0 -22.602948663204415 11.922309721859165 0 0 0 0 94.905554273769667 -8.5135534549228282 0 -8.5135534549228282 20.425242072843048 0 0 0 0 84.967031474756368 -27.258820279145311 0 -27.258820279145311 11.141395191661161 0 0 0 0 95.034619967911567 -17.725012102272899 0 -17.725012102272899 -2.5229775077527847 0 0 0 0 87.430287888440944 -21.440866281782064 0 -21.440866281782064 16.283100034680103 0 0 0 0 231.9689300132377 -290.2661849075721 0 -290.2661849075721 -254.63475553082594 0 0 0 0 78.201404020235174 -22.5487586826208 0 -22.5487586826208 3.6991862198347403 0 0 0 0 101.48437138712143 58.992452230746721 0 58.992452230746721 -163.25435544026595 0 0 0 0 67.93370211353249 -25.075977841602253 0 -25.075977841602253 -281.94362400749606 0 0 0 0 87.462032379065931 -20.598239122313885 0 -20.598239122313885 15.360799814726079 0 0 0 0 79.07564487261358 -34.29260003246069 0 -34.29260003246069 5.8514763134593837 0 0 0 0 695.53990461192734 392.45851154972843 0 392.45851154972843 81.061755360404277 0 0 0 0 701.49548643907474 193.92419019566933 0 193.92419019566933 -289.96945844175843 0 0 0 0 825.04309826582721 287.31785256464053 0 287.31785256464053 -230.40590239120229 0 0 0 0 830.71357628521218 309.87017436161022 0 309.87017436161022 -192.68441830124448 0 0 0 0 770.56820813931881 261.42246778608023 0 261.42246778608023 -191.26212725334244 0 0 0 0 816.57842837409044 246.71147003943838 0 246.71147003943838 -228.16068908419311 0 0 0 0 13.614295880987754 2.7756668840219945 0 2.7756668840219945 -2.4609452430296077 0 0 0 0 28.753834817857214 -48.667194750962409 0 -48.667194750962409 2.0837085739088206 0 0 0 0 109.9432510967672 -47.356389605189179 0 -47.356389605189179 -18.629172234218004 0 0 0 0 166.27732149505027 -106.71696939031767 0 -106.71696939031767 -30.783019602450622 0 0 0 0 -248.73442535747745 117.94638767934293 0 117.94638767934293 972.46197434691931 0 0 0 0 -80.288515634411851 574.32024256888337 0 574.32024256888337 1234.8990176422776 0 0 0 0 29.40649377428845 -46.887520556684272 0 -46.887520556684272 9.5848963524598787 0 0 0 0 429.49414344495017 102.09108477408608 0 102.09108477408608 13.644365810443787 0 0 0 0 459.03159215791675 -35.759577537660334 0 -35.759577537660334 -107.67950818066856 0 0 0 0 115.73232462954365 -34.164179937592962 0 -34.164179937592962 1.9419235137931992 0 0 0 0 94.258076726095169 -33.89905156114105 0 -33.89905156114105 5.9977756375653826 0 0 0 0 337.1821269974389 -222.54084293204539 0 -222.54084293204539 -633.95732799351777 0 0 0 0 103.97905857408415 -26.069193034184487 0 -26.069193034184487 0.18786675367928218 0 0 0 0 98.283461424056441 -37.643314576657076 0 -37.643314576657076 -27.36121468773581 0 0 0 0 81.889038514898857 -24.781278742884524 0 -24.781278742884524 0.37403880866304462 0 0 0 0 12.942584091483695 143.85226031978902 0 143.85226031978902 179.85995213647448 0 0 0 0 1.6791127991546091 -93.46208894043184 0 -93.46208894043184 -192.31496485893103 0 0 0 0 197.66275115725148 332.17368638492894 0 332.17368638492894 65.770893771849614 0 0 0 0 -23.105919091043972 20.038372685852551 0 20.038372685852551 -3.6661804458003897 0 0 0 0 412.19617352043861 265.4848513160216 0 265.4848513160216 -70.610992549058665 0 0 0 0 331.11447579652304 398.98433001971466 0 398.98433001971466 319.13627819466546 0 0 0 0 218.28124394954648 242.6107448431103 0 242.6107448431103 106.28678855931003 0 0 0 0 36.253977737731475 198.0700321899003 0 198.0700321899003 -14.353905278349885 0 0 0 0 -34.853578224961893 -32.619067167391222 0 -32.619067167391222 300.6897410152942 0 0 0 0 -87.000895496166777 30.863320207429751 0 30.863320207429751 224.29723064282734 0 0 0 0 91.862892084027408 -2.1971076015879589 0 -2.1971076015879589 207.14051678465694 0 0 0 0 -49.232618793408619 124.24956037168522 0 124.24956037168522 141.43228166547397 0 0 0 0 -129.76633233751636 126.3002889139716 0 126.3002889139716 181.94980543362908 0 0 0 0 184.06451377482153 -241.04114128791116 0 -241.04114128791116 361.69919378231134 0 0 0 0 1501.1781342853792 439.84016945837766 0 439.84016945837766 451.80396142182917 0 0 0 0 4.6819013385568837 -2.8114178886664263 0 -2.8114178886664263 -0.28713159464946258 0 0 0 0 1289.3189166230586 18.098704397802067 0 18.098704397802067 48.90781886681134 0 0 0 0 795.56779070818448 626.67742169384337 0 626.67742169384337 419.1246256907732 0 0 0 0 94.975276294659125 -96.88639899973623 0 -96.88639899973623 287.57916721375705 0 0 0 0 16.824554023787471 -3.3515818243780728 0 -3.3515818243780728 3.1225663201314156 0 0 0 0 120.34829603551771 -327.40930866029612 0 -327.40930866029612 531.56347608270698 0 0 0 0 538.75539794815995 -470.75189964239246 0 -470.75189964239246 461.39144385017971 0 0 0 0 472.57439242098189 108.08636461895583 0 108.08636461895583 -578.4493128526135 0 0 0 0 -83.758784652280156 -261.05311574176449 0 -261.05311574176449 369.60378413447961 0 0 0 0 554.30358730824082 -50.50209211090106 0 -50.50209211090106 -86.931677295940744 0 0 0 0 450.85313993788441 -33.107807457227068 0 -33.107807457227068 46.166837365869057 0 0 0 0 765.28395349043421 241.79919826065674 0 241.79919826065674 -95.729812117593497 0 0 0 0 296.26428490196122 79.025577772284009 0 79.025577772284009 -138.2377199608149 0 0 0 0 -103.99117877142271 264.37686065004664 0 264.37686065004664 -130.43044440264941 0 0 0 0 46.636037877535273 -645.89512410069347 0 -645.89512410069347 41.463468666456265 0 0 0 0 -531.55814336905314 -284.87077758945361 0 -284.87077758945361 346.33820779723533 0 0 0 0 68.537770825321786 -438.56515000428908 0 -438.56515000428908 319.4727051259585 0 0 0 0 194.24996479114634 -406.62851419714389 0 -406.62851419714389 296.9385650764948 0 0 0 0 126.56162089022109 -248.18215305376452 0 -248.18215305376452 364.08758048747768 0 0 0 0 285.72756774026493 -288.33611819358282 0 -288.33611819358282 311.4238094148468 0 0 0 0 -182.53083911676367 -100.97834616160833 0 -100.97834616160833 -114.12734097295265 0 0 0 0 -0.0013754949503166358 -2.1431347030731445 0 -2.1431347030731445 3.3244113076005166 0 0 0 0 232.97472297474451 -187.05921357046418 0 -187.05921357046418 117.18808244359298 0 0 0 0 -144.72868562972144 -27.644306267263744 0 -27.644306267263744 27.210685680729966 0 0 0 0 20.320942118848809 -43.110148213482702 0 -43.110148213482702 -12.501789464574106 0 0 0 0 -82.408206326887012 -26.748560034845354 0 -26.748560034845354 -53.394736478743653 0 0 0 0 44.980240905213577 -12.535018177677102 0 -12.535018177677102 -21.524406086127101 0 0 0 0 -102.87176031470517 -84.874996970695605 0 -84.874996970695605 -182.55261809089643 0 0 0 0 107.24158793383623 -41.549366658623647 0 -41.549366658623647 0.24216896861259318 0 0 0 0 -5.7367502784301223 -62.390554323392976 0 -62.390554323392976 8.9012109550934753 0 0 0 0 53.275039479602128 -26.159134556919071 0 -26.159134556919071 3.5587144116302625 0 0 0 0 -108.3501229110625 -116.53749250931344 0 -116.53749250931344 -212.28112986204872 0 0 0 0 77.955067302216776 -55.523791042302946 0 -55.523791042302946 -12.059983566593473 0 0 0 0 104.08951795750789 -25.642115623161033 0 -25.642115623161033 -13.33652127992479 0 0 0 0 65.667965160193091 -48.668432725499841 0 -48.668432725499841 6.7069723193696396 0 0 0 0 38.746787344850681 -3.1073830926068808 0 -3.1073830926068808 -0.13264287898402571 0 0 0 0 34.915771381551167 73.261933578619505 0 73.261933578619505 193.95473739579239 0 0 0 0 -0.98308951783110388 -21.282446385405649 0 -21.282446385405649 58.062217459422982 0 0 0 0 6.1806939170992337 26.90658343038622 0 26.90658343038622 210.90544188645353 0 0 0 0 62.556328599908738 32.697321985327136 0 32.697321985327136 199.84694014433256 0 0 0 0 -0.989422514509954 0.75625290835583314 0 0.75625290835583314 1.6471488181780274 0 0 0 0 160.34188180512137 -115.77280259547717 0 -115.77280259547717 79.272275406389781 0 0 0 0 72.36043966323632 -38.645199940211143 0 -38.645199940211143 35.47628726080859 0 0 0 0 78.828464993828675 -44.311329428919976 0 -44.311329428919976 5.5315988170359276 0 0 0 0 50.219731301454885 16.241911987910839 0 16.241911987910839 9.5889743237200946 0 0 0 0 45.241910182507127 -63.86124759001666 0 -63.86124759001666 46.07697492104171 0 0 0 0 8.0086491126381816 -4.74973174335328 0 -4.74973174335328 4.7798481805728326 0 0 0 0 33.866409587692033 -0.78119029722365241 0 -0.78119029722365241 2.5027490775473158 0 0 0 0 33.762808087465601 -28.686859191162831 0 -28.686859191162831 2.2044657523341584 0 0 0 0 34.739966817825916 5.8118722118389883 0 5.8118722118389883 6.0115585689839008 0 0 0 0 24.037006028552611 -6.0363685637320117 0 -6.0363685637320117 3.2144030356291662 0 0 0 0 34.528362989382003 6.4874833415558442 0 6.4874833415558442 4.4356257199052607 0 0 0 0 38.978726539837297 18.311062011797816 0 18.311062011797816 16.889565605773711 0 0 0 0 88.010066294786157 -35.347023114423791 0 -35.347023114423791 -20.523123952414153 0 0 0 0 86.452237564189829 -13.188308206205058 0 -13.188308206205058 -5.415095848350493 0 0 0 0 187.14844234347402 57.164327031699031 0 57.164327031699031 -113.40161720914546 0 0 0 0 109.8241971573334 105.59402029842445 0 105.59402029842445 54.769269344910867 0 0 0 0 -6.2971188468573018 -11.101382366061516 0 -11.101382366061516 81.224680195619925 0 0 0 0 -19.752995084016902 15.479875422238521 0 15.479875422238521 5.6865512281288941 0 0 0 0 63.394572537363274 22.474647804473022 0 22.474647804473022 26.756390866938716 0 0 0 0 -4.319070272483259 -23.08145998640326 0 -23.08145998640326 123.63419490264675 0 0 0 0 -1.6322208907458702 -0.3978780816762395 0 -0.3978780816762395 3.4361806955274119 0 0 0 0 -28.917898070687368 52.104635707918028 0 52.104635707918028 197.28583754372596 0 0 0 0 91.728164241823833 176.86082179073071 0 176.86082179073071 5.2968155590517654 0 0 0 0 5.1054511860565981 93.238703620482738 0 93.238703620482738 -43.415307681364993 0 0 0 0 -28.913921316257813 69.786632324769982 0 69.786632324769982 50.163158559363609 0 0 0 0 -4.1912241609534249 66.457526137813147 0 66.457526137813147 29.975950498639122 0 0 0 0 73.396277514389226 12.528098484904994 0 12.528098484904994 -4.7867504591083012 0 0 0 0 116.64305749323103 48.924886698685441 0 48.924886698685441 -46.167580684123095 0 0 0 0 -29.559584373317193 125.67595797412764 0 125.67595797412764 -0.50493769510524089 0 0 0 0 -2.5380932545958785 141.29736193978601 0 141.29736193978601 -59.748632111604934 0 0 0 0 11.600263439606351 234.60178525189508 0 234.60178525189508 -210.85616194068905 0 0 0 0 31.234341337640217 61.073185370611895 0 61.073185370611895 -103.11384577896797 0 0 0 0 7.9404203902231529 48.764216153109146 0 48.764216153109146 -181.40497729315916 0 0 0 0 10.624479474976397 1.6581725542008314 0 1.6581725542008314 80.368010412016929 0 0 0 0 -12.756050772637536 87.048711073154891 0 87.048711073154891 190.16207154615194 0 0 0 0 -22.462808510728792 81.61908544763881 0 81.61908544763881 295.18017448656474 0 0 0 0 49.052975674538175 201.43322998636017 0 201.43322998636017 -37.956453029765726 0 0 0 0 -18.338255570895853 79.288262664337935 0 79.288262664337935 77.411787061892255 0 0 0 0 178.64302837688592 144.57589211217731 0 144.57589211217731 -171.05531676650889 0 0 0 0 242.60035653882369 27.376627206183912 0 27.376627206183912 53.069723157356293 0 0 0 0 59.660837210394675 16.582090431786924 0 16.582090431786924 57.008586602359117 0 0 0 0 305.37115680439456 -117.5655684657869 0 -117.5655684657869 216.48881901440359 0 0 0 0 177.53138825255155 63.919251038806351 0 63.919251038806351 472.07307792951235 0 0 0 0 185.33314242774941 -1.1878243504908426 0 -1.1878243504908426 227.77059161194211 0 0 0 0 139.26785866102728 73.670954898421087 0 73.670954898421087 68.385369115472542 0 0 0 0 214.30716011647564 199.72033959939415 0 199.72033959939415 275.21460960918762 0 0 0 0 65.187411144783255 -22.311576604644472 0 -22.311576604644472 410.66078784911622 0 0 0 0 97.166540943813743 -129.17421368974016 0 -129.17421368974016 221.03651203614834 0 0 0 0 318.47834876320485 119.02896569295945 0 119.02896569295945 111.66082615929281 0 0 0 0 371.91933628478728 221.79622940842842 0 221.79622940842842 286.17027430017572 0 0 0 0 0.63005411347465667 -0.8149842680763868 0 -0.8149842680763868 3.2436511211856747 0 0 0 0 431.3908057855806 41.487871071549421 0 41.487871071549421 36.016223078372263 0 0 0 0 161.23130017195945 8.2082509190283872 0 8.2082509190283872 -3.5983799288223395 0 0 0 0 43.474059315893101 32.833980898217646 0 32.833980898217646 11.672016829159304 0 0 0 0 256.27581628630287 -109.42851374095335 0 -109.42851374095335 41.781452380466476 0 0 0 0 218.23708553762117 -92.393361003706787 0 -92.393361003706787 130.51861436038442 0 0 0 0 189.23236132473903 -96.548747845870764 0 -96.548747845870764 131.8549348469387 0 0 0 0 369.79897275542316 -29.291053691328216 0 -29.291053691328216 97.835299477138278 0 0 0 0 355.95403286076908 50.28657228646307 0 50.28657228646307 48.147078767328139 0 0 0 0 210.82803971861722 65.941081038744755 0 65.941081038744755 302.65237487601939 0 0 0 0 220.52366214289214 -40.997971852293858 0 -40.997971852293858 169.46632298807867 0 0 0 0 212.28266721932596 -8.1286894245961321 0 -8.1286894245961321 191.17563767193622 0 0 0 0 139.09956344940383 -61.896294057220729 0 -61.896294057220729 235.42867050923655 0 0 0 0 131.26295380595184 -11.018231885870051 0 -11.018231885870051 225.76832994092138 0 0 0 0 160.27048061290407 -48.643553802050974 0 -48.643553802050974 192.57558359743143 0 0 0 0 182.35948763563647 -5.4928137580709517 0 -5.4928137580709517 234.59083342096983 0 0 0 0 204.52846950048843 -28.948048054904802 0 -28.948048054904802 60.816200381989574 0 0 0 0 170.42809161702462 -38.745010630319712 0 -38.745010630319712 58.15525425111332 0 0 0 0 167.48681109227982 -87.088685666039055 0 -87.088685666039055 173.42693507569084 0 0 0 0 36.142958083131816 88.198646757587994 0 88.198646757587994 140.79408070464569 0 0 0 0 161.68277142410079 4.7495641429242994 0 4.7495641429242994 189.39203605325747 0 0 0 0 174.60246710525826 -21.625080260466007 0 -21.625080260466007 158.12662028485329 0 0 0 0 -73.283701902364555 76.928675027782674 0 76.928675027782674 263.53264691414483 0 0 0 0 -33.030084666781477 1.8049612888110005 0 1.8049612888110005 263.61462848395911 0 0 0 0 -158.71344397773646 8.0890714475772256 0 8.0890714475772256 636.21546905823288 0 0 0 0 229.62412652128114 -292.44044688850579 0 -292.44044688850579 439.16884244917537 0 0 0 0 46.991826015415427 -16.859587729542113 0 -16.859587729542113 223.67497525225383 0 0 0 0 70.244097091461299 -100.98811763091999 0 -100.98811763091999 377.09960195935525 0 0 0 0 1609.3673918176905 -1404.9980551524891 0 -1404.9980551524891 873.38006658643462 0 0 0 0 510.86383277810819 -140.36324074929371 0 -140.36324074929371 543.16374249206638 0 0 0 0 1556.368761108379 792.07492969723012 0 792.07492969723012 1374.7014337508126 0 0 0 0 -28.026621560886269 -445.13068441328232 0 -445.13068441328232 2691.488906538842 0 0 0 0 66.124568939907476 -454.90758443526784 0 -454.90758443526784 697.58870778271876 0 0 0 0 -136.39008771215595 206.02761548722265 0 206.02761548722265 1179.6853711082595 0 0 0 0 -9.5086428526847158 31.901248735669469 0 31.901248735669469 236.21447279340146 0 0 0 0 274.81152491942839 -463.82788727861748 0 -463.82788727861748 -114.08021035045522 0 0 0 0 -0.83653845161656193 -2.020914860733086 0 -2.020914860733086 -0.63311779390558165 0 0 0 0 197.02968215492729 -534.46770352409987 0 -534.46770352409987 727.24452992591 0 0 0 0 304.59356995388953 -147.93298615855463 0 -147.93298615855463 -33.873755790511268 0 0 0 0 1376.5537721051951 -1287.2359041354212 0 -1287.2359041354212 970.87875974076678 0 0 0 0 81.167801404302736 -358.24215427656731 0 -358.24215427656731 -212.22160036446439 0 0 0 0 -196.12147008861211 264.48028693321334 0 264.48028693321334 -262.35762501461846 0 0 0 0 -175.59361733782862 -17.187483590071452 0 -17.187483590071452 311.61737352107656 0 0 0 0 282.21447251455538 -188.19916983430417 0 -188.19916983430417 -25.019007815660188 0 0 0 0 10.312685236742709 12.012678664052686 0 12.012678664052686 8.0120939374307358 0 0 0 0 427.58031287708218 -85.665675014375893 0 -85.665675014375893 116.59942313029296 0 0 0 0 154.39149820793682 -109.04951472636685 0 -109.04951472636685 228.50182601536801 0 0 0 0 98.027691995946952 -119.94823531752263 0 -119.94823531752263 249.75494009688464 0 0 0 0 123.37777416917379 -163.15658318553631 0 -163.15658318553631 256.91987788282603 0 0 0 0 -1.4310171735789936 -2.657796433511308 0 -2.657796433511308 -2.204343589579163 0 0 0 0 133.8223955150097 -153.08740459207399 0 -153.08740459207399 138.88776177448608 0 0 0 0 199.45264480770129 -122.47404368120147 0 -122.47404368120147 86.675830430961128 0 0 0 0 -0.26230440433111823 -1.0011957034419368 0 -1.0011957034419368 -1.2369156887472696 0 0 0 0 -13.47512739879312 -94.646198781571172 0 -94.646198781571172 116.94384050237841 0 0 0 0 244.95812208610005 -161.30747252499839 0 -161.30747252499839 16.671125219525493 0 0 0 0 306.80191203107825 -141.30645697849991 0 -141.30645697849991 55.178322527462115 0 0 0 0 320.54341591260163 -164.19572757949072 0 -164.19572757949072 93.121278943365269 0 0 0 0 -223.26261007352878 122.01406116617045 0 122.01406116617045 44.889690640636104 0 0 0 0 12.979969251210051 14.502235899490941 0 14.502235899490941 7.9286711554997993 0 0 0 0 325.90585079276207 -120.52051737943111 0 -120.52051737943111 -31.539050700423104 0 0 0 0 305.17066288935166 -122.12593731275319 0 -122.12593731275319 66.206802599964703 0 0 0 0 306.49476323207818 -55.897800627920986 0 -55.897800627920986 -43.603124210627357 0 0 0 0 300.6744031522685 -103.7439906304503 0 -103.7439906304503 -11.646191658798671 0 0 0 0 306.06338075778694 -56.503785270184594 0 -56.503785270184594 36.571925205366824 0 0 0 0 274.59555748919593 -80.993782449850642 0 -80.993782449850642 20.471155856282621 0 0 0 0 238.8449629377792 -88.940593644580872 0 -88.940593644580872 54.774983121746118 0 0 0 0 -264.37357690908539 98.494826254981035 0 98.494826254981035 36.583920744331209 0 0 0 0 -15.48081140324939 19.79124020395102 0 19.79124020395102 -141.18701154517157 0 0 0 0 -6.505055616291429 -81.002535595443092 0 -81.002535595443092 492.0995294460572 0 0 0 0 14.125914946101148 15.086347775975767 0 15.086347775975767 5.0845058535934182 0 0 0 0 15.18727644208667 14.283411161991665 0 14.283411161991665 -1.0749950890771292 0 0 0 0 -353.61034310944524 397.59174137218406 0 397.59174137218406 200.57712519661345 0 0 0 0 234.79336368122313 -115.13232342868446 0 -115.13232342868446 229.41561295147301 0 0 0 0 345.46881274084444 322.19902995408734 0 322.19902995408734 23.320551280441578 0 0 0 0 431.98426459674192 25.613711143727414 0 25.613711143727414 211.65030522359484 0 0 0 0 258.90233406517655 21.096408809614672 0 21.096408809614672 160.59410385224101 0 0 0 0 326.48102620319696 78.601374837882531 0 78.601374837882531 637.26755613853493 0 0 0 0 573.46042757008399 -370.36085059988523 0 -370.36085059988523 615.28084633624553 0 0 0 0 1858.8451890940923 45.164223932375535 0 45.164223932375535 19.152783275402726 0 0 0 0 1414.3355753605138 483.71731242350165 0 483.71731242350165 -61.549419776712739 0 0 0 0 -1.1327222292866566 -0.427445471291648 0 -0.427445471291648 3.5528315537552886 0 0 0 0 847.95874457088939 -127.32882612048797 0 -127.32882612048797 339.05299806817629 0 0 0 0 961.50684642908163 -233.22330867814344 0 -233.22330867814344 225.53464118581701 0 0 0 0 831.28623817177868 -81.684405354955857 0 -81.684405354955857 217.17015972821355 0 0 0 0 570.29992858848709 -290.63081944849841 0 -290.63081944849841 1144.3086281488254 0 0 0 0 1887.6412033881352 -552.74777014829488 0 -552.74777014829488 510.18679290887144 0 0 0 0 1.9610187517456055 0.79427463064590142 0 0.79427463064590142 7.5108138306789547 0 0 0 0 131.88048055529362 -482.8294553121932 0 -482.8294553121932 1346.4362123643921 0 0 0 0 -28.836260104530083 305.30319813373842 0 305.30319813373842 803.56669435424465 0 0 0 0 1372.6279816153547 -491.19141144182254 0 -491.19141144182254 347.57138992723958 0 0 0 0 809.62366090308933 413.07783085946039 0 413.07783085946039 531.00337479500649 0 0 0 0 528.96080075647274 -226.96054931041303 0 -226.96054931041303 25.688402318451153 0 0 0 0 433.91565656517923 -79.224426112586571 0 -79.224426112586571 173.11520885926166 0 0 0 0 348.0389670572622 -497.16952138898796 0 -497.16952138898796 379.24942220301773 0 0 0 0 84.849529887767858 -220.33838292484143 0 -220.33838292484143 100.29644750586795 0 0 0 0 35.098903529033123 -343.21528472318357 0 -343.21528472318357 326.71322438406241 0 0 0 0 -19.231989805572084 -173.87672082962831 0 -173.87672082962831 290.16084725347957 0 0 0 0 -8.2747385096736252 -245.43383406763917 0 -245.43383406763917 677.80756613135975 0 0 0 0 -48.242082289172686 -81.720551027564881 0 -81.720551027564881 235.33412240996074 0 0 0 0 -77.793709667119401 -102.8641340869076 0 -102.8641340869076 424.56203356176547 0 0 0 0 -24.533103371315519 -28.574271106685046 0 -28.574271106685046 235.51940104135892 0 0 0 0 82.513969217703561 -62.539057285459876 0 -62.539057285459876 47.788248703461022 0 0 0 0 38.414903340184537 -138.87162296582625 0 -138.87162296582625 525.88285023612025 0 0 0 0 -25.958654906382435 -32.37332154597766 0 -32.37332154597766 253.91455445779025 0 0 0 0 -42.596244217871572 -23.700235341009034 0 -23.700235341009034 618.82872149286982 0 0 0 0 -72.165862087684218 1.7827278105610276 0 1.7827278105610276 263.66565026569185 0 0 0 0 186.34711735643214 200.43248191553852 0 200.43248191553852 142.67464681301567 0 0 0 0 1.4958796227665232 -1.3699546763092911 0 -1.3699546763092911 13.321330394101736 0 0 0 0 16.149749282390985 3.3537100569117229 0 3.3537100569117229 20.379973801521714 0 0 0 0 16.282976852867534 -5.643561397725918 0 -5.643561397725918 4.3751176935634488 0 0 0 0 31.163694326158293 3.8812962604602603 0 3.8812962604602603 4.1641753518324549 0 0 0 0 35.463015288952278 -14.331745132724208 0 -14.331745132724208 5.0638399022741156 0 0 0 0 33.518961694280733 -155.50040134438541 0 -155.50040134438541 -54.54685044312555 0 0 0 0 44.438940287509467 -5.082870560167521 0 -5.082870560167521 -9.0268261481248828 0 0 0 0 -43.714464390795911 70.204967874562044 0 70.204967874562044 56.673905569890849 0 0 0 0 40.742392894801014 8.98711948745418 0 8.98711948745418 4.9744420459710454 0 0 0 0 64.541529635098414 -0.76621590452100463 0 -0.76621590452100463 -8.2377145976294628 0 0 0 0 101.27348564012209 13.52897818266274 0 13.52897818266274 -5.043961969852262 0 0 0 0 40.868063482204889 8.5386645321904098 0 8.5386645321904098 -3.0517469038722993 0 0 0 0 6.874895615659625 7.7897920050594394 0 7.7897920050594394 17.582290252871871 0 0 0 0 0.48125139668257333 -1.4618923446959968 0 -1.4618923446959968 8.9119677961809849 0 0 0 0 415.70947670266469 24.259086549472158 0 24.259086549472158 17.124533295073888 0 0 0 0 553.24964708586049 -126.16806590299961 0 -126.16806590299961 5.5090227319146834 0 0 0 0 183.26268656041066 -265.77955839444854 0 -265.77955839444854 14.263882094289329 0 0 0 0 596.61684159190918 -220.93117347187342 0 -220.93117347187342 -75.738292497235307 0 0 0 0 723.4758561868075 67.679230816188124 0 67.679230816188124 32.442819291586602 0 0 0 0 530.10731384955579 -108.97109666598703 0 -108.97109666598703 90.69934688279352 0 0 0 0 767.85471191674878 60.780619392043604 0 60.780619392043604 -17.975147766517694 0 0 0 0 937.49939650431043 -175.38050132956573 0 -175.38050132956573 95.80953204731577 0 0 0 0 1074.0793994751421 247.40686658498589 0 247.40686658498589 -105.23478436435039 0 0 0 0 2027.7413207683021 -277.58366599920487 0 -277.58366599920487 -388.94239975351013 0 0 0 0 3499.6866295045584 171.82639461525031 0 171.82639461525031 -751.50644619556658 0 0 0 0 1960.1983130433728 565.25711618731088 0 565.25711618731088 -390.43513664556878 0 0 0 0 1354.6310121321549 -6.6530510910135945 0 -6.6530510910135945 -110.6036877974315 0 0 0 0 521.54661837079584 356.55971427346145 0 356.55971427346145 -77.449669166547267 0 0 0 0 132.51214407217776 89.854556871974424 0 89.854556871974424 28.192031137101708 0 0 0 0 5.2756802529447597 -3.0508575389088683 0 -3.0508575389088683 0.55622135333959699 0 0 0 0 -192.58053448094506 -329.25536619466533 0 -329.25536619466533 -80.025432991643768 0 0 0 0 -103.96849368651965 49.197580723584224 0 49.197580723584224 76.532275878733344 0 0 0 0 279.77791618262017 45.624521489265931 0 45.624521489265931 -105.23787898562136 0 0 0 0 443.08624292880813 -139.94632287164913 0 -139.94632287164913 60.327552094310136 0 0 0 0 331.08640043289415 51.173445918083146 0 51.173445918083146 96.153581768297897 0 0 0 0 183.03561141147475 -52.3710878599788 0 -52.3710878599788 258.41170412937777 0 0 0 0 34.955834622916882 39.04353891943191 0 39.04353891943191 181.7675676946516 0 0 0 0 284.46019221491679 -45.95780415918945 0 -45.95780415918945 66.93014682419178 0 0 0 0 82.092972874525003 28.723132411910001 0 28.723132411910001 -34.459440304983559 0 0 0 0 207.80911123524493 127.91280372025847 0 127.91280372025847 39.218176129765993 0 0 0 0 295.81643236820673 -62.874781685847893 0 -62.874781685847893 72.293491849008433 0 0 0 0 124.06290815254761 121.54380516771948 0 121.54380516771948 -38.226307017215277 0 0 0 0 -26.902066407368693 207.23124358658788 0 207.23124358658788 -183.24515706218585 0 0 0 0 174.7845494872372 -110.88315434210234 0 -110.88315434210234 90.100801119534708 0 0 0 0 369.09427798730496 -728.20001111985073 0 -728.20001111985073 855.40201820704169 0 0 0 0 372.70006913955876 -55.415994027032397 0 -55.415994027032397 102.85336195577658 0 0 0 0 1153.2839763765642 -419.27361794694104 0 -419.27361794694104 208.07411987949357 0 0 0 0 1320.4679136234845 -302.40845286360616 0 -302.40845286360616 -389.65342293670352 0 0 0 0 2376.3034402912308 -837.19275392930285 0 -837.19275392930285 -151.57551219192894 0 0 0 0 3493.7824105988639 -1965.1037821026955 0 -1965.1037821026955 -115.59401814715326 0 0 0 0 244.93561785973361 -1532.5039422646664 0 -1532.5039422646664 1438.7509556822079 0 0 0 0 181.77844668612306 -69.939039754541227 0 -69.939039754541227 94.677200418715756 0 0 0 0 11.170313209033385 -4.8618850215505987 0 -4.8618850215505987 4.512481099624563 0 0 0 0 1954.326224715981 490.30711253511561 0 490.30711253511561 112.19826966914565 0 0 0 0 3496.857978530873 1766.6546063563205 0 1766.6546063563205 457.22743843473233 0 0 0 0 184.31618085505761 -122.70674559313511 0 -122.70674559313511 -520.65570923716587 0 0 0 0 44.034284886409296 -89.976029990863026 0 -89.976029990863026 -538.92113298547895 0 0 0 0 184.9405950521359 -393.43055363256667 0 -393.43055363256667 -472.53073661284088 0 0 0 0 27.051676718498438 -14.370789077100509 0 -14.370789077100509 6.7959446229320815 0 0 0 0 -244.5096153142772 -337.5050325631052 0 -337.5050325631052 -247.06190247682571 0 0 0 0 12.947133452628938 -2.6734853001297623 0 -2.6734853001297623 -1.3620230669972155 0 0 0 0 68.046329522799624 -26.213853869211363 0 -26.213853869211363 -10.138126286987699 0 0 0 0 8.7633719673556261 -3.8969240581440019 0 -3.8969240581440019 -2.1114588551574776 0 0 0 0 2036.7190523772442 433.5767222429339 0 433.5767222429339 66.562156571446408 0 0 0 0 3498.9903803956813 -132.5604359842423 0 -132.5604359842423 -316.79498380987638 0 0 0 0 42.787388967733023 -9.8844856734818336 0 -9.8844856734818336 9.6409985108780347 0 0 0 0 33.711710025699375 6.9050976878511348 0 6.9050976878511348 -21.934908318817314 0 0 0 0 4.8059689612198673 -9.7706506673468212 0 -9.7706506673468212 -5.1164476082619093 0 0 0 0 82.065055084455366 -11.929277217231629 0 -11.929277217231629 -15.618647541308746 0 0 0 0 2523.9919487636794 -182.00142723373233 0 -182.00142723373233 -243.98282805408306 0 0 0 0 8.9085950713069906 4.1250665928664603 0 4.1250665928664603 -27.739985999848614 0 0 0 0 7.3804816867789214 11.173610370132792 0 11.173610370132792 -7.3513770229346846 0 0 0 0 43.529019151871012 -0.3150408093221202 0 -0.3150408093221202 -25.978173804350035 0 0 0 0 31.987634476881794 -1.7215043682483611 0 -1.7215043682483611 -24.918482163221711 0 0 0 0 33.108940780288165 -0.25957814162283022 0 -0.25957814162283022 -19.688640691626023 0 0 0 0 8.4830811182502117 -8.6462463550158617 0 -8.6462463550158617 -2.1677033165767341 0 0 0 0 24.640897819980129 6.891561730350416 0 6.891561730350416 -18.048713626396395 0 0 0 0 12.486972616005914 18.023719756890387 0 18.023719756890387 -27.456021927832239 0 0 0 0 32.727225239382769 8.976377930397696 0 8.976377930397696 -20.216721099477503 0 0 0 0 6.2958586704899062 60.226234516436307 0 60.226234516436307 -32.994750597745224 0 0 0 0 44.545623975820057 -5.6927680299281072 0 -5.6927680299281072 -11.861642443398226 0 0 0 0 38.816647124185693 -35.353656113829857 0 -35.353656113829857 -119.10296538000239 0 0 0 0 132.00836884084856 -7.7345901889043489 0 -7.7345901889043489 -142.64683659904551 0 0 0 0 25.296211176679208 12.253864381886615 0 12.253864381886615 -30.468672777153188 0 0 0 0 32.738728397661362 16.024725489778348 0 16.024725489778348 -40.521136637540621 0 0 0 0 51.775282748774771 -77.232663068446072 0 -77.232663068446072 -125.76933736520868 0 0 0 0 57.092889600427043 -20.090507933428739 0 -20.090507933428739 2.0591376046877485 0 0 0 0 36.651557375431622 -20.688060753198737 0 -20.688060753198737 6.8464807324994705 0 0 0 0 24.182396311138291 -113.60819424143983 0 -113.60819424143983 -108.32755626209087 0 0 0 0 85.681583812933241 -84.456109059100527 0 -84.456109059100527 -236.20832798055653 0 0 0 0 167.32360716044423 -7.2100476210189299 0 -7.2100476210189299 -171.85260179920078 0 0 0 0 203.08015962228001 13.790387688254611 0 13.790387688254611 -214.21612404267671 0 0 0 0 68.514306075812783 19.555206409359585 0 19.555206409359585 -133.52030970727515 0 0 0 0 175.95736836137439 76.952771319023839 0 76.952771319023839 -113.93989776950252 0 0 0 0 82.544972436123771 70.279629423034436 0 70.279629423034436 -158.21765713679815 0 0 0 0 18.463250102729944 47.711168960786381 0 47.711168960786381 -86.018621591142619 0 0 0 0 67.443016985773397 6.646580697218468 0 6.646580697218468 -32.979795017940781 0 0 0 0 112.66375499068454 5.0532033766894529 0 5.0532033766894529 -54.980094596457093 0 0 0 0 31.818001362897121 112.40095022310862 0 112.40095022310862 -117.67665199891132 0 0 0 0 -30.382098991755129 153.81336812638074 0 153.81336812638074 -137.28890800064073 0 0 0 0 -0.38861891261257586 14.383456746283951 0 14.383456746283951 -8.5725052859687629 0 0 0 0 80.499676509386859 -16.833302247390748 0 -16.833302247390748 -28.143947064831082 0 0 0 0 36.690224672217184 9.795485219243794 0 9.795485219243794 -20.396779470152211 0 0 0 0 55.221926946421718 52.388409072595095 0 52.388409072595095 -63.393670769914024 0 0 0 0 13.338274085010198 38.755490383642609 0 38.755490383642609 -67.067227251183795 0 0 0 0 40.352817432037156 0.72989502571941678 0 0.72989502571941678 -17.10300552726908 0 0 0 0 23.121801777931296 11.134821383669987 0 11.134821383669987 -29.080032267063871 0 0 0 0 118.48372125409514 29.77929059618782 0 29.77929059618782 -32.931415346934955 0 0 0 0 18.794011604391926 40.041623689928201 0 40.041623689928201 24.110863054085712 0 0 0 0 241.42509169410005 5.1287207676687103 0 5.1287207676687103 -66.731624011168606 0 0 0 0 115.82705835655383 20.558979160767649 0 20.558979160767649 -46.049814176856671 0 0 0 0 90.040803578901887 110.26381334871803 0 110.26381334871803 5.1678293818840757 0 0 0 0 411.76888645441977 44.118098329143322 0 44.118098329143322 -69.436357907887214 0 0 0 0 8.2652829340759126 -11.832082859739785 0 -11.832082859739785 4.5409612630719494 0 0 0 0 15.188022900943906 -13.796553601689084 0 -13.796553601689084 -49.314560409151454 0 0 0 0 437.66585891178761 -278.6498525742536 0 -278.6498525742536 60.866213496762612 0 0 0 0 158.22927624148701 -128.07678753239452 0 -128.07678753239452 -19.699318534905615 0 0 0 0 121.72790528828291 -54.854315660856173 0 -54.854315660856173 -28.949137364324997 0 0 0 0 207.33496133943191 -25.854790365248846 0 -25.854790365248846 -25.617646732933281 0 0 0 0 272.04608890197233 -112.34215764493638 0 -112.34215764493638 -64.612967378063331 0 0 0 0 262.90632801497691 -110.64607265829909 0 -110.64607265829909 -64.745485763173747 0 0 0 0 4.1382844669470646 -0.23859558796081259 0 -0.23859558796081259 -0.90544877264059309 0 0 0 0 -210.71154354029113 -25.695941666655926 0 -25.695941666655926 12.800235608088769 0 0 0 0 343.79833381927506 -201.96545674652225 0 -201.96545674652225 60.578872467996916 0 0 0 0 136.93317152830068 -99.90832375444154 0 -99.90832375444154 12.704726697165825 0 0 0 0 185.41196155821353 -73.646029810754044 0 -73.646029810754044 -14.752637800725097 0 0 0 0 359.2629445344744 51.392824082942752 0 51.392824082942752 70.224740755644234 0 0 0 0 78.421465873966326 -69.433633868678044 0 -69.433633868678044 206.04205584408191 0 0 0 0 100.52210451424008 -203.59631240404451 0 -203.59631240404451 15.447518665376265 0 0 0 0 22.731405171450078 -2.1196133648671847 0 -2.1196133648671847 -3.1591378666571117 0 0 0 0 117.33347644903785 -91.266660423610119 0 -91.266660423610119 25.692612580398418 0 0 0 0 -57.643421477228742 -176.00703064051368 0 -176.00703064051368 37.23142770832419 0 0 0 0 96.264851003064564 110.19778988837584 0 110.19778988837584 -99.354364574441206 0 0 0 0 64.779233144291084 -175.640591761834 0 -175.640591761834 166.68408146505863 0 0 0 0 -63.372004891167308 16.317968634375916 0 16.317968634375916 -35.498532942153226 0 0 0 0 140.81762808817075 24.464596959629944 0 24.464596959629944 -20.002553283877205 0 0 0 0 235.29467254111768 46.021114680666869 0 46.021114680666869 -20.150310179390544 0 0 0 0 28.074219395661295 5.9162286995032005 0 5.9162286995032005 -39.979761846722802 0 0 0 0 105.9763128173945 11.633959470062109 0 11.633959470062109 -0.21455219213385135 0 0 0 0 81.091622839250306 30.239777075859539 0 30.239777075859539 -18.395102337395834 0 0 0 0 19.23403385178608 130.91801206491044 0 130.91801206491044 -68.432194421135407 0 0 0 0 588.36038651677632 65.305051231157449 0 65.305051231157449 -152.12502644882261 0 0 0 0 66.16552252094678 13.661701665368486 0 13.661701665368486 -34.706776842269115 0 0 0 0 7.6802852383465279 21.324276091961657 0 21.324276091961657 -51.68773695589357 0 0 0 0 76.924346663487086 89.679391943832059 0 89.679391943832059 -129.52754041592485 0 0 0 0 93.421417094767094 24.654558506103228 0 24.654558506103228 -99.433929509884535 0 0 0 0 64.561701000789071 52.636872674547377 0 52.636872674547377 12.029639790681131 0 0 0 0 93.528848483168986 -82.298813633406183 0 -82.298813633406183 30.220564759848571 0 0 0 0 15.036710373195092 -30.968810780747965 0 -30.968810780747965 5.8494294858254534 0 0 0 0 192.21808460473403 95.553315550395354 0 95.553315550395354 -24.625032973367865 0 0 0 0 197.59667112602256 -127.62847789980572 0 -127.62847789980572 46.737213098837856 0 0 0 0 -185.61556939641741 -244.19047453663654 0 -244.19047453663654 -35.094525658907799 0 0 0 0 2.4920984595351854 -1.1768604664837987 0 -1.1768604664837987 0.39752484899918672 0 0 0 0 108.22540176323309 44.371008560724931 0 44.371008560724931 22.168337544265171 0 0 0 0 309.430500692848 218.91508904812542 0 218.91508904812542 141.93175287601315 0 0 0 0 364.70783299013419 -19.090972872192282 0 -19.090972872192282 -73.592639287726342 0 0 0 0 125.27611213089403 -16.18540491640556 0 -16.18540491640556 19.924531632011963 0 0 0 0 -4.3938845875639458 -6.4692083001114611 0 -6.4692083001114611 -7.5993401986973872 0 0 0 0 139.84606083535255 -86.472495042389255 0 -86.472495042389255 -99.218090107706189 0 0 0 0 14.582242603533814 18.807044142385166 0 18.807044142385166 -15.949854030310036 0 0 0 0 36.029384700052375 -25.63083426097732 0 -25.63083426097732 0.17044606726342337 0 0 0 0 7.6303772567884671 6.1189668306324023 0 6.1189668306324023 -43.520213158247756 0 0 0 0 124.01851234825153 2.6935160848333908 0 2.6935160848333908 -30.640787742708653 0 0 0 0 105.72765492086728 -62.172135849675215 0 -62.172135849675215 -190.8480424476129 0 0 0 0 -35.671153731258528 102.29295012307102 0 102.29295012307102 -38.730948411054669 0 0 0 0 -86.807189786868548 -78.219586743980969 0 -78.219586743980969 -8.4790206298450812 0 0 0 0 7.3071201473794645 14.014981895915412 0 14.014981895915412 136.4423990029905 0 0 0 0 9.0175593512612977 60.7394168705124 0 60.7394168705124 -18.065909883455447 0 0 0 0 150.95600344827108 112.82211534872113 0 112.82211534872113 145.16486202961369 0 0 0 0 239.54622608662976 227.80240631943616 0 227.80240631943616 276.12127607326511 0 0 0 0 28.357709532528986 -13.700288167640185 0 -13.700288167640185 6.9053168910936868 0 0 0 0 236.70441573899006 -225.27092108782017 0 -225.27092108782017 -721.23925289438193 0 0 0 0 165.69815158337951 101.27108408164827 0 101.27108408164827 90.729045182546542 0 0 0 0 -38.361235023279733 -190.55336774540001 0 -190.55336774540001 -175.35864292900078 0 0 0 0 -69.617996156630397 -134.02209724171917 0 -134.02209724171917 17.910843785037287 0 0 0 0 91.08809226770245 48.161895884944215 0 48.161895884944215 30.292944034184984 0 0 0 0 162.37040743192483 119.7808371185547 0 119.7808371185547 93.460885952387798 0 0 0 0 272.43170814807672 80.645677748559137 0 80.645677748559137 -39.201245127710536 0 0 0 0 262.18894663927495 136.1813176056412 0 136.1813176056412 0.36139994217046478 0 0 0 0 197.9637773055365 104.49675874007653 0 104.49675874007653 20.614175608283404 0 0 0 0 277.42135412016069 182.01488345021426 0 182.01488345021426 96.1741932725472 0 0 0 0 308.72026541428022 118.53621634547153 0 118.53621634547153 -1.2685285447587376 0 0 0 0 275.75550532776106 -1.2948368262864278 0 -1.2948368262864278 -25.795088502691215 0 0 0 0 277.21224821055512 -3.2213240793962541 0 -3.2213240793962541 -23.341789463724126 0 0 0 0 352.10396421227051 122.99733837357144 0 122.99733837357144 -17.134580396610545 0 0 0 0 93.240289612098422 4.9069307129475419 0 4.9069307129475419 -17.252308962849838 0 0 0 0 91.732145174370089 -19.052546338088177 0 -19.052546338088177 -25.280141411603609 0 0 0 0 25.240910081484799 39.470511136019866 0 39.470511136019866 -28.981235309367548 0 0 0 0 40.744664798381564 -47.831731104268329 0 -47.831731104268329 28.486228448744441 0 0 0 0 317.0555242172486 -107.56278737123012 0 -107.56278737123012 2.7139734580086952 0 0 0 0 96.80455491041721 -15.769848378627103 0 -15.769848378627103 94.494171449492569 0 0 0 0 0.55043193118217459 -184.65004023431675 0 -184.65004023431675 21.63684388337424 0 0 0 0 516.64503080296709 233.9663185101881 0 233.9663185101881 61.786964408887798 0 0 0 0 481.64786775631364 2.0556614603337948 0 2.0556614603337948 21.370529260599142 0 0 0 0 361.28036350355251 65.758208049872337 0 65.758208049872337 1.4701465881012155 0 0 0 0 473.65819377776643 -230.83502604046043 0 -230.83502604046043 158.79183013420334 0 0 0 0 530.91423027786368 116.99941977343769 0 116.99941977343769 96.825673898559216 0 0 0 0 1084.522173231795 -41.074099350127653 0 -41.074099350127653 91.162619447124598 0 0 0 0 593.13883612655627 -395.56533644041701 0 -395.56533644041701 635.6395651898456 0 0 0 0 886.82742099303869 870.80545987858295 0 870.80545987858295 -297.99267988018073 0 0 0 0 -3.7449783361807931 310.14960232760495 0 310.14960232760495 1046.9117925915689 0 0 0 0 19.812371449308486 34.445680515437544 0 34.445680515437544 22.993099229634801 0 0 0 0 -340.48834436002016 300.09976457779157 0 300.09976457779157 84.431008244784607 0 0 0 0 16.776058310249937 142.09303146596676 0 142.09303146596676 -128.59469155785519 0 0 0 0 -158.36576746159972 387.27576714736358 0 387.27576714736358 60.764790970413742 0 0 0 0 189.27443005079112 25.29467954402935 0 25.29467954402935 246.32408717762473 0 0 0 0 111.59286183456425 -49.772451581320638 0 -49.772451581320638 239.59073810748305 0 0 0 0 72.349750870995194 275.28807552346507 0 275.28807552346507 136.5734523453757 0 0 0 0 100.58128246729029 440.00795668113642 0 440.00795668113642 174.45046020383643 0 0 0 0 -179.98570414622372 279.9362715195748 0 279.9362715195748 416.6718615063337 0 0 0 0 -43.974828757496653 42.325419043859199 0 42.325419043859199 21.711696715068285 0 0 0 0 -258.9694954852821 5.4792605991005985 0 5.4792605991005985 -316.30934833684205 0 0 0 0 57.383896799656213 61.280656630817248 0 61.280656630817248 32.305451870970387 0 0 0 0 19.591613693521822 22.110972843084486 0 22.110972843084486 19.307274731025316 0 0 0 0 70.04698413751612 39.286715118036227 0 39.286715118036227 33.183264223785955 0 0 0 0 319.99476683168177 -114.92692985352096 0 -114.92692985352096 -893.77424099304699 0 0 0 0 19.264459321894122 2.392798562719527 0 2.392798562719527 4.6902103514915332 0 0 0 0 618.12455131741081 190.70667310880299 0 190.70667310880299 -888.47827259169026 0 0 0 0 90.951087120949524 74.202236156123035 0 74.202236156123035 66.50464909321397 0 0 0 0 57.033571361520444 39.365886221306027 0 39.365886221306027 64.124804652899911 0 0 0 0 321.63905874304328 286.79725573907035 0 286.79725573907035 243.83786121388539 0 0 0 0 319.95659335426899 142.28545003346335 0 142.28545003346335 -0.85174643686241325 0 0 0 0 277.72537262778133 91.37733566692259 0 91.37733566692259 63.747551160455259 0 0 0 0 584.90520109213685 139.45486022631303 0 139.45486022631303 17.063637346025644 0 0 0 0 104.30977072632959 123.83014433368407 0 123.83014433368407 185.89213836361341 0 0 0 0 -216.8722206918028 -636.71511723218373 0 -636.71511723218373 12.469947959170895 0 0 0 0 -230.29616214440011 -857.87148326488091 0 -857.87148326488091 16.404566529312433 0 0 0 0 3.8747392419768119 -5.002073603867502 0 -5.002073603867502 2.7648041282093576 0 0 0 0 9.7061604733849265 -5.9043883166793627 0 -5.9043883166793627 3.6080944905758869 0 0 0 0 704.02297326789994 462.39265820864057 0 462.39265820864057 349.56772071349224 0 0 0 0 289.89093720211531 -349.26374590630439 0 -349.26374590630439 401.41327091396761 0 0 0 0 -50.288448788021924 152.82063717468191 0 152.82063717468191 -285.99560369294704 0 0 0 0 115.69862151672714 -36.88212545998249 0 -36.88212545998249 63.913466910744319 0 0 0 0 7.9483608687105516 -2.6842916045218956 0 -2.6842916045218956 -1.4374134977032398 0 0 0 0 22.055764244201114 -7.8654531306780413 0 -7.8654531306780413 -9.1911957438050536 0 0 0 0 191.40781895004329 348.13552174253164 0 348.13552174253164 -217.30641306067446 0 0 0 0 462.48771497824055 234.19105989322543 0 234.19105989322543 -517.28820381814148 0 0 0 0 241.46111425514238 -199.16276580581962 0 -199.16276580581962 17.963982783578103 0 0 0 0 -19.910757832643867 -111.33315682291823 0 -111.33315682291823 306.23395326867649 0 0 0 0 22.52947550857316 -47.547992861109051 0 -47.547992861109051 12.410582624588024 0 0 0 0 348.30969577809446 88.213969086024008 0 88.213969086024008 -120.45273825320874 0 0 0 0 88.187892389373545 58.352458387893421 0 58.352458387893421 27.087131950429466 0 0 0 0 -49.38763178902569 -63.552238008245695 0 -63.552238008245695 53.0884349422995 0 0 0 0 19.145508187920242 -50.363608838257228 0 -50.363608838257228 19.470710291059579 0 0 0 0 182.22149461552181 -51.289671613954397 0 -51.289671613954397 -47.853588752293945 0 0 0 0 366.03532145271811 -36.601453319792199 0 -36.601453319792199 -78.585375082373503 0 0 0 0 245.93571242453618 32.51409997065457 0 32.51409997065457 -31.383470809667415 0 0 0 0 175.01958507749805 57.733212140739852 0 57.733212140739852 -23.033356065606995 0 0 0 0 251.41280541691958 -46.562779588730336 0 -46.562779588730336 -127.12341741671557 0 0 0 0 158.60566674500296 1.7250719130488505 0 1.7250719130488505 -34.392025950478455 0 0 0 0 170.72274038412797 -13.855481684263168 0 -13.855481684263168 -22.20608644472486 0 0 0 0 180.0511877769477 -35.240014934929377 0 -35.240014934929377 12.83227043788429 0 0 0 0 70.77558765768481 -24.249292602269634 0 -24.249292602269634 35.631502277054096 0 0 0 0 127.25599235319532 -37.35284864120149 0 -37.35284864120149 16.874248642092425 0 0 0 0 118.13137264679962 -93.04670466520929 0 -93.04670466520929 -32.623588828681022 0 0 0 0 -41.858085336308818 -119.97018690976256 0 -119.97018690976256 100.05573503006599 0 0 0 0 270.01452783327841 1.2484872442028063 0 1.2484872442028063 7.0002049966685149 0 0 0 0 39.703286992356048 25.79345834150185 0 25.79345834150185 17.872209651889946 0 0 0 0 139.47876801770309 -65.977405014133126 0 -65.977405014133126 78.606271561411631 0 0 0 0 24.483922564524224 -48.819505537855186 0 -48.819505537855186 23.109644214860058 0 0 0 0 88.732331473140221 359.72351836812186 0 359.72351836812186 -47.718560811579493 0 0 0 0 274.09885590531485 -18.806754032998924 0 -18.806754032998924 76.355506249418795 0 0 0 0 82.502163903289329 30.816805948706246 0 30.816805948706246 48.379198118564091 0 0 0 0 139.60738606514806 -21.952666445729161 0 -21.952666445729161 5.5015305761899072 0 0 0 0 66.161048023714102 -2.196221292294922 0 -2.196221292294922 90.780518676023235 0 0 0 0 20.787138959798575 5.0524905165135507 0 5.0524905165135507 1.2635322706841627 0 0 0 0 44.245293575359028 -2.181289325296575 0 -2.181289325296575 18.190428563677415 0 0 0 0 267.30080489382817 55.557988421605387 0 55.557988421605387 9.0914462457749323 0 0 0 0 69.888309374076357 0.89238304582273287 0 0.89238304582273287 13.837003400696201 0 0 0 0 -30.795557105633634 -157.55598518419106 0 -157.55598518419106 -170.77586950991099 0 0 0 0 -103.08734359738384 37.624203584657607 0 37.624203584657607 51.342848819283972 0 0 0 0 72.950346215667651 11.216711591462428 0 11.216711591462428 70.214445373660965 0 0 0 0 53.438685971472296 122.8759962056115 0 122.8759962056115 146.13022443206955 0 0 0 0 130.40073455943275 146.37435532963764 0 146.37435532963764 118.51461728578352 0 0 0 0 240.09688203951737 -128.43956197851094 0 -128.43956197851094 103.03237430105014 0 0 0 0 -19.83906293158816 -75.797889856546476 0 -75.797889856546476 432.08663511181567 0 0 0 0 320.74037603280703 -65.122710679938734 0 -65.122710679938734 -203.47130480677788 0 0 0 0 236.60659400990698 -219.31771347144957 0 -219.31771347144957 -12.405009439929927 0 0 0 0 2.1146667680203173 2.7922259288465092 0 2.7922259288465092 3.196431519065305 0 0 0 0 93.437047682420598 387.71124426575284 0 387.71124426575284 105.7007889091708 0 0 0 0 -19.65457778030941 -53.266451610063314 0 -53.266451610063314 14.327048625103089 0 0 0 0 -44.523405191948768 60.216241407203142 0 60.216241407203142 106.84963207359624 0 0 0 0 80.724863817496953 7.6720568099631237 0 7.6720568099631237 1.2750344395981301 0 0 0 0 -5.8614872585349076 -33.182202351052638 0 -33.182202351052638 38.402202355531699 0 0 0 0 182.97894362257466 -37.98114064891007 0 -37.98114064891007 -55.468572462453722 0 0 0 0 74.449860065986286 10.141258561674022 0 10.141258561674022 -55.797559238894792 0 0 0 0 -2.1015840264444705 37.774868916582363 0 37.774868916582363 -8.6905529991545336 0 0 0 0 26.369446167500428 -42.486709462304589 0 -42.486709462304589 -43.624287605449354 0 0 0 0 -42.515109200052393 202.60853928690625 0 202.60853928690625 212.46168419355308 0 0 0 0 30.715529022189259 30.610501951222513 0 30.610501951222513 16.951351887856227 0 0 0 0 49.110289648073376 36.783084706582486 0 36.783084706582486 53.650268997663261 0 0 0 0 68.166674131163745 36.999808863341059 0 36.999808863341059 9.0496000689199718 0 0 0 0 51.856225678209739 12.013045132121306 0 12.013045132121306 31.526447749101862 0 0 0 0 11.308010378899144 4.6954956141878874 0 4.6954956141878874 -4.7008378319700377 0 0 0 0 55.503634440690803 5.3605350541010921 0 5.3605350541010921 -1.1516695264267582 0 0 0 0 106.73600743783754 11.463569035981891 0 11.463569035981891 -3.9596402370734722 0 0 0 0 105.09328690424445 8.4811878053760665 0 8.4811878053760665 -2.6965635608862613 0 0 0 0 107.29930128808337 42.430792141347411 0 42.430792141347411 7.5503575175898732 0 0 0 0 152.89296353771078 34.090859996922291 0 34.090859996922291 -2.304553148940613 0 0 0 0 86.874151636588067 38.09067723173348 0 38.09067723173348 17.838845446261985 0 0 0 0 104.06858562053822 37.256535162812725 0 37.256535162812725 16.284221442664602 0 0 0 0 45.221885545910141 50.99316757637682 0 50.99316757637682 46.048475186744326 0 0 0 0 76.757592208268761 47.104258131703318 0 47.104258131703318 37.648492522363085 0 0 0 0 175.92472957556674 63.516893511675107 0 63.516893511675107 13.836273442851962 0 0 0 0 201.49264326551202 7.9566734885702317 0 7.9566734885702317 45.98056123337301 0 0 0 0 24.425789137258107 91.28303344840765 0 91.28303344840765 68.482751951376486 0 0 0 0 18.709091532502498 53.168141668373664 0 53.168141668373664 51.046125690019835 0 0 0 0 26.47813702591802 28.846487975290067 0 28.846487975290067 16.402470898449387 0 0 0 0 5.8157142822431744 8.3331094883790726 0 8.3331094883790726 11.753419414739239 0 0 0 0 -6.5398033732755607 1.2202573072328669 0 1.2202573072328669 3.0329179282414147 0 0 0 0 45.542407758824993 66.66151789968626 0 66.66151789968626 39.846272470247641 0 0 0 0 102.6370148072092 -98.877979540463002 0 -98.877979540463002 -69.402856860280735 0 0 0 0 4.2612110236815823 0.11177581965491257 0 0.11177581965491257 6.5782908037960306 0 0 0 0 18.291435080616793 -8.9841168324392129 0 -8.9841168324392129 26.404497981594204 0 0 0 0 -50.452366313009406 -81.071093871016728 0 -81.071093871016728 -8.6727309401380808 0 0 0 0 -52.829810596133029 -25.217018955565436 0 -25.217018955565436 91.1244843351692 0 0 0 0 45.550309417608332 -34.063988232197858 0 -34.063988232197858 29.611014867271479 0 0 0 0 96.432321591523305 -209.18546435187903 0 -209.18546435187903 308.92332977051137 0 0 0 0 59.067114620978828 -27.204584358561988 0 -27.204584358561988 2.0423695140666496 0 0 0 0 39.897667195560643 -20.337446160578565 0 -20.337446160578565 7.414648280556321 0 0 0 0 116.94606289298827 -56.318913262991373 0 -56.318913262991373 2.1027573509509239 0 0 0 0 47.682357422465429 -49.732557365778575 0 -49.732557365778575 53.583210414751647 0 0 0 0 159.80285623333111 -118.38221286648013 0 -118.38221286648013 64.25682397386845 0 0 0 0 78.13653512073688 14.996279270343621 0 14.996279270343621 66.032820581833676 0 0 0 0 281.00477132915626 -111.73218175549229 0 -111.73218175549229 14.669047194279301 0 0 0 0 224.11442152563905 -69.742980900700786 0 -69.742980900700786 -12.205496855209958 0 0 0 0 267.48320503446848 66.142824177137072 0 66.142824177137072 75.955390261037792 0 0 0 0 8.2557144589474873 2.8750473799107921 0 2.8750473799107921 0.15931065127437183 0 0 0 0 186.76051864270266 51.408404752816296 0 51.408404752816296 -284.85287857381991 0 0 0 0 124.17674130740488 -168.55448761277989 0 -168.55448761277989 33.11764772010838 0 0 0 0 262.94711962254996 -189.33803756828027 0 -189.33803756828027 -48.182192033322735 0 0 0 0 315.57110188559636 -265.20100806575124 0 -265.20100806575124 0.17853170810872143 0 0 0 0 269.8568187464698 -37.358719656799394 0 -37.358719656799394 122.47636831452701 0 0 0 0 192.45641215483647 -206.224935348667 0 -206.224935348667 -83.805483653186911 0 0 0 0 402.30569065020245 -160.74864021534654 0 -160.74864021534654 194.95282557336805 0 0 0 0 1.3511247149857937 -1.326931918969386 0 -1.326931918969386 0.24522192874703386 0 0 0 0 331.82903317614364 -95.420958726574099 0 -95.420958726574099 -105.56534713107476 0 0 0 0 534.90481900603845 -83.640977609611127 0 -83.640977609611127 90.45879751266466 0 0 0 0 338.73689952918778 -176.82892402286001 0 -176.82892402286001 203.138814601376 0 0 0 0 380.00021698837372 39.058426715211681 0 39.058426715211681 217.55705550227003 0 0 0 0 661.57096879971323 82.251602690170557 0 82.251602690170557 60.170889796618212 0 0 0 0 463.29702122681556 -41.554921043727745 0 -41.554921043727745 121.34875875020134 0 0 0 0 222.49896591905781 -40.355923571952189 0 -40.355923571952189 102.90486273749184 0 0 0 0 174.58288212733714 67.078561285602746 0 67.078561285602746 14.483656149417584 0 0 0 0 392.50906354833205 84.382171804606401 0 84.382171804606401 55.847698095054511 0 0 0 0 253.0851384011512 -3.3349969458654414 0 -3.3349969458654414 28.408262794050643 0 0 0 0 277.83850641683784 -78.211938940393111 0 -78.211938940393111 148.83749117257321 0 0 0 0 83.328646023226611 37.627659156127265 0 37.627659156127265 82.201948215376149 0 0 0 0 -63.275648055379861 -60.85744458625777 0 -60.85744458625777 88.006073734619349 0 0 0 0 18.809234044514596 28.733842204539997 0 28.733842204539997 68.000682762778752 0 0 0 0 -158.38614393163334 15.398587231516103 0 15.398587231516103 72.803483341429001 0 0 0 0 -92.762804128731659 -2.0419488105831078 0 -2.0419488105831078 8.1399819061755352 0 0 0 0 3.0640316080761707 7.6305123028863058 0 7.6305123028863058 19.969336080137232 0 0 0 0 -44.735408347831253 4.1521066889735039 0 4.1521066889735039 56.201060703356234 0 0 0 0 36.352607641980285 -33.971970379600862 0 -33.971970379600862 128.74212095246867 0 0 0 0 -93.087191073074791 -71.857002023931841 0 -71.857002023931841 -2.0941298738462137 0 0 0 0 11.877620571322041 110.99415607930678 0 110.99415607930678 -71.909560317589353 0 0 0 0 -6.4190805924736196 23.272196830837402 0 23.272196830837402 112.12801412373483 0 0 0 0 -123.80683605746026 -63.334062575136585 0 -63.334062575136585 84.104112965345848 0 0 0 0 -175.33550184261185 167.93544731059069 0 167.93544731059069 93.148638057950166 0 0 0 0 2.35845735809297 5.8482729045497699 0 5.8482729045497699 13.007295574438748 0 0 0 0 -76.933383571528793 -92.31785092163507 0 -92.31785092163507 109.82498830674024 0 0 0 0 -297.48748616757075 35.334914276290419 0 35.334914276290419 122.56201587361011 0 0 0 0 -121.71060302611659 89.441437053160627 0 89.441437053160627 15.205334431009845 0 0 0 0 18.743284032221869 34.543768355487941 0 34.543768355487941 27.746055316444671 0 0 0 0 475.97322956993503 160.38536527584949 0 160.38536527584949 -30.26445726665861 0 0 0 0 327.47123184341763 -31.575496856388554 0 -31.575496856388554 -135.79001640817796 0 0 0 0 544.70486338791943 104.50596584451151 0 104.50596584451151 111.44665095948289 0 0 0 0 518.64531730828094 63.323098344971186 0 63.323098344971186 149.11476478066129 0 0 0 0 766.2441930276982 -38.09535955786987 0 -38.09535955786987 4.4186028778181026 0 0 0 0 545.9831907931366 140.7726698937638 0 140.7726698937638 81.004549075577756 0 0 0 0 229.28127460961332 101.23482817079071 0 101.23482817079071 71.949724807227597 0 0 0 0 196.32082699890088 36.84070767496155 0 36.84070767496155 20.161670950127473 0 0 0 0 376.071388801387 -50.566638961831586 0 -50.566638961831586 32.499860611336317 0 0 0 0 510.59627872595956 419.5573782159513 0 419.5573782159513 -6.4198504503318077 0 0 0 0 468.91062789713396 -43.744690151051145 0 -43.744690151051145 123.7570183422647 0 0 0 0 704.62734847832326 110.70490685673394 0 110.70490685673394 -159.12880633278201 0 0 0 0 695.17388359219331 186.10549534917664 0 186.10549534917664 -147.54179088833234 0 0 0 0 482.89890856943748 246.25813299247557 0 246.25813299247557 249.370917902673 0 0 0 0 399.71691463540265 218.87734209228176 0 218.87734209228176 59.648781377970892 0 0 0 0 413.43585825265927 163.92795258902854 0 163.92795258902854 253.97607254982654 0 0 0 0 1.7857823072313188 2.5581549648769339 0 2.5581549648769339 4.1213364279639428 0 0 0 0 -27.206520739064217 -241.16546339482724 0 -241.16546339482724 132.8521547111967 0 0 0 0 -250.59813241779921 186.26292299579239 0 186.26292299579239 22.070506830514645 0 0 0 0 -46.865033786782078 65.40158750221849 0 65.40158750221849 10.400858996083116 0 0 0 0 -0.92775517877817038 -11.138269074445361 0 -11.138269074445361 19.599327565101703 0 0 0 0 18.923411953202887 34.354028100731625 0 34.354028100731625 26.176224108453251 0 0 0 0 -1.1918500683968887 22.783087886186877 0 22.783087886186877 23.386956834045122 0 0 0 0 18.783830495592959 33.224858728995578 0 33.224858728995578 18.285060935296585 0 0 0 0 -281.26558193494566 245.40454809390877 0 245.40454809390877 89.442973204899999 0 0 0 0 -64.178705468695625 67.445308278065795 0 67.445308278065795 28.822538608220384 0 0 0 0 12.090457714926742 64.556455214011294 0 64.556455214011294 1.8871719553699222 0 0 0 0 -18.904565005512268 12.995802540414388 0 12.995802540414388 31.27217096449499 0 0 0 0 19.455717290348986 29.195183381022431 0 29.195183381022431 3.9675154127496306 0 0 0 0 -44.790661563343747 42.023927164924316 0 42.023927164924316 23.859191473158717 0 0 0 0 343.67847052083562 -386.77385072829338 0 -386.77385072829338 225.51153637310381 0 0 0 0 3.1597795151592436 180.43474364687972 0 180.43474364687972 -6.9548806181710461 0 0 0 0 563.48930133525027 67.324133230410581 0 67.324133230410581 -166.74095556159682 0 0 0 0 535.70288025301124 -31.014761491342256 0 -31.014761491342256 -207.59876459082 0 0 0 0 810.46819731768119 213.05555458175209 0 213.05555458175209 -242.04495480193327 0 0 0 0 954.53767097632226 254.41870423917135 0 254.41870423917135 -247.85134639609032 0 0 0 0 875.03521936540346 8.2242902658140338 0 8.2242902658140338 -276.69003985841755 0 0 0 0 1335.6060476084774 -172.52771466403613 0 -172.52771466403613 -172.40081452231425 0 0 0 0 778.88269678960933 103.33950830188769 0 103.33950830188769 -209.36975320971351 0 0 0 0 1359.7327892167596 561.79570434956167 0 561.79570434956167 -141.82492834356162 0 0 0 0 983.69886777759893 344.35884726789891 0 344.35884726789891 -226.04774847760382 0 0 0 0 1077.789300047858 858.48069401948942 0 858.48069401948942 623.35609546429532 0 0 0 0 1753.1458974848792 1077.9293623048125 0 1077.9293623048125 710.12481641998056 0 0 0 0 622.18839000033404 395.3943195993038 0 395.3943195993038 312.82371167700694 0 0 0 0 1985.9464793820966 -88.849079449965018 0 -88.849079449965018 -164.50507121071314 0 0 0 0 926.22203213478497 -470.29968538540288 0 -470.29968538540288 103.77414849777062 0 0 0 0 15.099305179806493 6.8078736773639541 0 6.8078736773639541 -1.4275976686791498 0 0 0 0 0.82026366899535574 0.57543718257958432 0 0.57543718257958432 0.97982306209065939 0 0 0 0 -311.88463542576937 322.84253373946012 0 322.84253373946012 37.412387885741737 0 0 0 0 917.95869719438633 528.97162350360713 0 528.97162350360713 202.13279469966892 0 0 0 0 338.28777796169743 -212.1916622353101 0 -212.1916622353101 -144.44824234743101 0 0 0 0 1916.1506468159059 -129.11198795300288 0 -129.11198795300288 -279.59518179487895 0 0 0 0 1301.0114016205735 541.04393856502884 0 541.04393856502884 -2.9669930409613698 0 0 0 0 802.46723420615308 -146.79072397859818 0 -146.79072397859818 -184.28653159845271 0 0 0 0 544.07759058408556 9.2476182311352204 0 9.2476182311352204 -20.487507316667688 0 0 0 0 213.29234441614517 -90.118966963324397 0 -90.118966963324397 22.196588528198845 0 0 0 0 118.28920379356168 -150.24539887964409 0 -150.24539887964409 33.823854180007402 0 0 0 0 412.32791157997781 71.96406816714989 0 71.96406816714989 121.81052227086957 0 0 0 0 573.23997815796611 304.42351170587335 0 304.42351170587335 -72.924317012123765 0 0 0 0 645.62399982898751 210.62613081721838 0 210.62613081721838 48.58986055999776 0 0 0 0 255.69678837076935 611.05588549875097 0 611.05588549875097 139.70249070508498 0 0 0 0 618.86645394791049 407.1523442613755 0 407.1523442613755 152.93121008563799 0 0 0 0 365.16505849650275 345.61550225465567 0 345.61550225465567 149.4258946855939 0 0 0 0 195.02984129785182 -39.370827111082917 0 -39.370827111082917 -73.070309555743734 0 0 0 0 204.38540820041089 -32.87649815090208 0 -32.87649815090208 -108.93883858550907 0 0 0 0 438.7806537448414 262.98116106141174 0 262.98116106141174 230.47647007912701 0 0 0 0 16.303184536353974 -1.7781553307073921 0 -1.7781553307073921 -6.7233363204292509 0 0 0 0 15.421009913523449 -75.709910378627455 0 -75.709910378627455 25.196748108921383 0 0 0 0 107.68664665840475 -43.407953228114195 0 -43.407953228114195 8.5429085895480323 0 0 0 0 -10.836798692545926 260.22315392035023 0 260.22315392035023 508.25629157604652 0 0 0 0 324.84107304165809 302.60394354218033 0 302.60394354218033 498.74334296434648 0 0 0 0 252.23342483015222 266.65759587301682 0 266.65759587301682 551.40286565864665 0 0 0 0 173.96268342658004 482.27387538620781 0 482.27387538620781 684.78462482499344 0 0 0 0 -28.791849708279187 287.89057068262673 0 287.89057068262673 250.31949943559704 0 0 0 0 215.65373901061321 428.83153228912897 0 428.83153228912897 269.71234153662317 0 0 0 0 169.34790257840541 342.93808321748566 0 342.93808321748566 -159.80108228520476 0 0 0 0 -99.926624048079248 127.2841777543199 0 127.2841777543199 -192.28823912085818 0 0 0 0 -16.072781199814031 10.412222721126948 0 10.412222721126948 1.9467580724615823 0 0 0 0 47.219364278145804 223.95666950541954 0 223.95666950541954 -418.2504710235944 0 0 0 0 96.175157453802967 228.71736093894378 0 228.71736093894378 -746.41723783665748 0 0 0 0 -7.0922354739895468 4.1039438162326576 0 4.1039438162326576 -0.10662701724187684 0 0 0 0 4.7222864592440601 44.379683024982569 0 44.379683024982569 70.016946547318184 0 0 0 0 -1.9278368126670671 2.8029976054751948 0 2.8029976054751948 -0.17162813862113691 0 0 0 0 44.026770174026751 279.18448915574254 0 279.18448915574254 -325.03839459306118 0 0 0 0 189.30102260991407 150.40921132693302 0 150.40921132693302 -1067.6207791038601 0 0 0 0 62.633098498350591 139.67566845895408 0 139.67566845895408 252.13441524494476 0 0 0 0 207.27752279001606 -7.2992013433534453 0 -7.2992013433534453 -307.49210733588052 0 0 0 0 -110.33574259182569 52.069421266126255 0 52.069421266126255 -349.28854316750858 0 0 0 0 169.02461283941011 327.63739662394903 0 327.63739662394903 -229.73278853216243 0 0 0 0 200.73379184953956 219.36520384777947 0 219.36520384777947 243.73159711714646 0 0 0 0 -76.856039458389205 226.23570472875025 0 226.23570472875025 245.48739005447078 0 0 0 0 442.99798247189028 274.9177927766292 0 274.9177927766292 82.834810717720302 0 0 0 0 85.40588268218562 235.13018264969449 0 235.13018264969449 610.4496421447119 0 0 0 0 88.032100801603519 350.16371537756851 0 350.16371537756851 496.06629118250669 0 0 0 0 1055.7441318035126 178.98293793459561 0 178.98293793459561 -135.30995156314412 0 0 0 0 596.13842091652259 580.44925936441655 0 580.44925936441655 654.26436089320964 0 0 0 0 358.32529103106572 243.36382569623379 0 243.36382569623379 89.171594389675022 0 0 0 0 428.80416584399791 -134.57086366317981 0 -134.57086366317981 -182.23029215857332 0 0 0 0 422.8226918389737 22.60329568260272 0 22.60329568260272 -374.4006962242629 0 0 0 0 414.74470533564727 -51.388649363830268 0 -51.388649363830268 -270.789734103716 0 0 0 0 558.46907536908839 -62.216021903914339 0 -62.216021903914339 -329.65424497982485 0 0 0 0 350.43203267218269 78.95540354779132 0 78.95540354779132 -440.29208427983576 0 0 0 0 340.39652627752002 52.769073176356869 0 52.769073176356869 -273.31176436471151 0 0 0 0 348.03016137062696 19.945929929805914 0 19.945929929805914 -235.9038639120854 0 0 0 0 342.31961560056061 38.732460320758946 0 38.732460320758946 -184.80079961014053 0 0 0 0 225.03641359722496 58.795429192472511 0 58.795429192472511 133.31925925359428 0 0 0 0 227.24396720621007 79.146067599559956 0 79.146067599559956 -43.209084186031305 0 0 0 0 178.72863107793819 89.536475381086802 0 89.536475381086802 -44.482738910069656 0 0 0 0 85.213450754708902 225.89416869483603 0 225.89416869483603 -88.923848526213987 0 0 0 0 181.39543443231196 85.230836819709339 0 85.230836819709339 -39.959770389994446 0 0 0 0 18.900800688697927 34.717143544633927 0 34.717143544633927 55.325907577172984 0 0 0 0 90.330843097006436 84.701447438030755 0 84.701447438030755 44.324853640802075 0 0 0 0 24.627877153125155 36.203628754972897 0 36.203628754972897 13.988263796446518 0 0 0 0 107.61198865984261 68.128301022446522 0 68.128301022446522 -17.051413723093901 0 0 0 0 172.77889729822346 62.689896304875219 0 62.689896304875219 -18.190626223669369 0 0 0 0 111.43606722082041 55.027174740743249 0 55.027174740743249 -8.900254855687308 0 0 0 0 196.51533633350482 51.935737928914023 0 51.935737928914023 -26.440534392400878 0 0 0 0 101.7280147458805 36.778689020070487 0 36.778689020070487 -13.803857519445955 0 0 0 0 41.496082545389072 59.857662830749859 0 59.857662830749859 11.121165441827543 0 0 0 0 88.339164435667044 57.05603632319071 0 57.05603632319071 -11.344794921145876 0 0 0 0 117.30355609461185 32.211021336640442 0 32.211021336640442 -20.716806418908163 0 0 0 0 212.30201773867338 84.953995008234187 0 84.953995008234187 -33.169840083839517 0 0 0 0 237.81665491581225 32.725938226625658 0 32.725938226625658 -34.365150984418506 0 0 0 0 249.2740491063123 101.44813338679978 0 101.44813338679978 -30.147317400903376 0 0 0 0 211.02234278783726 97.466651591726986 0 97.466651591726986 -28.778190864103635 0 0 0 0 246.02766777628131 108.26046029496274 0 108.26046029496274 -35.403252707151296 0 0 0 0 182.17958098179952 61.623936901536581 0 61.623936901536581 -40.833546964744528 0 0 0 0 216.16256600227644 84.654498666461222 0 84.654498666461222 -25.332714806457261 0 0 0 0 267.63408790155518 88.510106107818501 0 88.510106107818501 -58.862917880625901 0 0 0 0 345.36745925084688 142.75577406458251 0 142.75577406458251 -17.554070593860615 0 0 0 0 237.68770998492255 101.3117358178938 0 101.3117358178938 -32.793197290482567 0 0 0 0 196.76708940250955 90.767164995383297 0 90.767164995383297 3.1231166091820342 0 0 0 0 173.01057768967439 60.327233462659706 0 60.327233462659706 -5.7898390572636345 0 0 0 0 -0.41621388459469699 -1.2308029637317333 0 -1.2308029637317333 -1.7649634938155181 0 0 0 0 116.13180751545588 0.95667770155898779 0 0.95667770155898779 -87.27569484456194 0 0 0 0 -44.276124867996259 -32.690005614295842 0 -32.690005614295842 -25.579013247252078 0 0 0 0 146.76375992687827 -94.480879951182942 0 -94.480879951182942 41.201372918162633 0 0 0 0 -43.741710983013036 -34.605718583660746 0 -34.605718583660746 -20.526169487423431 0 0 0 0 22.506444940841309 -21.639025388899164 0 -21.639025388899164 -20.997575884025693 0 0 0 0 6.7973872946900542 -35.021342391966584 0 -35.021342391966584 -9.9034452414203695 0 0 0 0 383.25367095031834 -36.909511609284891 0 -36.909511609284891 -25.43377658472491 0 0 0 0 225.67257746468385 -102.49863490124426 0 -102.49863490124426 34.319840903955992 0 0 0 0 173.21172434814798 35.708815275901543 0 35.708815275901543 -40.568423135136982 0 0 0 0 95.011069073094404 13.905888222438989 0 13.905888222438989 -12.706981946241285 0 0 0 0 233.00211444687739 20.773712481020993 0 20.773712481020993 -79.52296967348957 0 0 0 0 172.45340095060237 -9.405417258626585 0 -9.405417258626585 -67.320081294445117 0 0 0 0 1.4557885617541615 -82.724657361905656 0 -82.724657361905656 27.814111016311472 0 0 0 0 56.326849325185322 -81.015761764130048 0 -81.015761764130048 -18.060644250033874 0 0 0 0 25.058190878671418 -22.891064854862044 0 -22.891064854862044 -26.929207478352303 0 0 0 0 -9.7104291775503953 -66.088420637678269 0 -66.088420637678269 3.8107488451346399 0 0 0 0 54.979385474194714 -88.695269728195626 0 -88.695269728195626 -66.599314293723864 0 0 0 0 158.07652691789554 -33.396304621179297 0 -33.396304621179297 -39.6300653173721 0 0 0 0 148.47625494538079 -21.710999672156277 0 -21.710999672156277 -140.47362299559552 0 0 0 0 114.36499854623253 22.998307061550122 0 22.998307061550122 -78.728296378338428 0 0 0 0 71.1737124033898 -111.69131134106567 0 -111.69131134106567 -34.924091325949121 0 0 0 0 174.46793291069207 33.038701499640013 0 33.038701499640013 -61.794707724706541 0 0 0 0 95.881465996215411 10.689189205806201 0 10.689189205806201 -56.20656130873229 0 0 0 0 75.715749543307254 0.87869096986907635 0 0.87869096986907635 -6.7682663140025348 0 0 0 0 138.52594364794277 10.70188747945744 0 10.70188747945744 -103.19949185557653 0 0 0 0 31.276125471275009 152.53308256492346 0 152.53308256492346 -147.85326664951845 0 0 0 0 103.26889415609548 1.7250144102971205 0 1.7250144102971205 -94.834238811887076 0 0 0 0 126.11405163312338 32.865260423829909 0 32.865260423829909 -10.287041989174668 0 0 0 0 19.901079903571294 2.594838651292072 0 2.594838651292072 -1.627559889876149 0 0 0 0 14.858369356144976 -66.925558155360704 0 -66.925558155360704 -108.81086426457156 0 0 0 0 55.126539010512118 11.688879809672118 0 11.688879809672118 -15.274862546482352 0 0 0 0 8.5937793288687345 -1.8546917635670752 0 -1.8546917635670752 -11.511129703761735 0 0 0 0 7.9560589251463014 16.180690903444976 0 16.180690903444976 -19.528399542497873 0 0 0 0 44.567798871870764 20.235200085168117 0 20.235200085168117 -5.6399897741209202 0 0 0 0 56.884574068302754 3.2176291089997449 0 3.2176291089997449 -7.4720073939161011 0 0 0 0 54.952853110695287 13.99948636053989 0 13.99948636053989 -19.023920489830516 0 0 0 0 4.2739057935687015 114.08333367899428 0 114.08333367899428 61.484365876556467 0 0 0 0 2.2980115445898264 59.258274019338046 0 59.258274019338046 -58.873198811015925 0 0 0 0 73.740121609363996 -12.338507662399934 0 -12.338507662399934 38.785078685841881 0 0 0 0 50.887713561995042 54.923395255207538 0 54.923395255207538 13.220359664465896 0 0 0 0 85.797761264962901 -1.84549158294476 0 -1.84549158294476 -62.978262134685281 0 0 0 0 41.515586446455927 -16.688139790547439 0 -16.688139790547439 -65.084983910801384 0 0 0 0 3.0940082326714844 -0.093706079342506854 0 -0.093706079342506854 -1.370235760536632 0 0 0 0 193.72072878414474 135.18287908068396 0 135.18287908068396 24.249989623915894 0 0 0 0 401.22898207485196 -22.007413394778496 0 -22.007413394778496 -150.7406283193086 0 0 0 0 283.32601971336408 -48.998665693763542 0 -48.998665693763542 -214.4902313398693 0 0 0 0 294.42369378824515 -21.403015346314533 0 -21.403015346314533 -238.59439244046757 0 0 0 0 155.49966041469088 -99.93761190838373 0 -99.93761190838373 -236.74168254263395 0 0 0 0 162.79748390488294 -74.107122440767114 0 -74.107122440767114 -215.18479608170037 0 0 0 0 346.96767459043986 -56.323175039993316 0 -56.323175039993316 -255.65735495341391 0 0 0 0 343.31504358767779 -96.38487869486471 0 -96.38487869486471 -253.58340632639886 0 0 0 0 157.94031624216223 -134.11650059821591 0 -134.11650059821591 -168.75247007815619 0 0 0 0 46.581842785330082 65.819262793700148 0 65.819262793700148 -150.54037491571086 0 0 0 0 380.66556561659308 -307.10071547139728 0 -307.10071547139728 -150.16394032815185 0 0 0 0 33.352825011913893 3.988878234879607 0 3.988878234879607 -0.96689124907828383 0 0 0 0 14.325746605503809 -70.031837710279348 0 -70.031837710279348 -539.65435308291126 0 0 0 0 -1.1341761830844916 22.73100971630646 0 22.73100971630646 -229.68065658996414 0 0 0 0 46.390544805824902 -17.322247898451906 0 -17.322247898451906 -355.56432601390992 0 0 0 0 15.26926169001672 -28.610497264416153 0 -28.610497264416153 -319.76751757976763 0 0 0 0 -105.67242922680452 -3.4432367348968 0 -3.4432367348968 -220.33885855565256 0 0 0 0 -115.44474552947941 22.500866762727469 0 22.500866762727469 -282.91015720750602 0 0 0 0 -173.43090840303921 -52.464470556406354 0 -52.464470556406354 -165.25515594292983 0 0 0 0 -163.12621017677156 106.2994088086391 0 106.2994088086391 -379.28461496345153 0 0 0 0 -137.44957046946183 15.353182006743225 0 15.353182006743225 -375.21255642770757 0 0 0 0 -128.11399145755422 -4.9309588250399656 0 -4.9309588250399656 -731.38927438503288 0 0 0 0 -78.464548351506892 -78.441145943549543 0 -78.441145943549543 -226.87102088699976 0 0 0 0 -72.164028645987855 -67.698507482923105 0 -67.698507482923105 -511.41453699783096 0 0 0 0 0.23940761621643958 2.9416067048714325 0 2.9416067048714325 -3.36538590341919 0 0 0 0 -248.09198995915358 -264.82290213609713 0 -264.82290213609713 -296.97020323541074 0 0 0 0 -82.387108559829358 -201.44089452849971 0 -201.44089452849971 -576.04292381110463 0 0 0 0 0.79330408213181869 1.485355761324513 0 1.485355761324513 0.69226812011557648 0 0 0 0 7.5010650936383172 -26.438335075966961 0 -26.438335075966961 -195.31698491682164 0 0 0 0 -10.886043863574741 -122.70276572277635 0 -122.70276572277635 -268.43152630005102 0 0 0 0 -34.605346976892804 -74.478480342847945 0 -74.478480342847945 -99.152860441068697 0 0 0 0 -34.216110740228032 -103.66480455652095 0 -103.66480455652095 -121.45465514330772 0 0 0 0 -6.1153976373534533 -74.96604386137551 0 -74.96604386137551 -122.13010080560798 0 0 0 0 -6.860863519619123 8.7706888941668382 0 8.7706888941668382 -1.8445980009028844 0 0 0 0 -105.47565315296379 -11.684984891385298 0 -11.684984891385298 124.17588663158955 0 0 0 0 6.9449796147259235 0.022191241425304042 0 0.022191241425304042 -12.764343803740493 0 0 0 0 -148.59872932251164 -118.86646224375909 0 -118.86646224375909 -83.027426428148829 0 0 0 0 520.32620263565332 -85.944949197698762 0 -85.944949197698762 37.575625589749663 0 0 0 0 440.71614770407905 -79.298037715344663 0 -79.298037715344663 -82.974944937748887 0 0 0 0 152.88741690706229 -6.7114090756892892 0 -6.7114090756892892 -103.48186197643213 0 0 0 0 138.8319126614515 57.019398001449417 0 57.019398001449417 43.22282071153154 0 0 0 0 520.4185174616141 -217.53473398715491 0 -217.53473398715491 102.72044173009883 0 0 0 0 1107.5746250472439 -233.3920145882596 0 -233.3920145882596 -162.2453778851642 0 0 0 0 1118.079709946338 -114.55320288526397 0 -114.55320288526397 -199.80904957909402 0 0 0 0 1761.4771081498184 -110.53350034856658 0 -110.53350034856658 -586.21156662118551 0 0 0 0 710.16184818973124 225.14681176975705 0 225.14681176975705 -350.67565108991448 0 0 0 0 1445.8895973656981 239.50744563654791 0 239.50744563654791 -555.00318816975368 0 0 0 0 1930.3101336625659 -323.52244871673281 0 -323.52244871673281 -495.84108933331277 0 0 0 0 -85.91958115327725 -88.386134097111153 0 -88.386134097111153 -55.556275091875023 0 0 0 0 -17.567829567364242 234.91150499651258 0 234.91150499651258 -242.04583071043635 0 0 0 0 513.39495784304199 79.298321749402533 0 79.298321749402533 -781.6902509862739 0 0 0 0 531.81336543471843 -23.957721584397405 0 -23.957721584397405 -240.51131934428781 0 0 0 0 -285.59872685511073 189.8418024025616 0 189.8418024025616 -365.3021033229038 0 0 0 0 -99.339108826461597 -261.16070015991863 0 -261.16070015991863 -371.30511425867985 0 0 0 0 -249.134010144473 36.925985341984642 0 36.925985341984642 -160.07076373721657 0 0 0 0 -24.576393780378567 79.578878901865096 0 79.578878901865096 -48.267654446243569 0 0 0 0 522.8017739527204 -100.08619393545996 0 -100.08619393545996 -391.42085147367493 0 0 0 0 513.1800064580965 168.61335000381183 0 168.61335000381183 -290.56127352037697 0 0 0 0 2426.6515745974757 407.83202833840556 0 407.83202833840556 -465.24269687500083 0 0 0 0 16.297879339537189 1.1766582995289276 0 1.1766582995289276 -0.25563750315313849 0 0 0 0 547.0293740445486 702.30637150185419 0 702.30637150185419 -44.496468604800157 0 0 0 0 42.343131007430202 -293.42161155498781 0 -293.42161155498781 -72.36638551518368 0 0 0 0 3003.7937484038121 -646.48008367116597 0 -646.48008367116597 -183.20774801691195 0 0 0 0 2391.7566790388446 -138.7234042484248 0 -138.7234042484248 -738.86260732983135 0 0 0 0 3211.4798305789955 -583.03505196084632 0 -583.03505196084632 -573.63493121297267 0 0 0 0 3500.2570784718118 -518.4043423349425 0 -518.4043423349425 -657.81358189876232 0 0 0 0 3157.0040009472177 -750.46048554779816 0 -750.46048554779816 -787.5001601154471 0 0 0 0 2611.5852071870613 -671.82826525502935 0 -671.82826525502935 -782.86253887865473 0 0 0 0 2283.6574260159468 -754.35657742984904 0 -754.35657742984904 -377.34739020661254 0 0 0 0 1443.7453805527257 -767.59130848516259 0 -767.59130848516259 82.822299320146669 0 0 0 0 1927.1265966519204 -581.95069864371953 0 -581.95069864371953 -362.65879721281738 0 0 0 0 2358.1831788627824 -1288.6045171639541 0 -1288.6045171639541 -159.68726976063468 0 0 0 0 3498.1068437845279 -1052.7569530999297 0 -1052.7569530999297 -754.36318440707532 0 0 0 0 3559.350997909296 -2163.3413696327611 0 -2163.3413696327611 193.28279926771557 0 0 0 0 2307.1087791749924 -1348.1131345429158 0 -1348.1131345429158 -162.35544173233146 0 0 0 0 3503.0151428961581 -1627.2952306991576 0 -1627.2952306991576 3523.5300027232115 0 0 0 0 829.12702476821869 -1107.4226561553119 0 -1107.4226561553119 696.22034764537386 0 0 0 0 1728.3924656101481 -2596.1767090096191 0 -2596.1767090096191 1940.4735562968326 0 0 0 0 -50.794102547471994 -1214.6534027512657 0 -1214.6534027512657 2334.1815203940751 0 0 0 0 4528.1742954718757 1723.5702721092189 0 1723.5702721092189 889.02573593260581 0 0 0 0 13.294983741754479 -8.0936749698467736 0 -8.0936749698467736 7.7733752543529544 0 0 0 0 188.73775090721392 -273.53477094530626 0 -273.53477094530626 621.29805812573261 0 0 0 0 -140.06663869055046 267.31254631201864 0 267.31254631201864 363.73472145012465 0 0 0 0 663.26059125999745 -968.76111810772352 0 -968.76111810772352 1224.1654255167759 0 0 0 0 1288.078117929042 -780.93996972265177 0 -780.93996972265177 315.31721540275862 0 0 0 0 1211.3604061172882 -1416.9922447537258 0 -1416.9922447537258 817.65383364556033 0 0 0 0 763.6254816953151 -510.4712737453109 0 -510.4712737453109 189.3676803603044 0 0 0 0 408.5038328870578 -215.80809254032442 0 -215.80809254032442 210.30354360753131 0 0 0 0 785.41040215585144 -122.5693628802936 0 -122.5693628802936 80.50702891184784 0 0 0 0 106.35713735850732 57.76229714590977 0 57.76229714590977 147.57959801642852 0 0 0 0 141.87107411362376 86.737801746060995 0 86.737801746060995 -31.807081645671587 0 0 0 0 141.83026821916113 -74.030601192749216 0 -74.030601192749216 -8.9349271430778572 0 0 0 0 -14.725240332176327 -36.815264970799035 0 -36.815264970799035 -8.4758184182942102 0 0 0 0 -59.009845461987425 114.89591087684175 0 114.89591087684175 -23.581278793841193 0 0 0 0 141.26490349305095 -48.66735426654941 0 -48.66735426654941 118.22308357133898 0 0 0 0 220.96655922794162 63.461579620181055 0 63.461579620181055 184.38378089071986 0 0 0 0 490.71712733821551 -209.68276964007725 0 -209.68276964007725 73.04888288033726 0 0 0 0 272.7648828163401 4.9869894034927711 0 4.9869894034927711 -321.94852635096504 0 0 0 0 63.615985796488189 -7.5409906616623221 0 -7.5409906616623221 -2.5855537115690783 0 0 0 0 281.72000148648658 145.14268857985144 0 145.14268857985144 -395.02633224615579 0 0 0 0 42.181424771672027 13.011275168616038 0 13.011275168616038 -6.4133239976657705 0 0 0 0 12.79395510974642 1.6777370210993361 0 1.6777370210993361 -4.3335798708840105 0 0 0 0 279.41273506252401 -215.10250656217494 0 -215.10250656217494 -91.830203574144434 0 0 0 0 79.947103064567273 38.771284717264848 0 38.771284717264848 -45.505509895963712 0 0 0 0 857.41342938910748 1126.128110921672 0 1126.128110921672 563.70714518943521 0 0 0 0 2533.3613910320273 517.95918113030552 0 517.95918113030552 -391.14168441665936 0 0 0 0 3500.0883492430039 1243.4441641980427 0 1243.4441641980427 119.6333706186428 0 0 0 0 1899.2902017542328 1877.2898031066072 0 1877.2898031066072 964.16444827391513 0 0 0 0 43.050220808436279 170.64900222091501 0 170.64900222091501 -94.891686113398009 0 0 0 0 154.95689267633134 -362.1655491076458 0 -362.1655491076458 -575.41980749808954 0 0 0 0 1688.8648422361541 -140.66232688574212 0 -140.66232688574212 17.09625310498086 0 0 0 0 6.8861937059806451 -5.4489712438481472 0 -5.4489712438481472 1.5140602048198732 0 0 0 0 39.744915891662316 -18.639176868763183 0 -18.639176868763183 8.2878993062780513 0 0 0 0 3389.6882371003448 860.46085968125044 0 860.46085968125044 75.025259881599226 0 0 0 0 3234.9160988160147 666.28167311454786 0 666.28167311454786 499.46661320990734 0 0 0 0 3449.200446865565 977.57427765593491 0 977.57427765593491 105.89409131695284 0 0 0 0 3050.7310149615078 911.16302273017436 0 911.16302273017436 111.90224044026793 0 0 0 0 3499.7939353660622 842.26624858255821 0 842.26624858255821 -242.01399168743538 0 0 0 0 3031.7486740723621 377.52658104656649 0 377.52658104656649 -318.63049048597918 0 0 0 0 1098.9810018533317 99.006251601035387 0 99.006251601035387 189.47706040475845 0 0 0 0 62.652213723180466 12.787021815339813 0 12.787021815339813 15.576014906359205 0 0 0 0 2771.9333027734392 467.86708362049006 0 467.86708362049006 -117.1928820607185 0 0 0 0 13.025139741048767 2.1209235030095925 0 2.1209235030095925 15.543388531616248 0 0 0 0 56.767370879882947 60.44482303671748 0 60.44482303671748 -272.39068450828017 0 0 0 0 16.728244522947108 4.8580558797937243 0 4.8580558797937243 -1.8421342994849965 0 0 0 0 21.883114265409219 19.3279355225838 0 19.3279355225838 12.243453442975248 0 0 0 0 559.32782525083894 3.5767289630712185 0 3.5767289630712185 -291.01117755429641 0 0 0 0 4539.7100890059955 140.62157249165602 0 140.62157249165602 50.500817279483385 0 0 0 0 6.9898472639690823 6.8154509707617166 0 6.8154509707617166 12.637048442669307 0 0 0 0 3195.9387174401727 -367.80925524714263 0 -367.80925524714263 -141.70610812372507 0 0 0 0 7.8809720617019128 0.54755655089905986 0 0.54755655089905986 -0.47663818197007579 0 0 0 0 913.82578718035074 1207.9625706869379 0 1207.9625706869379 1604.9489108880189 0 0 0 0 51.110127274729166 291.74811634300619 0 291.74811634300619 1048.305497774893 0 0 0 0 -328.2667611419165 -68.436573423330515 0 -68.436573423330515 742.11641549653291 0 0 0 0 802.00384822331762 923.78390844810565 0 923.78390844810565 962.1295025062941 0 0 0 0 1779.0552605423218 599.52175892998002 0 599.52175892998002 579.45567485079755 0 0 0 0 523.39647714921739 317.98482066045511 0 317.98482066045511 719.35318541734887 0 0 0 0 3798.2635624943141 1036.7702202687094 0 1036.7702202687094 371.75819540513868 0 0 0 0 1799.7661210226615 688.56922511421465 0 688.56922511421465 576.95862536796028 0 0 0 0 3346.3537942823095 322.98141158139936 0 322.98141158139936 331.06699276533584 0 0 0 0 3107.0904520054428 -59.132502653315925 0 -59.132502653315925 1032.2411924377741 0 0 0 0 3091.0011706242076 684.28636623646139 0 684.28636623646139 1788.4790816507793 0 0 0 0 4042.8827790943124 1301.2271824358297 0 1301.2271824358297 944.31611711986636 0 0 0 0 3499.5451700221747 644.7728591559171 0 644.7728591559171 639.74734508853487 0 0 0 0 3153.5782530124497 528.04991018269504 0 528.04991018269504 660.694004129576 0 0 0 0 3499.5499200181075 341.95772897220439 0 341.95772897220439 156.72700577305324 0 0 0 0 3197.7618835379108 267.06902859991595 0 267.06902859991595 705.59571141980393 0 0 0 0 3413.8425109751988 153.79031741837457 0 153.79031741837457 -141.84761598186236 0 0 0 0 2762.3982824032355 149.46827408329861 0 149.46827408329861 281.28030004003693 0 0 0 0 2828.277513046869 29.049285155700375 0 29.049285155700375 -138.50035893793836 0 0 0 0 2865.9901152792299 89.002758100559106 0 89.002758100559106 -147.75831298051486 0 0 0 0 3500.2874717106934 -2.9039508469844209 0 -2.9039508469844209 -491.19715238613605 0 0 0 0 3066.832521799075 61.83953868734541 0 61.83953868734541 -359.77523340843163 0 0 0 0 3145.5627421923145 -186.4831058825477 0 -186.4831058825477 -584.62637485772211 0 0 0 0 3498.9711803659775 -289.40605463344031 0 -289.40605463344031 -77.984770167026483 0 0 0 0 35.148584440856212 213.12905693448189 0 213.12905693448189 148.90659913256451 0 0 0 0 1833.1828759961791 -1218.9306690313638 0 -1218.9306690313638 -294.50377820243352 0 0 0 0 1708.0794837568028 -270.40845991301063 0 -270.40845991301063 -188.70351871190866 0 0 0 0 819.51103089041135 -215.81162983327286 0 -215.81162983327286 195.00433391947041 0 0 0 0 1682.0375034170356 210.42877359700248 0 210.42877359700248 236.49840830076664 0 0 0 0 1218.4108388249588 94.361934840869495 0 94.361934840869495 237.92324508093469 0 0 0 0 1807.9535230123147 397.33138493826056 0 397.33138493826056 244.02410687214285 0 0 0 0 2850.0713728714327 700.73314518521806 0 700.73314518521806 238.69138768890468 0 0 0 0 1981.3105423490269 357.57875815265305 0 357.57875815265305 246.89227428665561 0 0 0 0 692.51201919263985 469.91172464761831 0 469.91172464761831 650.40522872549582 0 0 0 0 1086.4603473525349 702.1231965538293 0 702.1231965538293 616.33639282679098 0 0 0 0 956.71975189157092 427.13461675046619 0 427.13461675046619 590.25483101311897 0 0 0 0 653.07218237867346 381.16527522051314 0 381.16527522051314 706.092767575273 0 0 0 0 646.17330124099681 650.27159782937338 0 650.27159782937338 643.8011465008567 0 0 0 0 260.16263215710933 413.58426612927519 0 413.58426612927519 773.24972956373483 0 0 0 0 262.34484640232404 410.73820224369729 0 410.73820224369729 765.72394641314327 0 0 0 0 193.88132433103601 302.23072492628694 0 302.23072492628694 671.22567064812006 0 0 0 0 184.96411333600554 435.77663807883334 0 435.77663807883334 840.43138770530766 0 0 0 0 169.76140324493463 465.99653112663498 0 465.99653112663498 833.18726089204529 0 0 0 0 419.47265575619531 451.59175510756518 0 451.59175510756518 680.43648591697729 0 0 0 0 397.04069074834842 624.33310392309068 0 624.33310392309068 888.7463761006577 0 0 0 0 143.26912209256261 293.69856733614762 0 293.69856733614762 661.46307280712756 0 0 0 0 71.033555618332684 495.4835094912338 0 495.4835094912338 950.97474093804453 0 0 0 0 271.28831249381619 232.7617570758336 0 232.7617570758336 714.15813198224555 0 0 0 0 209.82739720393147 439.25992037400351 0 439.25992037400351 830.74374690832826 0 0 0 0 75.427260717384343 304.89214939745699 0 304.89214939745699 695.08938452197935 0 0 0 0 172.84531746940411 442.54772520601466 0 442.54772520601466 493.60840925693162 0 0 0 0 118.55656870138046 130.01076073088461 0 130.01076073088461 173.02815732467059 0 0 0 0 274.01654604400392 422.24433292594074 0 422.24433292594074 -662.05067516183931 0 0 0 0 -240.93439262857646 253.30980483854682 0 253.30980483854682 137.34929693445395 0 0 0 0 444.84733191523264 36.817144576916007 0 36.817144576916007 -999.73107117152585 0 0 0 0 531.43786072657895 943.45405268404033 0 943.45405268404033 833.81270738499677 0 0 0 0 11.98916453482255 4.1423652988711908 0 4.1423652988711908 0.87814431183299047 0 0 0 0 192.10641980967921 9.0569143294355854 0 9.0569143294355854 -75.685451051079781 0 0 0 0 29.243927482596661 5.7028282909661687 0 5.7028282909661687 -0.24218020210858748 0 0 0 0 277.5184283759736 452.7262732808797 0 452.7262732808797 637.44762002336006 0 0 0 0 -49.57492422530413 482.00639111447964 0 482.00639111447964 647.20648984810805 0 0 0 0 659.99865464201139 892.94252104361738 0 892.94252104361738 833.51058066090445 0 0 0 0 876.66272726933676 703.29484614345438 0 703.29484614345438 589.12286531713471 0 0 0 0 -61.556068882227919 478.28074583569617 0 478.28074583569617 691.87158406050867 0 0 0 0 303.24939307067325 394.05443318961261 0 394.05443318961261 1146.9260041217578 0 0 0 0 179.38845072004187 494.97031514666082 0 494.97031514666082 1245.0826932319931 0 0 0 0 7.0337673509119867 -2.0731667630067534 0 -2.0731667630067534 2.1825769577316336 0 0 0 0 423.97099803528545 926.15471286817365 0 926.15471286817365 1105.9410211479492 0 0 0 0 83.513001776620513 -160.76165049415795 0 -160.76165049415795 -374.18988677265133 0 0 0 0 15.176035509869365 -1.9802014071715988 0 -1.9802014071715988 -0.47363486168601732 0 0 0 0 754.24955625284929 1676.2981833246413 0 1676.2981833246413 514.27331445919572 0 0 0 0 598.25478777397075 605.76532970256358 0 605.76532970256358 725.62321116028443 0 0 0 0 663.87064147795172 669.05183018889466 0 669.05183018889466 995.91200587817502 0 0 0 0 -44.450073838546814 -122.11055239700454 0 -122.11055239700454 -327.72332407094109 0 0 0 0 -54.521087781329697 9.2338417991486494 0 9.2338417991486494 45.022213147784896 0 0 0 0 50.069496710100793 -34.137489547748146 0 -34.137489547748146 -0.8581132995441294 0 0 0 0 -2.3512223031164581 -4.4416811941957963 0 -4.4416811941957963 2.0540663406360444 0 0 0 0 -32.642714934823744 -38.53845807182006 0 -38.53845807182006 17.022093493002103 0 0 0 0 63.951398649112662 -61.611567771460315 0 -61.611567771460315 -20.65065056885669 0 0 0 0 64.009982120660425 -58.615585711217591 0 -58.615585711217591 82.42141804223229 0 0 0 0 208.93113030301174 -69.946857813724819 0 -69.946857813724819 61.318942615433798 0 0 0 0 208.4375055019409 -47.869139632460247 0 -47.869139632460247 -47.279142357628189 0 0 0 0 200.00438096894504 -109.96022473126914 0 -109.96022473126914 33.652458607837616 0 0 0 0 335.62943392132001 26.240535666194091 0 26.240535666194091 28.649914553807321 0 0 0 0 514.03599942904839 -104.63658154435552 0 -104.63658154435552 27.700243172786941 0 0 0 0 478.3438183168837 60.780934960935383 0 60.780934960935383 119.32357420195876 0 0 0 0 53.579018227639608 -8.7805962684433325 0 -8.7805962684433325 63.305700950336131 0 0 0 0 1004.8314864043496 235.53188606711774 0 235.53188606711774 -155.89405113318389 0 0 0 0 244.01883456010546 -256.67743604872703 0 -256.67743604872703 -57.652742359819968 0 0 0 0 690.08874771304545 -118.96802917665082 0 -118.96802917665082 -385.46003488803171 0 0 0 0 549.8942227237053 -407.96483562533695 0 -407.96483562533695 1144.0676558792075 0 0 0 0 7.7071181346763922 -5.5218522327362223 0 -5.5218522327362223 6.3828737971623752 0 0 0 0 774.77723074218375 388.01085066525275 0 388.01085066525275 190.66629482498411 0 0 0 0 422.90552490393748 577.55114104735446 0 577.55114104735446 210.44193116537303 0 0 0 0 75.351313769933768 441.07422914378492 0 441.07422914378492 793.80516030401441 0 0 0 0 4.2582636477981168 -2.4427251859413133 0 -2.4427251859413133 2.1687726837640398 0 0 0 0 81.958860156046285 447.0802956633238 0 447.0802956633238 367.5043432520788 0 0 0 0 272.12318290011717 -166.80673991682062 0 -166.80673991682062 423.56809063736546 0 0 0 0 2.0720641379580087 -0.79256198731162897 0 -0.79256198731162897 0.02344316453316253 0 0 0 0 -3.3754778166257893 173.71280282580028 0 173.71280282580028 219.52409889322081 0 0 0 0 644.37541864785453 250.69175805917439 0 250.69175805917439 51.733081461613438 0 0 0 0 337.32577939533076 0.41379513627703091 0 0.41379513627703091 -55.300130090021412 0 0 0 0 256.65406035827618 101.89416453635931 0 101.89416453635931 81.548226549082301 0 0 0 0 2.4342237467404999 -2.2125945744721918 0 -2.2125945744721918 -0.21133196973038437 0 0 0 0 -240.23244089430955 -309.12432007822372 0 -309.12432007822372 527.68332346654279 0 0 0 0 279.82498240824862 115.03000563284286 0 115.03000563284286 22.593677007497718 0 0 0 0 156.44417317151965 43.246837496204535 0 43.246837496204535 6.8046649802879529 0 0 0 0 158.84374553221278 47.764475148466772 0 47.764475148466772 12.003373493743311 0 0 0 0 185.3471030362125 38.24416351580885 0 38.24416351580885 -6.3072257824469489 0 0 0 0 173.29118371372897 -47.822204638607673 0 -47.822204638607673 -88.133845577438933 0 0 0 0 193.52206236618804 -9.8269880713510247 0 -9.8269880713510247 -11.621720914339562 0 0 0 0 194.75339382432867 153.82909370484913 0 153.82909370484913 -38.429086670309516 0 0 0 0 96.082342004271339 -25.935669638539139 0 -25.935669638539139 -25.230537722744046 0 0 0 0 6.1970292348794089 -3.7244499268080915 0 -3.7244499268080915 3.1852102830372675 0 0 0 0 255.1838231736765 64.312693729096054 0 64.312693729096054 91.192651323035562 0 0 0 0 -5.9539538832614198 -34.151314180416193 0 -34.151314180416193 59.835623396428218 0 0 0 0 83.190327861828337 -114.33025880248726 0 -114.33025880248726 -73.947542866761978 0 0 0 0 63.978588488575042 -85.406734886591039 0 -85.406734886591039 18.183527313543891 0 0 0 0 171.87581311835675 22.305307756812454 0 22.305307756812454 -27.774180924269331 0 0 0 0 44.220348658887303 -11.152170936894905 0 -11.152170936894905 0.38579198536700243 0 0 0 0 189.04581989548751 10.587962090320161 0 10.587962090320161 -34.139663545412418 0 0 0 0 150.31053444561257 74.536154473954412 0 74.536154473954412 34.815172826766798 0 0 0 0 4.0671457613994448 3.2196562559989133 0 3.2196562559989133 4.1442681217525621 0 0 0 0 109.89186184725258 -21.90044935869355 0 -21.90044935869355 -24.040978792688691 0 0 0 0 43.004113403803785 26.148259243477696 0 26.148259243477696 24.729768998100951 0 0 0 0 25.643313509359867 33.150312223312469 0 33.150312223312469 24.132939847955253 0 0 0 0 46.573434505582554 -3.4501840880302552 0 -3.4501840880302552 8.3235269718285281 0 0 0 0 76.050628145487281 97.102991136030141 0 97.102991136030141 64.727553268437077 0 0 0 0 -58.995467444765382 6.3732093968028494 0 6.3732093968028494 89.330700281858299 0 0 0 0 44.988573132606689 11.21642735493225 0 11.21642735493225 23.951521226449415 0 0 0 0 42.677209752961062 -30.060629213089328 0 -30.060629213089328 36.782299341697808 0 0 0 0 34.951265736348994 4.4975910942835924 0 4.4975910942835924 11.284597276403652 0 0 0 0 30.785999895771965 26.365346169742452 0 26.365346169742452 25.12461511128231 0 0 0 0 12.089399934911626 7.1583997934416601 0 7.1583997934416601 -2.7419759267944768 0 0 0 0 39.461710024057538 -1.0982112521038641 0 -1.0982112521038641 3.4766391574088971 0 0 0 0 42.054597644874036 -7.1967809293210223 0 -7.1967809293210223 -0.22693523964811924 0 0 0 0 43.960707664751681 -19.058522185735399 0 -19.058522185735399 -9.07383314686831 0 0 0 0 53.07865314927767 10.169519659232947 0 10.169519659232947 9.6929784188680514 0 0 0 0 45.486726823044592 -15.42819423293065 0 -15.42819423293065 -18.002701010178043 0 0 0 0 42.693943533713878 -6.8531682854354798 0 -6.8531682854354798 -0.91514079103856072 0 0 0 0 38.69880665733217 -7.3317397171007315 0 -7.3317397171007315 -2.2954733287035651 0 0 0 0 47.524659025954861 -12.600172731324207 0 -12.600172731324207 2.8536877441597426 0 0 0 0 46.374296180263627 8.7546609669019517 0 8.7546609669019517 17.773738339440115 0 0 0 0 40.044272869068664 10.61025717832581 0 10.61025717832581 13.441466577532537 0 0 0 0 22.89398344825895 -27.31593710297966 0 -27.31593710297966 14.797558566326188 0 0 0 0 37.019974540196785 -13.218561852771529 0 -13.218561852771529 -2.2605249478273084 0 0 0 0 46.954116216977127 10.185965196844563 0 10.185965196844563 19.484485614769255 0 0 0 0 42.295457564281605 -5.6449523687221017 0 -5.6449523687221017 17.076527263337994 0 0 0 0 37.61542139418998 -3.3058253474590344 0 -3.3058253474590344 -4.7434722867201344 0 0 0 0 36.607507138863554 -9.4664529826831654 0 -9.4664529826831654 -3.2229227813711674 0 0 0 0 52.538597904989729 -5.5801352942653466 0 -5.5801352942653466 -4.6453729105514867 0 0 0 0 42.337117577641038 2.8944710555201709 0 2.8944710555201709 -11.619287019587773 0 0 0 0 38.582071046505007 2.6139803184964876 0 2.6139803184964876 1.9874420546429974 0 0 0 0 44.200919318464003 8.6767107623854827 0 8.6767107623854827 -5.9499656347466043 0 0 0 0 40.624938459659461 -0.65571779550054998 0 -0.65571779550054998 -6.3518226366183228 0 0 0 0 77.834110723662889 -6.3554711233509806 0 -6.3554711233509806 -36.107124379529978 0 0 0 0 54.629721737233922 5.8709143382184266 0 5.8709143382184266 -5.9326588747558162 0 0 0 0 96.543938676994003 46.90343721211093 0 46.90343721211093 29.83368931131281 0 0 0 0 12.531161771599727 3.4926390204389577 0 3.4926390204389577 91.017785764425753 0 0 0 0 26.959484627601341 -17.279785674141976 0 -17.279785674141976 48.613875264265516 0 0 0 0 89.311889021031675 -50.864481694904498 0 -50.864481694904498 -16.386788261434958 0 0 0 0 128.69723533429715 -0.64568129495137327 0 -0.64568129495137327 -24.409217283413454 0 0 0 0 15.717241686863296 -21.379554148261064 0 -21.379554148261064 -8.4735109316107327 0 0 0 0 0.8908883314159759 -23.789001626173771 0 -23.789001626173771 -1.6105909961491598 0 0 0 0 48.783896791894222 -29.625469574761155 0 -29.625469574761155 -6.7122178989666281 0 0 0 0 55.223760185326682 -7.3939853040765229 0 -7.3939853040765229 -24.568609551577993 0 0 0 0 36.798997986588802 -39.081271259857658 0 -39.081271259857658 -12.001452829616028 0 0 0 0 43.32560143862429 -12.788360231043058 0 -12.788360231043058 -3.1960114771452046 0 0 0 0 21.178327125599026 -27.323869913651379 0 -27.323869913651379 -196.14696400790763 0 0 0 0 33.057487529265927 -49.479841624773371 0 -49.479841624773371 -159.44295200832221 0 0 0 0 -8.6663198661408387 -51.645436330509256 0 -51.645436330509256 -209.855852969029 0 0 0 0 47.830013629711175 -46.951117653532492 0 -46.951117653532492 -171.39367432182871 0 0 0 0 46.820687059010424 -4.6319547703475479 0 -4.6319547703475479 -0.51790493263536175 0 0 0 0 19.642524404305732 -25.849478613442443 0 -25.849478613442443 -94.282383801930791 0 0 0 0 35.371679393545492 -131.63814939658187 0 -131.63814939658187 -74.646396193009423 0 0 0 0 62.250271978125966 -129.07148325540493 0 -129.07148325540493 -119.24771080637129 0 0 0 0 59.669013490449288 -142.61512883163732 0 -142.61512883163732 -144.45807904609592 0 0 0 0 69.742933775109123 -92.059265507516102 0 -92.059265507516102 -169.42882721155024 0 0 0 0 23.097000312205637 -86.519148738313561 0 -86.519148738313561 -126.63020933869939 0 0 0 0 38.802886390128805 -9.5546336256371518 0 -9.5546336256371518 0.51431904894467007 0 0 0 0 484.85984299711708 352.24792608601661 0 352.24792608601661 497.16571214895635 0 0 0 0 50.779073261597659 -69.853174944621969 0 -69.853174944621969 -195.00216131801417 0 0 0 0 1101.4431626743099 768.71691386055886 0 768.71691386055886 514.53617311234393 0 0 0 0 625.52338131992292 642.47077441717033 0 642.47077441717033 577.43012343859027 0 0 0 0 558.32120897535788 710.92703983897479 0 710.92703983897479 508.40985508267681 0 0 0 0 124.83517693377507 287.99769406391749 0 287.99769406391749 693.18767708141411 0 0 0 0 940.91475253911631 132.15265855879693 0 132.15265855879693 662.01987507446199 0 0 0 0 288.37885092614124 198.57617155551463 0 198.57617155551463 1010.6467864999861 0 0 0 0 95.867743339218578 196.79464330903954 0 196.79464330903954 690.05623135864914 0 0 0 0 109.95666219071836 297.20990971470883 0 297.20990971470883 737.49957843231687 0 0 0 0 105.80831962040611 276.23154011313545 0 276.23154011313545 705.0775028303093 0 0 0 0 275.48206804011897 277.77035808390281 0 277.77035808390281 616.10198161327969 0 0 0 0 271.88065051182093 63.356632284496868 0 63.356632284496868 527.11825313002328 0 0 0 0 56.066597922797726 -16.646616169884446 0 -16.646616169884446 2.932056611282631 0 0 0 0 -173.19513964257203 -26.671223524092056 0 -26.671223524092056 -142.73992127669408 0 0 0 0 200.15568665394676 108.72224440890841 0 108.72224440890841 -468.87746924104977 0 0 0 0 192.4284627840243 -57.100588428284482 0 -57.100588428284482 -249.73844071095118 0 0 0 0 71.830005845507799 -23.047353910904611 0 -23.047353910904611 5.6302173945358795 0 0 0 0 18.354024914617185 -60.441490705618435 0 -60.441490705618435 -24.694691465861069 0 0 0 0 26.169150877722132 -103.11047913224593 0 -103.11047913224593 -59.271543195620325 0 0 0 0 28.387686214278801 -22.105810796284914 0 -22.105810796284914 -154.43935002258422 0 0 0 0 -122.6609385246702 129.15396377545449 0 129.15396377545449 -203.51799299058018 0 0 0 0 -49.038011610635294 -10.187044572456216 0 -10.187044572456216 -101.69329382139949 0 0 0 0 31.771950277179712 250.71786563821661 0 250.71786563821661 -374.97951032018818 0 0 0 0 69.521974902760121 -252.86060873776205 0 -252.86060873776205 -89.146286353706273 0 0 0 0 -95.741580245376099 17.240226171196809 0 17.240226171196809 108.50414674721014 0 0 0 0 0.17579049071312625 -0.35560654065297115 0 -0.35560654065297115 -1.5829841282769301 0 0 0 0 -0.49212526874234186 -0.53471999938238213 0 -0.53471999938238213 0.20833540259556216 0 0 0 0 26.74728749052241 -155.31396054039038 0 -155.31396054039038 35.663693570050782 0 0 0 0 26.776736679545138 -152.71103961622248 0 -152.71103961622248 -105.32545434327039 0 0 0 0 50.167959963934067 -4.0686168314164064 0 -4.0686168314164064 0.95752592700492034 0 0 0 0 80.75068866595393 -33.977874616287181 0 -33.977874616287181 -40.126278525714042 0 0 0 0 22.803466059591301 -45.672314953813611 0 -45.672314953813611 21.966511274013101 0 0 0 0 6.4713088332320581 -4.404875598944372 0 -4.404875598944372 -3.3235060735147748 0 0 0 0 52.269012714801647 -60.791311383206221 0 -60.791311383206221 15.016983332126983 0 0 0 0 165.08246034759941 47.667014713698109 0 47.667014713698109 -94.396183092547744 0 0 0 0 9.5554636356312415 -7.801298607902126 0 -7.801298607902126 -0.81163108883069945 0 0 0 0 8.5972518913695239 20.122446823223299 0 20.122446823223299 -63.739112964393826 0 0 0 0 11.015910987436655 22.202776027062555 0 22.202776027062555 -115.10111497229354 0 0 0 0 36.905689881948348 -6.1440317867022642 0 -6.1440317867022642 -5.0997480455480728 0 0 0 0 55.960386755468789 -19.57201996038566 0 -19.57201996038566 6.3384035798993636 0 0 0 0 11.941848981564789 0.51966122094318834 0 0.51966122094318834 -1.7638245047121444 0 0 0 0 34.758775580790825 9.430333550749765 0 9.430333550749765 -75.515583732498442 0 0 0 0 21.000258126505287 19.037095926921097 0 19.037095926921097 -43.596275240258365 0 0 0 0 135.12377809466125 -65.268976390849275 0 -65.268976390849275 -46.026130454433769 0 0 0 0 35.031220252523781 -37.202246670671684 0 -37.202246670671684 3.3690703029101314 0 0 0 0 39.059671370701835 -9.8572579107487854 0 -9.8572579107487854 -86.018344513050579 0 0 0 0 18.118547101636068 -37.393410969708839 0 -37.393410969708839 -38.300376500185848 0 0 0 0 40.008770274122071 -75.065779810543518 0 -75.065779810543518 -59.22759447859903 0 0 0 0 48.051640966401465 -52.05209242598221 0 -52.05209242598221 -12.856545491760698 0 0 0 0 101.10762090393109 -122.17817028488662 0 -122.17817028488662 -91.570102431332543 0 0 0 0 92.997286670568172 -28.510713132713892 0 -28.510713132713892 7.0608407871632677 0 0 0 0 208.95719665690558 77.31795308397659 0 77.31795308397659 88.411185947585182 0 0 0 0 174.2987212590524 -33.530504110713991 0 -33.530504110713991 35.064165857143962 0 0 0 0 68.873396431583387 -37.715165898566283 0 -37.715165898566283 28.017061329943317 0 0 0 0 165.05891827442974 6.6986091344742817 0 6.6986091344742817 -80.927028670584605 0 0 0 0 221.8261407167447 -56.705092083509953 0 -56.705092083509953 -45.168442486975437 0 0 0 0 248.59929696247855 13.77875449244857 0 13.77875449244857 -8.8308400509183684 0 0 0 0 -170.7823817337121 -149.60240654330869 0 -149.60240654330869 -27.476880710277328 0 0 0 0 -109.88941111904205 5.6220204746924765 0 5.6220204746924765 87.852563347382784 0 0 0 0 449.17584133362834 60.476620678927247 0 60.476620678927247 -76.175015645920212 0 0 0 0 -2.6391938358828853 0.84001481235237918 0 0.84001481235237918 -1.1424759877814417 0 0 0 0 27.649670985832927 -54.331376342281146 0 -54.331376342281146 -100.41234021516357 0 0 0 0 120.30430761814932 -121.09919158358844 0 -121.09919158358844 -209.64435852436509 0 0 0 0 76.810633095126832 -6.0070065467834866 0 -6.0070065467834866 -126.61944073237737 0 0 0 0 140.34097323746755 -89.085036632180618 0 -89.085036632180618 -6.8801511027268134 0 0 0 0 363.66028193986858 -96.650241525621823 0 -96.650241525621823 -93.922682009439086 0 0 0 0 274.27061710918497 -123.98712891005061 0 -123.98712891005061 -74.150527436146149 0 0 0 0 274.05386461288435 -103.60000277639074 0 -103.60000277639074 -46.259566677651947 0 0 0 0 188.61347582496091 -182.60686465310914 0 -182.60686465310914 82.453527620002205 0 0 0 0 207.09614563604555 136.87640108803566 0 136.87640108803566 64.980383074385969 0 0 0 0 53.51853194189971 -93.100487091452749 0 -93.100487091452749 33.491321876251277 0 0 0 0 4.1329293302974293 -1.3178699178884834 0 -1.3178699178884834 0.3476898773326117 0 0 0 0 359.854613515854 -158.73904627847355 0 -158.73904627847355 -60.906555735726897 0 0 0 0 -78.195894719370699 -131.43215030457765 0 -131.43215030457765 200.73395405071733 0 0 0 0 -12.841227007338603 13.403430262126562 0 13.403430262126562 378.24395872052082 0 0 0 0 153.20234113703918 138.78798141993684 0 138.78798141993684 143.16607254430755 0 0 0 0 326.45867144527438 98.657876744867053 0 98.657876744867053 -135.55278843102394 0 0 0 0 -89.568812246056041 -95.189037434190141 0 -95.189037434190141 395.5480320867394 0 0 0 0 363.72839298284816 -17.600118138127527 0 -17.600118138127527 -160.30629061872969 0 0 0 0 46.037823058399226 -52.725982800898635 0 -52.725982800898635 51.015985540055226 0 0 0 0 53.899950315162826 -39.065005622874949 0 -39.065005622874949 3.3962303824025266 0 0 0 0 130.98079422720184 -60.058456424718997 0 -60.058456424718997 -60.35092397571043 0 0 0 0 14.850361705641262 -66.502853078100088 0 -66.502853078100088 -3.6085233383419109 0 0 0 0 64.169885885632539 -114.24411200031079 0 -114.24411200031079 -0.53206868058077816 0 0 0 0 -17.986872196372133 -2.3932924915884541 0 -2.3932924915884541 18.942689672888775 0 0 0 0 -76.008302859263495 -52.911933692121238 0 -52.911933692121238 17.170195426571127 0 0 0 0 170.92120124469511 -94.110532960660294 0 -94.110532960660294 45.749441834266236 0 0 0 0 143.38965906873818 31.149349252383558 0 31.149349252383558 -5.7441200184280206 0 0 0 0 51.774727412937153 12.988286657441208 0 12.988286657441208 1.2369475160315764 0 0 0 0 61.003176982878358 -11.467015242858452 0 -11.467015242858452 17.702174416909202 0 0 0 0 31.366162117349859 5.4501885538772683 0 5.4501885538772683 2.7732865724452402 0 0 0 0 34.881662123079877 12.767315943362519 0 12.767315943362519 -6.6149989641708089 0 0 0 0 43.303955500534158 9.055515559206242 0 9.055515559206242 3.7997483102168452 0 0 0 0 41.220994566765739 11.886212332734033 0 11.886212332734033 -1.7972234670298795 0 0 0 0 -10.086024555413246 -11.739816438988953 0 -11.739816438988953 8.414911800954286 0 0 0 0 35.085837879244586 -0.054876580115035267 0 -0.054876580115035267 -0.26204772831892598 0 0 0 0 34.126940984038811 3.3136974824819845 0 3.3136974824819845 -5.5774421711362265 0 0 0 0 32.537843961996856 4.1522980966902168 0 4.1522980966902168 -6.7529534599252763 0 0 0 0 30.269268342686701 14.11301448352765 0 14.11301448352765 -6.8447054286180844 0 0 0 0 60.319249716936611 -11.015964210716447 0 -11.015964210716447 22.125420919849603 0 0 0 0 55.374267814928317 -2.1963427268910891 0 -2.1963427268910891 10.845956691173114 0 0 0 0 56.071690212580279 -13.60135184626283 0 -13.60135184626283 28.302835816516563 0 0 0 0 31.657928883031929 -6.6800706947982462 0 -6.6800706947982462 0.069056957707429589 0 0 0 0 37.476679258674636 17.941697846021796 0 17.941697846021796 -0.25416518714836123 0 0 0 0 42.045014758303296 -0.75407921055125371 0 -0.75407921055125371 15.666368095903181 0 0 0 0 34.923770141867379 4.4057791888491806 0 4.4057791888491806 -4.3799769354418991 0 0 0 0 44.554802361846669 -7.4922963673021741 0 -7.4922963673021741 -1.8845855212723563 0 0 0 0 56.434833679013536 -14.174638624523368 0 -14.174638624523368 23.628251019415075 0 0 0 0 44.827991783895982 -3.0166352741794284 0 -3.0166352741794284 -0.44943493042570326 0 0 0 0 53.893819431163138 15.158719469914786 0 15.158719469914786 10.561573090504567 0 0 0 0 77.809977114549838 0.19261000101903392 0 0.19261000101903392 -2.3205637282148928 0 0 0 0 98.818821962689981 18.179343647308997 0 18.179343647308997 6.7125965413897575 0 0 0 0 75.544790813568397 15.328016440008128 0 15.328016440008128 8.7466768472468175 0 0 0 0 41.886832138015336 -7.6798788999842031 0 -7.6798788999842031 -0.52898956189169999 0 0 0 0 42.337094811809948 -8.8860145794169512 0 -8.8860145794169512 -6.6670408673971906 0 0 0 0 47.4623931674505 -4.1515323511069937 0 -4.1515323511069937 -5.9746952605482875 0 0 0 0 58.432258105021901 3.0790542479035139 0 3.0790542479035139 -3.1895045778213671 0 0 0 0 48.37269207569625 2.7485829846784213 0 2.7485829846784213 -0.98852437349773936 0 0 0 0 55.211575955901935 5.6025150243762596 0 5.6025150243762596 2.0548584282055344 0 0 0 0 91.531153939664364 5.2593893227303852 0 5.2593893227303852 1.2944679410420576 0 0 0 0 72.791395892436412 8.2535341358580183 0 8.2535341358580183 2.9117750984669328 0 0 0 0 71.985496693785535 13.68712698643958 0 13.68712698643958 1.1317216584990319 0 0 0 0 58.552927926852135 10.830563967320074 0 10.830563967320074 2.5176055200627161 0 0 0 0 76.399382818119193 5.2697489451236947 0 5.2697489451236947 -0.18948016349031604 0 0 0 0 77.328908729541581 8.9409935836899876 0 8.9409935836899876 -1.7705034940705673 0 0 0 0 84.360076989396475 4.0364351571693078 0 4.0364351571693078 -1.3238098634808466 0 0 0 0 78.426761632814305 2.4077352734768738 0 2.4077352734768738 -0.47201804489873211 0 0 0 0 81.927019283350091 8.7308997151994845 0 8.7308997151994845 0.56155719093931111 0 0 0 0 83.241803964403516 1.5727905363517038 0 1.5727905363517038 4.136307026195027 0 0 0 0 90.728339009685442 -0.61714341123160921 0 -0.61714341123160921 2.451687636380484 0 0 0 0 83.545056337112328 -2.5103243781045421 0 -2.5103243781045421 3.4587307369672544 0 0 0 0 107.12235897232313 -8.3420366266141173 0 -8.3420366266141173 4.8154567632223007 0 0 0 0 -2.1606375597635434 -0.71741780331632299 0 -0.71741780331632299 0.70475665178441549 0 0 0 0 89.709903409566323 -2.7394803945467174 0 -2.7394803945467174 11.571115725270829 0 0 0 0 24.399402552553511 0.56340415615339623 0 0.56340415615339623 6.25676874759165 0 0 0 0 24.819924527117109 -1.5993253508443104 0 -1.5993253508443104 5.2541438230808666 0 0 0 0 168.0063840244984 -100.68445645812199 0 -100.68445645812199 39.54257041233177 0 0 0 0 7.1921996391433254 -7.0360023181955711 0 -7.0360023181955711 2.825844096919842 0 0 0 0 2.1463637330995482 0.40102606728845558 0 0.40102606728845558 -0.61713232811972674 0 0 0 0 42.554823188307637 -27.030310232266856 0 -27.030310232266856 8.3176602808639473 0 0 0 0 50.626622408133699 -11.227296214509806 0 -11.227296214509806 15.669288706596035 0 0 0 0 32.325964522460708 -1.2401503970027079 0 -1.2401503970027079 5.1618139201930262 0 0 0 0 19.909795976945418 6.3316600610736771 0 6.3316600610736771 -1.7310470022148863 0 0 0 0 55.311382550949929 5.7231123301933735 0 5.7231123301933735 -3.1179515132216693 0 0 0 0 33.475106894904918 -2.95062630265096 0 -2.95062630265096 4.4777475508614355 0 0 0 0 71.472715769778006 -6.5283009659970048 0 -6.5283009659970048 6.634092294719693 0 0 0 0 65.688843830488622 19.476414706674859 0 19.476414706674859 8.2400565230862526 0 0 0 0 35.03996589123841 14.048170012714507 0 14.048170012714507 -0.33324782233998329 0 0 0 0 75.46868403343251 -9.2864102129583443 0 -9.2864102129583443 32.126854461497715 0 0 0 0 77.107704544410808 46.041134513193128 0 46.041134513193128 0.84218378414789186 0 0 0 0 16.949189907954349 2.7402586257105384 0 2.7402586257105384 -2.9893335993361791 0 0 0 0 61.865325273778581 10.294974998091448 0 10.294974998091448 20.329788224565164 0 0 0 0 85.578049092757283 -22.540144282485016 0 -22.540144282485016 36.787692604231097 0 0 0 0 119.73039811459603 -2.424471962250891 0 -2.424471962250891 1.3467444518619232 0 0 0 0 88.516228556749411 1.3463500910384028 0 1.3463500910384028 1.1792694667192336 0 0 0 0 68.187859168450814 0.83579257148221586 0 0.83579257148221586 14.222128385787073 0 0 0 0 63.99366960444604 20.961966644273843 0 20.961966644273843 6.1468574218160938 0 0 0 0 62.908717722411893 -3.3260493296494786 0 -3.3260493296494786 14.118476482466576 0 0 0 0 19.211683706031891 6.184894030281356 0 6.184894030281356 3.5451282090892811 0 0 0 0 77.74252565309871 -0.20072932717266667 0 -0.20072932717266667 8.5581260506078252 0 0 0 0 58.692636874286109 -1.0514771286634641 0 -1.0514771286634641 1.8552072033994591 0 0 0 0 62.065045376424678 6.1793311833913549 0 6.1793311833913549 -1.6229811021605656 0 0 0 0 69.697225730255013 5.78059458113853 0 5.78059458113853 -1.6069354111748453 0 0 0 0 63.074678889883216 5.5176362236115892 0 5.5176362236115892 -2.2583174454684922 0 0 0 0 56.243335204824689 2.3334010960782905 0 2.3334010960782905 -0.4683131669253271 0 0 0 0 40.510892888632952 -14.557877424858418 0 -14.557877424858418 -7.4585535633173947 0 0 0 0 4.4606470757450012 6.6292248689635471 0 6.6292248689635471 0.19410438071124148 0 0 0 0 -0.057250878222276924 0.41528724344445322 0 0.41528724344445322 0.41712545116077981 0 0 0 0 2.2829835869893742 0.46231031854529192 0 0.46231031854529192 1.0571940017021468 0 0 0 0 3.7519306554756895 6.7455078752615805 0 6.7455078752615805 1.171662391858141 0 0 0 0 37.969436538987793 5.3254807590825521 0 5.3254807590825521 4.4398293097947317 0 0 0 0 79.317699018050916 -5.1082644440987224 0 -5.1082644440987224 -0.35631624765528613 0 0 0 0 84.096724058261316 -1.8852162778889578 0 -1.8852162778889578 -1.6249681776066609 0 0 0 0 67.603332004451659 -5.3966958298669852 0 -5.3966958298669852 2.3332083206490779 0 0 0 0 67.573746546870098 -4.1666631151369984 0 -4.1666631151369984 2.1803793616818439 0 0 0 0 75.778616348281503 1.5876312225927904 0 1.5876312225927904 -0.23878497287842038 0 0 0 0 62.529781080578687 2.2666767346400434 0 2.2666767346400434 0.77475706450559301 0 0 0 0 71.245981196698267 2.4681570055699922 0 2.4681570055699922 0.56942898570400757 0 0 0 0 77.765515866794885 3.8002279332277169 0 3.8002279332277169 -1.5650460824153924 0 0 0 0 73.035991240078147 7.7608606506121305 0 7.7608606506121305 -1.5788633670108538 0 0 0 0 71.020135030383244 6.6079474639117279 0 6.6079474639117279 -0.27779263254365105 0 0 0 0 68.156383689201903 12.38599120797403 0 12.38599120797403 -0.46280136479538214 0 0 0 0 62.657095057016704 7.2805002708239499 0 7.2805002708239499 -1.1878872652491737 0 0 0 0 66.292415071933647 8.4055529066381496 0 8.4055529066381496 -2.1597085187099765 0 0 0 0 63.604322511906503 9.5829282206651669 0 9.5829282206651669 0.07442075242147439 0 0 0 0 65.647505291883135 7.5370219095127595 0 7.5370219095127595 -0.25882671636918531 0 0 0 0 60.922012809547596 6.8376535775201148 0 6.8376535775201148 -0.71628153582923915 0 0 0 0 62.084383947061724 4.5437156248752331 0 4.5437156248752331 -2.4460081636279938 0 0 0 0 53.793894138623727 5.5792481225611255 0 5.5792481225611255 -1.1396802435340305 0 0 0 0 65.698669067089213 7.3139278970464829 0 7.3139278970464829 -1.4834440877978068 0 0 0 0 65.317217713483842 7.020655787142573 0 7.020655787142573 -1.7079186119099177 0 0 0 0 66.125685031713147 2.6623203019897943 0 2.6623203019897943 -0.38653785085466552 0 0 0 0 65.268447405484039 8.4635478776360742 0 8.4635478776360742 -1.9056692344167914 0 0 0 0 65.858247233409202 7.9605129352751192 0 7.9605129352751192 -1.5570138767291155 0 0 0 0 65.921835424742312 8.2315576310877532 0 8.2315576310877532 -3.5247161428351319 0 0 0 0 61.767385412531439 7.4572070043708436 0 7.4572070043708436 -2.3924615758870686 0 0 0 0 67.44885447237175 8.126049882479208 0 8.126049882479208 -3.4681798160279413 0 0 0 0 67.386958250875978 5.8011930904874713 0 5.8011930904874713 -0.77924643272854155 0 0 0 0 67.340526184100781 7.4283083616936789 0 7.4283083616936789 -5.0106943188538935 0 0 0 0 61.319930368976202 8.2834884346632407 0 8.2834884346632407 -3.3068687317687591 0 0 0 0 69.94733175244437 0.76266105109401394 0 0.76266105109401394 1.400733247998005 0 0 0 0 68.166953093721531 5.1704197184180885 0 5.1704197184180885 -0.58564344369563059 0 0 0 0 69.461120599153219 5.5727389009097124 0 5.5727389009097124 -1.2432739455603041 0 0 0 0 73.733994016918587 1.6710893896411108 0 1.6710893896411108 -0.58081922720393209 0 0 0 0 70.949856008432107 5.7170247430505583 0 5.7170247430505583 -2.8842713028221851 0 0 0 0 74.702067690290278 1.1683495885491766 0 1.1683495885491766 0.10886076765586949 0 0 0 0 71.905156271459418 0.52135868000834762 0 0.52135868000834762 2.9525413920068786 0 0 0 0 79.68420895334566 -1.1058470105917877 0 -1.1058470105917877 0.53459748927184592 0 0 0 0 75.564251246036292 0.865052875568324 0 0.865052875568324 -2.2097735205769595 0 0 0 0 80.497131205891492 -3.2880169885336841 0 -3.2880169885336841 6.8124406865883884 0 0 0 0 77.621500349516282 -5.5154874101850169 0 -5.5154874101850169 5.8784213749739251 0 0 0 0 60.028573664691066 7.5928761694452191 0 7.5928761694452191 -5.3289078309808247 0 0 0 0 70.324109983796461 4.4869934686506809 0 4.4869934686506809 -7.434374046396897 0 0 0 0 70.188385072833626 0.63045572878303346 0 0.63045572878303346 0.44230397350062844 0 0 0 0 41.749730603769422 19.293324354688821 0 19.293324354688821 -7.3608573106591848 0 0 0 0 56.460095740971155 2.8605609476479117 0 2.8605609476479117 -7.8242154217506368 0 0 0 0 53.004318257473642 9.8571906049744484 0 9.8571906049744484 -5.4442875847227015 0 0 0 0 59.41466380021302 4.7914285648062958 0 4.7914285648062958 -4.7616573989994322 0 0 0 0 43.481136615504511 -3.1137819952400321 0 -3.1137819952400321 -4.8926289386579356 0 0 0 0 58.315255092391453 1.8892326965260793 0 1.8892326965260793 -4.681506427237764 0 0 0 0 56.058569747197907 5.0623869615074 0 5.0623869615074 -1.9208977563952203 0 0 0 0 61.230661125999177 8.6363237863088784 0 8.6363237863088784 -4.9202822385279887 0 0 0 0 30.911399417265784 19.373643363520415 0 19.373643363520415 6.4368120127180646 0 0 0 0 20.217076057801023 9.4865128984529008 0 9.4865128984529008 3.8239439103774657 0 0 0 0 60.276886653968177 -20.061604936122521 0 -20.061604936122521 -19.259748965533845 0 0 0 0 0.16581878641859049 0.30007689398058801 0 0.30007689398058801 0.04609336169511824 0 0 0 0 29.706873961695237 -0.58126481573876987 0 -0.58126481573876987 -12.783611679472585 0 0 0 0 37.049157441273564 18.946134735678001 0 18.946134735678001 -1.1591782035280858 0 0 0 0 55.703038764564553 10.535891145475404 0 10.535891145475404 -11.281950876934303 0 0 0 0 56.16752860431734 12.309130615698706 0 12.309130615698706 -6.0725175579418647 0 0 0 0 75.675217743635585 7.3862642198079271 0 7.3862642198079271 -10.638486286255727 0 0 0 0 57.101328185708553 21.917036726890487 0 21.917036726890487 -6.4234113995673852 0 0 0 0 25.334483302940498 9.5765958418233694 0 9.5765958418233694 -0.52752377453229116 0 0 0 0 82.544230381827219 35.569649746515005 0 35.569649746515005 -5.9227785027439239 0 0 0 0 109.48351476922107 44.498271297981709 0 44.498271297981709 0.22547503523176624 0 0 0 0 72.442888772959122 8.2601185539762909 0 8.2601185539762909 -1.0343507474925728 0 0 0 0 28.536776268752874 44.128795846608966 0 44.128795846608966 -0.1060710629293983 0 0 0 0 -7.179506436252268 8.4243810177064873 0 8.4243810177064873 -0.0069688731525226009 0 0 0 0 0.88159215901313814 0.34854157098644123 0 0.34854157098644123 0.052513237335824886 0 0 0 0 186.92329043547215 15.065526086075955 0 15.065526086075955 -27.197695736406928 0 0 0 0 96.411648716883064 -7.1466899957004628 0 -7.1466899957004628 -3.438543683501905 0 0 0 0 72.755346580015612 -28.917938673335243 0 -28.917938673335243 -3.0285821392941727 0 0 0 0 182.00249576594706 -88.307501756021352 0 -88.307501756021352 27.468339505985952 0 0 0 0 92.291047236387385 -30.746018921606321 0 -30.746018921606321 -9.3023300088444216 0 0 0 0 81.423049345219624 -22.380116441744491 0 -22.380116441744491 0.22285744296948451 0 0 0 0 96.678121178905712 7.8006311750303894 0 7.8006311750303894 -12.055579320761908 0 0 0 0 74.931978425913258 7.5238975161617532 0 7.5238975161617532 -6.1833276654969609 0 0 0 0 113.1836638091263 -15.555002832404924 0 -15.555002832404924 -12.730343507572002 0 0 0 0 84.565866890734469 -12.109977414447286 0 -12.109977414447286 -7.8606839254227907 0 0 0 0 74.155610844085459 1.317102905520585 0 1.317102905520585 -9.6123034457781671 0 0 0 0 92.903651189146331 -4.1615213555785431 0 -4.1615213555785431 -11.189620744121157 0 0 0 0 73.148617907863809 0.70931641130289336 0 0.70931641130289336 -8.7723876636171099 0 0 0 0 81.54352088709129 -12.394695195466539 0 -12.394695195466539 -6.0691875873350227 0 0 0 0 81.167330351358032 -15.008048163462497 0 -15.008048163462497 12.90251564485709 0 0 0 0 83.817047110875137 -22.86560402064157 0 -22.86560402064157 0.28810108952154678 0 0 0 0 77.411748605867615 -8.4093910184570291 0 -8.4093910184570291 2.5390038033504823 0 0 0 0 85.396391993039288 -12.753561667094459 0 -12.753561667094459 5.8460507835005728 0 0 0 0 85.540898167644627 -14.178346093929008 0 -14.178346093929008 17.056188696812796 0 0 0 0 93.916456028724497 -9.1887628279284712 0 -9.1887628279284712 17.331794668454222 0 0 0 0 108.8918861473212 -12.954128919264122 0 -12.954128919264122 12.097486912789236 0 0 0 0 108.06885669843177 -27.113101257242761 0 -27.113101257242761 14.247571765018165 0 0 0 0 125.26255166094779 -26.434042223180981 0 -26.434042223180981 10.911046321506774 0 0 0 0 95.480800876161084 -15.12584053492526 0 -15.12584053492526 19.468598838063599 0 0 0 0 102.33339374541538 -17.115679548280923 0 -17.115679548280923 17.607993398652354 0 0 0 0 93.45984797005076 -29.601806519856382 0 -29.601806519856382 41.354661511880181 0 0 0 0 117.55267191657185 -1.9142610182384061 0 -1.9142610182384061 23.845262310254611 0 0 0 0 115.46881790961197 -13.523917361263443 0 -13.523917361263443 18.442162153759 0 0 0 0 124.74156677188876 14.003491645339523 0 14.003491645339523 69.899549582298505 0 0 0 0 84.30306682785158 -16.595872139290009 0 -16.595872139290009 26.199446338646396 0 0 0 0 99.481547448129277 -11.691832860241107 0 -11.691832860241107 16.260855427213301 0 0 0 0 -196.39554826889071 87.297678009839814 0 87.297678009839814 -15.179114938926375 0 0 0 0 0.80873262319232708 0.92014313630613742 0 0.92014313630613742 0.6498003829709964 0 0 0 0 63.59453931308235 -20.719528992300724 0 -20.719528992300724 1.3653053687585341 0 0 0 0 138.11114578780689 -41.446165601040249 0 -41.446165601040249 12.238131231645411 0 0 0 0 -157.32554523133513 107.41504736537242 0 107.41504736537242 -10.775082931087425 0 0 0 0 0.76196297166677596 0.71983742140318441 0 0.71983742140318441 0.40823111504735005 0 0 0 0 121.05730616702931 -21.212519971864367 0 -21.212519971864367 11.917781262115767 0 0 0 0 151.15803790808422 -5.6049626188100774 0 -5.6049626188100774 20.799031452244662 0 0 0 0 -3.9291800058890658 4.2773622676845804 0 4.2773622676845804 9.3431771256152985 0 0 0 0 25.718598882958759 -20.538644771179605 0 -20.538644771179605 2.4075036248061323 0 0 0 0 72.163294001598842 -141.64133786468824 0 -141.64133786468824 -8.0153138856653641 0 0 0 0 1.8535623556526843 -14.336679384725951 0 -14.336679384725951 10.270827112150641 0 0 0 0 48.617311844631331 -9.7004988608910807 0 -9.7004988608910807 -5.8243918745378096 0 0 0 0 20.501116406550864 -1.7125558985494393 0 -1.7125558985494393 0.84430774862147473 0 0 0 0 92.700507124274736 3.1346465286605962 0 3.1346465286605962 -50.617194321610441 0 0 0 0 68.380451123513922 -7.996815836392976 0 -7.996815836392976 -10.120223700280462 0 0 0 0 1.6736250024436288 1.1092736014498712 0 1.1092736014498712 0.36566997806978485 0 0 0 0 91.679401029992732 -19.032809751601235 0 -19.032809751601235 -20.936553597473562 0 0 0 0 93.794304548908258 -35.659842184217553 0 -35.659842184217553 -1.2580846181339211 0 0 0 0 132.63094634190202 -79.118627916265837 0 -79.118627916265837 -87.610649301780427 0 0 0 0 95.327825505504734 -38.087797270400529 0 -38.087797270400529 -1.547611850710382 0 0 0 0 78.741651194519363 -26.549794503172166 0 -26.549794503172166 161.02555169901234 0 0 0 0 3.7426875580858905 14.662111377277348 0 14.662111377277348 -4.4151835548592615 0 0 0 0 12.661203048366588 0.69902131327320838 0 0.69902131327320838 -11.626245392452743 0 0 0 0 12.667706269858172 0.37346546851016615 0 0.37346546851016615 3.4119431516576011 0 0 0 0 27.061325399437919 -6.2998336695562802 0 -6.2998336695562802 -1.2659669321685474 0 0 0 0 20.329308854590636 8.2152470749524813 0 8.2152470749524813 -5.3424449163327949 0 0 0 0 37.695995330723235 5.0317086072578867 0 5.0317086072578867 -1.8591571193666141 0 0 0 0 53.797116333473241 0.87837119027815191 0 0.87837119027815191 -6.319752669839005 0 0 0 0 31.224601444548171 3.1056248867014804 0 3.1056248867014804 -6.9420871365093468 0 0 0 0 32.245794322452639 -1.9051462137627966 0 -1.9051462137627966 2.4398268814750672 0 0 0 0 13.135048225609353 7.2105492580783199 0 7.2105492580783199 0.0024827624361904825 0 0 0 0 -4.137397627117025 -1.2969102024263617 0 -1.2969102024263617 2.2729601973288069 0 0 0 0 -91.434794942984809 -4.4045499048142993 0 -4.4045499048142993 -6.3531519280023758 0 0 0 0 0.037499273511908626 0.34904696574608352 0 0.34904696574608352 -0.65369671330277712 0 0 0 0 53.448911985673476 9.5260532355883196 0 9.5260532355883196 0.010943332608819373 0 0 0 0 80.144709188454726 -1.1608765825848817 0 -1.1608765825848817 -11.760257720182608 0 0 0 0 57.371896442607976 -10.343968207747913 0 -10.343968207747913 -2.2202460503888801 0 0 0 0 48.192204898427008 -5.6279046625840543 0 -5.6279046625840543 1.6925509252055946 0 0 0 0 0.17019203408549544 0.72788277711572391 0 0.72788277711572391 -2.0548373816308207 0 0 0 0 -85.976489750008113 45.81208093523086 0 45.81208093523086 63.811204338033576 0 0 0 0 58.470846455173159 5.5065751195216848 0 5.5065751195216848 -3.7778196451833423 0 0 0 0 60.364287191725452 3.9776300641521658 0 3.9776300641521658 -3.7312261734002021 0 0 0 0 48.772069716219903 -3.7363489711474651 0 -3.7363489711474651 -5.6706375468666863 0 0 0 0 77.565121083287522 -4.2159131793270319 0 -4.2159131793270319 -5.8215215017157647 0 0 0 0 74.35013402995537 10.800040433256257 0 10.800040433256257 -7.5578114948666837 0 0 0 0 46.049309239808281 -4.1172077710489887 0 -4.1172077710489887 -12.948777005962711 0 0 0 0 -0.22589166636737446 0.94819052373091495 0 0.94819052373091495 -4.0237592056957805 0 0 0 0 36.701805659975435 34.84003985393089 0 34.84003985393089 -29.660211302658581 0 0 0 0 -18.119474057508342 74.7515516358757 0 74.7515516358757 -21.395977570702144 0 0 0 0 59.194499460878433 -24.856740745945842 0 -24.856740745945842 16.495969144523542 0 0 0 0 1.7441352952533578 2.2374288040580268 0 2.2374288040580268 1.6091217881188555 0 0 0 0 55.284687503153691 -25.487529604839779 0 -25.487529604839779 16.96180202783637 0 0 0 0 -49.5844799305778 -2.6576354269942328 0 -2.6576354269942328 20.03513257463257 0 0 0 0 15.637520149291959 24.088468563901017 0 24.088468563901017 -13.564917983495661 0 0 0 0 125.17967878712807 77.624229215547729 0 77.624229215547729 -121.73845120183171 0 0 0 0 85.15813128076843 -34.61676675190489 0 -34.61676675190489 34.968959733076588 0 0 0 0 75.151244178790876 78.970028423742519 0 78.970028423742519 -111.33195910224686 0 0 0 0 117.81973227777053 -49.507735591156575 0 -49.507735591156575 17.789422879268159 0 0 0 0 99.9371073616785 -48.370391150834848 0 -48.370391150834848 25.383561870616177 0 0 0 0 109.66638188245997 -23.048918782543552 0 -23.048918782543552 11.963628674983056 0 0 0 0 94.8390977155359 -22.224794039957089 0 -22.224794039957089 9.9177474488833468 0 0 0 0 77.45625569197 -21.141668667514068 0 -21.141668667514068 11.086856247554351 0 0 0 0 80.141273218323477 -41.393929299597517 0 -41.393929299597517 27.70262781401135 0 0 0 0 60.741268324491102 -30.647929151716312 0 -30.647929151716312 22.112262723420372 0 0 0 0 84.004098270845134 -9.5733494128206189 0 -9.5733494128206189 10.594623807918424 0 0 0 0 91.975785820366582 -7.6890418612632629 0 -7.6890418612632629 8.6327318770344164 0 0 0 0 94.037788947694935 -11.25557145473465 0 -11.25557145473465 9.1890311053873575 0 0 0 0 92.954253508534748 -24.77623660188749 0 -24.77623660188749 15.834021392126147 0 0 0 0 93.037187692571024 -16.617789879898169 0 -16.617789879898169 14.618243912977505 0 0 0 0 86.537640400143573 -14.229429463676638 0 -14.229429463676638 9.8462761676337323 0 0 0 0 78.28984023234807 -8.2444824970085619 0 -8.2444824970085619 7.0358858164240701 0 0 0 0 84.652272173756501 -4.9806356804272127 0 -4.9806356804272127 5.7235619226761401 0 0 0 0 77.264513379835989 -6.0647299071980569 0 -6.0647299071980569 7.0728455334444789 0 0 0 0 72.59070504308329 -5.6401350096074339 0 -5.6401350096074339 4.2228128942764442 0 0 0 0 81.380974080704618 -5.7362904305855409 0 -5.7362904305855409 2.2799401535978632 0 0 0 0 83.184685608561267 -15.961212615266732 0 -15.961212615266732 6.2368152746375927 0 0 0 0 65.695751061459305 -13.581536573806261 0 -13.581536573806261 5.5645993328153054 0 0 0 0 71.961487250882783 -3.7963862547410372 0 -3.7963862547410372 1.5946022641328454 0 0 0 0 76.474673637538217 -12.40862793212159 0 -12.40862793212159 4.357309856579036 0 0 0 0 67.556480749713955 -20.497206312207936 0 -20.497206312207936 11.272011611525045 0 0 0 0 77.564812379860086 -20.802560827651121 0 -20.802560827651121 10.05509525516436 0 0 0 0 59.746680116644711 -15.529024220585711 0 -15.529024220585711 8.3666510374633845 0 0 0 0 51.394432563713053 -8.2725262241528981 0 -8.2725262241528981 1.5420147766803893 0 0 0 0 67.201757020229707 -14.041534848730748 0 -14.041534848730748 5.1263926166270721 0 0 0 0 56.813219885530998 -12.850612670449436 0 -12.850612670449436 5.4026844271191408 0 0 0 0 66.974170400731964 3.1028035379281391 0 3.1028035379281391 -0.21819685754621787 0 0 0 0 65.702437306026695 -4.5898797284127113 0 -4.5898797284127113 2.4916497768173258 0 0 0 0 59.645812862538151 -1.4057447292965435 0 -1.4057447292965435 0.85983302919646576 0 0 0 0 59.787129711162379 -2.6554540738505636 0 -2.6554540738505636 -1.0126118397156461 0 0 0 0 59.053709354193415 4.2883182936145658 0 4.2883182936145658 -0.57782372744441091 0 0 0 0 50.859556841882295 -1.0337663425527808 0 -1.0337663425527808 -1.0536565654332435 0 0 0 0 53.438387488508852 -2.5268221074487265 0 -2.5268221074487265 -4.3347360867942371 0 0 0 0 42.03276170522804 -5.7651919771949736 0 -5.7651919771949736 -6.7305466992195306 0 0 0 0 48.570454686006997 -12.451219502382969 0 -12.451219502382969 -0.9564758276055727 0 0 0 0 37.498002846623422 -17.180160725454186 0 -17.180160725454186 -1.1878791083358919 0 0 0 0 45.633731556416024 -14.246617860007746 0 -14.246617860007746 -0.16098475141234303 0 0 0 0 41.400798652175581 -21.015966175238646 0 -21.015966175238646 6.3438706216039691 0 0 0 0 37.740813301206799 -9.6338080530520074 0 -9.6338080530520074 -0.69328546098563493 0 0 0 0 27.918627044884488 0.20630119025975091 0 0.20630119025975091 -0.50313751396578255 0 0 0 0 21.597639013891452 -6.2993374598933656 0 -6.2993374598933656 -0.16303501890217653 0 0 0 0 24.176491892945648 4.5908058291616172 0 4.5908058291616172 4.6373253820304221 0 0 0 0 21.631395131165533 4.0867138900308646 0 4.0867138900308646 -4.3774883703479102 0 0 0 0 26.212914422503673 -7.5538637042005803 0 -7.5538637042005803 -6.7949908309892635 0 0 0 0 38.95852922245831 11.655681331432504 0 11.655681331432504 -21.124610204489414 0 0 0 0 3.5642930451202091 0.3153695155509979 0 0.3153695155509979 -6.0124004564157367 0 0 0 0 4.6071291726546804 2.2836049050965528 0 2.2836049050965528 1.7458051779417985 0 0 0 0 40.807739837113331 -0.37548657134257724 0 -0.37548657134257724 -10.201922228912736 0 0 0 0 50.804600835846031 -19.27396766804015 0 -19.27396766804015 4.3989941204397383 0 0 0 0 45.011791196884587 -18.261163089449269 0 -18.261163089449269 12.850249678663204 0 0 0 0 45.527027943142457 -19.681384208613395 0 -19.681384208613395 6.7097411633421871 0 0 0 0 -8.4932164671918144 -21.560145382205292 0 -21.560145382205292 75.721200239974849 0 0 0 0 32.66313515274669 2.1819083585137378 0 2.1819083585137378 20.080232817652586 0 0 0 0 37.333257118851179 13.947404904347877 0 13.947404904347877 -34.957157460649796 0 0 0 0 46.209571288258303 -4.655962843269208 0 -4.655962843269208 -40.262415742408848 0 0 0 0 25.504575093145775 -5.3638075701049885 0 -5.3638075701049885 0.88766510253272046 0 0 0 0 130.93422878906131 154.28039167415818 0 154.28039167415818 137.78820412259711 0 0 0 0 273.12399790982454 -169.0257443447382 0 -169.0257443447382 228.38149396427252 0 0 0 0 104.1336351007925 -33.115846078825399 0 -33.115846078825399 -20.348059426086458 0 0 0 0 109.22461695672246 184.56952797748795 0 184.56952797748795 98.562206804044763 0 0 0 0 7.916500920437727 -1.5524791814253263 0 -1.5524791814253263 0.68028582130273918 0 0 0 0 -639.77108847553609 818.71848530493071 0 818.71848530493071 262.78726615115175 0 0 0 0 159.01420835069439 24.504358532718925 0 24.504358532718925 -11.903955896801563 0 0 0 0 793.73130575705727 274.09233069930315 0 274.09233069930315 -324.14878511316351 0 0 0 0 111.72507542171505 -33.185427315085704 0 -33.185427315085704 -16.973651731928307 0 0 0 0 172.56293363744044 7.3940209883203352 0 7.3940209883203352 -9.2281683671935752 0 0 0 0 58.179276614044994 32.563852932091265 0 32.563852932091265 4.4157264767034761 0 0 0 0 111.13158470115013 -187.36433343772251 0 -187.36433343772251 289.65037060934219 0 0 0 0 1330.4248236792628 -578.62852469711925 0 -578.62852469711925 534.2357846334271 0 0 0 0 577.14989250455983 -359.56421632078991 0 -359.56421632078991 44.352971312607224 0 0 0 0 231.16957461043785 -80.135879873249223 0 -80.135879873249223 -163.77328231067099 0 0 0 0 294.08869829919422 -82.630186869318152 0 -82.630186869318152 -188.12393710532524 0 0 0 0 25.992179543768657 -3.2440946922804699 0 -3.2440946922804699 -5.0451548368348442 0 0 0 0 71.888784321872663 86.4796736881041 0 86.4796736881041 -209.59705150003265 0 0 0 0 -3.0382883582642535 342.16046717748236 0 342.16046717748236 -206.17523976307746 0 0 0 0 81.643333171650738 38.924116401482394 0 38.924116401482394 -79.992333734809563 0 0 0 0 191.11982034032553 -13.862749733692851 0 -13.862749733692851 -287.45735689452067 0 0 0 0 216.26215885374404 57.265208448221074 0 57.265208448221074 -233.18554747497882 0 0 0 0 133.36378219224571 75.180478686922299 0 75.180478686922299 -144.54476694967343 0 0 0 0 210.78319720608124 93.983438034803498 0 93.983438034803498 -286.45261082111608 0 0 0 0 192.77151449663506 64.040892934723871 0 64.040892934723871 -90.575725856785425 0 0 0 0 106.9626857766998 2.5058652017067402 0 2.5058652017067402 -48.447419792391841 0 0 0 0 86.267162929434562 -38.908452802261877 0 -38.908452802261877 -39.848671208465589 0 0 0 0 183.13039104088966 -149.08829047321478 0 -149.08829047321478 70.505777969571767 0 0 0 0 152.98730623113806 106.85198501145807 0 106.85198501145807 0.1000907152925503 0 0 0 0 33.977289841423044 32.510449101079587 0 32.510449101079587 -30.333198894847115 0 0 0 0 154.27600062277634 98.153804354650589 0 98.153804354650589 -95.32285198110776 0 0 0 0 103.63917620842403 120.56745356203959 0 120.56745356203959 -2.5647632480541915 0 0 0 0 -46.045276090080733 56.372604882177143 0 56.372604882177143 50.931249770597049 0 0 0 0 430.62647605025995 -24.156491444591428 0 -24.156491444591428 -9.4799285691366819 0 0 0 0 141.613343269084 114.07365466872403 0 114.07365466872403 65.32751925092191 0 0 0 0 266.70716383759736 169.95709237330695 0 169.95709237330695 -107.28033112243725 0 0 0 0 294.01608719737305 25.576128743318876 0 25.576128743318876 -177.01513197040163 0 0 0 0 214.03848948481755 96.305213979228171 0 96.305213979228171 144.28391763967034 0 0 0 0 573.22806720275548 -95.036446142748105 0 -95.036446142748105 -274.14313650348578 0 0 0 0 97.042210764633637 -744.38578147734029 0 -744.38578147734029 255.15002315347169 0 0 0 0 508.54407367191016 -104.73866929629425 0 -104.73866929629425 423.74829856611899 0 0 0 0 526.71919402963249 -161.93300570633897 0 -161.93300570633897 87.288702599591858 0 0 0 0 477.9593514086373 -286.29380904114697 0 -286.29380904114697 323.00899381180056 0 0 0 0 444.25247953089274 -292.87451605747975 0 -292.87451605747975 456.55836845506167 0 0 0 0 3490.8014214012219 -924.41072977773388 0 -924.41072977773388 -342.56097956338772 0 0 0 0 1561.3327013683156 -178.77197845557515 0 -178.77197845557515 0.91792841635517919 0 0 0 0 876.32683916922178 -1733.8395391465353 0 -1733.8395391465353 1036.1725203319572 0 0 0 0 1636.9834247678082 -642.6197274662627 0 -642.6197274662627 33.658672612795954 0 0 0 0 -474.86181862876401 -380.61829032433798 0 -380.61829032433798 117.01941735734999 0 0 0 0 -1.400129086867878 -0.36401792450629955 0 -0.36401792450629955 2.1051310137389843 0 0 0 0 -107.50398536768625 -745.31875215317541 0 -745.31875215317541 1174.2716309779669 0 0 0 0 3498.5774200221931 2090.4010860064923 0 2090.4010860064923 1171.5246831345016 0 0 0 0 14.159321249985965 -7.8059094645062856 0 -7.8059094645062856 7.1985519234057609 0 0 0 0 2665.154279893919 1487.7586729167624 0 1487.7586729167624 740.65367696714566 0 0 0 0 33.349154515750769 -25.046927469277236 0 -25.046927469277236 13.960596803445345 0 0 0 0 -27.336860168594285 -269.63400711420081 0 -269.63400711420081 -172.35982646484945 0 0 0 0 2630.5561794994101 1329.3280376780622 0 1329.3280376780622 617.45149777145252 0 0 0 0 393.54303499377056 429.27099936812408 0 429.27099936812408 169.42437043470682 0 0 0 0 322.65519200963899 2.9057641003068966 0 2.9057641003068966 -334.81524285254352 0 0 0 0 263.8826071825315 -390.82664905517822 0 -390.82664905517822 -582.86208209752249 0 0 0 0 -96.114503556280397 -119.47772098970154 0 -119.47772098970154 -259.02081039969624 0 0 0 0 8.4476830918941967 5.8475966185306447 0 5.8475966185306447 -0.58207597742137196 0 0 0 0 -290.04234624682408 -363.66903313338497 0 -363.66903313338497 -328.29390713367866 0 0 0 0 335.92976152717802 271.36920033703933 0 271.36920033703933 105.79738586501389 0 0 0 0 8.2331784207339638 5.0802088044477642 0 5.0802088044477642 1.055653815454658 0 0 0 0 -78.127829709846992 -261.57825307050916 0 -261.57825307050916 -630.71900631640074 0 0 0 0 184.32923069279059 47.391892796680168 0 47.391892796680168 -181.34403752742503 0 0 0 0 216.75017251892132 -90.388869762857212 0 -90.388869762857212 -591.74370023871734 0 0 0 0 240.93422056821873 34.048411601984043 0 34.048411601984043 -308.93392092352042 0 0 0 0 97.860947613444296 -131.23200542380528 0 -131.23200542380528 -339.35549751316171 0 0 0 0 96.93130537372781 22.518261163427269 0 22.518261163427269 5.347168495839469 0 0 0 0 133.27307987814129 -31.449785665675336 0 -31.449785665675336 -205.80874426848459 0 0 0 0 44.754154006451188 -8.2219866661904177 0 -8.2219866661904177 -12.706728681617369 0 0 0 0 57.172038833159604 -108.18943105031099 0 -108.18943105031099 -189.18874451087072 0 0 0 0 55.695708445528709 -7.4582995691655185 0 -7.4582995691655185 -11.499705728737835 0 0 0 0 333.22736622017692 43.481452239904229 0 43.481452239904229 -114.86183582330159 0 0 0 0 4.5021686433968258 26.004788690620501 0 26.004788690620501 9.333497288267111 0 0 0 0 217.95475167268887 -32.383989305135401 0 -32.383989305135401 -65.786184595501254 0 0 0 0 180.62798735930119 111.82980738231709 0 111.82980738231709 -39.416262982948865 0 0 0 0 33.018009226987488 43.855872718422233 0 43.855872718422233 -1.5554532984233447 0 0 0 0 1540.2294747246488 495.39451421660658 0 495.39451421660658 216.00719171866157 0 0 0 0 49.181457157426308 -34.129569281815151 0 -34.129569281815151 19.707652569051128 0 0 0 0 164.41224560310047 -83.007883652970634 0 -83.007883652970634 -35.301451940174047 0 0 0 0 14.34696809159384 20.937670255901082 0 20.937670255901082 -1.2083387280396813 0 0 0 0 84.742328404077853 12.133088175741477 0 12.133088175741477 15.422930601798726 0 0 0 0 104.76403488857613 19.510804569589254 0 19.510804569589254 2.0278733904710862 0 0 0 0 74.124009514474892 2.2165390447917162 0 2.2165390447917162 -6.1507390409169602 0 0 0 0 77.172770469071111 19.074471780811109 0 19.074471780811109 10.628949375654884 0 0 0 0 79.221408387675183 20.209356512948943 0 20.209356512948943 4.0891535094542633 0 0 0 0 98.216631817915186 16.133886101244343 0 16.133886101244343 16.275836939201326 0 0 0 0 124.043932957793 43.430081256897211 0 43.430081256897211 12.285713179333186 0 0 0 0 44.637981573931228 -5.1260640853681281 0 -5.1260640853681281 4.8437369904168648 0 0 0 0 36.548766520975363 33.289835753673302 0 33.289835753673302 9.676968090489936 0 0 0 0 21.245177280189402 -3.0955898956087395 0 -3.0955898956087395 17.064334165158041 0 0 0 0 1410.430011242468 284.42094812403212 0 284.42094812403212 24.375906411212981 0 0 0 0 83.000016076344764 2.1713370312768348 0 2.1713370312768348 6.3891787785694305 0 0 0 0 2628.494809929005 651.12229561765594 0 651.12229561765594 65.772600314725977 0 0 0 0 2593.9763726544188 955.44992122601241 0 955.44992122601241 -100.11423685134059 0 0 0 0 3062.4741997751262 1053.7476763152852 0 1053.7476763152852 -79.650209363486937 0 0 0 0 3499.6111734706669 1470.5358554826141 0 1470.5358554826141 180.07688804257438 0 0 0 0 2351.9254752408378 1348.1740558971533 0 1348.1740558971533 617.91421604914194 0 0 0 0 172.85316111105203 19.17209120197947 0 19.17209120197947 -138.69052668052541 0 0 0 0 194.77861801642575 -44.614277368740431 0 -44.614277368740431 -82.536495667149666 0 0 0 0 167.89277887415847 38.535512302861406 0 38.535512302861406 -111.08043956036886 0 0 0 0 107.11196790411486 56.788453388654034 0 56.788453388654034 -31.548051444031444 0 0 0 0 98.603636971993183 -22.948454830876813 0 -22.948454830876813 26.573211077853557 0 0 0 0 108.82267932034119 -52.400754594542434 0 -52.400754594542434 -42.226350431905757 0 0 0 0 256.61612420447636 -71.373113435752202 0 -71.373113435752202 -71.230633092830203 0 0 0 0 167.54531001199211 -83.782398545510205 0 -83.782398545510205 -71.552421288328333 0 0 0 0 122.53404408896313 -18.254040406128865 0 -18.254040406128865 -54.390615127490946 0 0 0 0 196.09179775584926 -64.370135855254603 0 -64.370135855254603 -144.18439752185895 0 0 0 0 120.82082390345022 -40.814869705105707 0 -40.814869705105707 -141.09359492386648 0 0 0 0 148.98924898784389 -12.484677632263754 0 -12.484677632263754 -222.60793706322193 0 0 0 0 195.45508882645026 -52.528508446212186 0 -52.528508446212186 -144.0808595507242 0 0 0 0 175.08031817452866 -84.068741574310707 0 -84.068741574310707 -188.36616845253161 0 0 0 0 230.04060043525533 2.684558925020383 0 2.684558925020383 -139.12709712204128 0 0 0 0 257.26541279099183 0.38311185239740553 0 0.38311185239740553 -228.1539151183614 0 0 0 0 198.13141761373845 28.563831382772719 0 28.563831382772719 -112.16848748820053 0 0 0 0 239.86518126618466 -37.857443754234623 0 -37.857443754234623 -75.573936204191341 0 0 0 0 300.12085200510046 -3.1846377775990504 0 -3.1846377775990504 -140.07941707686109 0 0 0 0 33.424149096288602 -82.864200294214925 0 -82.864200294214925 -257.6805124840605 0 0 0 0 -1.1254929684585875 0.57611012069398271 0 0.57611012069398271 0.39681313979812316 0 0 0 0 198.21588553835318 32.234137850491507 0 32.234137850491507 -33.920076821886369 0 0 0 0 105.54965296230512 -67.832437961991531 0 -67.832437961991531 72.434462103300021 0 0 0 0 1.0401035597096779 0.89055065723465532 0 0.89055065723465532 0.53740154219907521 0 0 0 0 2.1238430432858877 -22.556255297697813 0 -22.556255297697813 54.599227410869752 0 0 0 0 141.8533495006559 -1.6762468963780748 0 -1.6762468963780748 -29.731998189168849 0 0 0 0 233.17974237386079 -31.41925648936126 0 -31.41925648936126 -56.251875386448773 0 0 0 0 287.52627395605668 -41.697636705335995 0 -41.697636705335995 -59.683960730117128 0 0 0 0 170.31713634527841 -48.494345487775774 0 -48.494345487775774 -20.244206201572297 0 0 0 0 241.1858824439696 -90.295376184841388 0 -90.295376184841388 -2.6331643994598863 0 0 0 0 275.7352680593176 -61.953980826397355 0 -61.953980826397355 30.782121077271825 0 0 0 0 393.37120552264969 -9.5593251272233317 0 -9.5593251272233317 -117.37496403356374 0 0 0 0 179.37333363833022 22.513491890672753 0 22.513491890672753 38.972018238107921 0 0 0 0 251.34896749965264 37.889614706129805 0 37.889614706129805 -107.61183750467544 0 0 0 0 227.3316959967633 14.765002137077317 0 14.765002137077317 -128.49375437165554 0 0 0 0 246.73909970077511 33.089697410216218 0 33.089697410216218 -151.30462355652458 0 0 0 0 213.93543316960677 82.840788656468163 0 82.840788656468163 -164.31004220681859 0 0 0 0 81.719942545125377 48.748740653607115 0 48.748740653607115 -110.52766423197363 0 0 0 0 21.132428380922647 -5.3756167822401721 0 -5.3756167822401721 -54.345029810809621 0 0 0 0 -7.8864329935022397 -140.57887267638642 0 -140.57887267638642 -268.03687617058011 0 0 0 0 306.6422856200079 48.184768191912326 0 48.184768191912326 -107.42113181652864 0 0 0 0 55.531547399194096 -27.188479063277672 0 -27.188479063277672 -118.01813384398014 0 0 0 0 10.175799897362594 -39.151212271203462 0 -39.151212271203462 -76.009279258099241 0 0 0 0 89.292252430212102 54.712886413684373 0 54.712886413684373 -203.35251537169643 0 0 0 0 -12.006181855780596 11.40192019282199 0 11.40192019282199 -89.747582487909767 0 0 0 0 65.314028437889647 34.294651787518262 0 34.294651787518262 10.660521916271875 0 0 0 0 -14.694246527724317 115.63590435161893 0 115.63590435161893 52.842915954317846 0 0 0 0 88.859610268089455 11.059718794174387 0 11.059718794174387 -84.924916885692028 0 0 0 0 61.822154615765612 53.392278415863487 0 53.392278415863487 -12.807878458367213 0 0 0 0 20.914821534126531 -8.4576272525955574 0 -8.4576272525955574 -57.409994429353219 0 0 0 0 64.704239239153253 77.216506673133907 0 77.216506673133907 15.641694823372973 0 0 0 0 47.747500363970175 4.6486847230114563 0 4.6486847230114563 -54.527550163648357 0 0 0 0 55.156747507035107 41.768569051348081 0 41.768569051348081 -46.249236697940205 0 0 0 0 16.465072988576139 -7.7661213503797626 0 -7.7661213503797626 -82.427441349327637 0 0 0 0 41.332636254286626 17.324623430285328 0 17.324623430285328 -70.056349303793922 0 0 0 0 38.089933535287855 -13.348681045054903 0 -13.348681045054903 -74.400402432024293 0 0 0 0 9.506375401004334 6.2406549931063182 0 6.2406549931063182 -87.29665571196665 0 0 0 0 35.298498222618946 -3.4153975111414638 0 -3.4153975111414638 -113.45499643304265 0 0 0 0 4.7815221758981465 1.3995610217945753 0 1.3995610217945753 -1.1504111737326999 0 0 0 0 -6.8077858545584604 48.018125107360902 0 48.018125107360902 -9.7050767053370919 0 0 0 0 35.008719165938373 -3.2650731395468569 0 -3.2650731395468569 -5.0844970468862298 0 0 0 0 31.755866284747754 36.712619076561282 0 36.712619076561282 -108.5414585450053 0 0 0 0 4.7208049105128111 -5.112319157409587 0 -5.112319157409587 -0.87490973134487771 0 0 0 0 126.64816523321497 -8.3786253090472655 0 -8.3786253090472655 -88.452065658016522 0 0 0 0 32.533152232324937 -50.793531533538385 0 -50.793531533538385 -68.419708279508086 0 0 0 0 -3.4136642094817944 -20.257458888522706 0 -20.257458888522706 -66.458888081473788 0 0 0 0 27.310816110173619 -25.547084730139233 0 -25.547084730139233 -65.600910064436903 0 0 0 0 1.1840939943293165 -1.38612557105996 0 -1.38612557105996 0.3607492162249879 0 0 0 0 5.0216607212350937 61.90997956872252 0 61.90997956872252 115.13257742486076 0 0 0 0 11.084481609446811 -38.786461417002101 0 -38.786461417002101 -6.1563479982769422 0 0 0 0 65.066228855896043 99.66973568565254 0 99.66973568565254 -0.6364930243089475 0 0 0 0 97.642570566298673 -56.755512168540463 0 -56.755512168540463 -25.533827675659268 0 0 0 0 37.18135193723748 -2.0960696413427158 0 -2.0960696413427158 -3.4907431894448333 0 0 0 0 37.047682146127727 1.5888350052549427 0 1.5888350052549427 -6.6572104402697203 0 0 0 0 83.798738686025899 87.23729284052888 0 87.23729284052888 -100.5058135720933 0 0 0 0 55.349089263545466 4.1083164881853804 0 4.1083164881853804 -24.577922995965537 0 0 0 0 14.56395470892312 -10.455793607858595 0 -10.455793607858595 -8.6082786314840405 0 0 0 0 25.356831385532132 -0.31455473629858943 0 -0.31455473629858943 -11.881959605372458 0 0 0 0 36.562179776594405 -3.9335079544686202 0 -3.9335079544686202 -0.087580244303210361 0 0 0 0 39.516366692834708 7.8824522000834349 0 7.8824522000834349 -47.617308704974448 0 0 0 0 52.608227757329587 14.094356384533057 0 14.094356384533057 -36.368735321471604 0 0 0 0 38.040228701102905 -5.6096423649589084 0 -5.6096423649589084 -4.6006873128714529 0 0 0 0 37.862235280461192 4.4699342838625604 0 4.4699342838625604 -3.0330410108596131 0 0 0 0 67.16231460403651 1.9301554853036578 0 1.9301554853036578 -30.093893410265991 0 0 0 0 51.221111402781389 6.2725771339048748 0 6.2725771339048748 -26.149587005788305 0 0 0 0 36.942431859638816 -0.7548307929144471 0 -0.7548307929144471 -6.1151283852817926 0 0 0 0 38.575977259781212 -21.321414383416595 0 -21.321414383416595 -18.402628437246221 0 0 0 0 21.694209033419611 -12.601781039765484 0 -12.601781039765484 3.4419984010148426 0 0 0 0 39.651053122361191 6.9830959566190813 0 6.9830959566190813 -33.378122269027358 0 0 0 0 39.342901456751861 0.79070763050441428 0 0.79070763050441428 -1.8371256334448844 0 0 0 0 25.151074298431922 -2.2771389290860498 0 -2.2771389290860498 -0.71540005863062106 0 0 0 0 58.747855772627872 -3.8268694633699738 0 -3.8268694633699738 -11.9107852271909 0 0 0 0 22.199568770531272 15.839686254983206 0 15.839686254983206 -11.842782102256459 0 0 0 0 62.80339347574045 -5.430178658440127 0 -5.430178658440127 -12.908925240809367 0 0 0 0 58.662678949418478 -7.5965422776009746 0 -7.5965422776009746 -13.602505491210138 0 0 0 0 63.61223421388604 -0.99130531598157745 0 -0.99130531598157745 -10.422107658910136 0 0 0 0 -61.874700592423324 -234.6051180311166 0 -234.6051180311166 -558.74386731327843 0 0 0 0 -313.87055609101662 52.762850951439646 0 52.762850951439646 -225.55450483856202 0 0 0 0 -108.62378453457495 -116.32077281787167 0 -116.32077281787167 -1025.6506566928342 0 0 0 0 33.106271390672191 305.254107272287 0 305.254107272287 -1189.0936150730736 0 0 0 0 0.30143357238151225 6.4681720605298203 0 6.4681720605298203 -0.90750617086403162 0 0 0 0 8.6515264300600023 1.3573367972249599 0 1.3573367972249599 -5.4052691721420505 0 0 0 0 -117.39287310573854 464.9237028472653 0 464.9237028472653 -1303.2181749476979 0 0 0 0 -38.145847956009675 227.05916137043641 0 227.05916137043641 -540.68292594234265 0 0 0 0 -352.87132301310339 114.56751158729543 0 114.56751158729543 -390.16482777860597 0 0 0 0 37.93469442497647 -2.3000608721930611 0 -2.3000608721930611 -2.48810889438003 0 0 0 0 57.488546806685918 -118.21437797143477 0 -118.21437797143477 -403.36946898684437 0 0 0 0 98.405023777129827 -73.689514405523198 0 -73.689514405523198 -726.12277578562714 0 0 0 0 14.613198961890191 -2.9294047929927025 0 -2.9294047929927025 -0.14331353659143342 0 0 0 0 -60.633519652226823 -47.920540410896024 0 -47.920540410896024 -187.60115047144996 0 0 0 0 -158.41074168144405 188.80339551885345 0 188.80339551885345 -32.861391467478825 0 0 0 0 473.34619589127396 225.77160825857993 0 225.77160825857993 -913.33545631347192 0 0 0 0 -201.32192860798386 -47.632542486184775 0 -47.632542486184775 210.5510778315338 0 0 0 0 107.60744314725162 208.03555779384897 0 208.03555779384897 -373.77355501445851 0 0 0 0 -222.02570077638666 791.11913246880749 0 791.11913246880749 358.91873275090882 0 0 0 0 -46.280789465134148 -1094.0212269658518 0 -1094.0212269658518 966.8163066334273 0 0 0 0 -85.295228037684865 -294.53882279261228 0 -294.53882279261228 -127.97029461637544 0 0 0 0 8.5164507297413365 -20.995103536637259 0 -20.995103536637259 -392.96844202154602 0 0 0 0 3.4055714609858114 -22.205960972125581 0 -22.205960972125581 -336.17469450550448 0 0 0 0 94.452053575572791 -27.615167811768742 0 -27.615167811768742 -494.23176913911459 0 0 0 0 39.692976127967995 110.6894519214211 0 110.6894519214211 -166.008120385035 0 0 0 0 10.779712046269424 -0.66902500241329221 0 -0.66902500241329221 -0.49993385669850254 0 0 0 0 -175.5868163099949 212.43815972610855 0 212.43815972610855 133.39512360899232 0 0 0 0 27.488600510761898 13.801043365554392 0 13.801043365554392 82.163382329644946 0 0 0 0 248.43210481531423 147.77136163720184 0 147.77136163720184 101.27578351728971 0 0 0 0 3.859448426376531 -0.38399725233607462 0 -0.38399725233607462 -0.12402728068683333 0 0 0 0 322.3810333469155 -6.5547389714834026 0 -6.5547389714834026 -46.365610122097678 0 0 0 0 55.522461424263383 -16.637994697387256 0 -16.637994697387256 76.949383578632478 0 0 0 0 397.04001670479192 294.48413285153367 0 294.48413285153367 -272.94350576023419 0 0 0 0 40.741581543086795 70.374342291296898 0 70.374342291296898 -412.85880654519542 0 0 0 0 47.321600620853133 -85.569236865867083 0 -85.569236865867083 -285.69192270576366 0 0 0 0 277.77629149007771 -103.03491353182652 0 -103.03491353182652 -422.32427651096805 0 0 0 0 80.203248089484987 -70.040894397457578 0 -70.040894397457578 -469.37942600728934 0 0 0 0 41.465512997613075 1.6078333423572317 0 1.6078333423572317 -5.6840402254139883 0 0 0 0 47.980118808569387 10.278133180800069 0 10.278133180800069 -39.384361384290969 0 0 0 0 25.666273547373748 39.110061185111192 0 39.110061185111192 -15.001601519396921 0 0 0 0 34.191761419002432 -49.909973164833616 0 -49.909973164833616 -427.75764054387639 0 0 0 0 255.12106949208828 80.878871878424832 0 80.878871878424832 -597.0743794361631 0 0 0 0 61.033781348899993 -13.472799226887119 0 -13.472799226887119 -4.1902916258548366 0 0 0 0 57.251166000756569 8.0623966807878986 0 8.0623966807878986 -6.5556465112950573 0 0 0 0 5.989155745636026 4.1991290559363676 0 4.1991290559363676 -3.0652051802458704 0 0 0 0 35.452304676524363 29.31223415889599 0 29.31223415889599 -117.4752348748525 0 0 0 0 -15.368495524235186 88.714076912369819 0 88.714076912369819 130.14619988055347 0 0 0 0 111.00275065642927 -114.80232171628541 0 -114.80232171628541 108.37426844719766 0 0 0 0 70.758813527383609 -82.581140839672116 0 -82.581140839672116 27.296199345310924 0 0 0 0 147.76153761285241 -97.177622260116095 0 -97.177622260116095 -19.607374838051555 0 0 0 0 10.298434744021506 -13.126392994545768 0 -13.126392994545768 11.782496065028681 0 0 0 0 82.422788148658583 -17.724169559180609 0 -17.724169559180609 -76.212708222558831 0 0 0 0 59.281909731595078 35.68642083956729 0 35.68642083956729 -85.675842685594034 0 0 0 0 190.44999946998723 -42.930475142743262 0 -42.930475142743262 -56.090268485612341 0 0 0 0 154.92322004430753 -56.314346152354574 0 -56.314346152354574 28.998941146496691 0 0 0 0 155.31019681825637 -121.99081485355225 0 -121.99081485355225 6.3714314338549229 0 0 0 0 271.14919256122084 -139.2894672274092 0 -139.2894672274092 8.9545712053977695 0 0 0 0 364.25507751558325 42.068197350942683 0 42.068197350942683 68.128047493460599 0 0 0 0 195.39279192284448 244.1278472921631 0 244.1278472921631 -77.032488292971266 0 0 0 0 100.29928428026034 17.942858393234744 0 17.942858393234744 -5.3113591187997322 0 0 0 0 307.52302630399936 -219.0601142045889 0 -219.0601142045889 67.83029872925681 0 0 0 0 105.56628387449018 -92.681704810179781 0 -92.681704810179781 94.367289035255453 0 0 0 0 109.6770412496262 -81.757750830590794 0 -81.757750830590794 308.36039499288563 0 0 0 0 109.51149391712761 -69.22824239458977 0 -69.22824239458977 79.153943551740667 0 0 0 0 99.090652924658343 17.370040169203953 0 17.370040169203953 -4.7883314423937096 0 0 0 0 77.749768178880913 288.29466073750723 0 288.29466073750723 -453.942186743207 0 0 0 0 195.86540130904177 -61.315197980978155 0 -61.315197980978155 -74.839221146979071 0 0 0 0 -39.980514284899982 91.934818456407584 0 91.934818456407584 -196.24611460096071 0 0 0 0 170.8657779952191 285.80384296538807 0 285.80384296538807 -626.66771802173957 0 0 0 0 186.0114934154717 -11.987848778633008 0 -11.987848778633008 -107.64710659148341 0 0 0 0 90.198388877641264 166.62170951017771 0 166.62170951017771 -156.22121904992082 0 0 0 0 -25.896913469630817 59.853958045664513 0 59.853958045664513 -206.13463761695346 0 0 0 0 49.777154161077306 291.14645679607349 0 291.14645679607349 -355.9099004079942 0 0 0 0 92.560211133846195 16.516307230122614 0 16.516307230122614 -3.9979725483585256 0 0 0 0 90.763309512811247 -48.659025733225235 0 -48.659025733225235 99.951509681012794 0 0 0 0 75.197021010433673 -60.586506402883742 0 -60.586506402883742 117.05694070597519 0 0 0 0 52.637097887389245 8.0545346565722866 0 8.0545346565722866 103.72511321790512 0 0 0 0 84.796080864183807 14.135273457084345 0 14.135273457084345 -4.3380168147617084 0 0 0 0 39.464236144835013 -49.116384743895196 0 -49.116384743895196 99.259271639307372 0 0 0 0 77.21344990315265 -9.3503876501581544 0 -9.3503876501581544 140.64161181000691 0 0 0 0 144.35340552397975 -60.254988925833914 0 -60.254988925833914 131.82144199274308 0 0 0 0 60.301555788348196 -0.34514865508208459 0 -0.34514865508208459 101.09074302383624 0 0 0 0 45.212200070120161 -27.401195521453246 0 -27.401195521453246 104.49289663064383 0 0 0 0 86.189446521133505 -9.1649210726296246 0 -9.1649210726296246 112.54768830684088 0 0 0 0 151.60792324924842 -3.6470558585774597 0 -3.6470558585774597 54.288623219893907 0 0 0 0 134.8814778229862 9.3383545319441055 0 9.3383545319441055 -48.975205470977016 0 0 0 0 37.04131018606131 13.459860456409388 0 13.459860456409388 51.903038805200651 0 0 0 0 48.400579303153791 -13.219099982858097 0 -13.219099982858097 -43.889877358912145 0 0 0 0 35.70476423096261 -68.483109588509024 0 -68.483109588509024 -12.101144130584544 0 0 0 0 -9.7405737936060177 -13.876178838575697 0 -13.876178838575697 72.165726755490255 0 0 0 0 55.276019306678791 -65.983096334664651 0 -65.983096334664651 109.71740843672569 0 0 0 0 57.38087877331418 -25.80937371656114 0 -25.80937371656114 51.007456630027036 0 0 0 0 35.229792672034819 -68.106723554007601 0 -68.106723554007601 97.58014133755114 0 0 0 0 53.850881546066375 -10.323812560012129 0 -10.323812560012129 70.353497458761922 0 0 0 0 -57.739725181614631 -7.8378436270179463 0 -7.8378436270179463 1.2590951242361541 0 0 0 0 -70.560786284557253 -41.871447749173285 0 -41.871447749173285 -3.5969664319018193 0 0 0 0 -80.984799577134254 -37.312620431352997 0 -37.312620431352997 19.492094535306933 0 0 0 0 114.80428923451109 -40.392036382261722 0 -40.392036382261722 -132.00082134554805 0 0 0 0 -9.9717338409810132 -41.483824395025209 0 -41.483824395025209 -8.884040616961288 0 0 0 0 -111.28380755838407 1.2937605133031695 0 1.2937605133031695 42.043348809011604 0 0 0 0 -116.49357383562892 -62.56381023500694 0 -62.56381023500694 1.8012560306726755 0 0 0 0 -52.375346044304024 76.343573215030119 0 76.343573215030119 -50.621084728210008 0 0 0 0 -45.383786434831563 -14.94260547017609 0 -14.94260547017609 4.3848162729946125 0 0 0 0 2.9252665230610262 -2.7103465698147886 0 -2.7103465698147886 9.1035049060755178 0 0 0 0 107.75924984371522 113.8602951826465 0 113.8602951826465 -98.182276255002762 0 0 0 0 5.250007969080599 -1.5678023782679702 0 -1.5678023782679702 0.55020557966873973 0 0 0 0 54.442137754143914 190.2438795894318 0 190.2438795894318 42.439140160739043 0 0 0 0 392.62604770409234 109.54592845857496 0 109.54592845857496 58.253650526309684 0 0 0 0 379.05120804457692 144.79394577152539 0 144.79394577152539 -15.643926106535218 0 0 0 0 539.6809115925862 51.451340209125192 0 51.451340209125192 -54.441331628296211 0 0 0 0 892.22700293560047 114.65874565827562 0 114.65874565827562 -120.95761046934854 0 0 0 0 426.67960485427466 158.61068694748519 0 158.61068694748519 -124.88532819765533 0 0 0 0 1711.8079545980872 -724.4124079661276 0 -724.4124079661276 77.870048429642338 0 0 0 0 229.42875157330127 722.06341983774541 0 722.06341983774541 -248.79362277845576 0 0 0 0 2056.6685016612755 -368.7970805670866 0 -368.7970805670866 899.41353451681789 0 0 0 0 2291.4398037820647 850.98988404220108 0 850.98988404220108 -872.65763358251479 0 0 0 0 467.40084262166056 -557.72880304187584 0 -557.72880304187584 585.58025605340936 0 0 0 0 579.23127070095506 -126.82348804725507 0 -126.82348804725507 -230.59901152325438 0 0 0 0 592.2830450080728 -188.8691761195181 0 -188.8691761195181 50.217546345335904 0 0 0 0 166.87515412726498 -146.00316255091002 0 -146.00316255091002 263.06593539088271 0 0 0 0 447.84438961906017 -239.01461119803358 0 -239.01461119803358 259.64615181511908 0 0 0 0 11.893870346480981 -120.46840954707568 0 -120.46840954707568 369.17992203529138 0 0 0 0 15.077855458832346 55.840485019613425 0 55.840485019613425 201.21453146845124 0 0 0 0 198.66314741539827 -114.03580291863909 0 -114.03580291863909 146.35008816726736 0 0 0 0 250.83849275740795 -9.6514317902369839 0 -9.6514317902369839 57.821260164489104 0 0 0 0 334.16038706531981 -83.551700875389997 0 -83.551700875389997 24.193530944648273 0 0 0 0 301.3225924714061 52.756117529226913 0 52.756117529226913 6.9136858606052556 0 0 0 0 152.41909117108662 -6.0648564962654063 0 -6.0648564962654063 58.140437707507772 0 0 0 0 141.33086378021108 85.775961091022737 0 85.775961091022737 -16.331993613132909 0 0 0 0 236.48096835115575 24.704251266932488 0 24.704251266932488 2.6007192964578962 0 0 0 0 281.5646487048507 112.37025775874099 0 112.37025775874099 -1.7686200689099678 0 0 0 0 361.64422453290899 68.266073630273695 0 68.266073630273695 6.1957454833618613 0 0 0 0 385.04426074173534 102.23054275476261 0 102.23054275476261 1.9631886992647196 0 0 0 0 326.99657436372945 81.155428765672468 0 81.155428765672468 -0.33597893535443291 0 0 0 0 359.95041244247113 63.060296818614916 0 63.060296818614916 -40.62013617672892 0 0 0 0 306.81518677771965 48.083159910533595 0 48.083159910533595 -5.2411707893134007 0 0 0 0 409.79690089232463 107.52278869673592 0 107.52278869673592 -19.052334935066028 0 0 0 0 403.14657895773416 115.02249212570564 0 115.02249212570564 16.883970161841717 0 0 0 0 1.343031417652405 1.8788717721420483 0 1.8788717721420483 3.8893450355806714 0 0 0 0 36.523614782932782 -2.4377532937602666 0 -2.4377532937602666 10.9882278171699 0 0 0 0 408.63676138085975 119.62017652224682 0 119.62017652224682 22.10041035710401 0 0 0 0 432.97046947517811 108.0792847997327 0 108.0792847997327 -4.3529744058669166 0 0 0 0 403.41096151265083 89.401823244000298 0 89.401823244000298 -15.519326526877194 0 0 0 0 415.16455042977759 22.975398050450622 0 22.975398050450622 3.6678561151704798 0 0 0 0 380.87089667483815 96.215652215241562 0 96.215652215241562 45.942860021869819 0 0 0 0 42.194315665228359 -42.147165460975089 0 -42.147165460975089 0.80982731924877349 0 0 0 0 68.530407561003813 -4.3002778068394036 0 -4.3002778068394036 1.7306994431608018 0 0 0 0 47.559938745340332 -27.253179313740475 0 -27.253179313740475 6.3323776217948762 0 0 0 0 68.865288708650041 -32.296132978013247 0 -32.296132978013247 -24.89678192086194 0 0 0 0 8.7822814755472791 -43.178181220897443 0 -43.178181220897443 -17.244954702657196 0 0 0 0 -2.4772184472444394 -7.3187692969474085 0 -7.3187692969474085 2.1343861575534788 0 0 0 0 37.601945149370295 -30.502057029232446 0 -30.502057029232446 -72.184415485296995 0 0 0 0 46.454070185252931 2.6694636800557419 0 2.6694636800557419 -60.878622740828177 0 0 0 0 59.86561457519565 -44.031231729019737 0 -44.031231729019737 -113.97524624847756 0 0 0 0 4.068968966845798 -40.310024111332524 0 -40.310024111332524 -4.3655813040219904 0 0 0 0 44.268779353471473 -0.24839223324306658 0 -0.24839223324306658 10.774624577832583 0 0 0 0 4.5504169241728789 -0.0065916549688722625 0 -0.0065916549688722625 -0.034805667215593417 0 0 0 0 397.14906922724913 -62.869592531028502 0 -62.869592531028502 -55.08800166205765 0 0 0 0 164.61141024777316 -76.131549093150625 0 -76.131549093150625 30.157235059713003 0 0 0 0 274.23881225400692 35.381839857175464 0 35.381839857175464 -2.1738799955510331 0 0 0 0 71.6348572056595 -0.71031446208530724 0 -0.71031446208530724 -11.872619631539692 0 0 0 0 128.10346196047612 -15.745771935995435 0 -15.745771935995435 -33.378147077131871 0 0 0 0 98.610629386923392 28.135428391775008 0 28.135428391775008 15.64748151088952 0 0 0 0 577.03196287225364 96.580146094904364 0 96.580146094904364 -92.113266403050147 0 0 0 0 0.30696533777773993 0.48188532076002843 0 0.48188532076002843 1.0191649909912481 0 0 0 0 410.17906029481674 7.7346179111038964 0 7.7346179111038964 -32.033947633375192 0 0 0 0 407.65693632444891 -33.869299294812208 0 -33.869299294812208 -106.43845033548223 0 0 0 0 414.2346343261006 26.856565317888936 0 26.856565317888936 -211.03556094447549 0 0 0 0 412.53373196688744 82.214135420185755 0 82.214135420185755 -83.519159171795764 0 0 0 0 218.00647807648056 130.78957400116246 0 130.78957400116246 -76.328581049720469 0 0 0 0 132.78399304916093 3.5978508193082916 0 3.5978508193082916 -55.903296500776378 0 0 0 0 88.253852399851894 223.81127126845195 0 223.81127126845195 -328.11433949393768 0 0 0 0 67.946118486041996 -47.463659740278061 0 -47.463659740278061 -257.10624450492287 0 0 0 0 23.468754936380606 -1.630419383296668 0 -1.630419383296668 -0.043554557239688527 0 0 0 0 76.653186917625135 -13.03684640151323 0 -13.03684640151323 -142.49002994850434 0 0 0 0 59.89855284231453 -70.543762960572394 0 -70.543762960572394 -42.363386817690298 0 0 0 0 658.29710797811276 249.09692662751604 0 249.09692662751604 -85.583499156681683 0 0 0 0 9.5387496399840757 -1.6299453274592963 0 -1.6299453274592963 0.064502403389061033 0 0 0 0 10.939173538023169 15.617507067528322 0 15.617507067528322 62.362788417882257 0 0 0 0 560.60176809491895 -67.750876759000562 0 -67.750876759000562 -131.59721529193121 0 0 0 0 565.23823711772275 -101.15231689360007 0 -101.15231689360007 53.257994404392093 0 0 0 0 1.0179355226165399 -0.21456089119360655 0 -0.21456089119360655 -0.46691007049076028 0 0 0 0 508.99579341076605 -54.761612808793416 0 -54.761612808793416 -102.69236125710358 0 0 0 0 438.4137569678274 -150.60444563720483 0 -150.60444563720483 -51.512214907064845 0 0 0 0 438.1410279154079 -78.947174863767032 0 -78.947174863767032 -95.393176350516114 0 0 0 0 514.63548396625265 -89.867605293874931 0 -89.867605293874931 -116.69351185351752 0 0 0 0 205.72157547801908 104.96731529820295 0 104.96731529820295 -32.731652419417742 0 0 0 0 564.94237402343424 -148.98532821229946 0 -148.98532821229946 -139.98551765921161 0 0 0 0 1210.3384669116567 -358.96360013700314 0 -358.96360013700314 -102.72223921887962 0 0 0 0 586.01256339393331 -312.1761271315861 0 -312.1761271315861 23.460716014016725 0 0 0 0 -17.40534546438721 -142.62728148953011 0 -142.62728148953011 243.18459933308077 0 0 0 0 0.79531211167341098 -19.095498313491134 0 -19.095498313491134 131.61340638750153 0 0 0 0 2.3600409554749149 3.1117698661336135 0 3.1117698661336135 9.0033089972075508 0 0 0 0 18.225202881098085 -12.54179191138371 0 -12.54179191138371 33.905344462246561 0 0 0 0 113.53270532040915 -338.58295547504349 0 -338.58295547504349 414.41714820909783 0 0 0 0 14.466923877162913 4.0562827906822889 0 4.0562827906822889 -2.7512987733790419 0 0 0 0 199.53736449143616 -126.28883853897878 0 -126.28883853897878 8.515238651598338 0 0 0 0 211.96644245044445 -116.277979168819 0 -116.277979168819 -20.094640946147592 0 0 0 0 304.06731847187621 -228.69428142373636 0 -228.69428142373636 70.726952368187995 0 0 0 0 333.04341019925778 -173.47516177292619 0 -173.47516177292619 -49.631422345971259 0 0 0 0 273.87076948109461 -138.56957730223894 0 -138.56957730223894 -3.7603638279579172 0 0 0 0 299.74239544512238 -87.742071656226017 0 -87.742071656226017 -60.721863770480923 0 0 0 0 176.53380257613026 -131.51172663960074 0 -131.51172663960074 19.853350373068679 0 0 0 0 219.19393271120498 -86.63675699651958 0 -86.63675699651958 31.786026765139013 0 0 0 0 49.472128409921424 -101.56395512448989 0 -101.56395512448989 -286.93275654236709 0 0 0 0 63.106256985207438 45.511124996794479 0 45.511124996794479 -307.08340438176378 0 0 0 0 96.917758255134686 -25.485574533189265 0 -25.485574533189265 -179.12645958171242 0 0 0 0 98.228774011993664 -65.548974475551859 0 -65.548974475551859 -126.97579296569552 0 0 0 0 -27.691098522816901 -29.253320840879496 0 -29.253320840879496 -14.578193205357366 0 0 0 0 -74.222855397791136 -105.74038234920818 0 -105.74038234920818 -129.68730762743326 0 0 0 0 28.726951009783079 59.324457268378183 0 59.324457268378183 -220.48143217462302 0 0 0 0 -92.607765507566 26.215027300983564 0 26.215027300983564 -42.565815913627375 0 0 0 0 129.1966883310015 43.665762039634501 0 43.665762039634501 -158.16248362105262 0 0 0 0 29.629591956821969 13.614955563388776 0 13.614955563388776 -48.001116990080732 0 0 0 0 46.322244338633027 0.57509038614489327 0 0.57509038614489327 -155.11040531609325 0 0 0 0 79.47008023536182 -20.826043443206913 0 -20.826043443206913 -254.41193523599031 0 0 0 0 49.326296963787172 -63.302533854463036 0 -63.302533854463036 -312.39610039850618 0 0 0 0 -52.146012647834141 -65.795501168074452 0 -65.795501168074452 -63.843893340041632 0 0 0 0 -70.623102252371609 -115.44149452590091 0 -115.44149452590091 -178.59512819754718 0 0 0 0 39.131060882995371 -2.6182525170979716 0 -2.6182525170979716 -239.46336323210016 0 0 0 0 6.8776086178258993 -82.314376895762962 0 -82.314376895762962 100.56427530106794 0 0 0 0 1.6828240886478625 -0.91586557163030591 0 -0.91586557163030591 -0.96151761685687998 0 0 0 0 85.238175524282269 27.858854400638847 0 27.858854400638847 -340.21550644708077 0 0 0 0 6.5667502762516961 2.9984388533307538 0 2.9984388533307538 3.390115853756015 0 0 0 0 31.208586437998747 -49.27742699288342 0 -49.27742699288342 -27.904605736294798 0 0 0 0 42.937574244584539 -27.415180811226492 0 -27.415180811226492 -60.235370617124318 0 0 0 0 14.604069664084818 -44.960231579128049 0 -44.960231579128049 15.551916739593253 0 0 0 0 31.154756277922388 -2.0989361108917226 0 -2.0989361108917226 -3.8693300616005448 0 0 0 0 2.325029386977576 -2.5013390617645825 0 -2.5013390617645825 -3.0729489493031084 0 0 0 0 18.418815982848173 1.0628873010127791 0 1.0628873010127791 -10.629876397030785 0 0 0 0 17.336433414759384 -2.54491945366496 0 -2.54491945366496 -8.8132541012370957 0 0 0 0 13.93480127475118 0.28169947379458193 0 0.28169947379458193 -4.2204767669656835 0 0 0 0 -12.00732134898135 -8.2407071136743753 0 -8.2407071136743753 1.8736803793151466 0 0 0 0 16.755040986350991 2.5317343648516637 0 2.5317343648516637 -3.11315926659822 0 0 0 0 15.987761765667528 1.8531019634068713 0 1.8531019634068713 -13.408526923354088 0 0 0 0 1.9227161322937576 0.46637821072368979 0 0.46637821072368979 -3.0023569328149842 0 0 0 0 -47.302777599770707 82.636374340812154 0 82.636374340812154 -88.734586361612401 0 0 0 0 69.972537440364249 -9.4567686534311974 0 -9.4567686534311974 -117.40074047632788 0 0 0 0 11.974147249711677 1.3201617476079264 0 1.3201617476079264 -13.036688430564027 0 0 0 0 29.10646137954609 34.656919531032827 0 34.656919531032827 -93.492817991300853 0 0 0 0 -13.612203229946317 12.364460837478539 0 12.364460837478539 0.78622128951636228 0 0 0 0 3.1068562026564166 3.0887895266959617 0 3.0887895266959617 -0.48918060784951334 0 0 0 0 6.4413557033985853 4.7717314180449648 0 4.7717314180449648 -11.943615536717857 0 0 0 0 14.70720109371149 7.7148670808491886 0 7.7148670808491886 -2.1382090594082266 0 0 0 0 10.734323814739355 2.5608664919888753 0 2.5608664919888753 -1.5791750611952808 0 0 0 0 26.945260464593815 12.963347316902428 0 12.963347316902428 -5.556866653780606 0 0 0 0 30.136206037841475 -189.68191223271674 0 -189.68191223271674 -27.119317253732447 0 0 0 0 -73.087896811193787 57.653607704452696 0 57.653607704452696 387.86503208180238 0 0 0 0 4.0718908858913494 2.3286211953759448 0 2.3286211953759448 -1.4195650784997746 0 0 0 0 363.20366745072533 15.83844309543133 0 15.83844309543133 -799.58901187838592 0 0 0 0 360.89971097627131 -23.293782345240231 0 -23.293782345240231 -172.7229714116491 0 0 0 0 110.00605468779395 -84.690706273096112 0 -84.690706273096112 16.11636592443773 0 0 0 0 -0.13221103017610858 -0.24239047399922242 0 -0.24239047399922242 -0.52421915939955188 0 0 0 0 -53.397150325530674 93.27795265190889 0 93.27795265190889 -77.370490900030731 0 0 0 0 -104.41954620598699 -131.0351876433898 0 -131.0351876433898 -46.440458745003383 0 0 0 0 38.931171438307501 21.785472009618061 0 21.785472009618061 14.463756502463227 0 0 0 0 36.197943440667586 13.690600399473652 0 13.690600399473652 -5.4954910372780343 0 0 0 0 -56.515465469638002 50.548459133775509 0 50.548459133775509 -19.599089274922335 0 0 0 0 -0.087734195170924067 62.193447086063316 0 62.193447086063316 -99.405327410841352 0 0 0 0 4.8740938803080098 3.6903652962661795 0 3.6903652962661795 -11.766006271499243 0 0 0 0 -33.030337421281729 47.009631017338052 0 47.009631017338052 -65.975077871053145 0 0 0 0 -26.945363599283155 68.030761327960363 0 68.030761327960363 3.5173958429322738 0 0 0 0 5.6984193155658431 84.829306460999078 0 84.829306460999078 -62.810460196722488 0 0 0 0 -7.3712852003391163 27.072589708659166 0 27.072589708659166 5.5491099754081006 0 0 0 0 183.41540003853152 -21.828320032412648 0 -21.828320032412648 -10.621326704982948 0 0 0 0 44.756592000092496 66.049127724658376 0 66.049127724658376 24.325155722177897 0 0 0 0 7.8634013217815664 25.621093452299192 0 25.621093452299192 2.4352817033970808 0 0 0 0 6.6670790221251082 -13.891187945814863 0 -13.891187945814863 65.340711540577217 0 0 0 0 7.2283630689780694 46.689318170014687 0 46.689318170014687 -2.9557156508087274 0 0 0 0 -26.749081498943269 70.908355280341425 0 70.908355280341425 -37.826857673026552 0 0 0 0 7.6268812539929058 -8.7591533157740287 0 -8.7591533157740287 -43.400079056302658 0 0 0 0 -184.99142421226134 -25.923724333761104 0 -25.923724333761104 110.56811369955332 0 0 0 0 -1.2374915502674213 1.3279346738360971 0 1.3279346738360971 -3.504140323287845 0 0 0 0 -15.310223656077142 -103.59377639368842 0 -103.59377639368842 -47.582840375126246 0 0 0 0 -42.018213275798189 -58.834484872727387 0 -58.834484872727387 -70.656957804501445 0 0 0 0 -14.640243650661432 117.65788375085398 0 117.65788375085398 9.2381704313096762 0 0 0 0 278.30897931801155 -65.821800095013828 0 -65.821800095013828 29.956671722470489 0 0 0 0 275.94481106266903 -6.2040832504953585 0 -6.2040832504953585 1.7528518498288577 0 0 0 0 275.33608218479276 -92.084517866726614 0 -92.084517866726614 109.12826080030595 0 0 0 0 309.98815165062115 -196.51368221022815 0 -196.51368221022815 -142.16964635226739 0 0 0 0 376.0654090687749 -75.343759627956231 0 -75.343759627956231 47.032329783161288 0 0 0 0 16.17774264291802 15.628592509901154 0 15.628592509901154 -133.75304537592325 0 0 0 0 -56.853899139416171 -237.6672469679585 0 -237.6672469679585 60.620352848816708 0 0 0 0 -156.76507284794934 -1.0927890794211663 0 -1.0927890794211663 106.70242629736455 0 0 0 0 43.900218212002073 5.6514831571723363 0 5.6514831571723363 24.770502449598581 0 0 0 0 18.827493759104982 42.470360633812859 0 42.470360633812859 -28.454171186643741 0 0 0 0 67.475892585352995 34.54845417906796 0 34.54845417906796 -15.576379926391851 0 0 0 0 129.0590374902531 -0.52186589650199267 0 -0.52186589650199267 -50.70957044211616 0 0 0 0 35.920121514893253 15.506756851658523 0 15.506756851658523 -24.31236465215666 0 0 0 0 150.64196101465495 16.803053117121042 0 16.803053117121042 -66.170663330133152 0 0 0 0 25.364705879195753 -46.788154668877816 0 -46.788154668877816 -88.438519268476199 0 0 0 0 -3.05042416692595 -27.428999263247874 0 -27.428999263247874 -84.005704524245559 0 0 0 0 26.648458303541702 -0.57075313322349075 0 -0.57075313322349075 1.4211877072913666 0 0 0 0 8.5945354170360986 5.3500876691089445 0 5.3500876691089445 2.2317584952861393 0 0 0 0 25.889923859329429 1.6213591785618178 0 1.6213591785618178 2.1548451092369305 0 0 0 0 5.9880984193771098 3.5869882326168181 0 3.5869882326168181 3.2988133018089396 0 0 0 0 153.37752152692701 34.876794202115434 0 34.876794202115434 1065.4546433468799 0 0 0 0 -1.5742406856443267 5.054263421847736 0 5.054263421847736 12.127309723862254 0 0 0 0 1175.7599069908465 -625.95165572256155 0 -625.95165572256155 -121.54437927989784 0 0 0 0 5.4154533527742785 1.3835856499199224 0 1.3835856499199224 -0.8206753279778507 0 0 0 0 354.93922424767516 114.69109883915263 0 114.69109883915263 33.549567593732277 0 0 0 0 9.4686971793307748 -14.89588317740737 0 -14.89588317740737 10.392397867822638 0 0 0 0 4.802394652144244 5.0833831286165037 0 5.0833831286165037 -0.095325925461006378 0 0 0 0 533.81469138036482 -369.97050380813187 0 -369.97050380813187 218.7009107342698 0 0 0 0 432.01281597441994 -148.66259405202322 0 -148.66259405202322 232.58815248218252 0 0 0 0 1111.7031148612587 -503.02052206070448 0 -503.02052206070448 -146.97750615022869 0 0 0 0 744.42901043072925 -665.85490698341209 0 -665.85490698341209 316.89018931190742 0 0 0 0 180.81295076495735 -382.51521618713787 0 -382.51521618713787 199.0949352834341 0 0 0 0 1103.9718536894384 -341.30134902293037 0 -341.30134902293037 53.311544398576189 0 0 0 0 -31.661928400728357 73.008301449771011 0 73.008301449771011 129.20264270588177 0 0 0 0 153.35903256048914 64.911287063177951 0 64.911287063177951 -279.39438520831862 0 0 0 0 382.6017598703329 -225.43294309570706 0 -225.43294309570706 138.26891992002433 0 0 0 0 126.19009558956895 -90.652418066093219 0 -90.652418066093219 159.84169338479842 0 0 0 0 452.16152064192283 -187.76180921702075 0 -187.76180921702075 18.614298265680986 0 0 0 0 807.37236481042055 -155.12128280951072 0 -155.12128280951072 -37.62835991423276 0 0 0 0 447.78383296032553 -177.73131049222781 0 -177.73131049222781 10.911613540021335 0 0 0 0 542.61270094483916 1.1724083234123981 0 1.1724083234123981 87.758128800397856 0 0 0 0 261.73975382639765 -23.432312337041822 0 -23.432312337041822 74.730844757480781 0 0 0 0 671.95151974700275 -398.02134617003253 0 -398.02134617003253 324.06262436255815 0 0 0 0 1158.1100431060768 -95.206084747920698 0 -95.206084747920698 -2.5195599411829335 0 0 0 0 10.300293465363211 4.9342194059630273 0 4.9342194059630273 1.1456126349610543 0 0 0 0 105.50100979354465 -172.23042542518658 0 -172.23042542518658 301.21402411713927 0 0 0 0 5.5462350572967125 2.0757274072208531 0 2.0757274072208531 -4.3250488886247167 0 0 0 0 2.7139125661891228 -1.4082139857354719 0 -1.4082139857354719 1.9279282145349268 0 0 0 0 644.32870428831666 -407.19178969524592 0 -407.19178969524592 -18.697388819043454 0 0 0 0 768.1030777068936 -355.64711442350682 0 -355.64711442350682 -88.031692702428245 0 0 0 0 20.033011127990903 3.9432022831089029 0 3.9432022831089029 1.0539593943710202 0 0 0 0 16.509177426363749 -3.2381147792946336 0 -3.2381147792946336 1.9173908251839862 0 0 0 0 14.012905899609905 28.829630565144186 0 28.829630565144186 5.8455659022601481 0 0 0 0 30.249300724914065 -2.3884189502598687 0 -2.3884189502598687 -3.4132092515610655 0 0 0 0 3.9661185439544369 6.1417642580394727 0 6.1417642580394727 -0.85005909476540387 0 0 0 0 -18.053456733192434 15.006658405576559 0 15.006658405576559 6.0539194468394015 0 0 0 0 4.7235041515761793 5.2406592540866654 0 5.2406592540866654 -2.2367544281788483 0 0 0 0 13.798930589175143 1.0673546218817052 0 1.0673546218817052 5.2942721834543534 0 0 0 0 24.223402414747397 -4.7487671607493667 0 -4.7487671607493667 -3.2743894318267053 0 0 0 0 6.3414107895111158 -4.4094050355774641 0 -4.4094050355774641 -0.28585802751153677 0 0 0 0 179.54319067708275 111.77427069723902 0 111.77427069723902 25.542428046132873 0 0 0 0 10.205689472684753 8.6820111603403376 0 8.6820111603403376 -14.699531807952269 0 0 0 0 11.079814163942501 -4.9289816399403747 0 -4.9289816399403747 -4.3846577033494327 0 0 0 0 5.1906623843491673 -2.5022844156730173 0 -2.5022844156730173 -2.7460285151470849 0 0 0 0 769.58420226472663 -209.78839400355432 0 -209.78839400355432 8.4383617405620654 0 0 0 0 3.0356011459871297 1.2976370216277644 0 1.2976370216277644 1.0905365089578249 0 0 0 0 783.26535356130626 -278.48071565645841 0 -278.48071565645841 27.595565369658516 0 0 0 0 446.69397824915359 -88.811940816044583 0 -88.811940816044583 -48.060288088648321 0 0 0 0 282.83456966760787 -26.420795666874337 0 -26.420795666874337 -54.753368446158419 0 0 0 0 179.41358725204918 -70.108574550618115 0 -70.108574550618115 -0.12622222676651018 0 0 0 0 46.118332825433754 -48.475721081820524 0 -48.475721081820524 -3.2358896939962847 0 0 0 0 5.544762585497665 -1.4918946815545353 0 -1.4918946815545353 0.00038649630196706231 0 0 0 0 0.89363629899190755 -0.4130162819641896 0 -0.4130162819641896 -0.42208890712346891 0 0 0 0 4.1438674015953438 32.580830024105701 0 32.580830024105701 54.610443188414479 0 0 0 0 0.63977045904545093 0.35497813213385143 0 0.35497813213385143 -0.31117141074027554 0 0 0 0 -40.039459234627429 -1.3953542491853452 0 -1.3953542491853452 11.256803432878904 0 0 0 0 22.313706809141877 17.264007218073992 0 17.264007218073992 -3.3665606561143306 0 0 0 0 83.378798275509325 -32.154248480424684 0 -32.154248480424684 70.118931967408628 0 0 0 0 108.4084354888837 -5.9570870907352784 0 -5.9570870907352784 17.380717888366433 0 0 0 0 96.436994058894925 11.741611669272999 0 11.741611669272999 -2.2553272182937008 0 0 0 0 76.131545785392518 -9.5216323541848524 0 -9.5216323541848524 37.0464901898834 0 0 0 0 67.1275902692214 -13.889727991780369 0 -13.889727991780369 34.959544948001877 0 0 0 0 91.348749755037716 -80.062737704460801 0 -80.062737704460801 90.789840973466227 0 0 0 0 53.493127031686527 -85.392211274459598 0 -85.392211274459598 136.83120465774789 0 0 0 0 337.33552437025355 -243.1810052354445 0 -243.1810052354445 151.0736535047412 0 0 0 0 266.89342500496423 -115.28955126308472 0 -115.28955126308472 95.114407020432736 0 0 0 0 85.325759942556033 -208.59081381070948 0 -208.59081381070948 179.03729764791044 0 0 0 0 457.34783871128457 -104.98688013759045 0 -104.98688013759045 98.450854596079296 0 0 0 0 226.74992773013946 -130.77236505419572 0 -130.77236505419572 126.83508914306891 0 0 0 0 226.28792886120209 -125.24115720463651 0 -125.24115720463651 74.029886791669355 0 0 0 0 139.38937495253049 -95.014106655269416 0 -95.014106655269416 67.159685149993024 0 0 0 0 359.43226915185005 -181.33715786049345 0 -181.33715786049345 55.842786637417419 0 0 0 0 310.93086388896882 -97.874970223916222 0 -97.874970223916222 -0.035225610214307271 0 0 0 0 240.64684539660084 -113.85448688339667 0 -113.85448688339667 21.563054567180025 0 0 0 0 237.70536776301378 -120.24083734012949 0 -120.24083734012949 32.428875985186579 0 0 0 0 173.56063709648879 -69.493466989882251 0 -69.493466989882251 0.042050539097221312 0 0 0 0 142.18247769390337 -64.10698086626337 0 -64.10698086626337 34.864269185240701 0 0 0 0 142.40588556061994 -79.243382052274683 0 -79.243382052274683 44.723522354441016 0 0 0 0 90.232115580656682 -29.491335597612409 0 -29.491335597612409 23.985417409465178 0 0 0 0 107.68297971506763 -47.939208757983394 0 -47.939208757983394 14.710246431771836 0 0 0 0 116.12660034118744 -42.93418935983776 0 -42.93418935983776 0.039913480249647845 0 0 0 0 91.868933375750203 -32.559819552987136 0 -32.559819552987136 -0.005653752808084566 0 0 0 0 73.870945101676625 -25.318313868207959 0 -25.318313868207959 0.043532247782250594 0 0 0 0 85.249092706901138 -36.584360013141669 0 -36.584360013141669 10.905455970729712 0 0 0 0 73.001411080003891 -29.732210636153866 0 -29.732210636153866 12.911668379008614 0 0 0 0 78.376918410805956 -18.679475391473201 0 -18.679475391473201 -3.9092491632382149 0 0 0 0 86.4213242494734 -37.588826657726031 0 -37.588826657726031 10.030096900758394 0 0 0 0 81.982126314447669 -24.620101040184238 0 -24.620101040184238 6.4849567375486572 0 0 0 0 54.946871634663694 -14.001299483491492 0 -14.001299483491492 -0.70467541650056376 0 0 0 0 63.990681690789643 -34.213511711946566 0 -34.213511711946566 12.653943976629847 0 0 0 0 103.2413802525698 -21.847537908129553 0 -21.847537908129553 11.070884058834864 0 0 0 0 103.32015047292225 -22.93234287471207 0 -22.93234287471207 16.812229662876632 0 0 0 0 107.89293192877085 -20.738312592838462 0 -20.738312592838462 10.615636222145355 0 0 0 0 101.46362265925563 -37.853245197408079 0 -37.853245197408079 6.0102114232910537 0 0 0 0 109.25587252173136 -13.939160707367421 0 -13.939160707367421 -9.3924218752765682 0 0 0 0 153.78894353179203 -26.455698766187453 0 -26.455698766187453 -13.494254434622135 0 0 0 0 190.30983865003509 -66.956541154480675 0 -66.956541154480675 -17.302328305131283 0 0 0 0 124.69809124632593 -2.4427865781841724 0 -2.4427865781841724 -23.66123750967148 0 0 0 0 106.76169150979695 -51.337828358415834 0 -51.337828358415834 34.528060727436326 0 0 0 0 174.6119583844702 -96.746253812632531 0 -96.746253812632531 44.075203747209457 0 0 0 0 84.909767338176607 -27.522636026064099 0 -27.522636026064099 14.814419199309636 0 0 0 0 79.815445023028587 -41.352887824175163 0 -41.352887824175163 21.012527410236984 0 0 0 0 41.385813637857609 -1.7195391401147746 0 -1.7195391401147746 1.3266601788882753 0 0 0 0 39.924196939871763 -20.61378812051796 0 -20.61378812051796 15.373148169375515 0 0 0 0 46.860082531384251 -10.546680874048718 0 -10.546680874048718 -249.15456805016623 0 0 0 0 47.63244494678554 -47.740955865679027 0 -47.740955865679027 -33.749355105917857 0 0 0 0 11.92763537247788 4.1194813552354219 0 4.1194813552354219 -1.1107640501261118 0 0 0 0 168.98651802755785 460.72498824914391 0 460.72498824914391 -59.998511170300276 0 0 0 0 204.97150327121199 -214.96787997053491 0 -214.96787997053491 -48.186563334542598 0 0 0 0 -27.49614595867024 -175.66075228145891 0 -175.66075228145891 79.021039072922122 0 0 0 0 193.31211270989661 60.50672060710508 0 60.50672060710508 -57.503061833821079 0 0 0 0 59.186097351630451 -34.498017723699434 0 -34.498017723699434 246.93888859419303 0 0 0 0 471.80918340058997 123.64576552954748 0 123.64576552954748 45.866229437209029 0 0 0 0 540.30484657917987 -167.4490943795289 0 -167.4490943795289 15.048855142665232 0 0 0 0 391.56422910471156 -211.96744584438449 0 -211.96744584438449 134.39631970946925 0 0 0 0 -246.33944190057809 -107.83029746355169 0 -107.83029746355169 231.65274653614051 0 0 0 0 4.5360648080069268 1.736147923617267 0 1.736147923617267 0.94473937485965709 0 0 0 0 -556.09170107499813 179.04525377259975 0 179.04525377259975 56.877159914343892 0 0 0 0 140.81943192801555 30.675247488925834 0 30.675247488925834 -35.891400585235715 0 0 0 0 3.4177480215697642 2.2077160448912707 0 2.2077160448912707 0.93289663567558156 0 0 0 0 -74.572394963004626 386.66727560030631 0 386.66727560030631 -398.30179397165477 0 0 0 0 -35.219550644891569 21.643437305790258 0 21.643437305790258 33.681403250611105 0 0 0 0 -276.35429154368467 557.12132124118523 0 557.12132124118523 -249.78520013563713 0 0 0 0 -160.00881218840368 261.7680096094914 0 261.7680096094914 -189.06485066993127 0 0 0 0 -296.52094866515836 377.38009768396284 0 377.38009768396284 -202.13490799100916 0 0 0 0 15.472031530597064 4.2222036867497579 0 4.2222036867497579 0.5896076990813639 0 0 0 0 78.699982454709243 264.46696614067815 0 264.46696614067815 -398.9121271575973 0 0 0 0 332.60330720647744 -287.54005785421424 0 -287.54005785421424 150.41440282529413 0 0 0 0 150.37963808151835 -57.734489606463434 0 -57.734489606463434 50.780334374009442 0 0 0 0 121.41754660264269 293.10953160918638 0 293.10953160918638 -563.27764952268478 0 0 0 0 10.134959995341887 4.3373883171972523 0 4.3373883171972523 -0.1355052841985695 0 0 0 0 -191.95413487714541 41.428996706525936 0 41.428996706525936 -15.444823126534999 0 0 0 0 -135.82132644248486 -115.03871670153694 0 -115.03871670153694 24.858175943556375 0 0 0 0 -85.949264778901124 -76.885176257088119 0 -76.885176257088119 -108.76330275902319 0 0 0 0 -71.961355222963903 70.039220128585498 0 70.039220128585498 -374.9161014115964 0 0 0 0 -144.68728262664808 -302.86666677040705 0 -302.86666677040705 -452.55985370348708 0 0 0 0 -1.555022083302191 1.633682245851773 0 1.633682245851773 -2.3122130432340358 0 0 0 0 22.502131293571438 189.58359562819152 0 189.58359562819152 -91.977423692258299 0 0 0 0 144.63711238170072 -151.79262056838292 0 -151.79262056838292 -399.45445791437396 0 0 0 0 549.26257796888967 114.50430538738379 0 114.50430538738379 -294.97882224124919 0 0 0 0 210.80031804841201 42.585167859490667 0 42.585167859490667 122.08716997342799 0 0 0 0 -85.606059510275372 -56.147386319609382 0 -56.147386319609382 -49.714030456245439 0 0 0 0 -400.35774403990945 -117.09716557742038 0 -117.09716557742038 60.180459464802937 0 0 0 0 0.20118288495829617 -0.45460324448393408 0 -0.45460324448393408 -2.0941517000820045 0 0 0 0 -100.92898053667159 -99.940831111696752 0 -99.940831111696752 -8.6469113927328181 0 0 0 0 0.2523753472607897 -2.8427316803328324 0 -2.8427316803328324 -4.6569784048102099 0 0 0 0 489.40269044672459 -80.599724934184678 0 -80.599724934184678 -151.59595454775956 0 0 0 0 86.981108613850665 -86.407472760521046 0 -86.407472760521046 58.09012084231415 0 0 0 0 2.4230532894207624 -4.364619569258565 0 -4.364619569258565 -4.4103515835114582 0 0 0 0 16.289668258687016 -20.949598460261484 0 -20.949598460261484 -53.661598860803679 0 0 0 0 12.283217473048182 3.3608953710821794 0 3.3608953710821794 -3.0398000602997843 0 0 0 0 245.79663903958135 -86.238001781566823 0 -86.238001781566823 -19.828923984765765 0 0 0 0 -90.487024440895766 -14.434482246779112 0 -14.434482246779112 4.7337244761397415 0 0 0 0 89.301829378979164 -100.11157280943576 0 -100.11157280943576 -35.189589283486157 0 0 0 0 87.548296629991455 -63.59827073538564 0 -63.59827073538564 -24.304957245945161 0 0 0 0 -108.93579913209396 -45.02473078155208 0 -45.02473078155208 18.040968303972477 0 0 0 0 -115.40762590641953 4.1847613944239868 0 4.1847613944239868 -8.0710639986687056 0 0 0 0 2.6116072629861833 -4.0214139888370539 0 -4.0214139888370539 5.0678589589711986 0 0 0 0 -49.344983250121004 -83.689073997957223 0 -83.689073997957223 -22.798621649544771 0 0 0 0 -57.365468270872952 -60.147893195570575 0 -60.147893195570575 -3.6032771884507611 0 0 0 0 114.90812227642891 -49.414704081522359 0 -49.414704081522359 42.81330553962971 0 0 0 0 -107.26976512442343 -138.33648289363919 0 -138.33648289363919 55.90095090035004 0 0 0 0 44.105278846021974 63.602530159382923 0 63.602530159382923 75.903714557365674 0 0 0 0 136.64136441291339 -168.67376739520182 0 -168.67376739520182 201.53421641046771 0 0 0 0 -36.871521690816735 42.099056302350505 0 42.099056302350505 23.672241763451439 0 0 0 0 643.9021259075671 -87.091409390972103 0 -87.091409390972103 -285.58244111758472 0 0 0 0 0.77554634252214782 0.53465081439176743 0 0.53465081439176743 0.70968144924675958 0 0 0 0 392.1935957007081 -388.11250084597498 0 -388.11250084597498 149.92280510964383 0 0 0 0 58.874331056125811 33.663679911527034 0 33.663679911527034 6.4582528249734734 0 0 0 0 -12.026612974412274 23.929120764275922 0 23.929120764275922 62.67335343280206 0 0 0 0 -0.946676359832054 -11.809007636444008 0 -11.809007636444008 -89.197086530614783 0 0 0 0 156.11275806830963 -113.60641177656385 0 -113.60641177656385 43.284727186375449 0 0 0 0 5.3522566304303609 1.3791464024236859 0 1.3791464024236859 -1.0066509181278729 0 0 0 0 -34.612960690428736 -52.786831192836814 0 -52.786831192836814 -63.637787171414288 0 0 0 0 76.824387409971678 148.95438136962946 0 148.95438136962946 -241.33253035773396 0 0 0 0 56.855283955032974 -78.034783289264851 0 -78.034783289264851 -114.78010466179808 0 0 0 0 2.6071431179134503 -1.5151466369901527 0 -1.5151466369901527 -5.4067543329637227 0 0 0 0 42.308757951905136 -19.377556993111909 0 -19.377556993111909 9.248420626426622 0 0 0 0 109.03559079274419 -37.969687687860741 0 -37.969687687860741 6.0762817198443022 0 0 0 0 -0.39460417423701699 -0.71555815840727632 0 -0.71555815840727632 -1.4530206223019921 0 0 0 0 339.05158290316467 45.555122424971074 0 45.555122424971074 -207.09145992193305 0 0 0 0 -251.96389585030556 -115.77509557460863 0 -115.77509557460863 236.68276933437548 0 0 0 0 241.17001892265398 -149.05133545930161 0 -149.05133545930161 -103.71257401990786 0 0 0 0 265.38267233407532 -62.688945741738358 0 -62.688945741738358 -33.15367810242774 0 0 0 0 -63.848540684128238 -4.7054240507851972 0 -4.7054240507851972 -0.10036360197425639 0 0 0 0 -19.243815029913094 -69.475487560580746 0 -69.475487560580746 34.116979755440596 0 0 0 0 29.626869593193987 14.576444249950892 0 14.576444249950892 80.82692240660316 0 0 0 0 -7.9740949881525012 2.5493391609533447 0 2.5493391609533447 77.696203688592078 0 0 0 0 321.89653649087995 14.726032642338481 0 14.726032642338481 -16.734474648154332 0 0 0 0 11.629166210332187 -81.657550861472146 0 -81.657550861472146 114.32249149670236 0 0 0 0 -71.473247794958297 -46.060638335952632 0 -46.060638335952632 99.299130779684077 0 0 0 0 1.8849601976157544 -2.1823080776019594 0 -2.1823080776019594 2.2142226380509991 0 0 0 0 190.60540535402106 -127.82888686813831 0 -127.82888686813831 83.754369656169175 0 0 0 0 84.446090521625592 3.9638563115733714 0 3.9638563115733714 62.117571718332954 0 0 0 0 93.862412599424715 -34.73327077709591 0 -34.73327077709591 0.12509695961141623 0 0 0 0 199.11673845355836 30.119232563127508 0 30.119232563127508 0.063928474303691279 0 0 0 0 112.35545708878271 59.692570803674705 0 59.692570803674705 56.401696705884881 0 0 0 0 162.77952564903535 46.382372650124168 0 46.382372650124168 41.692151164337702 0 0 0 0 162.46734313799243 75.187546934180418 0 75.187546934180418 69.260897630855169 0 0 0 0 299.46416830801172 91.771243504655985 0 91.771243504655985 15.328348009921534 0 0 0 0 302.67384269324248 75.173168665684585 0 75.173168665684585 9.2769077848480492 0 0 0 0 386.72540447949723 42.509661786980402 0 42.509661786980402 -0.107694912735982 0 0 0 0 340.95923112201126 -9.9154204042615657 0 -9.9154204042615657 -16.608390342636163 0 0 0 0 462.45656107897639 -5.5920332664902617 0 -5.5920332664902617 -29.742766245910083 0 0 0 0 449.04096935917914 128.0464841226846 0 128.0464841226846 27.871914394774393 0 0 0 0 279.34779109402734 78.15923788004892 0 78.15923788004892 180.33415801364814 0 0 0 0 3.9162780735649108 -0.73860192202766939 0 -0.73860192202766939 -0.45229275981122358 0 0 0 0 619.4351874885615 429.4416790814729 0 429.4416790814729 241.27934086295937 0 0 0 0 574.86853849592444 -8.589537072649108 0 -8.589537072649108 42.175170993547368 0 0 0 0 303.18050663489885 115.35667168068647 0 115.35667168068647 63.240557740758845 0 0 0 0 259.49645004374906 -18.280793796366453 0 -18.280793796366453 27.606665756272292 0 0 0 0 -15.664038654820615 35.918782464514742 0 35.918782464514742 55.529320195286061 0 0 0 0 50.502234535764728 52.598250169779234 0 52.598250169779234 70.347302532054741 0 0 0 0 126.01039009889064 5.2272392847320557 0 5.2272392847320557 0.67577650351651997 0 0 0 0 137.76507610840963 73.162944206621802 0 73.162944206621802 114.81159010711946 0 0 0 0 278.60407806132571 65.361766998063288 0 65.361766998063288 33.844779965874928 0 0 0 0 -15.160433371274848 59.136113368703299 0 59.136113368703299 210.82985081406102 0 0 0 0 213.13337704444712 -4.2321911717075693 0 -4.2321911717075693 -116.33290342563208 0 0 0 0 307.03121115851354 89.073274178233177 0 89.073274178233177 -0.21270113830744042 0 0 0 0 0.71771881710184715 -0.70521109246030278 0 -0.70521109246030278 -0.34973424023404887 0 0 0 0 307.13174756509397 89.370756513414136 0 89.370756513414136 0.058388014926429282 0 0 0 0 425.51794183226593 40.907338766747444 0 40.907338766747444 7.8930041845087118 0 0 0 0 589.82303976476396 102.51562023506465 0 102.51562023506465 -23.498868402469853 0 0 0 0 403.14403102596407 108.39879032205437 0 108.39879032205437 42.82629389947239 0 0 0 0 417.9513630472793 73.607511092713011 0 73.607511092713011 -15.267677808495979 0 0 0 0 316.1005499184248 107.50596739322684 0 107.50596739322684 31.407006557821752 0 0 0 0 268.76357350150647 32.375583959508745 0 32.375583959508745 0.091632670473834152 0 0 0 0 51.259885436898912 -214.50862644648845 0 -214.50862644648845 -134.33480301631727 0 0 0 0 193.53952431287325 -100.34617281275246 0 -100.34617281275246 -141.61152693222729 0 0 0 0 8.7978009060798286 -2.3206449438578716 0 -2.3206449438578716 -0.9746122672844435 0 0 0 0 326.16323287096748 13.026324518369101 0 13.026324518369101 33.018682319269672 0 0 0 0 201.97203253601765 138.96553413619532 0 138.96553413619532 -81.183381508785303 0 0 0 0 483.84050306867357 184.04926084113512 0 184.04926084113512 -107.97795394611828 0 0 0 0 707.92249004608311 70.452797176919773 0 70.452797176919773 -76.092217957395775 0 0 0 0 294.11942238740448 233.7414126936834 0 233.7414126936834 49.463796913608803 0 0 0 0 0.67275063734682305 -2.8670678531696296 0 -2.8670678531696296 -1.6442254582240226 0 0 0 0 689.55040230510349 38.850095411876964 0 38.850095411876964 -49.178674144630762 0 0 0 0 34.85441191710197 -45.48270946121238 0 -45.48270946121238 -34.121111262904435 0 0 0 0 1084.7839881364489 -125.35889533161389 0 -125.35889533161389 404.28787907973037 0 0 0 0 9.2778812070300205 4.0392138917057991 0 4.0392138917057991 2.2266509806375483 0 0 0 0 -20.234501551902213 63.580390138509188 0 63.580390138509188 346.1739405480339 0 0 0 0 166.75960898498306 256.94319578528928 0 256.94319578528928 432.63890456340016 0 0 0 0 6.9603005313969319 -0.01818530648861838 0 -0.01818530648861838 -1.222026514500963 0 0 0 0 392.89602080125405 -190.3956361276521 0 -190.3956361276521 67.534205811120273 0 0 0 0 6.3777876642435345 -2.5170435797328139 0 -2.5170435797328139 -2.8204460116477379 0 0 0 0 1400.4887474638817 -722.68782423967514 0 -722.68782423967514 -141.07599381037971 0 0 0 0 5.0383292520063492 -1.3989531296551263 0 -1.3989531296551263 -0.31590778392751351 0 0 0 0 1178.1172551004202 413.95084999520202 0 413.95084999520202 55.869572934523603 0 0 0 0 873.8232404681039 -719.22865324209442 0 -719.22865324209442 -256.95076732274129 0 0 0 0 117.3861908577237 341.10109882595566 0 341.10109882595566 436.62705610968146 0 0 0 0 279.54323167322582 323.49292934470139 0 323.49292934470139 -43.47373382526564 0 0 0 0 305.58059708409752 186.01938582082772 0 186.01938582082772 75.718413704305448 0 0 0 0 305.56233850221906 182.20494336688057 0 182.20494336688057 -101.96018842844813 0 0 0 0 242.23687090213934 73.110721565133701 0 73.110721565133701 200.38282245142989 0 0 0 0 265.35141500231111 292.43462801639373 0 292.43462801639373 185.72867682287676 0 0 0 0 311.78782899281214 84.331414483924959 0 84.331414483924959 54.440341054336841 0 0 0 0 485.92073470534524 -94.72146473868861 0 -94.72146473868861 -95.712967770309433 0 0 0 0 291.34453600444249 59.936548197194725 0 59.936548197194725 77.96334630211777 0 0 0 0 557.34367174784711 1.5903966573117714 0 1.5903966573117714 -128.27215622140784 0 0 0 0 458.24233997796546 -210.52825015126746 0 -210.52825015126746 515.57442430045171 0 0 0 0 670.96496684608428 507.65297141786959 0 507.65297141786959 236.67593849955711 0 0 0 0 1085.2953770530003 5.2103480145203775 0 5.2103480145203775 -56.597081900417834 0 0 0 0 504.36706597665034 13.151324136108542 0 13.151324136108542 -52.049690419027286 0 0 0 0 572.90257121964532 98.99560073119892 0 98.99560073119892 -46.809774737005228 0 0 0 0 177.11998415270864 91.747557753196759 0 91.747557753196759 73.717214940874783 0 0 0 0 272.99365647938976 277.52493516191441 0 277.52493516191441 100.98851496339239 0 0 0 0 460.46013339696219 232.9032779232918 0 232.9032779232918 21.20617846978007 0 0 0 0 66.337766761171224 35.301424250940542 0 35.301424250940542 -2.2704747641009817 0 0 0 0 3.4849222875636769 -87.464251175491938 0 -87.464251175491938 6.3336871816005669 0 0 0 0 91.020872200359008 -18.55082221818833 0 -18.55082221818833 -48.872127960322018 0 0 0 0 2.0287974194600906 -3.0560882331568848 0 -3.0560882331568848 3.6948731737455205 0 0 0 0 98.109819866490398 39.333217058732473 0 39.333217058732473 36.968106628530563 0 0 0 0 225.88984932310996 -14.529204721473207 0 -14.529204721473207 -18.105092915338446 0 0 0 0 208.01076683701831 19.312353375427904 0 19.312353375427904 52.532451324550571 0 0 0 0 261.51249619417649 237.83639141646017 0 237.83639141646017 43.621979533589695 0 0 0 0 358.51900684714929 116.15552229225403 0 116.15552229225403 28.332390297940378 0 0 0 0 184.18353850177664 -16.463924561698207 0 -16.463924561698207 -51.113042443098038 0 0 0 0 80.452380041358992 25.667585952483137 0 25.667585952483137 46.220711351098288 0 0 0 0 200.20298885645752 165.64436886929423 0 165.64436886929423 26.87715502904075 0 0 0 0 282.10748371752925 20.304032486326548 0 20.304032486326548 -89.152750848759297 0 0 0 0 131.71678086971951 174.61096225763959 0 174.61096225763959 -443.56173431720799 0 0 0 0 199.04389557021204 12.958969341626698 0 12.958969341626698 -62.125440267423755 0 0 0 0 -179.96040107621229 -100.36716047547134 0 -100.36716047547134 -60.68290604393809 0 0 0 0 157.86045202052708 -42.104296318927368 0 -42.104296318927368 -444.35200784667495 0 0 0 0 167.43172777806467 -26.871997305153172 0 -26.871997305153172 -14.205677029868184 0 0 0 0 1.0632030414087978 -1.221303057237435 0 -1.221303057237435 0.91292409346233061 0 0 0 0 -57.071981482185947 -20.69117713082926 0 -20.69117713082926 -177.42025773156843 0 0 0 0 -16.054810211997392 -109.94184863655903 0 -109.94184863655903 -275.40019144235157 0 0 0 0 161.83422564249486 -239.71268251598281 0 -239.71268251598281 -186.21376371163612 0 0 0 0 -36.074762148040463 -119.2534143075377 0 -119.2534143075377 -275.38122628021154 0 0 0 0 -4.1786850645587208 5.2001295659576812 0 5.2001295659576812 -6.390286004957594 0 0 0 0 51.698333520434971 -3.6188313351510715 0 -3.6188313351510715 -123.2039915058931 0 0 0 0 -5.6882795823767083 6.5641230517705935 0 6.5641230517705935 -123.29582688643177 0 0 0 0 -5.2040623668056583 7.8873642768864158 0 7.8873642768864158 -12.926157116935887 0 0 0 0 -2.1493052001744672 -1.9256170971738982 0 -1.9256170971738982 -9.7056084354461181 0 0 0 0 41.342060809372924 23.927494078572749 0 23.927494078572749 0.13823811212347437 0 0 0 0 42.064366692259682 28.495681973433506 0 28.495681973433506 -28.276079740886644 0 0 0 0 50.53367146247183 2.8370930543021586 0 2.8370930543021586 -60.206208978059635 0 0 0 0 34.720907092938432 13.758566986645292 0 13.758566986645292 -29.649520771287882 0 0 0 0 15.643860677409691 0.47108073932469097 0 0.47108073932469097 -21.535613741326308 0 0 0 0 20.370884880372614 -10.512351219254469 0 -10.512351219254469 -13.131375929348906 0 0 0 0 8.0284797350910253 -3.8210043580849486 0 -3.8210043580849486 -13.386824549874365 0 0 0 0 3.1291064086630058 -10.015286398050478 0 -10.015286398050478 -12.073592105693976 0 0 0 0 29.798904257069807 5.2640439873484866 0 5.2640439873484866 -46.559994669663183 0 0 0 0 18.919412285467843 -11.634940126727997 0 -11.634940126727997 -7.1397392367744033 0 0 0 0 49.3614725654989 -8.1132937636903577 0 -8.1132937636903577 -12.712758546732603 0 0 0 0 41.139858933180221 -75.807741221093238 0 -75.807741221093238 -27.065330834594306 0 0 0 0 33.725345954298859 6.0263445649507403 0 6.0263445649507403 -9.7081113263068097 0 0 0 0 17.638154406740227 -5.1281632043697716 0 -5.1281632043697716 -26.327990290922024 0 0 0 0 32.167259056484909 -9.8265680868328218 0 -9.8265680868328218 -10.186123737482582 0 0 0 0 30.682279056578409 -10.537622065756295 0 -10.537622065756295 -9.6282240097934846 0 0 0 0 45.875109531059451 -15.638102737653412 0 -15.638102737653412 -9.7847298265587472 0 0 0 0 65.640259512729244 -28.575772080127081 0 -28.575772080127081 -26.21104772296394 0 0 0 0 35.903279049700359 0.69359801642781349 0 0.69359801642781349 -15.466686944240109 0 0 0 0 16.931231986964121 5.4054884091237909 0 5.4054884091237909 -34.643955218794872 0 0 0 0 44.469746780770947 -2.5365183327096474 0 -2.5365183327096474 -53.021205955925325 0 0 0 0 38.043421754846349 3.2172746069983305 0 3.2172746069983305 -17.552669920841595 0 0 0 0 37.583808070182783 -7.6966792413865601 0 -7.6966792413865601 -6.550735357606948 0 0 0 0 597.92275224986952 -237.78502782905343 0 -237.78502782905343 -226.72668566015636 0 0 0 0 -112.66221950628551 -285.60866305412617 0 -285.60866305412617 12.840169307393808 0 0 0 0 195.69125926922425 -131.177733257613 0 -131.177733257613 66.830753480155181 0 0 0 0 -71.529020602036326 184.62294863281829 0 184.62294863281829 63.393676383615457 0 0 0 0 79.421917314757593 -63.083380509226117 0 -63.083380509226117 -278.37104966251263 0 0 0 0 57.514325228307825 -10.302685472562121 0 -10.302685472562121 -0.90235663897742047 0 0 0 0 8.992846423123126 -17.534772651822465 0 -17.534772651822465 -4.4559051806357015 0 0 0 0 37.503516397540807 -97.367325453151352 0 -97.367325453151352 -154.14839174707322 0 0 0 0 208.98712490961771 -48.944342448551652 0 -48.944342448551652 1.2346947227597411 0 0 0 0 -137.28818049398251 198.69152076624232 0 198.69152076624232 -49.388849151661816 0 0 0 0 2.9512401840449343 -1.4730041998361258 0 -1.4730041998361258 -1.8259370963344104 0 0 0 0 142.58690374024445 -8.4935329737845677 0 -8.4935329737845677 -2.1134221651482221 0 0 0 0 2.8677613521285821 4.5591940556746522 0 4.5591940556746522 -20.731000049954673 0 0 0 0 0.96400542024224478 0.54043599422040245 0 0.54043599422040245 0.26016379855407479 0 0 0 0 7.6531499922712101 14.064392188022566 0 14.064392188022566 -29.004897752965917 0 0 0 0 106.41819391930767 -79.76102226268813 0 -79.76102226268813 49.906355836546936 0 0 0 0 149.49257547433081 -126.71979705381591 0 -126.71979705381591 71.737199845492796 0 0 0 0 -3.7165867835901736 5.561798724796347 0 5.561798724796347 -250.01664952730243 0 0 0 0 -0.57931951312798446 0.40042751388180875 0 0.40042751388180875 1.208472609767373 0 0 0 0 444.53536231412727 -218.95414834531857 0 -218.95414834531857 92.776662738439882 0 0 0 0 26.431458427978214 -6.0427594223779124 0 -6.0427594223779124 -27.603508176217474 0 0 0 0 -8.7899662293930305 0.25136517330020069 0 0.25136517330020069 -28.067882331638771 0 0 0 0 10.493758483426063 14.741160674186176 0 14.741160674186176 -25.247449093019895 0 0 0 0 -38.850110998711898 182.57790094927964 0 182.57790094927964 -448.53148822624144 0 0 0 0 -1.8243014900924095 -2.05351129002986 0 -2.05351129002986 -1.9087996718765439 0 0 0 0 -172.98560555910808 -144.84082521077244 0 -144.84082521077244 -66.82694836243877 0 0 0 0 264.55053636849334 -34.712408523076419 0 -34.712408523076419 -243.98042594407434 0 0 0 0 20.593187770609802 -244.82178555385872 0 -244.82178555385872 -390.78417721731284 0 0 0 0 358.26604638803838 63.830729967896559 0 63.830729967896559 -291.73223827365337 0 0 0 0 405.14178011193871 -157.91046038699415 0 -157.91046038699415 -245.72658973341447 0 0 0 0 456.78956138670037 -92.522636257210252 0 -92.522636257210252 -172.21578133835328 0 0 0 0 529.29861741024069 -158.58877251624563 0 -158.58877251624563 -112.53162981780315 0 0 0 0 516.06795302953105 -72.389182797320245 0 -72.389182797320245 -189.54905853549462 0 0 0 0 467.14746322733845 -111.38142238492208 0 -111.38142238492208 -96.967639503115606 0 0 0 0 327.55984661292314 43.408725101359551 0 43.408725101359551 33.87834844930785 0 0 0 0 466.33513224129274 -56.290361960405448 0 -56.290361960405448 -41.382483843319278 0 0 0 0 345.15227579255588 50.519810416659766 0 50.519810416659766 -56.849712463965602 0 0 0 0 309.89955350793025 -110.90726783725677 0 -110.90726783725677 -40.166363323617631 0 0 0 0 226.40659978144686 4.1223872935372583 0 4.1223872935372583 26.97889925045456 0 0 0 0 160.18745733310061 3.6841072672277733 0 3.6841072672277733 110.00986259097704 0 0 0 0 168.54787980040419 -70.774845390663359 0 -70.774845390663359 130.94229540407105 0 0 0 0 94.169229003819055 22.350356587715169 0 22.350356587715169 105.29202656315829 0 0 0 0 283.10045731899299 -106.12298524598395 0 -106.12298524598395 96.700040080257168 0 0 0 0 56.244823077700858 28.306625088446253 0 28.306625088446253 12.988364216425907 0 0 0 0 -0.64934638995013749 -1.1156172204348991 0 -1.1156172204348991 -0.97021050100330797 0 0 0 0 67.697993833062355 -4.8486250949245004 0 -4.8486250949245004 92.972480565694241 0 0 0 0 130.28255748814991 19.923169306182444 0 19.923169306182444 -20.92106048223468 0 0 0 0 607.11366567481309 -27.787952758777919 0 -27.787952758777919 -168.99610644590575 0 0 0 0 365.51924340586993 47.138939239960564 0 47.138939239960564 -49.93301498955816 0 0 0 0 542.45943591625837 -46.273292802811739 0 -46.273292802811739 -72.094049460484712 0 0 0 0 372.52409413269197 -212.43502665577671 0 -212.43502665577671 -95.133290774714624 0 0 0 0 808.64971692419203 -402.77068253655671 0 -402.77068253655671 -22.614721699459551 0 0 0 0 806.45093308342257 -1276.2549383132491 0 -1276.2549383132491 1085.9857141758075 0 0 0 0 -310.00707878836693 -235.19362335344704 0 -235.19362335344704 367.63667296687527 0 0 0 0 1265.9054757042904 115.45513797644162 0 115.45513797644162 -245.83270242708795 0 0 0 0 572.51213576528244 324.58772319174841 0 324.58772319174841 -10.753879074456563 0 0 0 0 20.737758018253032 -5.2906133592260947 0 -5.2906133592260947 1.9660675107254946 0 0 0 0 563.91794642093009 49.474711078832115 0 49.474711078832115 -235.99350318035158 0 0 0 0 575.6767954727984 130.2452176150864 0 130.2452176150864 -19.706044343005487 0 0 0 0 190.00518830085639 -596.55641970684701 0 -596.55641970684701 1430.0653213651458 0 0 0 0 589.46516042851727 -496.78486173283454 0 -496.78486173283454 154.62177614063239 0 0 0 0 1031.9666402094736 -1109.6605499736925 0 -1109.6605499736925 778.19141824254984 0 0 0 0 746.98240933493071 972.62263617864801 0 972.62263617864801 -288.90851248697618 0 0 0 0 1756.5043165477255 -359.95128105551794 0 -359.95128105551794 -209.32950186990274 0 0 0 0 167.54038414313982 6.4889939317995413 0 6.4889939317995413 -569.26226746267821 0 0 0 0 -598.73038582361187 434.931451029453 0 434.931451029453 146.88677104508861 0 0 0 0 445.86167493999528 255.09539108645731 0 255.09539108645731 -374.99760974286414 0 0 0 0 -1.8160367223658795 0.91394705864480486 0 0.91394705864480486 -3.470837203535698 0 0 0 0 426.56894553206803 -84.57633807890943 0 -84.57633807890943 -396.4266412047416 0 0 0 0 478.94381106946093 -509.22638909220632 0 -509.22638909220632 154.48387387787443 0 0 0 0 706.47983638400547 -488.26853101573556 0 -488.26853101573556 -307.62991390486059 0 0 0 0 89.646703434191295 11.683835505197749 0 11.683835505197749 -18.65755443496505 0 0 0 0 89.289445610604162 19.118010970699515 0 19.118010970699515 -36.302957086445531 0 0 0 0 68.926943677492091 -25.480609037225804 0 -25.480609037225804 -4.392904568629092 0 0 0 0 60.216759850038216 19.703624113057231 0 19.703624113057231 -41.326300136850477 0 0 0 0 2.5301822819440964 3.8495120388158739 0 3.8495120388158739 -14.724305338020891 0 0 0 0 16.809055150995846 6.4986445484846058 0 6.4986445484846058 -15.665761068188658 0 0 0 0 62.62649794149911 16.688053909600058 0 16.688053909600058 -43.685741564223463 0 0 0 0 63.919488278901554 15.218301663712737 0 15.218301663712737 -35.95600998077316 0 0 0 0 55.925361805886496 19.323075433119811 0 19.323075433119811 -41.062439101360724 0 0 0 0 64.211997829159372 41.724262869438462 0 41.724262869438462 -47.697028394384688 0 0 0 0 77.371248235314852 17.356615633221736 0 17.356615633221736 -40.914789615982954 0 0 0 0 25.742010021698661 16.497260893969724 0 16.497260893969724 -15.962677696601531 0 0 0 0 44.052525352104567 25.151611509969371 0 25.151611509969371 -44.564747133588753 0 0 0 0 32.142774429942136 5.5677209922049791 0 5.5677209922049791 -6.6141586776481169 0 0 0 0 21.4264884206641 6.2444244254197656 0 6.2444244254197656 -24.048570973698588 0 0 0 0 71.005715435545426 12.473578152844311 0 12.473578152844311 -26.385817488393513 0 0 0 0 10.164933176114573 11.199620763087751 0 11.199620763087751 -3.746690608906647 0 0 0 0 38.333638942636355 17.494957473054917 0 17.494957473054917 0.12283113669618384 0 0 0 0 51.811342871726424 22.871492304313563 0 22.871492304313563 -1.8250732873678288 0 0 0 0 8.769136203404571 7.7578777038822864 0 7.7578777038822864 3.6572359797307143 0 0 0 0 36.52001879371528 22.601442778838532 0 22.601442778838532 -0.036117474371678782 0 0 0 0 9.8015649898443371 16.881525910257551 0 16.881525910257551 -33.749692071292884 0 0 0 0 28.156735074024425 17.160917750119228 0 17.160917750119228 -8.8210153599519412 0 0 0 0 24.493325667703175 20.473771968716392 0 20.473771968716392 -13.826934629727475 0 0 0 0 25.268289555597136 10.067877622843646 0 10.067877622843646 -1.024692678394405 0 0 0 0 13.940476889376498 14.858720732130692 0 14.858720732130692 -0.57047451748830658 0 0 0 0 25.348784023968619 3.6992740436437543 0 3.6992740436437543 6.1619075751631271 0 0 0 0 15.37927902716728 18.664695859376565 0 18.664695859376565 -10.178565154790453 0 0 0 0 79.135049742634521 17.080128527054228 0 17.080128527054228 -16.151467560784102 0 0 0 0 18.182492921424988 1.1813015676162735 0 1.1813015676162735 0.13796373212298141 0 0 0 0 64.321627413578881 19.9322071521004 0 19.9322071521004 -17.247657553180261 0 0 0 0 -31.745214563794434 -16.851700145532448 0 -16.851700145532448 -29.843612506985664 0 0 0 0 55.176878155063605 16.870022840465737 0 16.870022840465737 -35.020549394625903 0 0 0 0 45.470042720298807 40.664932435039148 0 40.664932435039148 -60.058354005639444 0 0 0 0 -5.4112602985551348 -19.497772130518342 0 -19.497772130518342 -15.06792808678756 0 0 0 0 314.38422696104681 -204.04684486510712 0 -204.04684486510712 62.672826391360331 0 0 0 0 217.30764509057917 -42.497617285802676 0 -42.497617285802676 -17.375891562225661 0 0 0 0 426.0006650967407 -123.05533305266886 0 -123.05533305266886 -5.1654546760125868 0 0 0 0 439.06907639274141 -266.88076773616081 0 -266.88076773616081 -27.82282191044078 0 0 0 0 6.9833194971618582 6.4981804370718521 0 6.4981804370718521 -5.8956275269285152 0 0 0 0 46.184459603158757 64.315042019540897 0 64.315042019540897 31.199013941793169 0 0 0 0 97.804688967094989 40.733658837217945 0 40.733658837217945 -68.953923667071763 0 0 0 0 -26.038896553925042 13.918275072141363 0 13.918275072141363 -118.05599686320124 0 0 0 0 -9.1980251353124913 21.481097394169208 0 21.481097394169208 0.42567613073515531 0 0 0 0 69.063809128958383 60.140117773005883 0 60.140117773005883 -97.328737731796565 0 0 0 0 34.275830099461018 2.1027688342684314 0 2.1027688342684314 20.714509118379738 0 0 0 0 62.973804904163984 2.6302873509848794 0 2.6302873509848794 -6.5556679485269065 0 0 0 0 189.72586726673762 93.968035271583176 0 93.968035271583176 -116.25251313990508 0 0 0 0 116.54978057542758 -5.3119869246225448 0 -5.3119869246225448 -57.443376561916239 0 0 0 0 77.302837627023109 -32.734152235282139 0 -32.734152235282139 -117.21397567160813 0 0 0 0 4.6036088815884568 -4.5942815269898816 0 -4.5942815269898816 -1.6527650768531721 0 0 0 0 -5.8488287338841474 62.810760134173464 0 62.810760134173464 -5.8423428333951009 0 0 0 0 -691.28425048809731 -22.692588136367704 0 -22.692588136367704 247.30113271564414 0 0 0 0 163.86388824686583 -67.270334513213584 0 -67.270334513213584 204.22726622630444 0 0 0 0 51.08545613988872 -2.5438589239442813 0 -2.5438589239442813 -5.1670313632708149 0 0 0 0 709.94535601972893 -86.640678578022062 0 -86.640678578022062 -42.425721736752394 0 0 0 0 34.195457419773447 -195.14087604365704 0 -195.14087604365704 229.11569784364042 0 0 0 0 2.1241529684048146 30.761581568903807 0 30.761581568903807 -16.305758624318486 0 0 0 0 329.67184475206886 -165.29401503502049 0 -165.29401503502049 62.698319586789694 0 0 0 0 383.04788720229408 -66.193625191699923 0 -66.193625191699923 133.98460300532216 0 0 0 0 273.26333202078968 -233.47092938055548 0 -233.47092938055548 232.46244438175472 0 0 0 0 292.44770925900957 -348.78385038969645 0 -348.78385038969645 98.095694012587501 0 0 0 0 404.81707023773924 -201.00530661026505 0 -201.00530661026505 -64.624409489087611 0 0 0 0 366.82229417121562 -336.21671867395912 0 -336.21671867395912 25.736816938694574 0 0 0 0 291.91235402777966 -345.81865957715718 0 -345.81865957715718 83.722508756966363 0 0 0 0 371.4750971760659 -479.89035295199301 0 -479.89035295199301 189.75071864227914 0 0 0 0 74.889905387251929 -368.89416541339824 0 -368.89416541339824 523.78068971852349 0 0 0 0 257.10751668955345 -397.05909950921932 0 -397.05909950921932 488.88387682826442 0 0 0 0 201.87361482605047 -197.17228290081312 0 -197.17228290081312 1311.0880401453078 0 0 0 0 822.94113564558938 -933.66105168512945 0 -933.66105168512945 413.49656147375708 0 0 0 0 1165.0027859475085 -620.37618532916724 0 -620.37618532916724 -83.514676789663056 0 0 0 0 7.0862662955812539 -5.1298766320617695 0 -5.1298766320617695 1.3768423085779606 0 0 0 0 95.567869613834773 -15.299295940611955 0 -15.299295940611955 176.15476686562295 0 0 0 0 804.44584248826141 -1276.8361295016894 0 -1276.8361295016894 681.15396373726026 0 0 0 0 779.60804184380686 -50.653738186385553 0 -50.653738186385553 -216.57005166900052 0 0 0 0 158.47980248331442 65.321413920999248 0 65.321413920999248 -112.76240279392448 0 0 0 0 179.58496136954636 -67.917062888923283 0 -67.917062888923283 -637.76059450842945 0 0 0 0 489.60567185758555 -9.1642927286804934 0 -9.1642927286804934 -649.10603067643842 0 0 0 0 403.47661919616803 -19.880957524308315 0 -19.880957524308315 -570.92283973203985 0 0 0 0 -538.74530677945586 201.88102595468399 0 201.88102595468399 -531.28563454803975 0 0 0 0 -38.376985714392504 349.55119678590017 0 349.55119678590017 -437.77353124604838 0 0 0 0 -345.41322607416078 118.98069152205244 0 118.98069152205244 67.843078134483903 0 0 0 0 408.46512441255254 -425.72558513410911 0 -425.72558513410911 -4.5541707787751875 0 0 0 0 520.57044469479297 -595.24409368298188 0 -595.24409368298188 249.20211136290231 0 0 0 0 777.70611648311024 -231.32846727422793 0 -231.32846727422793 -319.99361835202399 0 0 0 0 452.44916203896537 -220.59713472113327 0 -220.59713472113327 -213.27228177006964 0 0 0 0 416.51408045712742 -64.239869696314145 0 -64.239869696314145 -356.45248725732472 0 0 0 0 353.29556265342399 -321.41366515487016 0 -321.41366515487016 33.072913685291269 0 0 0 0 495.55775686794368 -255.58470523740016 0 -255.58470523740016 -125.22980218594148 0 0 0 0 227.22716566527379 -90.784397672548948 0 -90.784397672548948 -115.66900609230873 0 0 0 0 263.5472018396249 -32.427250466823352 0 -32.427250466823352 -127.10891345586788 0 0 0 0 299.34269767894875 -182.65483970587638 0 -182.65483970587638 -17.14323762946151 0 0 0 0 -67.40929425736249 61.092220210066444 0 61.092220210066444 -74.504814052122128 0 0 0 0 201.52546336165688 4.979145911976957 0 4.979145911976957 -142.72739002436992 0 0 0 0 204.9048493840819 136.37285439385414 0 136.37285439385414 -259.91049333819774 0 0 0 0 -91.17423162056366 106.39318989724052 0 106.39318989724052 -57.77918790937656 0 0 0 0 37.144824938412057 65.83743461117956 0 65.83743461117956 -45.123240494853235 0 0 0 0 27.58813439750611 6.5515369061769775 0 6.5515369061769775 -19.054544545531041 0 0 0 0 37.016876561465324 14.946022914387413 0 14.946022914387413 -19.385056325263122 0 0 0 0 21.518857268092688 -4.6029377714294242 0 -4.6029377714294242 -10.262796688934031 0 0 0 0 57.763700727961833 -20.901460130241162 0 -20.901460130241162 -8.4800274385114367 0 0 0 0 31.604221439585018 -3.1659410107684351 0 -3.1659410107684351 -9.4883390098015212 0 0 0 0 8.5331568093970418 12.508389461924708 0 12.508389461924708 -20.470027997558645 0 0 0 0 6.9973918654184786 13.427577717900228 0 13.427577717900228 -11.519825094711212 0 0 0 0 6.8053763420124938 -3.4638803734513743 0 -3.4638803734513743 -2.1598415156374209 0 0 0 0 81.904874858038966 43.134834142454565 0 43.134834142454565 -91.088400483105488 0 0 0 0 139.48285118215426 -36.278288199782764 0 -36.278288199782764 -47.135771914567158 0 0 0 0 47.11280711350264 23.567072127820211 0 23.567072127820211 -60.682949855230618 0 0 0 0 103.36902306138654 -56.135383359548541 0 -56.135383359548541 -38.05633628472242 0 0 0 0 157.09831777616637 -91.981873245485076 0 -91.981873245485076 -6.8866379906310158 0 0 0 0 55.447047490428304 -66.128489264477025 0 -66.128489264477025 56.033334592450046 0 0 0 0 196.1834160281287 -167.69314803545603 0 -167.69314803545603 57.465788086647152 0 0 0 0 145.90831528527633 -192.8915217151075 0 -192.8915217151075 90.26993273214066 0 0 0 0 54.197127965220716 -8.3239407590899646 0 -8.3239407590899646 165.63628623846307 0 0 0 0 6.775354332436109 -147.03649414223946 0 -147.03649414223946 730.84846075145288 0 0 0 0 348.51033275111695 -613.28474577260931 0 -613.28474577260931 530.9971909288829 0 0 0 0 214.86851649353048 -302.97017191989289 0 -302.97017191989289 256.59546019022127 0 0 0 0 447.93711591769534 -350.9695538724045 0 -350.9695538724045 -140.97327838082765 0 0 0 0 389.81083421969379 -414.5494223906453 0 -414.5494223906453 129.383837741756 0 0 0 0 186.45231212662475 -361.21094603817346 0 -361.21094603817346 146.46897256902594 0 0 0 0 303.99378941164468 -317.08268237891866 0 -317.08268237891866 76.994464980212797 0 0 0 0 223.53753204332315 -230.72146728426378 0 -230.72146728426378 5.349269488407117 0 0 0 0 282.2058129584766 -318.23004183971352 0 -318.23004183971352 109.7700776242873 0 0 0 0 0.67656714675073992 2.8096374171426817 0 2.8096374171426817 5.0373084001441342 0 0 0 0 10.121238721148984 6.1584593262973613 0 6.1584593262973613 8.3731670705383294 0 0 0 0 -22.272673201587168 -3.314169804397352 0 -3.314169804397352 36.124705559899667 0 0 0 0 11.40013877992169 6.8444130647058046 0 6.8444130647058046 5.8656010900922411 0 0 0 0 14.221198214378092 4.7560873155371155 0 4.7560873155371155 5.2066433907675673 0 0 0 0 15.615746169314662 6.9673616694253724 0 6.9673616694253724 1.9994642814672261 0 0 0 0 13.475967575737741 8.9679021677638957 0 8.9679021677638957 7.7794732692200341 0 0 0 0 13.96869593761221 9.2040832743032297 0 9.2040832743032297 3.5755913592547586 0 0 0 0 10.866877035354264 9.0721422568076378 0 9.0721422568076378 11.397012281122443 0 0 0 0 11.278149001067504 8.6665952304410894 0 8.6665952304410894 10.269563313180697 0 0 0 0 11.606165312987287 8.6187137033230101 0 8.6187137033230101 8.5300185403648356 0 0 0 0 11.513266226364067 9.5303444367127668 0 9.5303444367127668 10.291096602864855 0 0 0 0 257.31477999442723 296.63347129049362 0 296.63347129049362 215.52762927435833 0 0 0 0 31.942485130042769 -31.807448978554021 0 -31.807448978554021 0.76045860788872233 0 0 0 0 3.9825892598927055 1.6075374859263363 0 1.6075374859263363 -0.92640896319404575 0 0 0 0 239.03181628620951 188.93025537941321 0 188.93025537941321 270.6604045625877 0 0 0 0 343.75706242889282 73.055455342528148 0 73.055455342528148 391.52167873784674 0 0 0 0 153.68989854838583 -18.968567347872522 0 -18.968567347872522 2.106697764733326 0 0 0 0 25.743593083607266 19.716280489114979 0 19.716280489114979 17.66345478986841 0 0 0 0 47.728031612394261 -15.710326364514003 0 -15.710326364514003 35.433332506843726 0 0 0 0 53.216375221993076 13.338869192655693 0 13.338869192655693 22.504984792471078 0 0 0 0 50.763880864144085 -11.763383967143568 0 -11.763383967143568 25.051889862854296 0 0 0 0 270.69186830695253 73.285538873440601 0 73.285538873440601 -6.2041486920224997 0 0 0 0 338.35590430782759 35.974655394868023 0 35.974655394868023 -15.44945985812592 0 0 0 0 135.9053274061589 -3.8442795031205605 0 -3.8442795031205605 11.094227417193906 0 0 0 0 125.10055854012899 28.161324488655282 0 28.161324488655282 0.21606233529018937 0 0 0 0 84.049338987053488 67.636139779111545 0 67.636139779111545 10.184162660814764 0 0 0 0 1.6005594637535978 -13.045104824861482 0 -13.045104824861482 27.004530571844043 0 0 0 0 128.44594508838782 15.941075659527087 0 15.941075659527087 -6.340052908512007 0 0 0 0 55.139014687170857 -41.635129693653653 0 -41.635129693653653 -32.748138012890195 0 0 0 0 20.091205606877338 12.299052643071263 0 12.299052643071263 11.601841577820778 0 0 0 0 10.576326236317982 3.544543018285367 0 3.544543018285367 7.2797136115113972 0 0 0 0 17.048050413810415 24.919357555027091 0 24.919357555027091 -39.500876044987308 0 0 0 0 -33.590025070232514 16.18540780055946 0 16.18540780055946 34.523031029182675 0 0 0 0 11.263188073819038 1.7519915128059438 0 1.7519915128059438 7.1011135043590912 0 0 0 0 15.725067182240309 1.9572654905714444 0 1.9572654905714444 6.2879836971551413 0 0 0 0 13.984049021993997 4.0091784463857039 0 4.0091784463857039 5.4000109619519208 0 0 0 0 12.239459973876365 3.5920435559164616 0 3.5920435559164616 6.9703463545301929 0 0 0 0 12.494658807001542 2.5192662321278476 0 2.5192662321278476 6.6267585293571756 0 0 0 0 3.2337758351504249 3.5080502540188618 0 3.5080502540188618 -0.46540483350836581 0 0 0 0 1.1513905598840211 11.55153648459418 0 11.55153648459418 10.765256898805092 0 0 0 0 13.920708772042417 0.25762159373971372 0 0.25762159373971372 5.323087132168439 0 0 0 0 43.61846217920538 7.4684165626745198 0 7.4684165626745198 -16.387119447912482 0 0 0 0 34.014525278937072 17.013356085525629 0 17.013356085525629 -4.6815713445757865 0 0 0 0 -12.078737552263192 24.202405279173945 0 24.202405279173945 21.278646360154198 0 0 0 0 24.674975953093963 0.78983886831156269 0 0.78983886831156269 2.7242780061751546 0 0 0 0 17.450018187926617 0.4417772890528795 0 0.4417772890528795 5.3285603799813543 0 0 0 0 18.337982777244179 5.3329712542890775 0 5.3329712542890775 2.8486743110406678 0 0 0 0 2.3750462257394247 -2.1931195671495516 0 -2.1931195671495516 -34.835789119464607 0 0 0 0 -8.0485342157771811 36.846062763477676 0 36.846062763477676 55.749932373559204 0 0 0 0 3.1395055518812569 0.94094499035004731 0 0.94094499035004731 -1.2863057577104549 0 0 0 0 -14.554829995715409 36.759131424510997 0 36.759131424510997 -7.8758309538875437 0 0 0 0 2.1081564272390096 14.25180413247972 0 14.25180413247972 11.557211744635424 0 0 0 0 10.589588761708001 25.017022882952006 0 25.017022882952006 -4.500736541118556 0 0 0 0 -3.7760844103104318 24.258321432475896 0 24.258321432475896 12.791591968076318 0 0 0 0 10.04818956379313 13.952694295912806 0 13.952694295912806 7.6494655118367518 0 0 0 0 18.515206710158964 13.915883129540816 0 13.915883129540816 6.7027949770817941 0 0 0 0 2.315921676447033 16.214795981547468 0 16.214795981547468 11.15486263706407 0 0 0 0 2.3544197859137057 15.417743868720947 0 15.417743868720947 18.694131978905716 0 0 0 0 15.08468889562937 27.157774945950223 0 27.157774945950223 18.304464143469886 0 0 0 0 -8.6325568264292087 -8.8890647170337616 0 -8.8890647170337616 24.846158191935046 0 0 0 0 -5.2774372696294449 15.335162200266495 0 15.335162200266495 23.324853770747723 0 0 0 0 -6.2681558662497991 21.253237640765974 0 21.253237640765974 52.874504845014599 0 0 0 0 -14.301154438915546 -8.0698366859369344 0 -8.0698366859369344 57.627829462318914 0 0 0 0 -0.34653382938358845 -2.4288738527805904 0 -2.4288738527805904 2.8227048280570202 0 0 0 0 2.7144792987892288 41.662793741950736 0 41.662793741950736 37.23463905117751 0 0 0 0 -66.835246309325157 1.4791764612946281 0 1.4791764612946281 123.85715197489844 0 0 0 0 122.06335804962146 -73.898678783234573 0 -73.898678783234573 -24.757347405207838 0 0 0 0 35.123981885695684 70.74088043056463 0 70.74088043056463 71.019150694308337 0 0 0 0 132.59146138814685 129.07226246777464 0 129.07226246777464 25.849088768547517 0 0 0 0 382.12065066078503 157.33037982646965 0 157.33037982646965 85.74955425699045 0 0 0 0 145.78093336343591 243.40707237044444 0 243.40707237044444 221.56506310658051 0 0 0 0 54.285055465385085 140.54384546580695 0 140.54384546580695 197.29183336264941 0 0 0 0 111.07756721650367 154.94441060310965 0 154.94441060310965 64.749658717468265 0 0 0 0 112.95891407901217 151.62418247982714 0 151.62418247982714 61.05903600954116 0 0 0 0 129.94001292667235 190.67371959309457 0 190.67371959309457 125.10316369006614 0 0 0 0 -1.3387926151787894 -0.13700920616761181 0 -0.13700920616761181 2.4087923206550315 0 0 0 0 5.8740080646093702 13.168630332535031 0 13.168630332535031 12.555262705427594 0 0 0 0 84.135543840151513 65.988786291032739 0 65.988786291032739 19.668534869112818 0 0 0 0 100.29811583150877 149.60042109352071 0 149.60042109352071 62.482834029406149 0 0 0 0 174.84143616826623 216.50437047755622 0 216.50437047755622 90.469503698592234 0 0 0 0 104.4468098014695 168.1720488369474 0 168.1720488369474 58.959243590768892 0 0 0 0 48.985422722340445 218.84964780302926 0 218.84964780302926 230.44959176726115 0 0 0 0 56.512796121067367 242.38981106689607 0 242.38981106689607 259.07242480941932 0 0 0 0 85.052640205125499 169.42201801193642 0 169.42201801193642 134.50152964650624 0 0 0 0 56.512796120776329 242.38981106689607 0 242.38981106689607 259.07242480943387 0 0 0 0 56.512796120718122 242.38981106678693 0 242.38981106678693 259.07242480939021 0 0 0 0 -9.6640550103329588 108.8125722504501 0 108.8125722504501 119.08636710292376 0 0 0 0 438.81781604514981 112.77445346722266 0 112.77445346722266 -5.5250343998886819 0 0 0 0 393.51430189539678 281.73984704289705 0 281.73984704289705 117.59803112822556 0 0 0 0 266.77412092337727 24.315801924269408 0 24.315801924269408 -39.493371185573778 0 0 0 0 261.28360786370467 188.25884443419636 0 188.25884443419636 55.400299089069449 0 0 0 0 175.90383528091479 239.9506109783506 0 239.9506109783506 182.23993044369854 0 0 0 0 179.38700739352498 244.69443324568419 0 244.69443324568419 174.43996031979259 0 0 0 0 296.7068730503961 188.37471766364251 0 188.37471766364251 53.77534954893963 0 0 0 0 202.25442126492271 126.22093352828006 0 126.22093352828006 13.194291646173951 0 0 0 0 150.50529117404949 153.87020137164836 0 153.87020137164836 58.455413606221555 0 0 0 0 97.436175604059827 86.823079530324321 0 86.823079530324321 19.976978928219978 0 0 0 0 200.14073609383195 47.934077620871903 0 47.934077620871903 -56.441147892421213 0 0 0 0 -3.5401260064099915 -33.872934162141974 0 -33.872934162141974 -90.728650141778417 0 0 0 0 114.2291723283779 -20.257766930367325 0 -20.257766930367325 -61.157720171579058 0 0 0 0 13.050781254089543 -9.2343854260823335 0 -9.2343854260823335 -6.6182501584956537 0 0 0 0 20.180765038967365 88.866634252730364 0 88.866634252730364 131.23467323731165 0 0 0 0 31.480165144114039 -4.6395745606287306 0 -4.6395745606287306 -28.613685728712138 0 0 0 0 102.58510470126566 85.365736803035247 0 85.365736803035247 31.239011731380742 0 0 0 0 64.002020774725679 -42.334781575233364 0 -42.334781575233364 -4.9608524611921894 0 0 0 0 87.976134055992588 86.352764598002977 0 86.352764598002977 43.544260753113122 0 0 0 0 -11.811655916273594 816.16832632212027 0 816.16832632212027 -456.48051659365956 0 0 0 0 35.208321074998821 173.56889363081154 0 173.56889363081154 230.0634008827119 0 0 0 0 79.126752265248797 40.5822986892872 0 40.5822986892872 8.6006469881153862 0 0 0 0 15.728453684598207 64.863825935438399 0 64.863825935438399 102.49491527462487 0 0 0 0 122.77471331917332 120.25946515689793 0 120.25946515689793 39.92728751192044 0 0 0 0 128.93392716032395 108.96061861234739 0 108.96061861234739 49.305170634754177 0 0 0 0 283.70075943993288 152.62386065746068 0 152.62386065746068 46.325789253616676 0 0 0 0 57.702130559977775 17.797215726137967 0 17.797215726137967 -0.63046417639663233 0 0 0 0 5.7637276062708054 -10.926116097235138 0 -10.926116097235138 -9.3367785326730495 0 0 0 0 112.76383926365088 -15.465128690400434 0 -15.465128690400434 -230.95854192260049 0 0 0 0 8.9522812300274381 -56.460428686624255 0 -56.460428686624255 -47.238271511323092 0 0 0 0 51.660293492284836 232.36721343039608 0 232.36721343039608 257.13878377627043 0 0 0 0 100.69139274096233 51.378200841036232 0 51.378200841036232 -29.550496363322964 0 0 0 0 31.715412285600038 -10.124442168393998 0 -10.124442168393998 -29.772709354655113 0 0 0 0 151.81766397508909 -56.970452964116703 0 -56.970452964116703 3.3743135212816924 0 0 0 0 -65.574177263493766 -72.588864426450527 0 -72.588864426450527 49.652917625804548 0 0 0 0 26.880748117167968 3.4045797807352756 0 3.4045797807352756 4.5925941385330589 0 0 0 0 16.613546144230142 7.0141503484208272 0 7.0141503484208272 -17.736055178363873 0 0 0 0 143.33498703275109 -4.4123785448700801 0 -4.4123785448700801 -18.020992745191506 0 0 0 0 58.661861381850031 6.439503746984883 0 6.439503746984883 -54.669808792472395 0 0 0 0 86.84008975699544 -37.269723923401216 0 -37.269723923401216 6.3953549530097007 0 0 0 0 36.512405185130774 59.586423332648337 0 59.586423332648337 34.266952657581442 0 0 0 0 279.58797903185769 105.96991386437247 0 105.96991386437247 9.4287052914696687 0 0 0 0 221.85095265548443 90.403202944822624 0 90.403202944822624 8.6170209033189167 0 0 0 0 -1039.6620682843495 -135.91792311812242 0 -135.91792311812242 410.23006826730671 0 0 0 0 117.61854578557541 109.70566500882751 0 109.70566500882751 177.27348972213576 0 0 0 0 53.765814915430383 -4.0507040036241051 0 -4.0507040036241051 -6.1902147491700816 0 0 0 0 4.7619252470023241 6.8825931592254719 0 6.8825931592254719 2.0535373916390434 0 0 0 0 319.0638916821772 144.63129092886675 0 144.63129092886675 36.343586869229512 0 0 0 0 5.0395857380039502 0.72622277652936162 0 0.72622277652936162 -1.1926851170077564 0 0 0 0 57.258944915301271 18.838315137300889 0 18.838315137300889 2.4766068899615963 0 0 0 0 12.687807091337163 18.221624792926377 0 18.221624792926377 -8.9202836288422986 0 0 0 0 993.05493369618489 484.35820525175495 0 484.35820525175495 80.391421720572907 0 0 0 0 72.524085326876957 28.510598802764434 0 28.510598802764434 -35.272978812804922 0 0 0 0 74.459006425080588 30.483585334946838 0 30.483585334946838 -59.338090630973966 0 0 0 0 23.470379523129509 10.704835532209913 0 10.704835532209913 -6.9699916722072466 0 0 0 0 66.025548039848218 35.377328338530788 0 35.377328338530788 -39.286690583710879 0 0 0 0 75.680886426751385 41.100193522276641 0 41.100193522276641 -36.745910530473338 0 0 0 0 83.537338819525758 38.044627821117274 0 38.044627821117274 -47.402146458782227 0 0 0 0 77.025598510183045 43.332517274972815 0 43.332517274972815 -38.180884379267354 0 0 0 0 45.891831280459883 43.335744876782883 0 43.335744876782883 -28.70420164915231 0 0 0 0 46.708373423549801 28.457910547262941 0 28.457910547262941 3.6775554644136719 0 0 0 0 80.559398986501037 61.852414147893796 0 61.852414147893796 -18.815018076573324 0 0 0 0 -18.974897799744213 47.162589252418456 0 47.162589252418456 4.6135351566445024 0 0 0 0 111.67018133998499 87.814599074150465 0 87.814599074150465 -62.142725987941958 0 0 0 0 17.499633305691532 95.120812637379913 0 95.120812637379913 -26.978063538794231 0 0 0 0 121.66851743400912 18.706594681142633 0 18.706594681142633 -21.702107928547775 0 0 0 0 100.44810603071528 50.729630041352266 0 50.729630041352266 -37.705294297362343 0 0 0 0 2.7578002125282524 -0.38596462223785721 0 -0.38596462223785721 -2.3844132340593998 0 0 0 0 228.72946840393706 213.50354787818105 0 213.50354787818105 231.66559002924987 0 0 0 0 113.68402742830222 136.06838340883405 0 136.06838340883405 179.54942549178304 0 0 0 0 48.357781748884008 24.928587897972648 0 24.928587897972648 -10.623438310822394 0 0 0 0 32.143633686973772 21.68415370955654 0 21.68415370955654 38.208087677730873 0 0 0 0 8.9650821523633226 3.9222122530618009 0 3.9222122530618009 -3.7907945236643386 0 0 0 0 175.98985838206136 153.82778459433302 0 153.82778459433302 69.937849246585756 0 0 0 0 106.66326934736571 70.157928023741306 0 70.157928023741306 -30.986386928344473 0 0 0 0 1.0153041973587449 -0.2202793570047703 0 -0.2202793570047703 -2.2925173095513074 0 0 0 0 176.52909251504025 157.55113623560874 0 157.55113623560874 33.954370289833605 0 0 0 0 185.51248933418537 164.88780483092341 0 164.88780483092341 39.074836300979769 0 0 0 0 334.73510426038411 227.59089280515036 0 227.59089280515036 58.906051931155162 0 0 0 0 175.72155800650944 95.470038859692067 0 95.470038859692067 11.73441958627518 0 0 0 0 154.11094084792421 140.90301915372947 0 140.90301915372947 56.296743691553274 0 0 0 0 34.40790532232495 -30.863448655793945 0 -30.863448655793945 -81.815615327186151 0 0 0 0 6.7034668351435016 0.79861694609304124 0 0.79861694609304124 -1.7733384721541796 0 0 0 0 122.34325960891147 126.78848523641591 0 126.78848523641591 78.34548510737477 0 0 0 0 131.37061089454801 132.03255960094339 0 132.03255960094339 53.318272491541393 0 0 0 0 131.37352338909744 135.30181230622773 0 135.30181230622773 180.30228201288082 0 0 0 0 201.33073045605852 318.376490384725 0 318.376490384725 166.25872109913144 0 0 0 0 256.24324673684896 229.62639778159064 0 229.62639778159064 -15.194550066124066 0 0 0 0 123.8625328555645 314.28554319711611 0 314.28554319711611 393.27633577064898 0 0 0 0 47.656076149680302 -52.967537198181162 0 -52.967537198181162 -99.852309062330278 0 0 0 0 3.2569484377357867 1.2956748342665207 0 1.2956748342665207 -1.2980253626320284 0 0 0 0 1.6086577957466943 49.9532691966524 0 49.9532691966524 97.499096387962709 0 0 0 0 0.69720843056109061 1.3816178879555387 0 1.3816178879555387 -0.79150454063615072 0 0 0 0 42.753718553605722 74.816142079668225 0 74.816142079668225 -34.000393038072616 0 0 0 0 106.01017881313601 42.677576266272354 0 42.677576266272354 32.717959961157248 0 0 0 0 134.0113643102668 11.842734155895414 0 11.842734155895414 45.96361217021331 0 0 0 0 145.36303117584612 -11.378706560720275 0 -11.378706560720275 26.114636100895041 0 0 0 0 90.203120977603248 32.711007932268785 0 32.711007932268785 147.23232836115039 0 0 0 0 155.66144157398958 95.353276741089758 0 95.353276741089758 146.32035152452727 0 0 0 0 161.65936724503399 77.65654010182962 0 77.65654010182962 105.05629985035375 0 0 0 0 184.33816901996033 87.418511178623703 0 87.418511178623703 60.443195380404632 0 0 0 0 180.22381817845235 109.8863685360991 0 109.8863685360991 103.09896098330319 0 0 0 0 145.3471994391366 29.536644440255941 0 29.536644440255941 62.107387735668453 0 0 0 0 136.81900460910401 46.472372461034865 0 46.472372461034865 68.565785385831646 0 0 0 0 195.2296452145456 116.52993797268618 0 116.52993797268618 83.560393252985705 0 0 0 0 182.1273174360831 66.216293838344654 0 66.216293838344654 68.538688970574185 0 0 0 0 50.871324182764511 29.758365637116867 0 29.758365637116867 10.464189186893691 0 0 0 0 69.248780250760319 0.10980970217883623 0 0.10980970217883623 -135.80632690809216 0 0 0 0 73.159757880217512 -10.753754480439511 0 -10.753754480439511 44.366319753358084 0 0 0 0 197.81815355662366 46.782285402096647 0 46.782285402096647 -34.221591044134584 0 0 0 0 64.316510532458778 9.3811587578322815 0 9.3811587578322815 81.895761950829637 0 0 0 0 46.229897540877573 -6.7640247312529027 0 -6.7640247312529027 95.078280896365527 0 0 0 0 46.833351599911111 -22.570536282396006 0 -22.570536282396006 87.70518457156868 0 0 0 0 34.926913813422289 30.217717678120437 0 30.217717678120437 16.900081941382268 0 0 0 0 83.618819128736504 -39.916996902895335 0 -39.916996902895335 79.240172877077839 0 0 0 0 9.8497361634144909 -11.775212297492772 0 -11.775212297492772 -5.3175543574461699 0 0 0 0 39.276333187546697 51.74421805093516 0 51.74421805093516 100.29186174427991 0 0 0 0 -187.45142187891906 62.842073881582792 0 62.842073881582792 202.32596703214176 0 0 0 0 -0.10932157328143077 -1.1300414421703522 0 -1.1300414421703522 1.3940766470531205 0 0 0 0 307.66568465364981 160.52606743348701 0 160.52606743348701 31.81448122183474 0 0 0 0 1.4628491112763236 -0.43901011558713776 0 -0.43901011558713776 3.0655998607451451 0 0 0 0 4.2738752373252282 39.858206301617443 0 39.858206301617443 73.380969997570901 0 0 0 0 -23.25700565664738 36.240136796857769 0 36.240136796857769 -33.143096356831848 0 0 0 0 20.343915661316714 -13.670923455984394 0 -13.670923455984394 -17.255370626377498 0 0 0 0 19.026193670535577 52.658773263338844 0 52.658773263338844 -35.10722024375309 0 0 0 0 36.41325821079954 21.570869824305191 0 21.570869824305191 0.74086994462231814 0 0 0 0 1.5336128012926338 3.4789323649757478 0 3.4789323649757478 -0.2629966423373471 0 0 0 0 29.431965612318891 38.426340218584301 0 38.426340218584301 -17.08660297843744 0 0 0 0 15.224050387012539 22.039173039597699 0 22.039173039597699 21.34760188747623 0 0 0 0 3.0353337850274489 5.2360327515226288 0 5.2360327515226288 1.7300061209581123 0 0 0 0 17.676973522320623 5.154820809987541 0 5.154820809987541 -11.317129356977603 0 0 0 0 13.977778833660977 6.7167530834596789 0 6.7167530834596789 4.1028062875229807 0 0 0 0 5.8010585185256787 9.8904603848404804 0 9.8904603848404804 5.7363573445418297 0 0 0 0 3.9720077302574737 4.3568610682090423 0 4.3568610682090423 -1.0326716271834684 0 0 0 0 3.3373850348616543 17.457556413054078 0 17.457556413054078 15.910867445631084 0 0 0 0 3.2042919192800827 6.8097187876438738 0 6.8097187876438738 3.3684008436142534 0 0 0 0 49.150718131364556 -28.233940318924397 0 -28.233940318924397 -51.447952081923631 0 0 0 0 10.124717256210715 2.1358287708455563 0 2.1358287708455563 -1.3073042545134292 0 0 0 0 68.390058573597344 26.396700457851693 0 26.396700457851693 -46.108540347948292 0 0 0 0 39.611185705376556 88.440537675936866 0 88.440537675936866 61.396641432762408 0 0 0 0 -60.056718107793131 2.9265996649210138 0 2.9265996649210138 48.889219018899894 0 0 0 0 27.026117923829588 0.72487130101444563 0 0.72487130101444563 -71.68952180974884 0 0 0 0 10.634201235394073 0.60342014727594062 0 0.60342014727594062 -1.047880275727378 0 0 0 0 -4.2229643447644776 49.656482283329751 0 49.656482283329751 -22.493880425458883 0 0 0 0 4.0514865565928631 0.69671083435514447 0 0.69671083435514447 31.818383309978344 0 0 0 0 5.3808575553337903 2.9246038185305139 0 2.9246038185305139 -1.0729245215156524 0 0 0 0 30.58576402223116 22.80782720789739 0 22.80782720789739 -8.1924793072830653 0 0 0 0 11.437522245978471 28.467350936177354 0 28.467350936177354 16.731299487827528 0 0 0 0 3.9669951549440157 6.769496009624163 0 6.769496009624163 -4.1088185360574698 0 0 0 0 13.02341041339804 0.98749148558992417 0 0.98749148558992417 -0.45783953616026452 0 0 0 0 18.871199797620648 12.629158306233876 0 12.629158306233876 -15.754841383326493 0 0 0 0 -36.254603395209415 -44.198835628536472 0 -44.198835628536472 -17.390436128474448 0 0 0 0 -141.73573912073334 174.1307212842321 0 174.1307212842321 383.30708722311783 0 0 0 0 328.35984738047227 223.9098221187536 0 223.9098221187536 45.55901327347965 0 0 0 0 489.00500102636579 53.510151709661386 0 53.510151709661386 -149.25990178060329 0 0 0 0 285.69367795783 5.7740215943542239 0 5.7740215943542239 -42.680463835991759 0 0 0 0 123.5042123909916 -37.515472771575674 0 -37.515472771575674 -16.262559932425575 0 0 0 0 30.739361981875845 11.047909827456806 0 11.047909827456806 30.411756095060809 0 0 0 0 107.30457394709811 140.43684384594872 0 140.43684384594872 29.902305539108738 0 0 0 0 83.649311470362591 70.417265248484 0 70.417265248484 -1.8087774241525949 0 0 0 0 187.92108973144059 107.56784802669085 0 107.56784802669085 10.864667589381497 0 0 0 0 97.253966219970607 60.342902644072183 0 60.342902644072183 3.5850346197521503 0 0 0 0 77.320625564534566 126.18297946054736 0 126.18297946054736 46.993191262175969 0 0 0 0 88.879099300917005 105.42415118244071 0 105.42415118244071 71.132605783022882 0 0 0 0 223.36828927355236 91.133596954583481 0 91.133596954583481 11.037046606348667 0 0 0 0 32.702203187975101 69.628507465546136 0 69.628507465546136 52.285037593688685 0 0 0 0 43.470271329191746 136.80812360066602 0 136.80812360066602 135.75896558542081 0 0 0 0 171.59455322242866 218.98098153714864 0 218.98098153714864 170.45899030718692 0 0 0 0 10.684718149001128 -3.3793285730528169 0 -3.3793285730528169 -6.1521250287064504 0 0 0 0 60.095674132273416 53.523845935360214 0 53.523845935360214 37.867828384991753 0 0 0 0 7.7430096910569546 -1.8091002305841499 0 -1.8091002305841499 -0.3618719477402994 0 0 0 0 44.113596350092848 -14.701567307203504 0 -14.701567307203504 -18.640428350532602 0 0 0 0 8.8284808275065814 -2.7965718854452746 0 -2.7965718854452746 -1.4588945372202868 0 0 0 0 3.8767507804441266 -2.6813117708297796 0 -2.6813117708297796 -2.3595002530355487 0 0 0 0 74.722556890163105 52.596806936155645 0 52.596806936155645 34.613416786087782 0 0 0 0 8.3699706435482142 -1.4828726470958031 0 -1.4828726470958031 -0.95051401641295197 0 0 0 0 11.54115282943264 -1.2315556695542114 0 -1.2315556695542114 -0.56705736939423979 0 0 0 0 15.705301068897825 -0.81406165124599283 0 -0.81406165124599283 -1.9201338845523424 0 0 0 0 13.059857454223675 -3.0165636158653797 0 -3.0165636158653797 0.41672267007925257 0 0 0 0 7.0821997339465383 -2.2704801547391824 0 -2.2704801547391824 -0.87868920388025273 0 0 0 0 12.70820825387289 1.8475916045158556 0 1.8475916045158556 3.4583230544696368 0 0 0 0 13.357018938672866 -0.84843201238116706 0 -0.84843201238116706 -0.40736914695739301 0 0 0 0 32.615878659693408 5.7380092151670397 0 5.7380092151670397 2.5779604322390242 0 0 0 0 6.1020624796753182 -0.77919782757189182 0 -0.77919782757189182 0.63711227417965066 0 0 0 0 12.954192973958925 -4.4121475466394955 0 -4.4121475466394955 -1.1378367717156834 0 0 0 0 8.7880897109571379 0.31797041590749586 0 0.31797041590749586 -0.63777942792876274 0 0 0 0 13.253979269860281 1.0461505701577316 0 1.0461505701577316 1.6495414547410749 0 0 0 0 12.077294292508498 -1.6096279386403181 0 -1.6096279386403181 -0.55177056958900439 0 0 0 0 9.5741398429265416 -2.9478990787857384 0 -2.9478990787857384 1.2911289387591784 0 0 0 0 24.949291719458415 2.6984795505363763 0 2.6984795505363763 3.6258782135721788 0 0 0 0 16.769955662239227 0.025057399631577937 0 0.025057399631577937 3.216970196813719 0 0 0 0 31.462352009346432 0.22020687457566623 0 0.22020687457566623 1.6833020685753581 0 0 0 0 25.990591898618732 -4.1847198302153856 0 -4.1847198302153856 8.5758245043298302 0 0 0 0 15.943176208256205 -7.1895929333414585 0 -7.1895929333414585 -1.6006276203776286 0 0 0 0 35.288982680998743 9.0330512597639654 0 9.0330512597639654 2.844010708639729 0 0 0 0 9.9535426777760563 -3.8280921640842109 0 -3.8280921640842109 -0.11812258361115369 0 0 0 0 2.1142150867526652 -2.9360235167575865 0 -2.9360235167575865 -1.2723310669832699 0 0 0 0 11.643203448758868 -33.64480139749503 0 -33.64480139749503 26.012008488594347 0 0 0 0 0.90681705719561023 -1.3244146575530702 0 -1.3244146575530702 0.2960263174777058 0 0 0 0 15.115477128735392 -6.0745744534580268 0 -6.0745744534580268 -2.4661168071888682 0 0 0 0 24.408744065949577 1.0350474716240967 0 1.0350474716240967 4.0578573617649454 0 0 0 0 2.9298172194394283 -1.0521886715805522 0 -1.0521886715805522 -3.947699099529018 0 0 0 0 4.2074832131837638 0.79847669007812527 0 0.79847669007812527 -0.78512426151331294 0 0 0 0 163.86309363035252 11.015094146309821 0 11.015094146309821 242.24482546826357 0 0 0 0 2.2286217960065642 1.1049420571715629 0 1.1049420571715629 -0.18657666864871536 0 0 0 0 -56.524536977667594 141.83707804486721 0 141.83707804486721 249.28563125632627 0 0 0 0 8.3800380288157612 -1.3331522593571208 0 -1.3331522593571208 65.967412840502732 0 0 0 0 -89.920518300685217 101.62737861376593 0 101.62737861376593 -20.733667033696747 0 0 0 0 51.170551062503364 -35.091995610902131 0 -35.091995610902131 -58.067753138846456 0 0 0 0 9.0745716539968271 215.22909146924223 0 215.22909146924223 316.92338377280612 0 0 0 0 221.35472217347706 38.446566642183143 0 38.446566642183143 100.6712581756492 0 0 0 0 1.6998492047023888 1.6816417945621644 0 1.6816417945621644 -0.17771604331586965 0 0 0 0 23.62413296327577 -33.05260871550081 0 -33.05260871550081 121.83105993311699 0 0 0 0 272.03806251243805 14.25153687035845 0 14.25153687035845 -2.220703847517143 0 0 0 0 85.775338671213831 -30.439434006317995 0 -30.439434006317995 -9.4528407218165569 0 0 0 0 64.235661378566874 18.775845794527413 0 18.775845794527413 26.516670211392579 0 0 0 0 -86.038386263331631 -29.918565570466001 0 -29.918565570466001 30.185722843779928 0 0 0 0 7.981211940943556 -0.57791285830259653 0 -0.57791285830259653 -1.0084336389136244 0 0 0 0 39.663242389506195 5.6815423260474631 0 5.6815423260474631 -16.976200148689315 0 0 0 0 99.014299584639957 -104.42468781202047 0 -104.42468781202047 9.5574227388105442 0 0 0 0 9.8568784576030986 5.1943321444322521 0 5.1943321444322521 7.3063071103016473 0 0 0 0 22.398476325391471 -10.05600151588331 0 -10.05600151588331 -9.1456164904721895 0 0 0 0 29.08997283600911 -43.271723911678919 0 -43.271723911678919 -15.640877130809429 0 0 0 0 62.962143883574754 -8.8427536231974049 0 -8.8427536231974049 -26.421706328742825 0 0 0 0 53.066070795146516 11.958288248237238 0 11.958288248237238 -20.167738775001908 0 0 0 0 51.123631405003835 13.875719584529634 0 13.875719584529634 11.33819853807131 0 0 0 0 53.957327074429486 18.056789559404933 0 18.056789559404933 10.451189098762157 0 0 0 0 21.446208272027434 -2.7125431704849063 0 -2.7125431704849063 3.332725973282598 0 0 0 0 21.411974509552238 -3.1232045236317987 0 -3.1232045236317987 1.7314984706119247 0 0 0 0 14.656656603514278 -7.7732756528752702 0 -7.7732756528752702 -4.0399440346023177 0 0 0 0 25.361206413777836 -20.125245182300503 0 -20.125245182300503 -31.519344109681469 0 0 0 0 8.5758884909972082 1.6693000995163345 0 1.6693000995163345 0.13479223576637711 0 0 0 0 -20.648298740310565 30.359347386893859 0 30.359347386893859 53.637832759064622 0 0 0 0 22.100873340270482 -0.79270494130315683 0 -0.79270494130315683 0.18426197771441366 0 0 0 0 20.394700258693774 -1.4786828413781734 0 -1.4786828413781734 5.5396751008477736 0 0 0 0 15.592306254398522 2.0852705590136935 0 2.0852705590136935 1.4760777569478605 0 0 0 0 24.668173246075639 0.86698805032998649 0 0.86698805032998649 0.30320486604961161 0 0 0 0 38.820220074412646 5.5835923776345453 0 5.5835923776345453 4.8892181170203912 0 0 0 0 6.8277411482418557 -1.2007132639465397 0 -1.2007132639465397 2.917800882269133 0 0 0 0 19.529189812979894 1.3383256703595805 0 1.3383256703595805 3.4094573363601341 0 0 0 0 21.470646078218124 3.3945453854239744 0 3.3945453854239744 0.28872262733807474 0 0 0 0 18.2039580509221 1.569603157022101 0 1.569603157022101 0.21832131644183717 0 0 0 0 23.801649312073494 -2.5533536013633977 0 -2.5533536013633977 -2.716914559977444 0 0 0 0 22.371092459350393 2.0149074081323732 0 2.0149074081323732 2.5259376314839139 0 0 0 0 21.959311413083924 -1.5105936038114578 0 -1.5105936038114578 2.8331311756551827 0 0 0 0 31.655351826788319 6.4019096980929078 0 6.4019096980929078 6.8724949261300026 0 0 0 0 12.833580805902784 -8.2738562321168843 0 -8.2738562321168843 -0.15627868856962512 0 0 0 0 22.042389517315314 -1.1082443237087318 0 -1.1082443237087318 3.3604986128099892 0 0 0 0 -6.0975672661152203 75.067994651286511 0 75.067994651286511 135.25950703478208 0 0 0 0 150.296251971733 111.34898236887614 0 111.34898236887614 96.735089825861905 0 0 0 0 81.20623574712954 66.168215463884849 0 66.168215463884849 98.107519641442536 0 0 0 0 94.885415923436085 29.466230071070186 0 29.466230071070186 91.698833747859226 0 0 0 0 57.509996715132729 42.64159291263536 0 42.64159291263536 91.211471682188403 0 0 0 0 66.122071749381576 39.221387427389537 0 39.221387427389537 30.335000248625946 0 0 0 0 48.031612198465155 15.024694618589166 0 15.024694618589166 77.702009356925842 0 0 0 0 60.532606445020065 40.38276728155239 0 40.38276728155239 72.104284954514043 0 0 0 0 48.979366618583299 22.482695686552944 0 22.482695686552944 113.98782718940038 0 0 0 0 59.085099921510846 9.1788562503427329 0 9.1788562503427329 111.34518922933603 0 0 0 0 72.929134086400154 -32.670171662131452 0 -32.670171662131452 199.80506002034508 0 0 0 0 96.543405597287347 113.29107560283501 0 113.29107560283501 192.54163432004407 0 0 0 0 40.810847378568724 16.111746172265612 0 16.111746172265612 139.93862664337121 0 0 0 0 61.325040487798105 30.88806064259893 0 30.88806064259893 77.398710594015853 0 0 0 0 109.84801482438161 44.66434884426306 0 44.66434884426306 14.526959842457018 0 0 0 0 63.736818444056553 -0.63298340365031436 0 -0.63298340365031436 -5.3240371557631079 0 0 0 0 42.921247081510955 10.910304896191064 0 10.910304896191064 -17.407731081640804 0 0 0 0 67.112344620931253 28.205894806283194 0 28.205894806283194 -6.0222872539766286 0 0 0 0 50.873573698288055 38.999704580927983 0 38.999704580927983 35.379571425269148 0 0 0 0 54.349453819151677 11.631324120904026 0 11.631324120904026 32.905168710962016 0 0 0 0 10.634911646440742 47.102510581677535 0 47.102510581677535 29.279737979713303 0 0 0 0 41.673849562292162 12.404982896756678 0 12.404982896756678 -9.5828127582585694 0 0 0 0 30.251941175815716 15.19940378185234 0 15.19940378185234 7.5952853361380628 0 0 0 0 39.976443169798586 46.437835158326834 0 46.437835158326834 -44.044839278722748 0 0 0 0 26.865769215554451 12.718326096863919 0 12.718326096863919 5.5481015288101387 0 0 0 0 50.174531766229848 10.267427580244345 0 10.267427580244345 -18.631290796272879 0 0 0 0 -47.829457073750746 13.643176361010205 0 13.643176361010205 50.695134475281648 0 0 0 0 18.902769913722295 49.066604036075169 0 49.066604036075169 -37.141208436739277 0 0 0 0 81.73666242462059 5.9006133289853437 0 5.9006133289853437 -15.418193289418696 0 0 0 0 65.792953552976542 23.424537994689885 0 23.424537994689885 -3.4393278696561538 0 0 0 0 57.168261760642054 17.860507581104343 0 17.860507581104343 -4.7601021051654584 0 0 0 0 48.968870826924103 4.0841627797422575 0 4.0841627797422575 -9.6627572578299805 0 0 0 0 31.608263375113893 30.704421556676891 0 30.704421556676891 -10.124546278075968 0 0 0 0 39.003895474343153 39.197838339120921 0 39.197838339120921 -29.687395490058407 0 0 0 0 24.096116209446336 24.579060054078582 0 24.579060054078582 -8.760889897360812 0 0 0 0 41.011860375314427 41.692849803374742 0 41.692849803374742 7.1997418345450797 0 0 0 0 23.549811083968962 33.863623981530466 0 33.863623981530466 16.790350460863955 0 0 0 0 22.185635926289251 30.588388463843884 0 30.588388463843884 5.129054033288817 0 0 0 0 20.676830402910127 37.096317651034994 0 37.096317651034994 23.516817636817251 0 0 0 0 34.669005660558696 16.828174553211099 0 16.828174553211099 6.3314492753967428 0 0 0 0 51.285804328450467 16.22858832996485 0 16.22858832996485 -29.407505998919305 0 0 0 0 17.666194619072485 39.043683280606217 0 39.043683280606217 1.8179109213252787 0 0 0 0 48.855966638780956 2.9372737753635647 0 2.9372737753635647 -21.227112716005252 0 0 0 0 2.826443907428029 -1.9454431750651366 0 -1.9454431750651366 -1.4059331917955045 0 0 0 0 32.738079100541654 -18.435252379518971 0 -18.435252379518971 8.6909169526625192 0 0 0 0 -0.31741023731495943 5.5471483458055104 0 5.5471483458055104 2.0304415177497677 0 0 0 0 19.79654042776383 27.216271588495829 0 27.216271588495829 31.252018325250674 0 0 0 0 49.888812065837556 69.033148979315143 0 69.033148979315143 37.487864096678948 0 0 0 0 123.95181410700752 74.471417947849758 0 74.471417947849758 9.3385691708383547 0 0 0 0 139.79023639085062 33.327917669381804 0 33.327917669381804 -7.339119790285622 0 0 0 0 1.2703893899639809 -0.85140638893628307 0 -0.85140638893628307 -0.031031741720366934 0 0 0 0 95.327169761578261 -38.684655391313413 0 -38.684655391313413 39.524416813488187 0 0 0 0 -45.876991474709939 38.414497358327708 0 38.414497358327708 91.599779020027199 0 0 0 0 17.304684963783075 3.9168019834613093 0 3.9168019834613093 -0.0054649179453496993 0 0 0 0 109.61490627943567 -34.146008468893285 0 -34.146008468893285 -80.833602980332671 0 0 0 0 19.834733083718618 4.5073874926316861 0 4.5073874926316861 -0.27981365344148901 0 0 0 0 14.937311444227817 5.3594564256465045 0 5.3594564256465045 0.27920014385474357 0 0 0 0 15.633573925577537 5.5774575304247627 0 5.5774575304247627 1.6606318290274946 0 0 0 0 2.1118953449331457 56.04348063112775 0 56.04348063112775 -28.128599456209258 0 0 0 0 -12.32774322079058 6.2303600262612804 0 6.2303600262612804 12.30102075529976 0 0 0 0 6.5424961797107244 10.554427677442106 0 10.554427677442106 34.218780125546218 0 0 0 0 -3.5670902230787078 3.2747096252626875 0 3.2747096252626875 2.814129262084951 0 0 0 0 16.397107166383648 35.710114162646391 0 35.710114162646391 3.0712150530964664 0 0 0 0 10.867833899115794 37.810353694055209 0 37.810353694055209 117.84209068784568 0 0 0 0 11.765571300231386 3.662926366359669 0 3.662926366359669 0.005838041956227594 0 0 0 0 1.8993197077635671 1.3383445541732044 0 1.3383445541732044 0.62610465426833084 0 0 0 0 43.892140085037681 -25.777170702724192 0 -25.777170702724192 26.262810994849865 0 0 0 0 151.77493446009612 20.774443304925338 0 20.774443304925338 -11.028490027955915 0 0 0 0 2.2206020173175602 1.3092635165754416 0 1.3092635165754416 0.89365650410217301 0 0 0 0 69.837669009328238 89.145400634280236 0 89.145400634280236 76.60809270688226 0 0 0 0 172.04205175277093 87.305476245782131 0 87.305476245782131 -29.817091428561184 0 0 0 0 -22.143949881276058 -26.474106398859362 0 -26.474106398859362 -7.9196650513055147 0 0 0 0 -64.463991452503251 -25.322190207338792 0 -25.322190207338792 -4.373009475871072 0 0 0 0 12.379484387213665 -9.1303800607244625 0 -9.1303800607244625 -4.381412749902899 0 0 0 0 -57.172462311558775 -71.449630663252265 0 -71.449630663252265 -8.6686774555879822 0 0 0 0 -8.0965298780065496 -59.79447360585209 0 -59.79447360585209 -19.482199946168635 0 0 0 0 -25.515880112579907 -45.815928280185858 0 -45.815928280185858 -23.285014044512536 0 0 0 0 -5.989846096621477 -63.348539508348154 0 -63.348539508348154 -34.058049763860708 0 0 0 0 26.597371317417128 -45.918134821084379 0 -45.918134821084379 -59.909167285685271 0 0 0 0 11.462169668950082 -27.109341034278145 0 -27.109341034278145 -14.957133477779507 0 0 0 0 26.11066676111659 -2.685033029432816 0 -2.685033029432816 -0.23044152780457239 0 0 0 0 26.252612093609059 -2.3063976405786946 0 -2.3063976405786946 -0.3474771089915123 0 0 0 0 3.0908067290438233 -1.9963586198749397 0 -1.9963586198749397 0.33440055686607051 0 0 0 0 14.053898165351711 -4.420914621346185 0 -4.420914621346185 0.15263377558159164 0 0 0 0 4.1115762379693876 -2.1368186032798633 0 -2.1368186032798633 2.95537546576056 0 0 0 0 3.3921290041034808 -0.32135085756920034 0 -0.32135085756920034 0.99984194584649799 0 0 0 0 98.476495093898848 23.863379331037123 0 23.863379331037123 0.5635153808225084 0 0 0 0 51.982164582906989 15.309148235914506 0 15.309148235914506 7.9449270016554578 0 0 0 0 23.446852851981134 -6.8492544283141115 0 -6.8492544283141115 -10.035454251761131 0 0 0 0 1.6468524629017338 -7.910173560456883 0 -7.910173560456883 -1.7635226625313862 0 0 0 0 61.668456048937514 14.367991188447263 0 14.367991188447263 44.088913187344247 0 0 0 0 2.1500881404541303 -2.0382617876277607 0 -2.0382617876277607 1.1095996267973804 0 0 0 0 4.1999658686399926 -3.7755330124123248 0 -3.7755330124123248 -4.5198595501123009 0 0 0 0 99.592430344491731 51.411785828488178 0 51.411785828488178 15.390123442429967 0 0 0 0 5.0083970839117669 -1.2697766450988297 0 -1.2697766450988297 -1.1032271221510583 0 0 0 0 16.585671060223831 -5.3829606973611135 0 -5.3829606973611135 -4.3660581978954269 0 0 0 0 5.0664618898881599 -6.56571151055266 0 -6.56571151055266 -2.4787427094302075 0 0 0 0 5.8758168058809943 -4.409129054454354 0 -4.409129054454354 -2.6547598445361045 0 0 0 0 16.901260277896654 -3.3375843045473945 0 -3.3375843045473945 -2.8513598727941236 0 0 0 0 7.4874630223505676 -5.9738971723686802 0 -5.9738971723686802 -3.4491921000481764 0 0 0 0 7.0463488484383561 -3.6057111046716273 0 -3.6057111046716273 -3.9881964176508973 0 0 0 0 -6.0866274804138811 -8.6612031225379269 0 -8.6612031225379269 -1.9906626193630927 0 0 0 0 -1.643731871721684 -9.4612898890416091 0 -9.4612898890416091 -1.8742099206576768 0 0 0 0 -3.6684592627279926 -3.856207743592563 0 -3.856207743592563 -2.755765929167751 0 0 0 0 4.4109314984962111 -6.8857624400016562 0 -6.8857624400016562 -4.8169084004325669 0 0 0 0 -1.2670934526249766 -8.8520189353630485 0 -8.8520189353630485 -5.311363953338855 0 0 0 0 12.714775474014459 -0.69884823930123419 0 -0.69884823930123419 -0.0034935579241132625 0 0 0 0 22.763211420475272 3.1178547662696428 0 3.1178547662696428 -2.817050234892704 0 0 0 0 11.479024961487681 -2.1138583183150104 0 -2.1138583183150104 -4.4733371998582081 0 0 0 0 7.9078641021921499 2.9741438163326848 0 2.9741438163326848 0.30718111046752983 0 0 0 0 7.5743785282829776 -1.9051201216626987 0 -1.9051201216626987 -0.17464107010288737 0 0 0 0 8.2932536441763887 -1.3188425702655593 0 -1.3188425702655593 -0.88273091196706055 0 0 0 0 9.9122125925205182 -3.0649148263482004 0 -3.0649148263482004 -2.4446930892240175 0 0 0 0 12.466592478333041 -0.96287504454761574 0 -0.96287504454761574 -1.9243335720576695 0 0 0 0 0.55004325879760074 -4.730060817742725 0 -4.730060817742725 -0.38400545769519634 0 0 0 0 7.5312008311739191 -1.7044383842977553 0 -1.7044383842977553 -0.57095074741040475 0 0 0 0 -0.9707716591319695 -0.48829762946656885 0 -0.48829762946656885 0.53493715607979164 0 0 0 0 -16.8608544151557 -7.439226662935539 0 -7.439226662935539 -3.4135828824506689 0 0 0 0 -168.96682828709891 57.248941453705967 0 57.248941453705967 -7.3726302655367499 0 0 0 0 2.7537266375147738 -1.4583484448593553 0 -1.4583484448593553 0.0030328210796681456 0 0 0 0 1.70795234128218 -1.1162653992637284 0 -1.1162653992637284 0.050526439130805428 0 0 0 0 0.19986460779791315 -0.39709824213417733 0 -0.39709824213417733 0.046591414608197317 0 0 0 0 -75.757795427402016 7.2613609214019448 0 7.2613609214019448 3.7947398433124988 0 0 0 0 -0.46887742624676321 -11.716429532818172 0 -11.716429532818172 -8.9052014372706481 0 0 0 0 -47.502700132143218 -54.687342051232463 0 -54.687342051232463 14.733896394096064 0 0 0 0 -131.70035816232121 -59.653359773134042 0 -59.653359773134042 15.540680072471673 0 0 0 0 -88.458355416325503 -95.212165740553928 0 -95.212165740553928 40.917926568732867 0 0 0 0 -268.10396258876426 -111.31489401520798 0 -111.31489401520798 40.31700124860857 0 0 0 0 -124.45819717391714 -181.88149709899344 0 -181.88149709899344 -0.016213965312859874 0 0 0 0 -37.100613078553579 -153.32168625216025 0 -153.32168625216025 -13.767408384772978 0 0 0 0 33.464054128562566 -181.24439330112358 0 -181.24439330112358 -0.13146319142213422 0 0 0 0 -37.541347858452355 -159.62294322407459 0 -159.62294322407459 15.216192459768024 0 0 0 0 36.302791613969021 -179.3591348883503 0 -179.3591348883503 -36.549975771908578 0 0 0 0 -27.748448633210501 -135.83503937821547 0 -135.83503937821547 -0.69385720166297915 0 0 0 0 -113.48486221361964 -141.72458356359436 0 -141.72458356359436 2.0768130346007183 0 0 0 0 -39.765858579394262 -113.45746510446817 0 -113.45746510446817 -21.431787172034319 0 0 0 0 -16.67147231742274 -135.97492583228484 0 -135.97492583228484 -34.590893238253102 0 0 0 0 -9.0839296295162058 -109.39267028325924 0 -109.39267028325924 -38.698586407358334 0 0 0 0 -5.5700977302331012 -117.96159069767248 0 -117.96159069767248 -52.869138072434794 0 0 0 0 61.548141161860258 -96.104693875800194 0 -96.104693875800194 -100.72072761432878 0 0 0 0 -12.029422001418425 -145.07611558755161 0 -145.07611558755161 -60.860627929702559 0 0 0 0 10.412170827155933 -137.2142867698775 0 -137.2142867698775 -58.108263282789608 0 0 0 0 1.9560318607036606 -123.29018595037394 0 -123.29018595037394 -77.209292595986426 0 0 0 0 -25.828639159095474 -78.54152655798265 0 -78.54152655798265 -102.57547529546969 0 0 0 0 9.3316681740470813 -120.90543997717941 0 -120.90543997717941 -134.73237048649207 0 0 0 0 11.364500173571287 -94.328478590322788 0 -94.328478590322788 -75.713065032719101 0 0 0 0 31.890936107825837 -43.554561512828059 0 -43.554561512828059 -66.899374469957365 0 0 0 0 53.526610836270265 -67.259662149959468 0 -67.259662149959468 -100.12464836945992 0 0 0 0 7.5404727664135862 -87.735407510635753 0 -87.735407510635753 -61.382802459738286 0 0 0 0 13.983746888596215 -96.825862078875048 0 -96.825862078875048 -86.831367352986717 0 0 0 0 602.5860076717945 389.86877661536869 0 389.86877661536869 -388.32374361680866 0 0 0 0 -107.24131634105288 -11.462148607879385 0 -11.462148607879385 -110.62347330049219 0 0 0 0 -72.644983754275017 -130.54141017877225 0 -130.54141017877225 -157.09490574435267 0 0 0 0 50.278624914113607 -64.310565411702385 0 -64.310565411702385 -190.11105166486925 0 0 0 0 176.42374467311311 -190.92511470914928 0 -190.92511470914928 -162.76791805903838 0 0 0 0 240.09717933520733 77.555853815077398 0 77.555853815077398 -100.9154387558022 0 0 0 0 254.47710529172946 -8.4556282397048079 0 -8.4556282397048079 -379.44448314245869 0 0 0 0 245.43201972786483 -261.3401961165863 0 -261.3401961165863 -399.39010866904073 0 0 0 0 222.41969808767317 -257.58005326347666 0 -257.58005326347666 -66.30732987520679 0 0 0 0 35.010871023668642 -148.90756903266205 0 -148.90756903266205 -23.893342874043697 0 0 0 0 92.885161959740799 -221.61730990123453 0 -221.61730990123453 64.112335535024783 0 0 0 0 127.31105197255238 -107.51447036313763 0 -107.51447036313763 46.685006898630633 0 0 0 0 230.91401740556466 -137.0332946046031 0 -137.0332946046031 0.69446481141013061 0 0 0 0 683.94676895521116 30.52457988011713 0 30.52457988011713 644.27347482212087 0 0 0 0 569.95745109433483 218.50428622734063 0 218.50428622734063 356.39228966721805 0 0 0 0 1995.1089362282073 2099.8959746092009 0 2099.8959746092009 1.1878963398531408 0 0 0 0 839.73380951114814 449.78129213327657 0 449.78129213327657 747.02926577487835 0 0 0 0 2055.1063917288884 1619.6748916176366 0 1619.6748916176366 1529.297868375867 0 0 0 0 1569.9756920833024 156.25584141095914 0 156.25584141095914 423.202730479038 0 0 0 0 970.42344683914416 -63.211830335221123 0 -63.211830335221123 86.915985310923247 0 0 0 0 624.64197599148611 579.49013616075104 0 579.49013616075104 674.41873986319388 0 0 0 0 847.5400706713117 628.62670608692156 0 628.62670608692156 176.2793718619198 0 0 0 0 446.89979716145899 268.74681991512807 0 268.74681991512807 9.6491487984610558 0 0 0 0 103.18724130163901 114.53054628147243 0 114.53054628147243 67.764990651995731 0 0 0 0 463.12749240320409 -282.5657768544163 0 -282.5657768544163 136.33772255962242 0 0 0 0 141.27903863316169 -226.24904669968754 0 -226.24904669968754 160.79863667813834 0 0 0 0 471.05220076185651 166.11918435599154 0 166.11918435599154 660.89930296238788 0 0 0 0 390.54239677832811 558.98350649744805 0 558.98350649744805 1167.7275599649552 0 0 0 0 215.52521438621625 477.13029843005643 0 477.13029843005643 1182.0188770169407 0 0 0 0 28.848737781987779 13.340923696810666 0 13.340923696810666 0.52057255538379554 0 0 0 0 149.29611562984064 715.97808930756912 0 715.97808930756912 1525.1577731014795 0 0 0 0 9.7440224955854546 6.5599477296207969 0 6.5599477296207969 2.5491552083527691 0 0 0 0 -492.58332322421484 -281.20157411175876 0 -281.20157411175876 14.548222265084664 0 0 0 0 162.30363646126352 1234.1967245445148 0 1234.1967245445148 3987.8391807939124 0 0 0 0 1291.7583990486455 1117.1931808597997 0 1117.1931808597997 -550.04678808599704 0 0 0 0 162.02119890929316 363.6504909425239 0 363.6504909425239 1448.8039095746858 0 0 0 0 376.75307134201284 1172.8170056462395 0 1172.8170056462395 2105.7756844922123 0 0 0 0 164.22029585814562 326.43514440453993 0 326.43514440453993 2052.8938891687626 0 0 0 0 458.08888522980851 663.8704605939854 0 663.8704605939854 756.25507417618837 0 0 0 0 1277.1813165019266 999.19264827740699 0 999.19264827740699 813.3303961348696 0 0 0 0 435.80908291687956 763.6106392601173 0 763.6106392601173 358.76949492411632 0 0 0 0 660.44932855239313 711.28530645621436 0 711.28530645621436 370.44757125133196 0 0 0 0 304.55379465983424 832.51510203506598 0 832.51510203506598 1061.6038632953816 0 0 0 0 199.21739492051711 961.05074178495806 0 961.05074178495806 1072.0011600782545 0 0 0 0 108.71846768730757 921.97487958687771 0 921.97487958687771 870.07405890938503 0 0 0 0 210.31304609672952 796.55457459747072 0 796.55457459747072 882.5993760710744 0 0 0 0 267.11825563648017 810.64648936722256 0 810.64648936722256 489.91886360811645 0 0 0 0 336.24996017857484 1116.7703591074037 0 1116.7703591074037 706.64444169365038 0 0 0 0 182.8807545988966 224.36152580134058 0 224.36152580134058 -244.06441158311509 0 0 0 0 255.61327547322435 526.66822872875719 0 526.66822872875719 -507.72036288006757 0 0 0 0 198.34383215609705 794.09765760199889 0 794.09765760199889 168.46414605941936 0 0 0 0 -164.00978413909615 694.84518533729761 0 694.84518533729761 923.34037505855645 0 0 0 0 119.44715643461677 533.97116755674358 0 533.97116755674358 -9.057347949474206 0 0 0 0 -192.3142021347594 686.20884250529525 0 686.20884250529525 -83.394045794506837 0 0 0 0 85.527087669305729 325.81974576935676 0 325.81974576935676 -69.197479153303902 0 0 0 0 134.57579453842482 939.60009160769187 0 939.60009160769187 416.24767851151842 0 0 0 0 518.1988607297244 534.57286186287138 0 534.57286186287138 -434.59521351072908 0 0 0 0 -260.28002878142343 -210.6729772652061 0 -210.6729772652061 -733.77620385175078 0 0 0 0 74.938894597653416 86.530329510621755 0 86.530329510621755 -188.57305537470575 0 0 0 0 -3.063401673098042 16.610414656592006 0 16.610414656592006 0.98294984399005325 0 0 0 0 -32.021993496367941 116.51303980207874 0 116.51303980207874 32.701773101066948 0 0 0 0 50.49660347031022 396.28478019112481 0 396.28478019112481 -414.68957285231284 0 0 0 0 41.029749988524685 10.26490693586527 0 10.26490693586527 -2.5675316891014042 0 0 0 0 9.9774912820139434 55.542716556311007 0 55.542716556311007 -337.24159306291574 0 0 0 0 384.73722086993803 -297.13637573318852 0 -297.13637573318852 -1193.9087423870642 0 0 0 0 -194.36504380751285 -340.36975062082774 0 -340.36975062082774 -495.26015966705057 0 0 0 0 489.22466896887636 -215.75040457512159 0 -215.75040457512159 -487.49547572744473 0 0 0 0 578.86205676893587 178.70115944798999 0 178.70115944798999 -1621.4413297499407 0 0 0 0 564.68513256969163 -23.733787370210848 0 -23.733787370210848 -574.05489066308201 0 0 0 0 217.48998219094938 449.77095443442022 0 449.77095443442022 -112.78868195177211 0 0 0 0 -102.78721481104731 456.28690677636678 0 456.28690677636678 -851.77436729300462 0 0 0 0 79.794814231838245 29.071453883091408 0 29.071453883091408 -148.90139698654275 0 0 0 0 6.2858866641744271 8.8004058105768959 0 8.8004058105768959 -1.0392711455212797 0 0 0 0 -93.586224661034066 94.964609260371617 0 94.964609260371617 149.40724671015889 0 0 0 0 -133.64220581206609 41.874964045615172 0 41.874964045615172 402.68020999366826 0 0 0 0 57.37315848187427 0.36757442667772011 0 0.36757442667772011 280.3820068640407 0 0 0 0 3.9522699139420752 3.5268577954957774 0 3.5268577954957774 -0.54498959021450866 0 0 0 0 87.006843608774943 240.4620555919355 0 240.4620555919355 -78.670965688880642 0 0 0 0 151.33769844946801 267.33627537294115 0 267.33627537294115 -254.99570730867151 0 0 0 0 53.763254655465545 18.190638001827651 0 18.190638001827651 3.932217110579082 0 0 0 0 -12.79117508346917 50.201615702800211 0 50.201615702800211 -53.492585387144572 0 0 0 0 19.983486492536031 29.432969764703103 0 29.432969764703103 -14.68568269496177 0 0 0 0 -14.363557904904155 125.48962397508696 0 125.48962397508696 -89.997448224511345 0 0 0 0 -22.150151380345051 33.620365652146461 0 33.620365652146461 80.352195074336123 0 0 0 0 45.104825694896135 138.46342244370908 0 138.46342244370908 -236.08497590919524 0 0 0 0 -159.63707019378489 57.689190676424687 0 57.689190676424687 -126.02592859864717 0 0 0 0 -105.16187246861227 158.56058494728745 0 158.56058494728745 0.2689309404602227 0 0 0 0 48.23843536934794 15.652234259483251 0 15.652234259483251 2.8150881895436788 0 0 0 0 0.28946808783803135 74.365294889897768 0 74.365294889897768 -138.14516091899566 0 0 0 0 -74.075949468518957 224.12833212840042 0 224.12833212840042 -210.38644666115283 0 0 0 0 -69.768062479648506 80.397891225835792 0 80.397891225835792 66.35137606760054 0 0 0 0 -62.871545951551525 119.75668828413723 0 119.75668828413723 -30.951264843549552 0 0 0 0 -23.692358330023126 42.357655735224853 0 42.357655735224853 69.970715294769235 0 0 0 0 -66.331770018442967 53.739618249548535 0 53.739618249548535 112.80189416064604 0 0 0 0 48.802751599345356 65.165137333070561 0 65.165137333070561 -2.334248570391118 0 0 0 0 5.7681903556076577 9.671168401228897 0 9.671168401228897 94.976691895359863 0 0 0 0 40.391294776455652 -0.18113316427432835 0 -0.18113316427432835 83.451644118981676 0 0 0 0 11.197131787746912 -11.250479714560697 0 -11.250479714560697 149.17363704801846 0 0 0 0 73.92978965776274 18.109018221359747 0 18.109018221359747 127.30800498737381 0 0 0 0 24.694514989118034 49.372975040709775 0 49.372975040709775 168.15378111831751 0 0 0 0 2.1289924564116518 26.351341635305289 0 26.351341635305289 76.19647232883608 0 0 0 0 -38.841001458546089 33.044589229351004 0 33.044589229351004 148.87500275921366 0 0 0 0 -14.625114749840577 16.442538661050776 0 16.442538661050776 138.32778119003009 0 0 0 0 -48.335651168585173 21.608846223846285 0 21.608846223846285 138.21003398145922 0 0 0 0 298.45172543465742 -242.41573689642064 0 -242.41573689642064 -28.892714858415559 0 0 0 0 5.8878386506226548 0.42787807302632785 0 0.42787807302632785 -1.2425795942801474 0 0 0 0 5.8634900506539225 2.0255161040102507 0 2.0255161040102507 0.20559661405274809 0 0 0 0 122.14167694549542 -54.97362797310052 0 -54.97362797310052 63.562535454514546 0 0 0 0 -159.79112368069764 284.04065149335793 0 284.04065149335793 -109.71663789548381 0 0 0 0 7.5090093969618579 -1.5596782590074838 0 -1.5596782590074838 -0.13289408754389864 0 0 0 0 157.78993840515614 -113.7163656552666 0 -113.7163656552666 -218.82602205355488 0 0 0 0 38.400082725682296 -66.104199404547899 0 -66.104199404547899 23.784229902220432 0 0 0 0 44.165554113569669 -240.27506759295011 0 -240.27506759295011 230.12428690990964 0 0 0 0 134.30947346345056 -231.59079026475683 0 -231.59079026475683 -13.446749717391867 0 0 0 0 -14.292834947613301 104.67365593127488 0 104.67365593127488 117.16759472679496 0 0 0 0 12.980254995563882 8.8322143323545674 0 8.8322143323545674 -157.51868043621903 0 0 0 0 -0.33040841025052714 3.5573189839733814 0 3.5573189839733814 -2.3868649098426737 0 0 0 0 -16.0823636817222 -18.997990085546292 0 -18.997990085546292 4.3745816597961209 0 0 0 0 -6.3751684004091658 4.6916331303461902 0 4.6916331303461902 127.03778091555478 0 0 0 0 34.11597467304091 104.17717629608705 0 104.17717629608705 30.505111102166211 0 0 0 0 -162.89067139673716 149.61179341703115 0 149.61179341703115 10.821409643351217 0 0 0 0 -243.86956837106845 -62.771785882162931 0 -62.771785882162931 115.0228251186827 0 0 0 0 -22.733730046020355 -116.02200103614632 0 -116.02200103614632 105.89865453268817 0 0 0 0 -24.180708083120408 86.161964503615309 0 86.161964503615309 28.210025933432007 0 0 0 0 26.809593350406942 10.324376498425323 0 10.324376498425323 -1.0760019812586059 0 0 0 0 -73.685009738866938 46.084015347844343 0 46.084015347844343 154.64120810519944 0 0 0 0 75.726479966433544 41.262536824198065 0 41.262536824198065 -11.772307023502435 0 0 0 0 53.719317104070797 -20.83322436877188 0 -20.83322436877188 2.0640438439872923 0 0 0 0 44.389740663202247 4.5956987096867579 0 4.5956987096867579 -62.363644085272085 0 0 0 0 14.638729018497543 42.137525151298121 0 42.137525151298121 -9.1167554773842312 0 0 0 0 0.0091361697666343389 15.048568302773823 0 15.048568302773823 -2.044512850526977 0 0 0 0 50.671142288167175 24.28722686431405 0 24.28722686431405 -35.902858344001515 0 0 0 0 47.228387626353651 21.354988555186878 0 21.354988555186878 6.1234479897290726 0 0 0 0 26.006597566605024 9.5129137719500338 0 9.5129137719500338 -1.6905134856006119 0 0 0 0 53.801791088204482 23.974270406809751 0 23.974270406809751 3.1147698572201534 0 0 0 0 35.988566288360744 45.518753454985472 0 45.518753454985472 56.023672413367422 0 0 0 0 12.105394975778069 -0.81028260955542919 0 -0.81028260955542919 -4.0741317853495458 0 0 0 0 21.088496517186286 8.7023591368783855 0 8.7023591368783855 2.0390644200290353 0 0 0 0 17.588942130240866 6.1274827066018815 0 6.1274827066018815 6.6078081321334139 0 0 0 0 19.94386563322962 4.7518742668767198 0 4.7518742668767198 -0.30395921891265831 0 0 0 0 27.373300925522926 6.5861616833179824 0 6.5861616833179824 1.6731891772003777 0 0 0 0 26.072359912885076 6.3915323990742117 0 6.3915323990742117 2.8159059897909628 0 0 0 0 39.802243598896894 8.1086086009213432 0 8.1086086009213432 2.8120429093168067 0 0 0 0 55.358249816279567 31.722414916083665 0 31.722414916083665 12.311303267234507 0 0 0 0 49.877364937012317 18.5639999480494 0 18.5639999480494 10.425158457210465 0 0 0 0 51.835323905645055 22.397406051621374 0 22.397406051621374 -5.9313165162903942 0 0 0 0 44.677832011600856 4.4247387962950455 0 4.4247387962950455 -6.447895050878298 0 0 0 0 55.200379705929663 13.702713819259543 0 13.702713819259543 -8.7089066345617994 0 0 0 0 47.914453352888813 -61.968834867522673 0 -61.968834867522673 -18.641432453341849 0 0 0 0 53.185756409438909 18.380581219984492 0 18.380581219984492 2.1169025431074715 0 0 0 0 47.558039582989295 12.056183889876593 0 12.056183889876593 6.5988391958373995 0 0 0 0 13.26314384592942 -3.004306627193202 0 -3.004306627193202 -2.3754485108796644 0 0 0 0 35.75956037327478 7.9417157952408317 0 7.9417157952408317 -0.22655828954929813 0 0 0 0 70.963181779778097 49.566780436430236 0 49.566780436430236 -7.6869835683567089 0 0 0 0 60.472749257110991 -81.378413269036628 0 -81.378413269036628 -36.812329561461411 0 0 0 0 11.960228569660103 -16.6214385569981 0 -16.6214385569981 -6.9110964861858974 0 0 0 0 -0.28862449530424783 18.119472647500345 0 18.119472647500345 -105.44415312217734 0 0 0 0 3.9428265649440277 3.7818312981838744 0 3.7818312981838744 -1.4263868558491326 0 0 0 0 36.454798783437582 -51.556805739222114 0 -51.556805739222114 -78.351137618938992 0 0 0 0 30.017578055834747 -71.680761218588657 0 -71.680761218588657 -140.71473663926099 0 0 0 0 97.834787752392003 -18.68098500462645 0 -18.68098500462645 -71.675152887816239 0 0 0 0 73.841198937763693 -63.194896868558089 0 -63.194896868558089 -78.863757696377888 0 0 0 0 1.2699991966725861 -4.2851705576508152 0 -4.2851705576508152 -3.1442443756168204 0 0 0 0 23.14868052834936 -5.4689530028696822 0 -5.4689530028696822 -245.84820039133228 0 0 0 0 5.6477853379765293 -98.052569242638128 0 -98.052569242638128 -234.08664648204308 0 0 0 0 1.6444909320562147 -61.921143102282031 0 -61.921143102282031 -131.70703711650339 0 0 0 0 29.566955793503439 5.1772649303538856 0 5.1772649303538856 18.058139055964602 0 0 0 0 81.302985629765317 -193.49745469680238 0 -193.49745469680238 198.8669401056593 0 0 0 0 -0.52467681599080151 0.42591078280162264 0 0.42591078280162264 0.1435341453127168 0 0 0 0 263.89496475334818 -144.49515285161567 0 -144.49515285161567 -122.46002610350661 0 0 0 0 146.97822040264145 77.984609574043134 0 77.984609574043134 -247.44948691890158 0 0 0 0 56.483844907873191 18.55986241941936 0 18.55986241941936 2.7399172308788136 0 0 0 0 39.86174722470605 91.608062821654471 0 91.608062821654471 -29.742541495544629 0 0 0 0 44.631914847937878 -35.750759826956937 0 -35.750759826956937 -50.876245197079697 0 0 0 0 52.404029444805644 2.7241755344593273 0 2.7241755344593273 -9.4538214853867863 0 0 0 0 57.038166458340129 -51.958315866208068 0 -51.958315866208068 -139.94708357954505 0 0 0 0 53.0477525191327 -0.22973479196974722 0 -0.22973479196974722 -48.902348480463843 0 0 0 0 3497.301056508426 530.84093335635964 0 530.84093335635964 -378.62156352531935 0 0 0 0 2633.6693718939532 895.06753364254666 0 895.06753364254666 24.201076128572165 0 0 0 0 2531.1708636040275 172.43984810305199 0 172.43984810305199 -0.33050933338409683 0 0 0 0 1830.0890332541821 658.64031701235297 0 658.64031701235297 113.10270235488153 0 0 0 0 1989.191616246113 372.64680079964046 0 372.64680079964046 29.226841842331908 0 0 0 0 1254.1019269548779 736.78525075460459 0 736.78525075460459 383.5497684371806 0 0 0 0 887.95689142403717 253.01282243863375 0 253.01282243863375 183.47202262092446 0 0 0 0 51.816737203303376 -29.375289219559235 0 -29.375289219559235 3.3411009893017014 0 0 0 0 830.79634745816111 796.13435154833326 0 796.13435154833326 417.7962704810268 0 0 0 0 347.91398596398176 643.69435765013134 0 643.69435765013134 619.04405703624252 0 0 0 0 785.00386662043456 473.76647514528065 0 473.76647514528065 290.42803269967209 0 0 0 0 1623.7802174805547 317.02559944135425 0 317.02559944135425 -69.258993451424118 0 0 0 0 988.59335868596099 157.78806918935132 0 157.78806918935132 0.41465348278595726 0 0 0 0 805.41418517330385 392.4632007455233 0 392.4632007455233 116.57408154132656 0 0 0 0 450.6286410861976 91.693574352240674 0 91.693574352240674 84.334070474784724 0 0 0 0 274.07839673437411 75.776536058504718 0 75.776536058504718 0.29832820546194044 0 0 0 0 382.99010491479976 734.15413507331789 0 734.15413507331789 661.87725790292825 0 0 0 0 320.50460994811147 -13.365164286550595 0 -13.365164286550595 8.1502301045561403 0 0 0 0 35.478013677561137 -13.281704752180616 0 -13.281704752180616 -11.112656937561844 0 0 0 0 518.15908850624692 992.60079378598084 0 992.60079378598084 571.66345624034523 0 0 0 0 1156.8778286999586 1497.287125246557 0 1497.287125246557 752.57466893248102 0 0 0 0 2178.2724346315226 1329.5572093872267 0 1329.5572093872267 777.8563559774816 0 0 0 0 -152.83335193636594 220.33272327751411 0 220.33272327751411 357.36177934550051 0 0 0 0 2.5795255786844677 6.0562444361848691 0 6.0562444361848691 1.2488945810109646 0 0 0 0 -93.407701355608879 888.83781373280954 0 888.83781373280954 2091.1394255992091 0 0 0 0 48.307484830977103 -25.822945949347385 0 -25.822945949347385 -1.3696249325817949 0 0 0 0 1579.4077311244182 -7.0084086908266272 0 -7.0084086908266272 697.47857070259806 0 0 0 0 2449.2325819823309 1158.0926831413899 0 1158.0926831413899 596.66242884193184 0 0 0 0 2060.8709100875421 1421.9975844809876 0 1421.9975844809876 303.88740376868463 0 0 0 0 531.61219261990664 1392.7720076600544 0 1392.7720076600544 1225.1423372251611 0 0 0 0 862.72246939054457 849.85166292721055 0 849.85166292721055 98.023571693182475 0 0 0 0 825.36323603137862 -66.428289552116667 0 -66.428289552116667 -332.49442594694511 0 0 0 0 2151.2432584292364 387.52783603507999 0 387.52783603507999 -331.30414458116093 0 0 0 0 9.3749029284900871 7.6864352500837372 0 7.6864352500837372 -0.46871842206661174 0 0 0 0 809.42045478179352 -379.58891112971492 0 -379.58891112971492 -521.84306020892745 0 0 0 0 305.21317960027955 -8.4762469071083615 0 -8.4762469071083615 -94.133027724647377 0 0 0 0 -261.64622529206099 240.15799087462278 0 240.15799087462278 18.639776549361045 0 0 0 0 347.86728775804659 -1.8522885175691499 0 -1.8522885175691499 -31.505843435847055 0 0 0 0 722.32352486230957 217.83744349787014 0 217.83744349787014 3.6445483810662154 0 0 0 0 293.82640504045412 129.67426484824773 0 129.67426484824773 -9.8471148818761094 0 0 0 0 12.200493609758269 59.464063575115063 0 59.464063575115063 39.101525292547649 0 0 0 0 462.39689660920703 129.99197174967014 0 129.99197174967014 -17.352762151134357 0 0 0 0 1525.9964240477857 578.70825283282613 0 578.70825283282613 -57.886952494890465 0 0 0 0 900.91856700342032 490.1990862195745 0 490.1990862195745 102.07077474399762 0 0 0 0 690.00082196913718 283.44129437680681 0 283.44129437680681 -72.448417293133602 0 0 0 0 570.57093212176915 290.12276689325785 0 290.12276689325785 90.284671106547876 0 0 0 0 586.71454805736721 263.32503072443438 0 263.32503072443438 114.6593713536372 0 0 0 0 281.39110864466056 88.606573944180127 0 88.606573944180127 48.304723385867305 0 0 0 0 264.5273512290878 113.01270766842299 0 113.01270766842299 110.91483637468491 0 0 0 0 116.81157303167856 18.200941226423765 0 18.200941226423765 122.5325076679415 0 0 0 0 80.450222435611067 76.681731858300282 0 76.681731858300282 195.12475474274061 0 0 0 0 263.92308831142145 94.35519111034796 0 94.35519111034796 128.95513924330999 0 0 0 0 93.169398512472981 32.785991244672914 0 32.785991244672914 156.09948509507331 0 0 0 0 137.73468284600676 190.48911496451467 0 190.48911496451467 231.0181025019001 0 0 0 0 60.571973264617554 51.677361424711307 0 51.677361424711307 146.75771705249463 0 0 0 0 -40.615860970428912 -58.145029436879213 0 -58.145029436879213 146.75292884540465 0 0 0 0 10.076219898906857 162.92753419722968 0 162.92753419722968 97.264021634888195 0 0 0 0 186.91649110799244 217.69811162855314 0 217.69811162855314 391.46735620268805 0 0 0 0 222.22279277484631 41.456082840449199 0 41.456082840449199 162.65735573159236 0 0 0 0 451.71431270421272 444.71036791964883 0 444.71036791964883 376.35873435650183 0 0 0 0 230.48629015922779 177.55587702688376 0 177.55587702688376 220.64680777819422 0 0 0 0 338.12992125193705 147.56756341256528 0 147.56756341256528 163.73611613521393 0 0 0 0 849.48506684457243 364.21061277445449 0 364.21061277445449 182.00358675923781 0 0 0 0 1118.4158318400587 499.26585737052778 0 499.26585737052778 221.81162923980469 0 0 0 0 157.12149793178833 51.317562873242423 0 51.317562873242423 207.21272339978213 0 0 0 0 3.7234422446696342 0.64660288683249689 0 0.64660288683249689 5.4505352453215856 0 0 0 0 666.65273165030521 421.64890493765347 0 421.64890493765347 364.98117260346498 0 0 0 0 877.75476244579477 589.58742561705549 0 589.58742561705549 458.72125458905225 0 0 0 0 749.1119773906903 305.92382582999113 0 305.92382582999113 519.67737495969732 0 0 0 0 658.42136490499252 438.90002446452786 0 438.90002446452786 324.93912965927422 0 0 0 0 794.05822846512137 453.68962680026101 0 453.68962680026101 321.63142666410999 0 0 0 0 771.02110732356959 482.16047290096503 0 482.16047290096503 207.19501301598137 0 0 0 0 796.4756226263562 471.65881670744386 0 471.65881670744386 205.86097656198433 0 0 0 0 773.94081307476881 551.7841145375553 0 551.7841145375553 367.6877202172675 0 0 0 0 49.9484230508682 -26.30410439079948 0 -26.30410439079948 0.16755858505076615 0 0 0 0 3498.1007442028472 2068.5014017759736 0 2068.5014017759736 992.47740897268875 0 0 0 0 1482.364254170905 558.59501903889759 0 558.59501903889759 300.05065596448878 0 0 0 0 1805.3374644368669 1044.3377764238685 0 1044.3377764238685 520.54610627749832 0 0 0 0 2213.0663640394851 1208.829025462227 0 1208.829025462227 552.4360533360657 0 0 0 0 597.76714367188652 309.40955102094063 0 309.40955102094063 308.99499641398791 0 0 0 0 668.19352798241016 437.46108490230176 0 437.46108490230176 304.94888967863562 0 0 0 0 561.48461645548377 460.46811616122079 0 460.46811616122079 376.54745694775397 0 0 0 0 466.13612535430002 306.39903543045193 0 306.39903543045193 163.86928094953612 0 0 0 0 43.517086387549426 -21.056756682407311 0 -21.056756682407311 -1.2425320208003496 0 0 0 0 2621.2051482921233 1914.0080885221068 0 1914.0080885221068 1182.6336999525029 0 0 0 0 31.752154428495089 -13.625653313256322 0 -13.625653313256322 -0.46017671253266901 0 0 0 0 2392.6486588990374 781.92764237533243 0 781.92764237533243 73.20004671758231 0 0 0 0 3007.5064871910508 1144.7517482728269 0 1144.7517482728269 286.56943099354987 0 0 0 0 3931.8809858268214 1032.4343422325869 0 1032.4343422325869 10.113503584067132 0 0 0 0 2600.4252291873199 1628.8645427162373 0 1628.8645427162373 920.77806163024411 0 0 0 0 2363.6058799696038 993.99405796166866 0 993.99405796166866 395.13520627426732 0 0 0 0 2488.845927557195 650.78277029949288 0 650.78277029949288 25.679364377396681 0 0 0 0 964.49706687270373 750.1771839380051 0 750.1771839380051 665.61904571543539 0 0 0 0 954.1545894483861 757.68367596912105 0 757.68367596912105 710.01569588709958 0 0 0 0 923.48804965886666 392.97984905823023 0 392.97984905823023 603.95417952441426 0 0 0 0 876.37685873527516 709.80818100564102 0 709.80818100564102 412.66956469776773 0 0 0 0 2511.3088945397612 1.1507509935282272 0 1.1507509935282272 191.62599383551526 0 0 0 0 3492.5047100575393 496.63789064895752 0 496.63789064895752 -208.51806046741672 0 0 0 0 486.08151550627372 -158.40947106961406 0 -158.40947106961406 265.64275962432686 0 0 0 0 14.338231121666638 -3.7238464358053562 0 -3.7238464358053562 0.46662526593562859 0 0 0 0 861.52150772196546 672.17935840535495 0 672.17935840535495 264.87276858972274 0 0 0 0 459.21155447214551 598.64051204656801 0 598.64051204656801 484.01302904125146 0 0 0 0 620.05550417659833 513.57083250131086 0 513.57083250131086 166.91911328106642 0 0 0 0 568.1294848426478 540.45898221052869 0 540.45898221052869 302.65751887469992 0 0 0 0 587.41119698063994 554.12497624948037 0 554.12497624948037 309.89834633587316 0 0 0 0 342.31839928445697 401.66888628101515 0 401.66888628101515 267.43315841972708 0 0 0 0 463.56805454668211 282.64828140565771 0 282.64828140565771 126.5502699235924 0 0 0 0 443.63048391281336 512.54249935835321 0 512.54249935835321 355.04557222927281 0 0 0 0 311.18769958158737 224.2439645416456 0 224.2439645416456 137.21588143391 0 0 0 0 104.42686587502249 127.35636949917409 0 127.35636949917409 267.37619426875995 0 0 0 0 245.21888510819554 342.74610733638019 0 342.74610733638019 331.13572882988933 0 0 0 0 296.12586287637532 403.87772453094976 0 403.87772453094976 423.38497083943696 0 0 0 0 351.87085246649804 378.15573916029911 0 378.15573916029911 268.70817798593202 0 0 0 0 59.206747663309216 195.65923822432387 0 195.65923822432387 654.59783466101624 0 0 0 0 -36.957795140828239 416.1344445620997 0 416.1344445620997 167.56917621981574 0 0 0 0 15.93743754399209 -6.305928430606869 0 -6.305928430606869 0.60944182838587801 0 0 0 0 136.12126417313266 -23.90015421172086 0 -23.90015421172086 -26.913096459797089 0 0 0 0 60.260055459766591 106.98329083050112 0 106.98329083050112 420.47003293643291 0 0 0 0 76.328863216970149 -79.33915103965748 0 -79.33915103965748 -2.7412060503711473 0 0 0 0 69.672777600056193 -31.587636969927708 0 -31.587636969927708 4.5581597122650397 0 0 0 0 130.17794229786523 -33.502151772011075 0 -33.502151772011075 -25.55786443316947 0 0 0 0 72.458885098183373 -35.391848076947433 0 -35.391848076947433 8.2482412840054931 0 0 0 0 72.425256103029824 -31.495040952333511 0 -31.495040952333511 -7.9737730441688655 0 0 0 0 20.403189252830053 -0.79181924050536168 0 -0.79181924050536168 -0.13562168669026775 0 0 0 0 103.21646447800595 -13.399643740234751 0 -13.399643740234751 6.8303328176452851 0 0 0 0 72.586835392226931 -36.88980647485505 0 -36.88980647485505 -7.290855303178887 0 0 0 0 102.30020090337348 -9.9675236466769093 0 -9.9675236466769093 7.5695828505527061 0 0 0 0 53.258650125158596 -17.171398763426886 0 -17.171398763426886 5.614576212023584 0 0 0 0 315.60245481478341 121.97848823035611 0 121.97848823035611 66.458492620996424 0 0 0 0 114.82487484473677 -102.76327880542601 0 -102.76327880542601 -39.116811357344773 0 0 0 0 242.13487038138555 217.14419141508796 0 217.14419141508796 218.71017130479345 0 0 0 0 174.96431778362603 22.992153497773188 0 22.992153497773188 155.55055511965611 0 0 0 0 758.66391744760404 -61.210531441069435 0 -61.210531441069435 -175.68435053112307 0 0 0 0 585.14734205287823 414.06588268774897 0 414.06588268774897 259.51473975947795 0 0 0 0 668.39645143456073 376.45996723953016 0 376.45996723953016 276.35905484579371 0 0 0 0 1.4297745990372448 -1.4915997883910279 0 -1.4915997883910279 4.3485091597657872 0 0 0 0 954.54150638780811 363.19696808842002 0 363.19696808842002 204.12199358169164 0 0 0 0 965.41399503027787 492.66000625359789 0 492.66000625359789 293.09203645956552 0 0 0 0 686.08828554599313 12.568844769552015 0 12.568844769552015 -213.57591249051757 0 0 0 0 -46.816433406120268 -209.4980223167947 0 -209.4980223167947 221.17969679085218 0 0 0 0 54.375745519786506 -8.5625775924801673 0 -8.5625775924801673 6.4867345594539074 0 0 0 0 22.756787011033147 -17.659379936044701 0 -17.659379936044701 11.917749315160069 0 0 0 0 51.627768391144855 1.6011279314410842 0 1.6011279314410842 2.2703708848179254 0 0 0 0 186.07227825329755 91.785080859547634 0 91.785080859547634 -205.42583137763086 0 0 0 0 60.376229145452214 -3.4712045523055579 0 -3.4712045523055579 -3.803666886685237 0 0 0 0 1.5536136387090664 -97.394651006494087 0 -97.394651006494087 -22.665063950606964 0 0 0 0 -44.923133319185581 -107.95850438426714 0 -107.95850438426714 45.503569696871637 0 0 0 0 259.98650322038156 51.496401496621274 0 51.496401496621274 19.79911142807623 0 0 0 0 -11.372648923788802 -134.77735408465787 0 -134.77735408465787 52.55303995799477 0 0 0 0 3.8166962394190307 -0.60076511518914799 0 -0.60076511518914799 -0.10074634185006026 0 0 0 0 13.570278569990151 -1.2698090797486685 0 -1.2698090797486685 -1.370053460516079 0 0 0 0 -94.436584317751112 -69.287763567397405 0 -69.287763567397405 9.9231154788631102 0 0 0 0 -99.433265471772756 119.21882842463856 0 119.21882842463856 -27.975521590428343 0 0 0 0 -78.31647735745355 -107.33793952662108 0 -107.33793952662108 64.254530407118182 0 0 0 0 24.481807560747257 42.697407751775245 0 42.697407751775245 75.326704782482537 0 0 0 0 106.00256040006934 -74.493941865795023 0 -74.493941865795023 53.112712307762195 0 0 0 0 31.726699993650954 -6.2218127852363239 0 -6.2218127852363239 -4.9965927084093646 0 0 0 0 37.370260980766034 0.98969296709401533 0 0.98969296709401533 74.200441333126037 0 0 0 0 8.2332221768519958 -11.602010653669367 0 -11.602010653669367 -5.1506909861927852 0 0 0 0 39.753271677764133 0.74744516484361156 0 0.74744516484361156 -0.99855853338112865 0 0 0 0 46.959214288188377 1.5903147149201686 0 1.5903147149201686 -12.190592322550856 0 0 0 0 36.610506523300671 0.75455364670118286 0 0.75455364670118286 -2.9324258130098073 0 0 0 0 61.394387541278618 10.340804318131319 0 10.340804318131319 -6.5492402268659236 0 0 0 0 23.274964182463009 24.051788059716046 0 24.051788059716046 16.613629263019902 0 0 0 0 110.5415253987012 0.05566685699102436 0 0.05566685699102436 0.17381216299349944 0 0 0 0 28.875923163712613 19.070833424524949 0 19.070833424524949 -2.69633406192537 0 0 0 0 103.77136708949547 -4.2564987170899258 0 -4.2564987170899258 19.211088404048951 0 0 0 0 101.90627257675442 -9.1080458087601528 0 -9.1080458087601528 6.6053214063831547 0 0 0 0 116.17678463396442 -5.8058972236340196 0 -5.8058972236340196 -12.87688425263002 0 0 0 0 112.40998925791064 -4.870357319688992 0 -4.870357319688992 5.3123426337662067 0 0 0 0 106.42606402577439 -13.957526280453749 0 -13.957526280453749 -8.0529761953375782 0 0 0 0 112.37682005665192 -2.8181335772763418 0 -2.8181335772763418 -5.9022713297049449 0 0 0 0 118.7675301015588 0.83995749410905773 0 0.83995749410905773 -4.6387449132130314 0 0 0 0 92.264193149974744 5.4875469699290989 0 5.4875469699290989 -2.0530788280370871 0 0 0 0 126.81128802141939 16.309077421502366 0 16.309077421502366 -8.0292308697794397 0 0 0 0 141.71374453856697 -5.6790276748190536 0 -5.6790276748190536 -12.560911008254607 0 0 0 0 127.72924015227181 -1.8606444097551957 0 -1.8606444097551957 -13.169851885184471 0 0 0 0 142.50078391938587 -4.1843375150247084 0 -4.1843375150247084 -10.6654779093044 0 0 0 0 124.15707508895139 3.7350165431114419 0 3.7350165431114419 -8.1558613124075237 0 0 0 0 154.21158333435596 5.9585078724017535 0 5.9585078724017535 -10.276517864183006 0 0 0 0 149.21564961391596 -11.199388279063555 0 -11.199388279063555 -6.0509414751431905 0 0 0 0 167.55453454457893 -12.015341262855145 0 -12.015341262855145 -10.783995880345174 0 0 0 0 168.52417587079799 -16.271144321070011 0 -16.271144321070011 -5.2820596043188743 0 0 0 0 178.28352424043987 12.171192004315969 0 12.171192004315969 -17.437562361304288 0 0 0 0 134.13788591885532 14.285839023345034 0 14.285839023345034 -10.524128300856319 0 0 0 0 133.09855955873718 13.862845700808407 0 13.862845700808407 -7.705308210298881 0 0 0 0 99.988388092468085 36.647078637625555 0 36.647078637625555 -2.2182472310778394 0 0 0 0 144.19228504021157 33.794338443955553 0 33.794338443955553 -6.9550329783269262 0 0 0 0 86.513212257545092 49.706803592136538 0 49.706803592136538 9.7982759858665531 0 0 0 0 141.63205152057708 28.298179850112774 0 28.298179850112774 -14.951254206044268 0 0 0 0 195.71185833054915 20.775677429442027 0 20.775677429442027 -18.748768877126963 0 0 0 0 131.3015894467535 75.402943115865412 0 75.402943115865412 14.339758164937507 0 0 0 0 115.06691343171042 41.742062187600169 0 41.742062187600169 -2.460819496236752 0 0 0 0 210.68309926255461 98.813834897120046 0 98.813834897120046 9.4120513056136588 0 0 0 0 142.46549168812635 69.376717665446222 0 69.376717665446222 25.782031890471671 0 0 0 0 510.26611005447921 43.374563253989663 0 43.374563253989663 -63.528415901895983 0 0 0 0 266.68913854773564 -6.1335440773517576 0 -6.1335440773517576 -72.107247707897926 0 0 0 0 294.97652630561061 30.928912377783082 0 30.928912377783082 -32.819492258451049 0 0 0 0 226.05135311249614 -31.626950819646368 0 -31.626950819646368 -15.197703859696958 0 0 0 0 291.952906511131 -34.332417497785542 0 -34.332417497785542 -43.847919242726277 0 0 0 0 206.72753649951483 23.603463338337633 0 23.603463338337633 -33.410463779307833 0 0 0 0 210.2395459550753 -23.781049063707883 0 -23.781049063707883 -18.964950776626893 0 0 0 0 187.37671824507561 -63.739825539929143 0 -63.739825539929143 14.999648926792361 0 0 0 0 197.22310412973457 -70.240314891226717 0 -70.240314891226717 15.787581215743558 0 0 0 0 166.71035619385657 -62.297613679032111 0 -62.297613679032111 27.440096032213887 0 0 0 0 170.72284258824948 -66.092486551616219 0 -66.092486551616219 31.613693383410464 0 0 0 0 176.5476471330694 -76.471366939620282 0 -76.471366939620282 36.702241508621682 0 0 0 0 167.5904299679969 -99.426294734064896 0 -99.426294734064896 79.701612017452589 0 0 0 0 189.95250235956701 -96.454905669767271 0 -96.454905669767271 43.532055349784969 0 0 0 0 264.35904224227306 -120.42293116409559 0 -120.42293116409559 13.441170425679609 0 0 0 0 188.41704551651492 -88.467878134940293 0 -88.467878134940293 2.3647257864233433 0 0 0 0 183.61864334685379 -137.80164567389704 0 -137.80164567389704 47.518311191697705 0 0 0 0 180.59735151766654 -171.749762225891 0 -171.749762225891 -18.004302515980726 0 0 0 0 4.119544884647226 -2.3154305769566434 0 -2.3154305769566434 -1.4418679456668317 0 0 0 0 385.99104262623587 -229.77266146603631 0 -229.77266146603631 -118.33462170311213 0 0 0 0 122.54102321914434 -129.2851290164113 0 -129.2851290164113 82.323753828669851 0 0 0 0 156.74101819587668 -132.79810423301041 0 -132.79810423301041 82.602424931957444 0 0 0 0 213.2335094967857 -146.23936291274731 0 -146.23936291274731 44.559896802861203 0 0 0 0 141.64282067650856 -141.45561429129441 0 -141.45561429129441 45.200074435821534 0 0 0 0 144.33918614024151 -151.95735445131785 0 -151.95735445131785 86.089809846465641 0 0 0 0 130.5524626483093 -130.33183620609611 0 -130.33183620609611 110.32373971460379 0 0 0 0 191.81651555953431 -154.62754535477873 0 -154.62754535477873 93.388005532073407 0 0 0 0 -8.397620678967769 -4.5963315189251119 0 -4.5963315189251119 6.9593923790323853 0 0 0 0 146.7527284125681 -141.2279655053278 0 -141.2279655053278 134.31666570677544 0 0 0 0 144.57599112103344 -135.30714452301163 0 -135.30714452301163 112.01006136277567 0 0 0 0 124.8950686577009 -94.332264245768783 0 -94.332264245768783 138.49450394906762 0 0 0 0 146.69073756541184 -140.09880923068076 0 -140.09880923068076 113.74980852340559 0 0 0 0 136.26724780385848 -135.20597990810438 0 -135.20597990810438 120.82775397114119 0 0 0 0 153.07265811407706 -132.45229155354355 0 -132.45229155354355 112.51486787282693 0 0 0 0 165.07830576140259 -141.76542124377477 0 -141.76542124377477 145.55278225896836 0 0 0 0 158.01818268629722 -126.57587754666065 0 -126.57587754666065 118.51032477529725 0 0 0 0 121.4405356291245 -138.32393830311867 0 -138.32393830311867 119.72584786397056 0 0 0 0 132.33709517975512 -142.87346012354078 0 -142.87346012354078 113.44034910230039 0 0 0 0 132.33709517936222 -142.87346012360558 0 -142.87346012360558 113.44034910226947 0 0 0 0 132.3370951799443 -142.87346012373564 0 -142.87346012373564 113.44034910214759 0 0 0 0 169.33024565231608 -70.628832782827203 0 -70.628832782827203 43.10019092944458 0 0 0 0 165.72552695369814 -74.545285739259498 0 -74.545285739259498 65.589454377263337 0 0 0 0 170.44085007310787 -74.984392569135935 0 -74.984392569135935 33.802600897003231 0 0 0 0 152.67222481638419 -86.494600441631405 0 -86.494600441631405 39.874119781776244 0 0 0 0 167.02440683383338 -83.733186891862346 0 -83.733186891862346 35.341443271964181 0 0 0 0 123.16432301663372 -70.852061259569552 0 -70.852061259569552 39.18083331451453 0 0 0 0 145.19331107082689 -64.416924805218571 0 -64.416924805218571 30.74338785655118 0 0 0 0 170.44833263540932 -63.015964599107292 0 -63.015964599107292 22.540946761391297 0 0 0 0 163.00667147900822 -54.835307179612869 0 -54.835307179612869 14.248800676879455 0 0 0 0 169.81583017430239 -42.080291997839595 0 -42.080291997839595 7.738623219125202 0 0 0 0 164.10315519487449 -43.966342093068477 0 -43.966342093068477 8.2307399071032705 0 0 0 0 151.41661412284157 -26.171531946730056 0 -26.171531946730056 -4.7986044953113378 0 0 0 0 145.36117796499457 -49.861333356008799 0 -49.861333356008799 18.428528100202129 0 0 0 0 142.77897402833332 -27.666028426262528 0 -27.666028426262528 -4.0364377664668609 0 0 0 0 125.41534192794643 -24.524808759136022 0 -24.524808759136022 -16.066197842195606 0 0 0 0 130.80796938751337 -18.508880669883638 0 -18.508880669883638 -10.314538700738922 0 0 0 0 118.65666979114394 -40.383091555812825 0 -40.383091555812825 1.8932621894336989 0 0 0 0 94.550101741369872 -46.572775359239472 0 -46.572775359239472 19.163605858196661 0 0 0 0 125.70786409605353 -45.720691236022503 0 -45.720691236022503 -5.3925970181601315 0 0 0 0 136.2441657003219 -36.920117946193841 0 -36.920117946193841 2.5692438011183185 0 0 0 0 99.588631596612686 -65.429323802770227 0 -65.429323802770227 2.0007026928590221 0 0 0 0 6.2145068470395017 -14.789059451481791 0 -14.789059451481791 -2.8178924844966584 0 0 0 0 43.414057399786543 -25.19533187018078 0 -25.19533187018078 5.4046152447563145 0 0 0 0 44.719608619052451 -19.524230223541394 0 -19.524230223541394 2.7525684498864393 0 0 0 0 41.62838909275888 -15.422003186935626 0 -15.422003186935626 0.15977661944816646 0 0 0 0 -62.308001557234093 -490.44015308322969 0 -490.44015308322969 -48.312408130374251 0 0 0 0 40.558833195858512 -13.724506907121985 0 -13.724506907121985 1.7748116666673752 0 0 0 0 49.385241657968436 39.384111506321915 0 39.384111506321915 32.331805899264964 0 0 0 0 28.742874115965151 -4.3743802461292915 0 -4.3743802461292915 -6.9592710040181975 0 0 0 0 137.03763480629277 134.05342190232341 0 134.05342190232341 126.03582326420036 0 0 0 0 37.455179683936876 -10.988293313421877 0 -10.988293313421877 -0.47115069359892914 0 0 0 0 31.465348309524416 -27.491584871824386 0 -27.491584871824386 19.50449677025216 0 0 0 0 32.328330634249141 -14.345978537518022 0 -14.345978537518022 5.0816406007934347 0 0 0 0 33.142680187766018 -21.616467048842424 0 -21.616467048842424 11.060794613935741 0 0 0 0 47.686112625524402 -84.608145614264686 0 -84.608145614264686 190.82121034186093 0 0 0 0 17.452859352493022 -4.3342295864250104 0 -4.3342295864250104 -9.3510801678085187 0 0 0 0 166.90259265224449 -93.111362316060877 0 -93.111362316060877 168.56359843091082 0 0 0 0 7.3049943137739319 -173.00566408260761 0 -173.00566408260761 274.73225913356237 0 0 0 0 -85.093408926841221 -139.89113324813025 0 -139.89113324813025 264.65981378682136 0 0 0 0 -79.305135242840834 -15.410669434655233 0 -15.410669434655233 88.341901757159576 0 0 0 0 241.51087212642597 -265.47249201593951 0 -265.47249201593951 231.63757191578657 0 0 0 0 193.24343108200992 -144.94184128548932 0 -144.94184128548932 130.17735708864188 0 0 0 0 175.09850731445476 -151.83687376091893 0 -151.83687376091893 154.88879102823262 0 0 0 0 186.53239505237434 -136.91155393742804 0 -136.91155393742804 120.94740688254387 0 0 0 0 200.65724977357604 -176.03875878816393 0 -176.03875878816393 132.44305480418669 0 0 0 0 333.38311405253262 -69.244931529319047 0 -69.244931529319047 15.204670397487689 0 0 0 0 427.07900676326972 -136.7796581965822 0 -136.7796581965822 22.354802704666781 0 0 0 0 -1.6909456229675399 0.13173531389567472 0 0.13173531389567472 -0.23550497461606068 0 0 0 0 -608.66709840316616 -373.93433181896046 0 -373.93433181896046 346.4676029027039 0 0 0 0 -266.8305307775554 115.79476288411678 0 115.79476288411678 376.55013545779263 0 0 0 0 -40.307200583425583 -81.116297112001121 0 -81.116297112001121 36.755971125550786 0 0 0 0 -75.073451085358101 -74.941006078962573 0 -74.941006078962573 127.52894635875873 0 0 0 0 -55.886107543563412 -2.4749252310334668 0 -2.4749252310334668 399.86490043333106 0 0 0 0 729.94199232007668 -115.13318714788025 0 -115.13318714788025 175.04264992562187 0 0 0 0 589.11398513195309 174.92497779533824 0 174.92497779533824 92.147338736674328 0 0 0 0 3492.4490998636684 -762.84000626128818 0 -762.84000626128818 -282.25543873890535 0 0 0 0 1124.4826306946197 -103.99258947480121 0 -103.99258947480121 -339.32839600914969 0 0 0 0 -270.16450779348088 -199.15010395567379 0 -199.15010395567379 1203.4829021498076 0 0 0 0 868.31496559616653 -1135.1858088002866 0 -1135.1858088002866 1086.2558206014883 0 0 0 0 9.1945013324205433 -5.2476544455910172 0 -5.2476544455910172 5.8740136562180973 0 0 0 0 909.36912202310486 -251.99615243657561 0 -251.99615243657561 157.013545015868 0 0 0 0 3496.0979893305848 946.68023775755978 0 946.68023775755978 -236.98138630662768 0 0 0 0 56.049617955926806 -97.433376925142966 0 -97.433376925142966 -36.771528585637043 0 0 0 0 27.479272421368165 -9.3532997136382008 0 -9.3532997136382008 8.2234676345441677 0 0 0 0 -284.66457506593724 -103.96159034503171 0 -103.96159034503171 805.67053265160484 0 0 0 0 644.01883700140752 852.57987160346556 0 852.57987160346556 1215.576458747174 0 0 0 0 17.528124485709554 4.5925238298035254 0 4.5925238298035254 4.8838134481718285 0 0 0 0 3502.2311768291474 -19.771797723541667 0 -19.771797723541667 2225.5562478031252 0 0 0 0 3610.010964004483 121.44905282552227 0 121.44905282552227 203.81974030770553 0 0 0 0 16.485109185858164 -0.43117424678621319 0 -0.43117424678621319 -1.8643674326335713 0 0 0 0 52.765531896613538 -8.6603340588608262 0 -8.6603340588608262 -1.0900339198751681 0 0 0 0 41.18340521348 15.372505073184584 0 15.372505073184584 3.2777933787947404 0 0 0 0 7.2918574722149287 -1.4487646672566967 0 -1.4487646672566967 -0.62582516499020713 0 0 0 0 6.8845834788290858 -2.755051670426667 0 -2.755051670426667 3.3731692489448619 0 0 0 0 13.384067798542674 -14.144594690304075 0 -14.144594690304075 2.5170545987120931 0 0 0 0 36.868210953602102 19.351210905224434 0 19.351210905224434 17.168209793213464 0 0 0 0 15.440553809312405 -1.0491610697345095 0 -1.0491610697345095 -1.7727963152392476 0 0 0 0 6.0673728812980698 0.66048138883343199 0 0.66048138883343199 26.806493612886015 0 0 0 0 18.388830680938554 -8.2995491764045255 0 -8.2995491764045255 14.722123564084541 0 0 0 0 58.684610015057842 -25.454792741033998 0 -25.454792741033998 20.205447537031432 0 0 0 0 1.2235517240718821 -0.29871295034371315 0 -0.29871295034371315 -1.3945595655838829 0 0 0 0 73.607863541910774 16.314432129167244 0 16.314432129167244 -0.82616490735381376 0 0 0 0 -70.999607949925121 -154.95600267101872 0 -154.95600267101872 -12.75061404191365 0 0 0 0 68.796759837219724 66.939255054734531 0 66.939255054734531 30.465051394118973 0 0 0 0 48.936946829460794 98.64382818557533 0 98.64382818557533 53.139847913978883 0 0 0 0 292.94104727217928 284.46044852713294 0 284.46044852713294 174.41871616293065 0 0 0 0 380.0305268840093 85.289923944425936 0 85.289923944425936 -51.969409229179291 0 0 0 0 403.67466576687002 48.115309457231888 0 48.115309457231888 -234.48432736878021 0 0 0 0 -103.017975496914 -191.0398225337176 0 -191.0398225337176 95.998505044430885 0 0 0 0 -98.189244636625517 201.03656070348279 0 201.03656070348279 -68.548737488003098 0 0 0 0 305.9448519112193 -209.47567717148377 0 -209.47567717148377 335.67662295497757 0 0 0 0 4.7703649143693667 1.5794912343109839 0 1.5794912343109839 -0.883573694738919 0 0 0 0 172.52500234778563 328.59739006282143 0 328.59739006282143 316.86719151005764 0 0 0 0 145.4333409368337 -52.513157649746972 0 -52.513157649746972 -122.0843824218091 0 0 0 0 -37.133639298030175 9.1395700392886283 0 9.1395700392886283 26.711663816614873 0 0 0 0 -26.962790888552263 131.55621184725214 0 131.55621184725214 241.03860855168023 0 0 0 0 38.885806674894411 -32.728455119740829 0 -32.728455119740829 21.558769506087629 0 0 0 0 4.1111536831500075 3.1934742369012099 0 3.1934742369012099 0.75703855346521998 0 0 0 0 1.6691279439546634 125.86527458443788 0 125.86527458443788 189.49976407560189 0 0 0 0 21.80483325219393 3.3984372069867277 0 3.3984372069867277 -3.3331943282537395 0 0 0 0 27.409166365607234 56.848060724889933 0 56.848060724889933 -51.207735067817339 0 0 0 0 65.29823481447238 -157.9437808120565 0 -157.9437808120565 3.963039772947468 0 0 0 0 455.53130825664266 -26.315211060953516 0 -26.315211060953516 -136.06969358414062 0 0 0 0 4.5930146456860541 1.6271935345021831 0 1.6271935345021831 -2.9849374183842556 0 0 0 0 34.463123243069276 17.311888039663245 0 17.311888039663245 15.652516626571014 0 0 0 0 12.857818168244904 2.7705972136787125 0 2.7705972136787125 -1.449594146384328 0 0 0 0 6.9207869933331381 1.3828120986803754 0 1.3828120986803754 -3.0942824579501327 0 0 0 0 0.03022141305700643 -4.5086430223484513 0 -4.5086430223484513 -1.8513152718578567 0 0 0 0 2.2378586622835428 0.28491500957522931 0 0.28491500957522931 6.9030118313885396 0 0 0 0 3.2468178725065933 -1.3127062101887645 0 -1.3127062101887645 -0.72024496183980347 0 0 0 0 15.677224310427846 4.5564363878065706 0 4.5564363878065706 1.1743616678314766 0 0 0 0 16.848577056720387 2.9653341729272142 0 2.9653341729272142 1.945566299690654 0 0 0 0 6.7277220764308083 -0.57755925333795233 0 -0.57755925333795233 -1.5576283005029747 0 0 0 0 10.114717501129661 -1.9425267084256603 0 -1.9425267084256603 -2.4231024660032201 0 0 0 0 11.480914080602815 -1.0544153114428809 0 -1.0544153114428809 13.573514794048037 0 0 0 0 11.501801388955624 -1.7103548686043837 0 -1.7103548686043837 0.62300421540606443 0 0 0 0 9.6544208146824531 1.9605011321513643 0 1.9605011321513643 1.8100511899920093 0 0 0 0 8.9756172166565875 -0.59114564919831736 0 -0.59114564919831736 -2.404204716377436 0 0 0 0 7.8909913967055729 -0.90877654273559472 0 -0.90877654273559472 0.25064178215019961 0 0 0 0 12.343114423814768 0.14860623012708629 0 0.14860623012708629 -0.7606699281532201 0 0 0 0 16.898443116529961 6.5256635093892328 0 6.5256635093892328 6.4178538377796031 0 0 0 0 5.6809261803343247 -0.12306690677782939 0 -0.12306690677782939 -1.0208287919383423 0 0 0 0 17.172238586324966 12.073914946441619 0 12.073914946441619 15.920022484423953 0 0 0 0 21.031591284932801 12.66951877409042 0 12.66951877409042 6.9205701212463282 0 0 0 0 18.773438623873517 14.287931507757776 0 14.287931507757776 6.4026763141100673 0 0 0 0 10.023717365242192 25.030946989835684 0 25.030946989835684 55.33182832100556 0 0 0 0 8.6544385933278818 -1.125944014504995 0 -1.125944014504995 1.789034169721333 0 0 0 0 31.690000379028788 -4.5360923024491058 0 -4.5360923024491058 7.9524239794718596 0 0 0 0 26.176524237715057 15.437333362298432 0 15.437333362298432 9.798891295786234 0 0 0 0 3.1285432617802087 1.1121514086044755 0 1.1121514086044755 -1.224832246236403 0 0 0 0 62.425874682230642 -48.686841678699466 0 -48.686841678699466 -35.640349802810306 0 0 0 0 2.8695729630854316 1.0900472035220403 0 1.0900472035220403 -1.1872703199221322 0 0 0 0 19.25339867135375 3.3776715547333183 0 3.3776715547333183 1.329180495654672 0 0 0 0 115.33018050924875 34.644220969610615 0 34.644220969610615 17.34001204042579 0 0 0 0 30.721859172554105 5.1082030266356924 0 5.1082030266356924 -6.1435546863403943 0 0 0 0 58.443127609963994 74.423216965710708 0 74.423216965710708 61.397202390983239 0 0 0 0 324.59841448033694 29.636968244160016 0 29.636968244160016 -128.32599155991738 0 0 0 0 -387.52228391770041 -191.21094645694211 0 -191.21094645694211 5.0972083485285111 0 0 0 0 9.339701140204852 10.364028821462398 0 10.364028821462398 40.810764786230266 0 0 0 0 7.506037577405948 2.8513070239881344 0 2.8513070239881344 2.5505064615354072 0 0 0 0 25.949432732231799 3.6266195095852254 0 3.6266195095852254 9.9996391796057651 0 0 0 0 14.014771296377774 2.5328403760259306 0 2.5328403760259306 -1.493564275071078 0 0 0 0 24.444590628954757 17.412805641095474 0 17.412805641095474 26.200399004392239 0 0 0 0 20.325185411318671 45.655893618960818 0 45.655893618960818 14.914968763250727 0 0 0 0 27.762677539147262 14.391727837449949 0 14.391727837449949 -20.672182532477223 0 0 0 0 1.5396762892784182 2.854863911832517 0 2.854863911832517 1.1836936795331687 0 0 0 0 -73.349252399482793 -4.1376978692062494 0 -4.1376978692062494 134.7070512922337 0 0 0 0 59.14810447274067 -39.771721930002968 0 -39.771721930002968 34.359674342073276 0 0 0 0 112.60026900196681 -47.403943054074716 0 -47.403943054074716 35.31845333896149 0 0 0 0 19.288109195767902 -14.942394174826859 0 -14.942394174826859 19.744411693006441 0 0 0 0 6.5183877542876871 -2.6808603477606994 0 -2.6808603477606994 9.1066167063572721 0 0 0 0 -74.951491671788972 -90.867063670713833 0 -90.867063670713833 -22.658254495460369 0 0 0 0 104.13104334005038 43.527129683360727 0 43.527129683360727 34.863061343679874 0 0 0 0 41.534742741679565 114.80877271551265 0 114.80877271551265 -46.255092526931548 0 0 0 0 29.343237120653839 -2.7670129947675832 0 -2.7670129947675832 -4.6935913504247146 0 0 0 0 -0.61713819518757873 -5.6898939683632452 0 -5.6898939683632452 -0.25803288432491711 0 0 0 0 27.460879424227102 7.3973939380706826 0 7.3973939380706826 -2.3315387292716498 0 0 0 0 262.8130185064656 5.8463000570900476 0 5.8463000570900476 -112.08489939330772 0 0 0 0 -90.451964535383013 10.447034975739825 0 10.447034975739825 134.90047704111021 0 0 0 0 210.21579510642187 62.599903296028288 0 62.599903296028288 9.6252484637789166 0 0 0 0 131.65400131992646 26.114731435484828 0 26.114731435484828 -11.836038952926174 0 0 0 0 60.309193887442234 44.048834879234164 0 44.048834879234164 8.1821103575794041 0 0 0 0 65.153695753440843 47.040606866211874 0 47.040606866211874 8.009995795744544 0 0 0 0 42.627967740409076 115.49686079469257 0 115.49686079469257 111.31038504313813 0 0 0 0 7.7383251238497905 38.490933875712471 0 38.490933875712471 4.021870198976103 0 0 0 0 -43.255504813467269 36.951821614752362 0 36.951821614752362 58.235131739304052 0 0 0 0 28.742479412307148 67.579958446404817 0 67.579958446404817 43.030591253168495 0 0 0 0 -6.9629239393034368 12.588459404774312 0 12.588459404774312 13.150329267675261 0 0 0 0 -11.207057127860026 12.32316567689395 0 12.32316567689395 28.888666529405555 0 0 0 0 30.840992700519564 18.354465731817299 0 18.354465731817299 4.4827720337250412 0 0 0 0 26.352335949864937 54.978142713039233 0 54.978142713039233 -1.488441438208838 0 0 0 0 38.930772987456294 28.322809203564248 0 28.322809203564248 -19.381638395684604 0 0 0 0 32.427725648748435 16.562962106936311 0 16.562962106936311 2.8464499937993484 0 0 0 0 6.7186514428913746 1.9004654361822446 0 1.9004654361822446 0.055701394610650823 0 0 0 0 -11.276528943135418 45.810903838895229 0 45.810903838895229 -31.305243408415663 0 0 0 0 64.824052165757166 21.20652227997698 0 21.20652227997698 -39.855223128834041 0 0 0 0 60.112000851659104 52.333679176851547 0 52.333679176851547 6.0825415740946482 0 0 0 0 7.1530671115760924 26.5834806617288 0 26.5834806617288 -6.0561764289941493 0 0 0 0 59.889776201920199 9.4692029237355566 0 9.4692029237355566 -15.633886921458725 0 0 0 0 54.896862230554689 21.370624660022258 0 21.370624660022258 -22.035692207184184 0 0 0 0 26.104266220761929 16.696091060162871 0 16.696091060162871 6.5907879159040021 0 0 0 0 22.186241123341176 11.630620470344638 0 11.630620470344638 5.6135161389911117 0 0 0 0 46.179513194387255 24.583133909331082 0 24.583133909331082 -24.615069999185835 0 0 0 0 45.968863335991045 12.23353858949622 0 12.23353858949622 -0.56912200240185484 0 0 0 0 9.5058517405061007 11.446770829192914 0 11.446770829192914 0.76095547423834908 0 0 0 0 10.762525396374258 1.8771666470333912 0 1.8771666470333912 -0.35251808373959648 0 0 0 0 76.611541458631109 -1.1010024739262008 0 -1.1010024739262008 -18.27790174868278 0 0 0 0 22.059721164463554 11.508844851717186 0 11.508844851717186 -19.004592076008521 0 0 0 0 4.9275993658476693 5.7839604791082309 0 5.7839604791082309 7.4321207865622352 0 0 0 0 3.7739742099216187 -1.6106444245535982 0 -1.6106444245535982 2.8108256669230443 0 0 0 0 26.77124506070686 -8.2905710042136889 0 -8.2905710042136889 0.075273423134831319 0 0 0 0 10.896196361053086 -0.38033676314489639 0 -0.38033676314489639 0.15740634109449303 0 0 0 0 -2.8837651051217108 -1.9601661428587249 0 -1.9601661428587249 16.842826768734994 0 0 0 0 18.246715782835963 12.997906828691157 0 12.997906828691157 13.456516656624444 0 0 0 0 18.563132573377516 12.348144613657041 0 12.348144613657041 14.738091766779235 0 0 0 0 3.4249616821907694 5.5640779963218847 0 5.5640779963218847 7.4228401019263401 0 0 0 0 3.0752844232513326 5.3253247828073285 0 5.3253247828073285 5.4747335947274074 0 0 0 0 2.5892609856964555 5.0423943596415484 0 5.0423943596415484 7.4448342059840797 0 0 0 0 2.9161622354295105 6.1772634426333752 0 6.1772634426333752 7.7789984404089907 0 0 0 0 4.4030817166130873 6.7645249121387678 0 6.7645249121387678 7.7835377643186803 0 0 0 0 7.0755070201788328 5.5478568327436903 0 5.5478568327436903 3.4190235545907655 0 0 0 0 6.0328722932419794 5.9659764614376485 0 5.9659764614376485 6.6468000364336639 0 0 0 0 28.02894853453472 12.809561889792121 0 12.809561889792121 7.0486411616748228 0 0 0 0 25.780580529157305 14.682824808349778 0 14.682824808349778 10.938598102098695 0 0 0 0 7.3477977614384145 4.7025186404825945 0 4.7025186404825945 5.0074968717126467 0 0 0 0 5.8970959707631323 3.1895725116431635 0 3.1895725116431635 0.49756302722489032 0 0 0 0 1.6604012885749526 6.6390684258597474 0 6.6390684258597474 8.6011156829968805 0 0 0 0 13.15740920524695 10.892584881271432 0 10.892584881271432 10.353317993143719 0 0 0 0 4.1504569829297395 1.3833117032604747 0 1.3833117032604747 0.8026771495748406 0 0 0 0 29.277351550452295 16.188420882189348 0 16.188420882189348 8.8114093140729892 0 0 0 0 0.60331241961830528 5.6035068028459136 0 5.6035068028459136 8.3655083079665928 0 0 0 0 2.1980965644543176 4.4110316760388741 0 4.4110316760388741 8.5774321701073859 0 0 0 0 10.391813787944578 11.707485566247541 0 11.707485566247541 5.4879023057502412 0 0 0 0 12.897759492709554 24.786842432190966 0 24.786842432190966 3.3059483424160501 0 0 0 0 40.873089607979637 15.031633427334327 0 15.031633427334327 3.7698837222785642 0 0 0 0 76.867111531606497 28.725913759058358 0 28.725913759058358 7.2258411921284278 0 0 0 0 35.169899749897013 22.670063985308843 0 22.670063985308843 14.202237413413059 0 0 0 0 37.037496986420592 20.906896720817258 0 20.906896720817258 4.3029843378774331 0 0 0 0 31.767593636344827 17.561169380858246 0 17.561169380858246 11.976152474230048 0 0 0 0 31.364785409845354 19.510449358260303 0 19.510449358260303 12.350079051802595 0 0 0 0 4.8180299662786439 18.465604634041597 0 18.465604634041597 10.874142246650335 0 0 0 0 34.926805490831612 16.719496316173718 0 16.719496316173718 7.1319932661739927 0 0 0 0 29.137172502063549 16.958444699934546 0 16.958444699934546 11.847217020196695 0 0 0 0 36.130993144444801 22.646094926936712 0 22.646094926936712 13.698374894069275 0 0 0 0 91.165643595253641 25.558711516156905 0 25.558711516156905 4.757757613239221 0 0 0 0 39.873371548659634 37.859102023279547 0 37.859102023279547 15.715898705566076 0 0 0 0 11.552463934205775 20.714323117847997 0 20.714323117847997 8.5116971818150091 0 0 0 0 -6.3834030384386464 17.275925184483171 0 17.275925184483171 13.718814546160488 0 0 0 0 -1.5233163151933695 29.608395145356781 0 29.608395145356781 31.137394870564037 0 0 0 0 83.129056693655002 37.884369564734016 0 37.884369564734016 -0.22058001417872219 0 0 0 0 5.1111166875862182 15.502735329978606 0 15.502735329978606 10.599218383989864 0 0 0 0 16.804030201892601 18.97068828866577 0 18.97068828866577 11.604721043475593 0 0 0 0 16.026943983823003 14.900510754638617 0 14.900510754638617 11.94114906419054 0 0 0 0 7.3779836334163917 1.921173328966276 0 1.921173328966276 1.9361582515847466 0 0 0 0 10.379923571970721 10.07565629135388 0 10.07565629135388 10.340224110139388 0 0 0 0 7.0331910731080143 11.714003246831155 0 11.714003246831155 11.82717063786674 0 0 0 0 5.316427418103558 13.084679962154041 0 13.084679962154041 13.066979483519276 0 0 0 0 13.114552940849535 16.070366406802123 0 16.070366406802123 13.528887709295304 0 0 0 0 9.8917816355561996 12.533996968514117 0 12.533996968514117 6.9739605060370309 0 0 0 0 11.488377108151326 14.945811840729448 0 14.945811840729448 33.793281179185357 0 0 0 0 60.638027048604272 71.361156077583274 0 71.361156077583274 39.727705417075526 0 0 0 0 -4.1024822099341804 9.6431998813448985 0 9.6431998813448985 11.391030041245857 0 0 0 0 -2.0941858797895065 5.7961176522205449 0 5.7961176522205449 9.4688948207530927 0 0 0 0 -1.0951469118895716 0.52185175944271123 0 0.52185175944271123 3.2527309551636634 0 0 0 0 -0.72146547558895691 3.6531888206980057 0 3.6531888206980057 8.3864610589498625 0 0 0 0 1.2414701172892819 9.0425061478099451 0 9.0425061478099451 13.941572094176081 0 0 0 0 12.820879871957004 6.5726906268628227 0 6.5726906268628227 5.8864352546770533 0 0 0 0 10.829949568098527 10.77240544867891 0 10.77240544867891 12.690106005071982 0 0 0 0 7.7257445925279171 11.276441412917848 0 11.276441412917848 12.673630756059538 0 0 0 0 86.031946597999195 67.148040163239784 0 67.148040163239784 39.283983217778058 0 0 0 0 16.797266210909584 12.14202567178836 0 12.14202567178836 40.552496561808141 0 0 0 0 161.11786776456574 102.99764117271752 0 102.99764117271752 57.692396144149825 0 0 0 0 137.89661537039501 13.470327749887474 0 13.470327749887474 114.71473964940924 0 0 0 0 98.520113412159844 72.653468074302509 0 72.653468074302509 25.791884014310199 0 0 0 0 88.801705409918213 11.115388358657583 0 11.115388358657583 26.464642594266735 0 0 0 0 3.1519147919025272 5.0893531123770117 0 5.0893531123770117 9.215399960711693 0 0 0 0 -0.80433685978971425 -0.58460572245520837 0 -0.58460572245520837 3.2887213483152067 0 0 0 0 3.1574680821067886 4.755419800193522 0 4.755419800193522 7.5251079649870007 0 0 0 0 12.129666729189921 -10.972703561865274 0 -10.972703561865274 61.042189809410047 0 0 0 0 198.07545224821661 117.82150916888895 0 117.82150916888895 36.813812839936872 0 0 0 0 34.133621729903098 124.20067320482701 0 124.20067320482701 83.867459846482234 0 0 0 0 242.91880163052701 -11.495705421953971 0 -11.495705421953971 11.675989613224374 0 0 0 0 -0.98079671003387148 1.0957267737761072 0 1.0957267737761072 2.653805848650812 0 0 0 0 62.092158886691323 -35.612191589083523 0 -35.612191589083523 23.161592751504941 0 0 0 0 1.195004367832297 1.0368050123363588 0 1.0368050123363588 0.38210894997648381 0 0 0 0 11.911600730541977 18.658933899668227 0 18.658933899668227 0.7358314039902325 0 0 0 0 5.974177940748632 -7.4164693399225143 0 -7.4164693399225143 -11.109283822517682 0 0 0 0 242.17333457496716 72.100601137709418 0 72.100601137709418 -58.475753009777691 0 0 0 0 -7.3148850697107264 13.165884376448503 0 13.165884376448503 41.585268806458771 0 0 0 0 72.609176157115144 45.754340692710684 0 45.754340692710684 27.517985167816732 0 0 0 0 2.6796382520922748 5.4202646551622848 0 5.4202646551622848 5.1199015590896888 0 0 0 0 6.3971789263596293 -3.5629629519739865 0 -3.5629629519739865 14.31521464911566 0 0 0 0 -1.2549570156552363 7.4886176077579876 0 7.4886176077579876 9.9770417926024493 0 0 0 0 91.647913167864317 52.412971622603891 0 52.412971622603891 66.500124001686345 0 0 0 0 40.494941629382083 -2.0945532402483877 0 -2.0945532402483877 27.595558128276593 0 0 0 0 255.69672548837843 55.320048657273219 0 55.320048657273219 -54.796097360534986 0 0 0 0 213.40757987358666 158.90618562133204 0 158.90618562133204 112.07781425461371 0 0 0 0 274.18466534925392 102.30900794553304 0 102.30900794553304 -4.7432101436352241 0 0 0 0 119.46359339154151 -6.5106796850323008 0 -6.5106796850323008 -39.089494647741958 0 0 0 0 282.2332065392111 96.852568407823128 0 96.852568407823128 -45.382258606949108 0 0 0 0 183.57264222195954 91.299716492894731 0 91.299716492894731 0.53335461246751947 0 0 0 0 234.53020636737347 49.630130851723152 0 49.630130851723152 25.573292276389111 0 0 0 0 259.49651315755909 148.99897066437916 0 148.99897066437916 88.406099953144803 0 0 0 0 251.61809066665592 43.017526107278172 0 43.017526107278172 1.4576478951094032 0 0 0 0 223.30847564355645 133.91749170789149 0 133.91749170789149 123.58215096354616 0 0 0 0 106.13396634299716 -4.1223267841760389 0 -4.1223267841760389 15.750790466108811 0 0 0 0 209.10490550244685 61.408736550273716 0 61.408736550273716 -54.78181711342404 0 0 0 0 105.79058936590445 -34.772010625898474 0 -34.772010625898474 -125.74056844181177 0 0 0 0 86.659333235787926 28.577726559919029 0 28.577726559919029 4.8144045241670028 0 0 0 0 -7.2235646069166251 -19.313681548039312 0 -19.313681548039312 -15.460650663040724 0 0 0 0 1.9609354780469346 1.1335504065121427 0 1.1335504065121427 -1.0586351647415508 0 0 0 0 11.669587421660253 24.167621431252883 0 24.167621431252883 47.639346391355502 0 0 0 0 24.624795093855937 8.9454350549203809 0 8.9454350549203809 48.614426361891674 0 0 0 0 38.781084350513993 18.591232941415001 0 18.591232941415001 38.868984096415261 0 0 0 0 52.74789003355545 4.3852879479873081 0 4.3852879479873081 39.005045647867519 0 0 0 0 207.57881350869138 59.386948991659665 0 59.386948991659665 3.4695921593033745 0 0 0 0 199.36896347287984 61.06708365983468 0 61.06708365983468 3.3335991629064665 0 0 0 0 98.761806508657173 91.451439290772214 0 91.451439290772214 86.871221168505144 0 0 0 0 220.6156386612347 2.2724649496421989 0 2.2724649496421989 2.9029370849730185 0 0 0 0 1.9131879849446705 22.561945479740643 0 22.561945479740643 80.681442621144129 0 0 0 0 1.1147547946411294 -1.1015220662952458 0 -1.1015220662952458 2.687885387017424 0 0 0 0 20.838668897449679 -5.1873563807544087 0 -5.1873563807544087 -9.0449678608874819 0 0 0 0 4.3702023772348184 -10.125032656304029 0 -10.125032656304029 70.779397805967164 0 0 0 0 15.492225537644117 1.5056649452344573 0 1.5056649452344573 -30.579876505205903 0 0 0 0 -41.706172060396057 -8.7494418253554613 0 -8.7494418253554613 29.466940209382301 0 0 0 0 2.411515614869657 -0.9905657579990077 0 -0.9905657579990077 -1.5935001381114375 0 0 0 0 1.324388420712495 -1.9320522928996482 0 -1.9320522928996482 4.6935413884613908 0 0 0 0 46.96580620951363 57.148675417298193 0 57.148675417298193 23.728167010121979 0 0 0 0 -33.469497721758671 62.642189522557601 0 62.642189522557601 25.567496482033675 0 0 0 0 17.649110437763738 29.558894329311443 0 29.558894329311443 36.621382817731501 0 0 0 0 45.022791273149778 26.507206773103462 0 26.507206773103462 19.775124724049192 0 0 0 0 11.309499309631065 -0.054509080109710339 0 -0.054509080109710339 -1.4729230238335731 0 0 0 0 18.567078605483402 24.383824675018332 0 24.383824675018332 19.621682609493291 0 0 0 0 6.7868624563020745 2.1271573484136042 0 2.1271573484136042 4.5729327722575022 0 0 0 0 8.5481925324146744 -0.51427326422398068 0 -0.51427326422398068 -0.48548152511187226 0 0 0 0 113.53280965084559 -2.4500630233706033 0 -2.4500630233706033 -3.2450250166803016 0 0 0 0 51.398684495536145 2.9616613373891596 0 2.9616613373891596 3.3561516709432908 0 0 0 0 9.2314584668689292 -7.209759757418766 0 -7.209759757418766 6.9284234994676055 0 0 0 0 54.295358098155702 9.1801473412921268 0 9.1801473412921268 2.7294032252666511 0 0 0 0 65.005835770432896 -2.7103864803339093 0 -2.7103864803339093 8.5007441025773005 0 0 0 0 26.90111739428599 -5.5339093468612788 0 -5.5339093468612788 -5.8502409217283571 0 0 0 0 60.861525546875782 9.6282743232823123 0 9.6282743232823123 0.17604267381602767 0 0 0 0 51.600131565894117 29.049974873529663 0 29.049974873529663 4.863988981473085 0 0 0 0 31.586494447055316 24.968556318301381 0 24.968556318301381 14.583858922456358 0 0 0 0 47.722922277120233 18.506726970525051 0 18.506726970525051 -0.80025749766355148 0 0 0 0 5.8244634294130435 -12.289779457354918 0 -12.289779457354918 -7.5449578879024308 0 0 0 0 24.057904060644745 24.819823860791189 0 24.819823860791189 8.1450604717632089 0 0 0 0 39.444868716818746 19.733538555094128 0 19.733538555094128 -48.870870724256747 0 0 0 0 44.945700503199362 11.337576186644696 0 11.337576186644696 -12.476093483407405 0 0 0 0 70.867702266544683 2.1910040585224806 0 2.1910040585224806 -33.702205678163764 0 0 0 0 169.19274117598252 -35.123698001726666 0 -35.123698001726666 -274.95128997989821 0 0 0 0 78.138469845012878 -142.4265201533828 0 -142.4265201533828 6.5048417396251352 0 0 0 0 8.1889795870374655 -53.732611170234065 0 -53.732611170234065 114.19279375894871 0 0 0 0 49.18597212654123 2.2043277552893059 0 2.2043277552893059 -10.114233681118861 0 0 0 0 81.96467370443861 -110.04343242654113 0 -110.04343242654113 -116.84959930146397 0 0 0 0 7.5909091614885256 -11.417223092598931 0 -11.417223092598931 -32.949217545987949 0 0 0 0 40.289065997727448 44.952931982460541 0 44.952931982460541 57.843991454973235 0 0 0 0 46.98775875921001 51.261082926078522 0 51.261082926078522 58.287372988499328 0 0 0 0 47.704710104927472 45.571552439630459 0 45.571552439630459 52.045457773629096 0 0 0 0 219.9158096107567 67.652478931004197 0 67.652478931004197 -5.2513680054729548 0 0 0 0 95.264643409769633 130.72727999806648 0 130.72727999806648 191.86554504986424 0 0 0 0 2.4965998943842749 -0.67802196232137568 0 -0.67802196232137568 0.37855528604320499 0 0 0 0 46.189527986891335 8.8683189463599774 0 8.8683189463599774 -7.8261922144099572 0 0 0 0 48.454048406652873 15.010341752949898 0 15.010341752949898 -1.95795863305284 0 0 0 0 36.026267319039619 3.4834136092019534 0 3.4834136092019534 -8.8573893138289357 0 0 0 0 33.655420340510318 17.224864768119915 0 17.224864768119915 4.9676856626392691 0 0 0 0 34.571549244981725 3.1275582443413441 0 3.1275582443413441 31.090076909172211 0 0 0 0 39.165855794082745 27.740513048545495 0 27.740513048545495 28.143832954941402 0 0 0 0 6.3404660679976246 -4.7286880367183119 0 -4.7286880367183119 -1.4404945763448584 0 0 0 0 29.939515669371758 43.757343145710763 0 43.757343145710763 89.709221600369233 0 0 0 0 4.390088190337579 0.82680571475434306 0 0.82680571475434306 -0.42358855584629618 0 0 0 0 42.128702229601913 25.069906648975689 0 25.069906648975689 59.305463276145758 0 0 0 0 42.436624174093595 26.079730402372206 0 26.079730402372206 59.789484957102445 0 0 0 0 42.860852646415879 9.9032247069908408 0 9.9032247069908408 3.6039968392833543 0 0 0 0 70.814199125728919 -0.9503248253458878 0 -0.9503248253458878 -27.454909551147466 0 0 0 0 30.540772121553942 0.95225356553770268 0 0.95225356553770268 -10.728735200024632 0 0 0 0 45.270155871724114 3.5572120335403241 0 3.5572120335403241 -15.488822344983518 0 0 0 0 -2.7920938232891785 -18.933450855399919 0 -18.933450855399919 -17.717529502697261 0 0 0 0 62.115732776059303 34.257760888591292 0 34.257760888591292 1.1225569508515036 0 0 0 0 46.062568073626181 9.8918490458278381 0 9.8918490458278381 -12.765655652695358 0 0 0 0 56.996897667209851 34.305618603519179 0 34.305618603519179 1.9714992329390952 0 0 0 0 83.49412391012811 19.322233400360574 0 19.322233400360574 10.440115312296257 0 0 0 0 71.431623869240866 47.96282956619325 0 47.96282956619325 38.214762415710538 0 0 0 0 80.858350920767407 29.728341843961971 0 29.728341843961971 -1.9127209981825217 0 0 0 0 70.560206231763004 26.525769388174012 0 26.525769388174012 11.611396246311415 0 0 0 0 81.466481902878968 55.825910599589093 0 55.825910599589093 39.193646658452053 0 0 0 0 108.66185218257306 53.986604554867881 0 53.986604554867881 26.776648213412045 0 0 0 0 70.513676007110917 48.95086465408076 0 48.95086465408076 37.248922466651493 0 0 0 0 81.691215510619259 63.414082798809545 0 63.414082798809545 50.271408434098703 0 0 0 0 72.471016492376293 60.736356831801231 0 60.736356831801231 95.794796191701607 0 0 0 0 85.303971078734321 72.973893506957211 0 72.973893506957211 49.78732068897807 0 0 0 0 -2.3701961618193721 -1.8552325710526816 0 -1.8552325710526816 2.0812041243343344 0 0 0 0 -14.56838550100656 -10.654882067019571 0 -10.654882067019571 10.375228437382248 0 0 0 0 -4.0270350428158963 8.8596296058996558 0 8.8596296058996558 10.464915544812172 0 0 0 0 5.8782074267694924 11.212918774601562 0 11.212918774601562 12.890989091378618 0 0 0 0 11.740364022019293 22.675307590850011 0 22.675307590850011 24.178471883615785 0 0 0 0 -83.896369929301727 64.831506202128821 0 64.831506202128821 123.73547814186531 0 0 0 0 26.911395624949364 26.564861351638228 0 26.564861351638228 22.908815257182141 0 0 0 0 27.292454233538592 21.210989844827964 0 21.210989844827964 20.326757265726428 0 0 0 0 129.67988530482398 32.606730826460989 0 32.606730826460989 -44.78956473277583 0 0 0 0 92.796262601172202 -9.4002888767390687 0 -9.4002888767390687 52.059563660752247 0 0 0 0 78.481965592323832 33.681808181298948 0 33.681808181298948 2.7205859222667641 0 0 0 0 3.0926712929503992 13.285364534963264 0 13.285364534963264 16.426315191764843 0 0 0 0 5.2389707601105329 13.979231859493211 0 13.979231859493211 19.126442088283966 0 0 0 0 -4.3793612104832826 11.34168093504951 0 11.34168093504951 15.178615481109544 0 0 0 0 3.8322209371326608 12.342652886098222 0 12.342652886098222 17.620501851804875 0 0 0 0 6.8731140348390909 11.016816170927541 0 11.016816170927541 15.805060182379748 0 0 0 0 6.1969324846472915 3.7347780285875061 0 3.7347780285875061 1.5604459750709125 0 0 0 0 26.765189890902548 26.499926208943634 0 26.499926208943634 26.459509792934114 0 0 0 0 15.895567406798364 19.976112653517703 0 19.976112653517703 10.688924284675068 0 0 0 0 27.223740197252482 21.00161805562584 0 21.00161805562584 27.506377384347616 0 0 0 0 6.2420047125415294 10.826920710766444 0 10.826920710766444 12.745529970699863 0 0 0 0 14.376298219023738 22.312292965206325 0 22.312292965206325 39.085873519779852 0 0 0 0 1.1794155426468933 10.176338695370305 0 10.176338695370305 20.948468342442538 0 0 0 0 -0.95284854405298169 11.522608690263169 0 11.522608690263169 17.714036481741353 0 0 0 0 1.6954421069349337 9.8862927056734407 0 9.8862927056734407 18.168299932270202 0 0 0 0 36.507874004135374 20.699298968098446 0 20.699298968098446 14.816985220710194 0 0 0 0 23.97227317096258 12.972985269108221 0 12.972985269108221 15.653199391039379 0 0 0 0 26.092324011442088 8.5092099731251167 0 8.5092099731251167 -2.7024751313127151 0 0 0 0 30.145577619375217 13.371345810260337 0 13.371345810260337 36.520608819860172 0 0 0 0 26.341326189893152 22.258744084749878 0 22.258744084749878 27.549234797766985 0 0 0 0 32.57624162594584 29.091253977694578 0 29.091253977694578 33.699583317317774 0 0 0 0 3.6838471516226496 13.740466888681155 0 13.740466888681155 20.230331563834412 0 0 0 0 246.60676650924506 -69.905320935065362 0 -69.905320935065362 82.839271026016604 0 0 0 0 0.71190960758394795 7.7827881611606244 0 7.7827881611606244 11.676520832572123 0 0 0 0 41.162691572040785 26.97814126383355 0 26.97814126383355 22.957607594020374 0 0 0 0 4.6504463775034495 10.136862193420257 0 10.136862193420257 18.361656221936606 0 0 0 0 4.2313712548975673 12.470058201645003 0 12.470058201645003 16.224437758592103 0 0 0 0 421.51300215841184 -72.26766508519961 0 -72.26766508519961 -2.4387686994096498 0 0 0 0 21.511657692833637 24.623580118561961 0 24.623580118561961 21.346199142637101 0 0 0 0 19.720322136010509 76.929029955303122 0 76.929029955303122 -5.7846139574830886 0 0 0 0 72.964683839134523 46.030865489707139 0 46.030865489707139 -21.312833646205945 0 0 0 0 12.705640208111177 7.6172407893909053 0 7.6172407893909053 4.3912795569139504 0 0 0 0 45.717553562099056 17.410031391326811 0 17.410031391326811 18.235158337818575 0 0 0 0 91.020676170883235 30.389126155236227 0 30.389126155236227 -15.522163292935147 0 0 0 0 75.94959967811883 78.687051363509454 0 78.687051363509454 -42.229269034083018 0 0 0 0 14.488641003219527 24.654107202635714 0 24.654107202635714 21.901948669871672 0 0 0 0 39.050112482960685 28.970448019105788 0 28.970448019105788 27.883426490100192 0 0 0 0 26.965869294864206 24.083358144712633 0 24.083358144712633 18.811757667036545 0 0 0 0 20.025655220476949 13.344769265684768 0 13.344769265684768 -1.8948758890704482 0 0 0 0 30.917887246629107 30.09214138907555 0 30.09214138907555 28.663998115005143 0 0 0 0 36.436602146266324 8.7690421127315048 0 8.7690421127315048 -3.9128382084514612 0 0 0 0 39.689308511777199 22.522235459965941 0 22.522235459965941 14.616611226947498 0 0 0 0 60.570692142937332 11.891205775253184 0 11.891205775253184 8.7624958357591822 0 0 0 0 30.521793492909353 20.855773278744408 0 20.855773278744408 13.700892763620057 0 0 0 0 -1.9649454326136038 8.8815816903206724 0 8.8815816903206724 30.762783512851456 0 0 0 0 23.428795092427308 22.333461610322018 0 22.333461610322018 9.7407919658388167 0 0 0 0 38.156407544675744 15.057797070977324 0 15.057797070977324 -2.1144855641606899 0 0 0 0 28.316870525326436 12.729794144202998 0 12.729794144202998 -1.8846424374249864 0 0 0 0 27.383518668662873 21.305102946245825 0 21.305102946245825 2.0557355659657333 0 0 0 0 54.704071791755268 20.709615332473732 0 20.709615332473732 -1.420683046359045 0 0 0 0 56.425839451389038 24.557356732533663 0 24.557356732533663 5.7988257813085511 0 0 0 0 79.670163856091676 19.073112816260618 0 19.073112816260618 -1.8082829536451754 0 0 0 0 0.83431378003473355 0.063386649426831809 0 0.063386649426831809 -0.15186447795982261 0 0 0 0 30.977248481129209 12.129310883623162 0 12.129310883623162 -3.1034459257291473 0 0 0 0 40.932415587965806 16.689065046086512 0 16.689065046086512 -3.1775513829228998 0 0 0 0 36.022052478122788 10.934138510322764 0 10.934138510322764 -5.8825862704447616 0 0 0 0 3.7623951573604941 10.524191010184985 0 10.524191010184985 1.0576801242483422 0 0 0 0 -130.52058830706665 -53.337368130179641 0 -53.337368130179641 237.55229265519597 0 0 0 0 19.018695263825066 59.946557000619009 0 59.946557000619009 -5.4025224261013705 0 0 0 0 0.28119391380718639 0.47480916943221985 0 0.47480916943221985 2.2604743670392877 0 0 0 0 129.99313943377274 2.9159669500847372 0 2.9159669500847372 9.7781973003773572 0 0 0 0 161.42680614006531 -30.23253944781095 0 -30.23253944781095 -0.11598018064523785 0 0 0 0 24.435904235964699 14.585947497256143 0 14.585947497256143 -6.0970887026196579 0 0 0 0 46.31846789620613 11.871323402141684 0 11.871323402141684 -7.6140716303873432 0 0 0 0 502.51244460012822 -84.993416555869601 0 -84.993416555869601 28.360445171318361 0 0 0 0 429.77140334260184 -142.50971270475864 0 -142.50971270475864 58.671321268903569 0 0 0 0 459.4119944872873 -149.17486765888199 0 -149.17486765888199 30.593551121752618 0 0 0 0 436.17793062520286 -47.02200643463258 0 -47.02200643463258 26.358816203743658 0 0 0 0 371.24510490492685 -145.70398159290187 0 -145.70398159290187 30.542521668768305 0 0 0 0 373.37665861578694 -33.909609831923348 0 -33.909609831923348 24.50115123609342 0 0 0 0 505.61618403898319 -157.15988033144006 0 -157.15988033144006 -4.4456653318426902 0 0 0 0 4.6840608832231965 6.9997937416880571 0 6.9997937416880571 5.1281352962409015 0 0 0 0 200.08684413514857 -143.92974895392103 0 -143.92974895392103 190.07345796119751 0 0 0 0 -0.51735145162092522 70.845348040757699 0 70.845348040757699 50.652336621851816 0 0 0 0 -41.855603940057335 -14.642512111834662 0 -14.642512111834662 111.96519810768066 0 0 0 0 21.908538973389707 16.886844669751852 0 16.886844669751852 26.357308583645171 0 0 0 0 8.8485329502102417 14.903261740634278 0 14.903261740634278 13.44294983134397 0 0 0 0 8.8980481368489563 11.213984548323424 0 11.213984548323424 1.8396275772101944 0 0 0 0 22.775820739783963 9.0308647110804259 0 9.0308647110804259 7.4235307145956302 0 0 0 0 15.982670544995869 29.55006505489516 0 29.55006505489516 35.52839711093096 0 0 0 0 24.506798715563491 23.995765433723136 0 23.995765433723136 36.679530815686121 0 0 0 0 20.905087831779383 19.780626515361291 0 19.780626515361291 37.55022845488611 0 0 0 0 73.728316600841936 83.757766603854805 0 83.757766603854805 -34.968420614656168 0 0 0 0 25.391576394711223 10.351574046380463 0 10.351574046380463 -3.2741571426986424 0 0 0 0 268.90524257326615 -180.15352754214155 0 -180.15352754214155 -21.881176764269355 0 0 0 0 170.51774550248956 27.39325927241913 0 27.39325927241913 -42.642094151889978 0 0 0 0 128.41119530541255 -16.959589545686754 0 -16.959589545686754 15.943547696465885 0 0 0 0 -22.625796786087449 95.946843487659237 0 95.946843487659237 10.694313354956307 0 0 0 0 32.489946901529038 5.0541182985512592 0 5.0541182985512592 17.337039767452438 0 0 0 0 29.538485654695251 14.125594669514271 0 14.125594669514271 89.99941276484742 0 0 0 0 563.85612540351849 -164.53847103478154 0 -164.53847103478154 37.098412568364438 0 0 0 0 310.96453127928544 -245.3549747182654 0 -245.3549747182654 66.866471883375652 0 0 0 0 5.2056490166802476 0.074986249774738667 0 0.074986249774738667 -2.5824691572324738 0 0 0 0 5.3016922763085086 1.8219322378753589 0 1.8219322378753589 1.7236832712790819 0 0 0 0 349.70456152523548 -107.87265122969154 0 -107.87265122969154 155.56284507630062 0 0 0 0 459.14714806034317 -226.90310727536763 0 -226.90310727536763 160.56725245353937 0 0 0 0 366.94841079661273 -156.98987427722147 0 -156.98987427722147 119.18560919116561 0 0 0 0 501.2590124100592 -180.33146878297512 0 -180.33146878297512 78.677024816222115 0 0 0 0 392.83614182839665 -115.59850987051504 0 -115.59850987051504 24.527973127343557 0 0 0 0 374.62832829872787 -133.63051257304062 0 -133.63051257304062 13.695974283914609 0 0 0 0 174.15534477479196 18.125826577855605 0 18.125826577855605 9.091188741806036 0 0 0 0 600.11317127348957 11.225573663133673 0 11.225573663133673 -0.85378224867440622 0 0 0 0 0.92820087219986647 -1.6524512973182226 0 -1.6524512973182226 3.4440922370652109 0 0 0 0 -11.447070718129908 -133.3683763570761 0 -133.3683763570761 223.2156968203974 0 0 0 0 363.84615233436853 -164.58086717881937 0 -164.58086717881937 9.0971073862569938 0 0 0 0 495.06671539020681 -243.64340573038226 0 -243.64340573038226 29.02566175061861 0 0 0 0 18.868681617462926 8.5812703595009197 0 8.5812703595009197 -7.3192620669202899 0 0 0 0 5.7850598328655565 -5.4082177094159221 0 -5.4082177094159221 7.6742882590584554 0 0 0 0 23.462482641469251 -18.394726746623803 0 -18.394726746623803 -9.3767346506276681 0 0 0 0 26.213966120529221 -10.903270965957233 0 -10.903270965957233 36.178810616040778 0 0 0 0 62.503992405083409 -13.306872095756603 0 -13.306872095756603 -10.006013668044787 0 0 0 0 32.105484469953808 23.04014755153554 0 23.04014755153554 11.648337739205544 0 0 0 0 23.81742383390079 9.5517859818923441 0 9.5517859818923441 -4.2884687236830947 0 0 0 0 32.450791026079969 5.5816164913211708 0 5.5816164913211708 -9.2099270048591961 0 0 0 0 29.57799694208552 -10.369231684949867 0 -10.369231684949867 -8.3252366523831824 0 0 0 0 67.688443773207837 -4.8197255123227478 0 -4.8197255123227478 -10.28786197231409 0 0 0 0 47.715715550097229 1.4483709218966965 0 1.4483709218966965 -4.7328497474880464 0 0 0 0 46.748247540344892 -0.70410089168660761 0 -0.70410089168660761 -8.612298046388851 0 0 0 0 161.59421276417561 -9.3573665681948341 0 -9.3573665681948341 62.168391521510955 0 0 0 0 -0.1513114154987818 -0.10486248128258069 0 -0.10486248128258069 -0.22256118597667696 0 0 0 0 -39.473128801846542 67.566159858277146 0 67.566159858277146 -43.999125617915411 0 0 0 0 153.52596110567538 -42.936491005951382 0 -42.936491005951382 -29.283204264101073 0 0 0 0 73.240723364100631 -38.640153768624771 0 -38.640153768624771 -7.872419598184365 0 0 0 0 221.88720262149582 2.773705864013337 0 2.773705864013337 -79.101261062632602 0 0 0 0 232.00045371745364 -57.875905936898647 0 -57.875905936898647 -99.637728190636153 0 0 0 0 206.37980050531041 -97.026189159322371 0 -97.026189159322371 -88.638779279981009 0 0 0 0 124.78546509347507 -102.12672870308336 0 -102.12672870308336 -66.976453068967203 0 0 0 0 144.49900659179548 -25.409417483042489 0 -25.409417483042489 -48.911357981083256 0 0 0 0 99.17921265358018 -0.097042662524302159 0 -0.097042662524302159 -10.176503346524214 0 0 0 0 170.06558787607355 54.244728340576785 0 54.244728340576785 -30.076086292880973 0 0 0 0 39.405219486292481 -27.862555820145275 0 -27.862555820145275 -10.489330152178354 0 0 0 0 49.511402929143514 -44.544597022769722 0 -44.544597022769722 -11.392420749581561 0 0 0 0 8.8066977282557701 0.66491642301841125 0 0.66491642301841125 -1.6361265880397799 0 0 0 0 142.28439345076913 -30.131809716734779 0 -30.131809716734779 -52.49889243160294 0 0 0 0 145.97433949749029 22.558666107228689 0 22.558666107228689 -24.64759349455835 0 0 0 0 120.51964242820395 20.310360988356024 0 20.310360988356024 -24.761624043323735 0 0 0 0 101.15487482461685 23.628677073597487 0 23.628677073597487 -6.4278346393775792 0 0 0 0 104.87095430293084 2.6590486925485095 0 2.6590486925485095 -9.0588376736709506 0 0 0 0 138.1805593848112 41.569797968232251 0 41.569797968232251 -15.649825556889482 0 0 0 0 122.41455860051792 61.938779172260183 0 61.938779172260183 2.8049382447852622 0 0 0 0 103.52066313539399 56.024310708191479 0 56.024310708191479 14.410093613554636 0 0 0 0 106.19659334886819 39.39204587045333 0 39.39204587045333 1.5449879183042867 0 0 0 0 91.919727926579071 30.255280230859853 0 30.255280230859853 -3.1791733382005987 0 0 0 0 107.28399724593328 51.197533778745878 0 51.197533778745878 17.052069479825605 0 0 0 0 70.66583066774183 4.7773957269539551 0 4.7773957269539551 -2.4298622768285441 0 0 0 0 83.264913409162546 4.2390510331561018 0 4.2390510331561018 -4.2130731398453918 0 0 0 0 104.22351497178897 21.144844927316171 0 21.144844927316171 -9.1772536852320172 0 0 0 0 92.498914384224918 22.920504781496106 0 22.920504781496106 2.578023593880971 0 0 0 0 72.817262967117131 9.8596302731195919 0 9.8596302731195919 -4.3014094313653004 0 0 0 0 84.935481081236503 32.2625591175821 0 32.2625591175821 16.5803561037701 0 0 0 0 71.22003965289332 6.2598800442847278 0 6.2598800442847278 -0.41942873403058911 0 0 0 0 60.604465699114371 -6.1699222664717581 0 -6.1699222664717581 -8.0186780847595855 0 0 0 0 12.510251423573209 5.3393239179265777 0 5.3393239179265777 -23.452452078319027 0 0 0 0 71.995663497975329 4.1082503975169402 0 4.1082503975169402 -9.7852135644311602 0 0 0 0 69.399240127142548 -3.93922582741844 0 -3.93922582741844 -18.171414976706046 0 0 0 0 55.572840041990275 -4.5149356631316664 0 -4.5149356631316664 0.37504905840228275 0 0 0 0 3.4346436836070495 0.54331108982630383 0 0.54331108982630383 -2.3729025853675267 0 0 0 0 15.734907799909706 -5.6200101910931011 0 -5.6200101910931011 -17.638840105089798 0 0 0 0 55.067176303695305 53.839911323783838 0 53.839911323783838 -15.079616398025834 0 0 0 0 1.1138016487594911 2.732907231793007 0 2.732907231793007 -2.1461350202255383 0 0 0 0 4.7682990458852146 12.714421679634995 0 12.714421679634995 -28.697926185539814 0 0 0 0 4.1019914908101782 -0.78193977433684836 0 -0.78193977433684836 -29.440683775020652 0 0 0 0 2.9183811814436922 -3.6058465267232123 0 -3.6058465267232123 -7.9687456014462441 0 0 0 0 -5.6305622389045311 9.8995739766097017 0 9.8995739766097017 -10.401121852860996 0 0 0 0 9.0181509011272283 7.4819903364443689 0 7.4819903364443689 -24.091509099311224 0 0 0 0 22.641253763897112 17.215961060583879 0 17.215961060583879 -43.578270769564256 0 0 0 0 -1.0185149314784212 22.239504101845114 0 22.239504101845114 -32.169145302633467 0 0 0 0 -22.426272922049975 24.123189663124833 0 24.123189663124833 -21.864131162183639 0 0 0 0 40.11486533164134 20.66871154435438 0 20.66871154435438 -62.556819340902308 0 0 0 0 6.9566435389860999 39.433606036895668 0 39.433606036895668 -68.522496737129813 0 0 0 0 35.431659024408873 22.086075503419409 0 22.086075503419409 -44.197388572268437 0 0 0 0 31.30899020745801 62.282799307326066 0 62.282799307326066 -83.277560140473383 0 0 0 0 16.069751920556882 3.6522404264166255 0 3.6522404264166255 -59.813103634603237 0 0 0 0 58.14606881869986 3.4337137964083126 0 3.4337137964083126 -60.356592674931662 0 0 0 0 18.291206334433809 -30.261061555099673 0 -30.261061555099673 -50.836454774795584 0 0 0 0 39.941851957257313 -3.8359012356953031 0 -3.8359012356953031 -44.062836480163426 0 0 0 0 85.454461239459306 -22.391598502485444 0 -22.391598502485444 -43.180881098108443 0 0 0 0 58.653878983975098 55.805201953102333 0 55.805201953102333 -19.053308491308599 0 0 0 0 58.599681845415034 15.816490661873729 0 15.816490661873729 -42.517305152351526 0 0 0 0 103.80711470728784 64.972935598630499 0 64.972935598630499 -0.93075519228409576 0 0 0 0 43.754731093955343 39.925168825091305 0 39.925168825091305 50.100128243133184 0 0 0 0 51.109018474351615 39.219638925419247 0 39.219638925419247 18.099546346409056 0 0 0 0 46.948606665057014 37.100515404487282 0 37.100515404487282 17.592828405594105 0 0 0 0 55.789286355171498 38.390839841712449 0 38.390839841712449 -16.82997056272518 0 0 0 0 47.051624623272801 32.043433294311626 0 32.043433294311626 13.382690958465886 0 0 0 0 47.322591166692291 28.719769531049536 0 28.719769531049536 12.944651384887038 0 0 0 0 38.519123355814372 18.653571082552048 0 18.653571082552048 8.8273098828560705 0 0 0 0 48.052450721777859 31.78913520256242 0 31.78913520256242 -8.0269378030836833 0 0 0 0 51.196810684246884 21.786181608812399 0 21.786181608812399 -13.455241872937023 0 0 0 0 101.3172666328901 -2.0587738491140612 0 -2.0587738491140612 -29.455366980379608 0 0 0 0 59.771163949233596 25.371049532791261 0 25.371049532791261 -39.559485103769589 0 0 0 0 60.701590199139901 24.830272244216815 0 24.830272244216815 -53.074300654324702 0 0 0 0 55.336520412805839 34.626265202011609 0 34.626265202011609 -16.387286804891296 0 0 0 0 2346.6807119726909 -422.85513103883613 0 -422.85513103883613 -643.69097646541786 0 0 0 0 2085.4818791403231 -890.90222903940003 0 -890.90222903940003 -234.83316889970408 0 0 0 0 1042.7546554991386 -28.834342948147849 0 -28.834342948147849 -35.638941198605494 0 0 0 0 1238.2352283545661 -399.88935999884546 0 -399.88935999884546 123.29659087392878 0 0 0 0 1124.8255464773138 -489.52195643074856 0 -489.52195643074856 216.32499590830923 0 0 0 0 1351.327052132001 -441.63201161850907 0 -441.63201161850907 135.70536960314041 0 0 0 0 12.1908398543262 -0.57713921128506485 0 -0.57713921128506485 -2.6748288661603925 0 0 0 0 1252.6059457187621 -538.12169961812026 0 -538.12169961812026 231.91430551354097 0 0 0 0 3500.3883150752554 -1161.2835453591149 0 -1161.2835453591149 -425.73933312580124 0 0 0 0 1975.9855386958334 -1418.8813410305365 0 -1418.8813410305365 932.04229441706445 0 0 0 0 5073.0251728644434 -2116.9067343963648 0 -2116.9067343963648 1069.1604176099429 0 0 0 0 3502.2355143483655 -593.58741036080528 0 -593.58741036080528 1620.8566544063842 0 0 0 0 14.01860025060671 1.4280108457725511 0 1.4280108457725511 0.16201751551378951 0 0 0 0 1010.6278651620669 1113.428946624548 0 1113.428946624548 -171.70578181513315 0 0 0 0 4132.9048853003715 756.66767246777499 0 756.66767246777499 -834.10944251526394 0 0 0 0 2063.0499312639295 -76.656182805772374 0 -76.656182805772374 -375.02234678074456 0 0 0 0 119.81556605380683 -422.03877037673396 0 -422.03877037673396 -169.71955164728206 0 0 0 0 1123.2605378536291 -141.08894351678441 0 -141.08894351678441 -265.89457183002958 0 0 0 0 981.19468235589738 488.85085525476626 0 488.85085525476626 148.09250952669353 0 0 0 0 -167.45125815598294 -120.74026953800364 0 -120.74026953800364 36.388574542713158 0 0 0 0 106.89041791518321 -82.948419382520484 0 -82.948419382520484 -621.89704017111364 0 0 0 0 33.598973008800016 4.7670257087784833 0 4.7670257087784833 -5.1357320116649774 0 0 0 0 7.7361864121509782 0.30539464762907187 0 0.30539464762907187 -10.145579874436446 0 0 0 0 43.396316712070984 -6.9044660713271924 0 -6.9044660713271924 -2.4270665722247031 0 0 0 0 -303.78758932463825 -337.26100273489197 0 -337.26100273489197 -30.126054785752558 0 0 0 0 56.513618199584016 11.063288915978092 0 11.063288915978092 17.711582275415367 0 0 0 0 179.89636324961612 -11.954719698998588 0 -11.954719698998588 1.0795118462554001 0 0 0 0 112.80690287823745 -65.252083635152985 0 -65.252083635152985 47.413804148715826 0 0 0 0 56.128576861909096 30.595171919684731 0 30.595171919684731 -43.074652359251104 0 0 0 0 29.705941737816829 -23.413992625472588 0 -23.413992625472588 -18.877335042025152 0 0 0 0 -33.074356994695336 -185.85414149985013 0 -185.85414149985013 89.014151348017663 0 0 0 0 293.25964437763469 -8.6953557361986213 0 -8.6953557361986213 -203.72615792712043 0 0 0 0 34.515293411234865 -3.4999862625009435 0 -3.4999862625009435 -8.8777574150719332 0 0 0 0 761.1896684532876 -328.77063931599611 0 -328.77063931599611 -93.88693916416193 0 0 0 0 -62.028331885023363 133.96233925483344 0 133.96233925483344 96.534766935021707 0 0 0 0 -91.670440400768712 3.7338516971624358 0 3.7338516971624358 80.831006305332664 0 0 0 0 -87.440468710876303 3.7272815850172947 0 3.7272815850172947 0.50779478135916634 0 0 0 0 2.2137758635433613 0.77256425908532123 0 0.77256425908532123 -1.3132406659933902 0 0 0 0 -59.120671387972834 94.80433442213274 0 94.80433442213274 -72.88770196395626 0 0 0 0 68.228504705668456 20.32275470106347 0 20.32275470106347 115.6361840531228 0 0 0 0 476.67854952175549 14.83460961770902 0 14.83460961770902 7.8904966306193955 0 0 0 0 294.89430523452029 106.13668223786961 0 106.13668223786961 44.691755998753052 0 0 0 0 332.61791390880171 -33.073311134710181 0 -33.073311134710181 66.701035549160054 0 0 0 0 1.8022068503778996 -1.8051119617945233 0 -1.8051119617945233 2.4447683190977401 0 0 0 0 103.26814494767314 164.87166255024192 0 164.87166255024192 99.553205143620517 0 0 0 0 1.4686222615237057 -56.826872858217712 0 -56.826872858217712 -23.311007348875137 0 0 0 0 8.1625854184561319 -10.350960576371428 0 -10.350960576371428 13.209601566975206 0 0 0 0 376.62415984769541 -34.003062362727007 0 -34.003062362727007 47.287950514051772 0 0 0 0 49.710237634026271 -10.697455315878869 0 -10.697455315878869 -39.020676742684827 0 0 0 0 26.509325205724252 -6.3604557792833649 0 -6.3604557792833649 -5.4827808156137623 0 0 0 0 73.900192472923663 1.6950578939154184 0 1.6950578939154184 -4.7873653273488799 0 0 0 0 35.146351020759539 -38.96785575618344 0 -38.96785575618344 101.0339459072502 0 0 0 0 116.92924388531719 -143.13362360175563 0 -143.13362360175563 110.99198818488912 0 0 0 0 91.541214282384317 -89.777817631419566 0 -89.777817631419566 19.388939045476491 0 0 0 0 81.5593886695533 -193.96633893130246 0 -193.96633893130246 39.659785414628459 0 0 0 0 168.86234546691412 -379.93244311389776 0 -379.93244311389776 370.67517781191145 0 0 0 0 46.532199246954406 -9.3513096169861001 0 -9.3513096169861001 -27.853703241933687 0 0 0 0 1.9063974409430386 -2.7604068206586305 0 -2.7604068206586305 6.0419197964076909 0 0 0 0 -81.193230995009799 -71.669647751928778 0 -71.669647751928778 307.91583100303797 0 0 0 0 691.00306947613717 -365.24553661688992 0 -365.24553661688992 217.53478135012756 0 0 0 0 806.06382065723301 -71.5276579388767 0 -71.5276579388767 49.66765554123026 0 0 0 0 1346.2083668391861 -87.613795042409492 0 -87.613795042409492 -60.574293898464248 0 0 0 0 283.56528262739448 296.6108220795129 0 296.6108220795129 398.85099300358138 0 0 0 0 363.34375584829831 72.775289057933435 0 72.775289057933435 -33.637881585516425 0 0 0 0 809.41391833496891 269.43932619924487 0 269.43932619924487 42.436646172842302 0 0 0 0 869.45784624011139 -164.14586862639146 0 -164.14586862639146 -113.15978702620328 0 0 0 0 69.242934821093513 117.84906256365633 0 117.84906256365633 99.498161187524602 0 0 0 0 317.2542644742116 204.68912673881601 0 204.68912673881601 82.843999621633884 0 0 0 0 49.737566034469637 60.868164874866125 0 60.868164874866125 216.77198698718985 0 0 0 0 -10.643136882921681 -3.5286549841011947 0 -3.5286549841011947 23.376596402709765 0 0 0 0 77.990493228724517 -12.272174989834411 0 -12.272174989834411 -2.8250378315213993 0 0 0 0 -7.5948171709359542 2.8961274845801555 0 2.8961274845801555 13.780888333000455 0 0 0 0 1.2980558484996436 10.843308226317504 0 10.843308226317504 19.529494459967509 0 0 0 0 6.9196725929141394 16.373833222802716 0 16.373833222802716 22.15600864067801 0 0 0 0 -49.310383119533071 50.858047268116252 0 50.858047268116252 62.708025106271634 0 0 0 0 -3.110088352788992 -3.3906525231619611 0 -3.3906525231619611 2.3857205163054402 0 0 0 0 674.40737136393727 -279.07503837282457 0 -279.07503837282457 97.099607641800816 0 0 0 0 2.1755010868803595 1.3949435046443028 0 1.3949435046443028 2.5987691732483498 0 0 0 0 4.6120362346175696 9.9531760721904021 0 9.9531760721904021 16.284336423443232 0 0 0 0 521.71104024073611 -95.792278146224902 0 -95.792278146224902 15.573933686927489 0 0 0 0 87.275470008979028 -122.93749628869739 0 -122.93749628869739 234.1835340907578 0 0 0 0 401.17285526017076 -217.50933878097885 0 -217.50933878097885 -0.82007500378483655 0 0 0 0 503.80933287893276 10.410068584149883 0 10.410068584149883 42.096421945720408 0 0 0 0 441.27456035417708 19.10836138033892 0 19.10836138033892 74.169536427445735 0 0 0 0 416.68689715144865 -17.062977833321497 0 -17.062977833321497 57.396353009172344 0 0 0 0 428.18001961044502 23.151304175653877 0 23.151304175653877 76.923265047201312 0 0 0 0 380.82637797814095 -3.5187620993181667 0 -3.5187620993181667 82.043082034731739 0 0 0 0 369.5646483375167 -43.552614910046714 0 -43.552614910046714 62.85335763605552 0 0 0 0 411.81881167629035 -66.759067221254497 0 -66.759067221254497 46.031871842645842 0 0 0 0 408.10550117629555 -109.90970027798225 0 -109.90970027798225 40.90982850226942 0 0 0 0 374.22121776532003 -148.91058185398009 0 -148.91058185398009 -2.9456910305393649 0 0 0 0 320.62159894924844 -144.2852819887984 0 -144.2852819887984 62.926773199126501 0 0 0 0 329.73752950386552 -110.06299466329489 0 -110.06299466329489 78.17599079743195 0 0 0 0 310.76358688201435 -100.61900379670031 0 -100.61900379670031 86.543802015365259 0 0 0 0 343.69880389665195 -136.41831494585222 0 -136.41831494585222 100.8761424714184 0 0 0 0 412.19849784130929 -111.62223415600519 0 -111.62223415600519 71.291873054061199 0 0 0 0 361.46481403739017 -123.10171283089122 0 -123.10171283089122 70.2527460497801 0 0 0 0 350.68292876228952 -113.2069756441096 0 -113.2069756441096 86.781320223057037 0 0 0 0 441.82824744431855 -54.624839056146314 0 -54.624839056146314 102.47639466881844 0 0 0 0 349.43962637890945 -123.68855680421549 0 -123.68855680421549 39.298657695511913 0 0 0 0 341.2986092383253 -130.13143761040129 0 -130.13143761040129 69.565244817094879 0 0 0 0 358.69245498145756 -76.769350274962306 0 -76.769350274962306 47.305900383930492 0 0 0 0 311.81126629455684 -88.78699844380192 0 -88.78699844380192 68.122344773637522 0 0 0 0 322.05277325246016 -16.328854269173668 0 -16.328854269173668 45.46623137641123 0 0 0 0 212.85570972112237 12.377088573203491 0 12.377088573203491 63.218252535846119 0 0 0 0 323.85570117735915 -87.73929542293628 0 -87.73929542293628 59.600497601469186 0 0 0 0 242.15450760253407 -79.669849000340605 0 -79.669849000340605 95.866003718866125 0 0 0 0 281.30233326247981 -66.015153604411068 0 -66.015153604411068 78.904590046469536 0 0 0 0 369.0819587468286 -119.7479003522904 0 -119.7479003522904 91.341813917909377 0 0 0 0 261.04772448117001 -111.87001453518025 0 -111.87001453518025 131.67490748508578 0 0 0 0 261.06355506437831 -63.139922587152753 0 -63.139922587152753 13.054731418058509 0 0 0 0 247.66203900209803 -112.31542639976294 0 -112.31542639976294 62.738796381095199 0 0 0 0 360.10823585717844 -102.86929798945565 0 -102.86929798945565 54.081267414128888 0 0 0 0 189.0556105724645 -3.9144501766330109 0 -3.9144501766330109 -129.84341442483071 0 0 0 0 142.53064200464723 -70.3881224847878 0 -70.3881224847878 117.45061222420787 0 0 0 0 113.4010809028041 -64.711416466188211 0 -64.711416466188211 49.890731889545407 0 0 0 0 110.25297500811212 40.519656980273794 0 40.519656980273794 -77.990857957062417 0 0 0 0 171.66134698403039 -82.831643069115955 0 -82.831643069115955 88.759028726530403 0 0 0 0 192.41193013417978 -32.579734353809641 0 -32.579734353809641 58.003231645721144 0 0 0 0 77.941576759412783 -19.125497754836488 0 -19.125497754836488 97.636664372809662 0 0 0 0 115.66147077368078 -72.532968718363009 0 -72.532968718363009 37.219331105288461 0 0 0 0 46.176604040203529 62.157218472281329 0 62.157218472281329 -115.42626376548361 0 0 0 0 15.737156579423754 -55.751018498710216 0 -55.751018498710216 229.58812632193619 0 0 0 0 97.038283719775791 -42.497398393220095 0 -42.497398393220095 -101.6561600180885 0 0 0 0 122.04703277428962 137.82293518091495 0 137.82293518091495 204.61671347305534 0 0 0 0 108.13840615401932 88.384831761339001 0 88.384831761339001 66.220473117315265 0 0 0 0 124.87106747132202 4.1948481199204366 0 4.1948481199204366 109.19241201794011 0 0 0 0 176.37253863620572 3.1104608652711789 0 3.1104608652711789 105.78170840737448 0 0 0 0 166.95565718886428 19.83831439124603 0 19.83831439124603 64.101265105512994 0 0 0 0 355.50272219643011 211.86390885902296 0 211.86390885902296 107.29392331319588 0 0 0 0 666.83256034363694 363.57900207358563 0 363.57900207358563 331.55906280511795 0 0 0 0 -0.47419012088422363 0.054933936491394775 0 0.054933936491394775 0.69860307427817314 0 0 0 0 3.1968664689266006 -202.44009105005307 0 -202.44009105005307 118.0625455214003 0 0 0 0 197.5696974469829 -13.892918972986593 0 -13.892918972986593 -144.1090025031674 0 0 0 0 -30.782446174554934 32.36165468279637 0 32.36165468279637 -129.21433171194144 0 0 0 0 237.89426947842003 60.574177009965751 0 60.574177009965751 -1033.8054403183637 0 0 0 0 -494.63915520106093 -328.17594931006124 0 -328.17594931006124 78.769281555663099 0 0 0 0 30.323509117702997 -23.600945871633328 0 -23.600945871633328 264.66204986011132 0 0 0 0 885.30836590903345 460.19480394568677 0 460.19480394568677 238.02623939673873 0 0 0 0 676.66260162897743 951.4674637989433 0 951.4674637989433 434.18096287577953 0 0 0 0 37.3986692246486 0.78540379889122391 0 0.78540379889122391 0.6532554273079425 0 0 0 0 968.3922339601213 1436.7275653710658 0 1436.7275653710658 79.295574999859127 0 0 0 0 10.151411713610202 -5.9923946421075129 0 -5.9923946421075129 6.1140404319833825 0 0 0 0 5843.5408840716118 -4458.6889168909393 0 -4458.6889168909393 3493.9193792438855 0 0 0 0 7308.076344691226 -1909.9445969132332 0 -1909.9445969132332 1608.2618050287665 0 0 0 0 7293.6291625586309 -877.11359131640347 0 -877.11359131640347 5722.1587217824035 0 0 0 0 6989.7664411231817 -2837.8000157529846 0 -2837.8000157529846 3570.0731488992619 0 0 0 0 3939.571081009577 1194.8705881798962 0 1194.8705881798962 -28.29014256452129 0 0 0 0 3507.0721509077848 735.88268407718522 0 735.88268407718522 -15.232267869127728 0 0 0 0 3491.3121744524542 632.61756621230529 0 632.61756621230529 -335.02302418046673 0 0 0 0 2011.0372171158051 347.76900629623083 0 347.76900629623083 -379.90861258935934 0 0 0 0 1599.2850656877599 -186.22449570267432 0 -186.22449570267432 -162.16901285937206 0 0 0 0 3496.9575717862963 -228.04495549063859 0 -228.04495549063859 -743.70258856886733 0 0 0 0 3501.4558148639626 156.35096183240449 0 156.35096183240449 158.68678846719115 0 0 0 0 2489.1470209304171 -270.9484421566674 0 -270.9484421566674 -130.17889417344736 0 0 0 0 1928.2522951954343 -445.16209601333082 0 -445.16209601333082 47.485060830577822 0 0 0 0 1490.6592984844701 -310.89493271642345 0 -310.89493271642345 1.4750984829875264 0 0 0 0 2275.5912894160883 -236.76230957400259 0 -236.76230957400259 -17.365433068714765 0 0 0 0 1551.2141597387954 -890.96176359076787 0 -890.96176359076787 57.92001016249057 0 0 0 0 1757.6210123581986 -739.76831706422195 0 -739.76831706422195 -58.380176329252805 0 0 0 0 1834.6299016341909 -785.21634460960502 0 -785.21634460960502 -279.00392076019853 0 0 0 0 2092.893024031735 -766.15089389535092 0 -766.15089389535092 -82.126536564486742 0 0 0 0 1946.268562066738 -733.65078379353804 0 -733.65078379353804 116.32446740891555 0 0 0 0 2001.8906104039677 -1042.409261182132 0 -1042.409261182132 79.943466164407482 0 0 0 0 2357.3769772988744 -942.07279084699394 0 -942.07279084699394 151.56710047352408 0 0 0 0 3450.0056540171281 -46.435401705745434 0 -46.435401705745434 51.265791237792683 0 0 0 0 2524.7555242433937 -335.59147592058378 0 -335.59147592058378 -43.500313201703648 0 0 0 0 2714.2327162341644 -666.92482530270524 0 -666.92482530270524 20.903202885974174 0 0 0 0 5.578968956991547 -7.6424162982573307 0 -7.6424162982573307 4.0240182837669485 0 0 0 0 2487.842667132305 -517.08110376844036 0 -517.08110376844036 19.739057499248247 0 0 0 0 2396.388691031465 -584.30050829263723 0 -584.30050829263723 -24.841910915468361 0 0 0 0 2709.918399865865 -171.54177042177949 0 -171.54177042177949 96.911620141698222 0 0 0 0 3349.5747020963536 -156.63115471272113 0 -156.63115471272113 53.867796215906537 0 0 0 0 3466.0970424087282 -219.52072499912788 0 -219.52072499912788 -63.98086263828236 0 0 0 0 3504.3139190241091 -120.58930674853744 0 -120.58930674853744 6.5774491717113346 0 0 0 0 6.8045663111545061 -8.3803208532734885 0 -8.3803208532734885 9.0183880137902168 0 0 0 0 3499.4799248787131 -154.87684394416965 0 -154.87684394416965 -21.66832505446656 0 0 0 0 3378.7848053824382 -569.72321220796766 0 -569.72321220796766 24.242330076834435 0 0 0 0 2816.3726163903993 -1029.5157586417617 0 -1029.5157586417617 117.0441734852443 0 0 0 0 3954.0660856882432 -1171.7019816707268 0 -1171.7019816707268 134.42373080895777 0 0 0 0 3866.2319941812311 -7.318985635899935 0 -7.318985635899935 -301.63390990495827 0 0 0 0 3500.1908393339154 -112.11138174937365 0 -112.11138174937365 17.910814971047735 0 0 0 0 5714.249381323476 -142.33303750775758 0 -142.33303750775758 -712.62061816211417 0 0 0 0 3630.8149739857781 -1184.1929224864316 0 -1184.1929224864316 215.10748506852042 0 0 0 0 4732.4997515574869 -1989.9695443624394 0 -1989.9695443624394 803.99572516693752 0 0 0 0 6674.5554459325867 -2669.8262401727848 0 -2669.8262401727848 629.60070434464774 0 0 0 0 6899.8669300254114 -971.72676549681319 0 -971.72676549681319 -295.03994291008848 0 0 0 0 1152.652020978757 -871.8542789566925 0 -871.8542789566925 1215.8917768973367 0 0 0 0 3186.907431022606 -3163.2687567305993 0 -3163.2687567305993 3209.7640161450631 0 0 0 0 1889.0371542332159 -2145.3333140709155 0 -2145.3333140709155 2411.4890565616838 0 0 0 0 2546.5335237187428 -825.6454955924878 0 -825.6454955924878 213.64110323001819 0 0 0 0 2184.7358571681989 -1468.0617166983102 0 -1468.0617166983102 668.17083419220762 0 0 0 0 1056.147019918955 -1043.4382146647658 0 -1043.4382146647658 989.35216818116714 0 0 0 0 89.313488099985662 6.1601145123797174 0 6.1601145123797174 -4.7645620070848054 0 0 0 0 450.82593883592256 -537.482342325638 0 -537.482342325638 826.96107272736208 0 0 0 0 1139.0632444022767 -1033.9417288225613 0 -1033.9417288225613 375.97414820460472 0 0 0 0 1303.2265281186733 -890.22104975229695 0 -890.22104975229695 294.56009413121183 0 0 0 0 1372.5227767146816 -1070.9576924445817 0 -1070.9576924445817 500.0578575826687 0 0 0 0 1530.9042558415067 -830.60942277259221 0 -830.60942277259221 -106.11500784450344 0 0 0 0 1207.0575168053274 -1014.4086841168862 0 -1014.4086841168862 272.6863156955676 0 0 0 0 1153.7445923015891 -889.07462250018318 0 -889.07462250018318 0.80987835879922443 0 0 0 0 903.87427219947995 -901.46724798267383 0 -901.46724798267383 314.05670701950237 0 0 0 0 921.25578816938639 -607.7584712422447 0 -607.7584712422447 143.04625974971569 0 0 0 0 1134.1874032462197 -341.12398911910327 0 -341.12398911910327 91.593701072051459 0 0 0 0 467.67448817315994 -289.27862253787617 0 -289.27862253787617 186.65428734032298 0 0 0 0 777.90240337253533 -657.75394156833818 0 -657.75394156833818 229.54579848653975 0 0 0 0 265.09079561518445 -251.49846683414444 0 -251.49846683414444 291.23857415963352 0 0 0 0 578.50507070489653 -455.97346476658026 0 -455.97346476658026 230.91874711948185 0 0 0 0 115.33038324203544 10.852304664557286 0 10.852304664557286 -6.0807426373206104 0 0 0 0 137.41621772502913 57.32834518878559 0 57.32834518878559 -530.15445031642662 0 0 0 0 97.404989054128237 -18.737323354477525 0 -18.737323354477525 -183.71922555542574 0 0 0 0 132.6997861412292 15.531098199738462 0 15.531098199738462 -5.5150274271922139 0 0 0 0 473.14510822858028 -17.175419561778995 0 -17.175419561778995 -263.92015204809695 0 0 0 0 101.57896668376998 165.36353922961683 0 165.36353922961683 -390.2227940944299 0 0 0 0 66.216578480431053 29.248913096942758 0 29.248913096942758 -92.128206131567936 0 0 0 0 143.33609010606654 18.95605532210066 0 18.95605532210066 -4.7438003510427507 0 0 0 0 227.40573232183669 177.54673902726918 0 177.54673902726918 -399.08555535564767 0 0 0 0 328.57635024441606 115.88035690799813 0 115.88035690799813 -417.88376844205231 0 0 0 0 63.827756250519997 -57.776570893303017 0 -57.776570893303017 66.920886302521808 0 0 0 0 308.71074992106151 -198.69277737672439 0 -198.69277737672439 186.60961538787566 0 0 0 0 660.61089492507608 -134.95299648003692 0 -134.95299648003692 -48.327263999139859 0 0 0 0 309.46892189759865 88.422347124267816 0 88.422347124267816 48.493036345969244 0 0 0 0 483.36285469638779 -52.50693228880985 0 -52.50693228880985 74.462187205095631 0 0 0 0 456.03007181846533 -156.10876970277315 0 -156.10876970277315 273.85643113165929 0 0 0 0 757.29253708573196 -185.69731467698256 0 -185.69731467698256 95.115171129132193 0 0 0 0 684.68838559830419 -250.30760184158146 0 -250.30760184158146 350.21245837267219 0 0 0 0 725.60016851512046 -123.16956978357899 0 -123.16956978357899 134.33724332405495 0 0 0 0 566.51851227507814 -255.9605007379846 0 -255.9605007379846 179.85131154871954 0 0 0 0 640.16982460375948 -144.69634853349112 0 -144.69634853349112 128.17698563096042 0 0 0 0 552.06524475833157 -212.36454305144139 0 -212.36454305144139 78.467591922845713 0 0 0 0 946.78116441617294 -216.93998092202844 0 -216.93998092202844 71.248273422727493 0 0 0 0 576.66330900311459 -402.72396513061244 0 -402.72396513061244 144.1520784614238 0 0 0 0 6.5290412629534291 2.4216314969032613 0 2.4216314969032613 -2.0191506734903948 0 0 0 0 616.93077671509832 -178.35427872498477 0 -178.35427872498477 133.47921422868581 0 0 0 0 875.88972796701637 -314.36575022382647 0 -314.36575022382647 127.11160716689471 0 0 0 0 1087.5909849104337 -387.01586788616385 0 -387.01586788616385 98.696274423472687 0 0 0 0 876.14050935355692 -369.6293365632676 0 -369.6293365632676 166.51975532496112 0 0 0 0 1523.1806065443816 -569.91854835289951 0 -569.91854835289951 227.54787671586314 0 0 0 0 3.992226662081972 1.1021234150817616 0 1.1021234150817616 -0.9119378585594613 0 0 0 0 326.51722973320329 -72.171359677796431 0 -72.171359677796431 175.49636425878498 0 0 0 0 1390.9558890854023 -277.08751688338674 0 -277.08751688338674 220.47608808361565 0 0 0 0 1151.7057990599428 -146.83765245577467 0 -146.83765245577467 43.59451673463218 0 0 0 0 2.4711264640268946 -6.8072559623408289 0 -6.8072559623408289 1.6160971977603023 0 0 0 0 1586.5381544527095 -245.79557344790982 0 -245.79557344790982 57.821203735684534 0 0 0 0 1302.2541243374453 -419.23613297621711 0 -419.23613297621711 141.95516225520637 0 0 0 0 1411.1397536688196 -288.84612832741408 0 -288.84612832741408 221.19962496139351 0 0 0 0 1.8314119461073468 -2.3684944810780038 0 -2.3684944810780038 0.71356389221459482 0 0 0 0 941.60194840898896 -701.57496918725963 0 -701.57496918725963 276.61305171825637 0 0 0 0 2494.564051612771 -747.64693419718833 0 -747.64693419718833 39.102763626914459 0 0 0 0 980.5798242640808 -993.59348091471134 0 -993.59348091471134 -22.794077049098689 0 0 0 0 1130.0842605741757 -561.46007691743898 0 -561.46007691743898 -282.9449609358295 0 0 0 0 1504.797724349789 -868.34990075630958 0 -868.34990075630958 -96.635322095325762 0 0 0 0 1203.1097149567604 -555.4488269418265 0 -555.4488269418265 -258.08809320021305 0 0 0 0 1592.0863188648423 -614.98305934823964 0 -614.98305934823964 -380.28782821308459 0 0 0 0 -157.03588685600289 -469.48436067472551 0 -469.48436067472551 64.883611091948296 0 0 0 0 1178.6399048110138 -340.36415670479778 0 -340.36415670479778 -132.86982808455696 0 0 0 0 955.70873763359907 -322.2418869291763 0 -322.2418869291763 -35.933855015153767 0 0 0 0 1332.2711486797093 -172.3313252173084 0 -172.3313252173084 4.1369264544719044 0 0 0 0 1416.7389890455206 -221.362522764819 0 -221.362522764819 16.162166418818288 0 0 0 0 1294.029782259898 -289.10360018273815 0 -289.10360018273815 76.880765005292233 0 0 0 0 1508.5531646825291 -326.63820224006281 0 -326.63820224006281 -228.28077634048122 0 0 0 0 1410.1106285957303 -349.566075598861 0 -349.566075598861 97.763051535222075 0 0 0 0 1559.6495808637833 -383.02574734823111 0 -383.02574734823111 -214.54805934654451 0 0 0 0 1876.1566253660856 -497.01583217003173 0 -497.01583217003173 -501.96595593098118 0 0 0 0 1961.4859456090735 -460.55094471329329 0 -460.55094471329329 -926.61581356173542 0 0 0 0 1684.8788981830926 -119.31332903170596 0 -119.31332903170596 15.386567945241495 0 0 0 0 1875.1226050170899 -140.69321585765124 0 -140.69321585765124 -475.09897916658929 0 0 0 0 1710.2891997217482 -160.36344625154106 0 -160.36344625154106 -240.23345087553207 0 0 0 0 1745.9194241697132 -2.7849754668609421 0 -2.7849754668609421 93.344376956828455 0 0 0 0 1868.2300111999912 -146.04153072356689 0 -146.04153072356689 109.52893902652522 0 0 0 0 1594.2776807713069 -144.97328058154062 0 -144.97328058154062 16.929904671455006 0 0 0 0 6.0996510362402949 2.7168966407307877 0 2.7168966407307877 -6.223028185031616 0 0 0 0 1846.0523973589304 83.766395607883467 0 83.766395607883467 -445.76482718104353 0 0 0 0 3499.6222748344294 -337.00211672041331 0 -337.00211672041331 74.077565663690606 0 0 0 0 1845.6579071159467 -56.174799100787368 0 -56.174799100787368 95.271001878558195 0 0 0 0 1868.6826544153128 -19.215920069918639 0 -19.215920069918639 -266.5795377539107 0 0 0 0 2064.7202478858785 5.6877464829353608 0 5.6877464829353608 -1140.5796763089504 0 0 0 0 2059.3258501838036 -102.34931840204786 0 -102.34931840204786 -512.32568942570572 0 0 0 0 3498.9034333588279 -1791.4479992102624 0 -1791.4479992102624 -469.0974765645301 0 0 0 0 1916.8790237879612 -928.88474062171076 0 -928.88474062171076 -505.49019511293551 0 0 0 0 2533.5797910088199 -852.3826792977618 0 -852.3826792977618 -680.78722000914843 0 0 0 0 2994.6290182750927 -494.93575927721173 0 -494.93575927721173 -1522.1070093963469 0 0 0 0 1593.6720036306428 -665.78510400090863 0 -665.78510400090863 -429.98904015420868 0 0 0 0 1820.5360506886464 -585.56666910744514 0 -585.56666910744514 -513.37269405744507 0 0 0 0 1755.1291160486157 -700.53488887727349 0 -700.53488887727349 -383.86490986226636 0 0 0 0 1605.9748121212069 -638.62162386574073 0 -638.62162386574073 -435.00084982429559 0 0 0 0 1750.7840037539745 -790.31220179063155 0 -790.31220179063155 -277.73928952191903 0 0 0 0 1427.0198066748308 -922.87389841851905 0 -922.87389841851905 -483.97682436975924 0 0 0 0 3922.9278251446872 -798.12815128342436 0 -798.12815128342436 -174.53862558465647 0 0 0 0 943.26893664338343 -663.71013117322229 0 -663.71013117322229 -60.926818638749523 0 0 0 0 1759.7430770376177 -817.09852331281922 0 -817.09852331281922 -289.61609294414325 0 0 0 0 3.723381985913655 -3.2209003546060373 0 -3.2209003546060373 0.9707688780287177 0 0 0 0 82.852822978633412 24.793879164633836 0 24.793879164633836 48.773468004254482 0 0 0 0 52.362576253352017 9.7198801765987355 0 9.7198801765987355 23.649995555105534 0 0 0 0 96.189385931391371 15.74864189880509 0 15.74864189880509 9.8761164479728905 0 0 0 0 129.34913760082986 55.192118675612988 0 55.192118675612988 37.227234312375913 0 0 0 0 118.32938829689374 10.796816073263471 0 10.796816073263471 22.831478148928454 0 0 0 0 105.89048240832926 16.543095050598026 0 16.543095050598026 3.840045741216727 0 0 0 0 66.12486187045215 14.918723997869392 0 14.918723997869392 31.04686875513471 0 0 0 0 83.210015164083416 21.428910501496375 0 21.428910501496375 64.004241566923156 0 0 0 0 100.97987784202633 23.024972341884904 0 23.024972341884904 -12.073616936364715 0 0 0 0 83.330193161596981 -20.360659139628069 0 -20.360659139628069 7.0525201429020825 0 0 0 0 80.816102617067372 3.4951044958631314 0 3.4951044958631314 -32.515613376508327 0 0 0 0 69.823546278024878 -21.247750462422118 0 -21.247750462422118 -25.703491834934084 0 0 0 0 77.650167239893108 -3.0984693393515954 0 -3.0984693393515954 0.00056144459176721284 0 0 0 0 32.757490607837099 3.9908614066030168 0 3.9908614066030168 0.63725129879844644 0 0 0 0 7.1255500467441379 -34.203586827287097 0 -34.203586827287097 -10.036955175592425 0 0 0 0 -1.5681556269337307 -18.775424322543358 0 -18.775424322543358 5.9923377550921941 0 0 0 0 27.280946273789596 15.985936532791868 0 15.985936532791868 -25.470279983956061 0 0 0 0 49.615967300165636 -12.267198525973322 0 -12.267198525973322 -14.204297431817567 0 0 0 0 730.23148134017174 -112.15829506156109 0 -112.15829506156109 -502.48825735931592 0 0 0 0 661.72771139422548 -462.07101818821684 0 -462.07101818821684 352.69518408697695 0 0 0 0 -1213.8139846830445 410.76536754078006 0 410.76536754078006 657.56097412644976 0 0 0 0 107.87497481338869 -19.118339442182332 0 -19.118339442182332 -42.910680070493981 0 0 0 0 14.938803661497818 -0.44955635275335126 0 -0.44955635275335126 -3.0343419306548576 0 0 0 0 36.03599297935213 -8.7844438675616079 0 -8.7844438675616079 -9.3605351670806414 0 0 0 0 36.298796361974382 -113.58983936398749 0 -113.58983936398749 108.01119634508905 0 0 0 0 19.445104705837181 -6.7729516604149733 0 -6.7729516604149733 -11.724099037195275 0 0 0 0 51.868427930693088 -14.817850744049338 0 -14.817850744049338 -8.4503469008232059 0 0 0 0 41.166459491983382 3.4656941702170805 0 3.4656941702170805 -13.002654743296956 0 0 0 0 349.38503855729323 496.06324739339925 0 496.06324739339925 126.71936930801394 0 0 0 0 0.20214158507352664 1.7674394804251001 0 1.7674394804251001 3.5349801095070905 0 0 0 0 65.26965404404109 -11.519600429921411 0 -11.519600429921411 18.759724489303608 0 0 0 0 33.866767439971227 -11.116821627886793 0 -11.116821627886793 1.8757796849686201 0 0 0 0 42.70003681716571 -20.090793908102569 0 -20.090793908102569 8.7696121837288956 0 0 0 0 16.04447080528189 -8.6396559574704952 0 -8.6396559574704952 16.497963966960924 0 0 0 0 14.546553944268453 -15.681352448373218 0 -15.681352448373218 0.51681239098593323 0 0 0 0 24.674823760189611 -17.078684595420782 0 -17.078684595420782 22.685482484052045 0 0 0 0 123.23998970704361 7.9209647457013261 0 7.9209647457013261 -104.90271713904986 0 0 0 0 11.208352923083176 3.8068543269075814 0 3.8068543269075814 6.5366647875537529 0 0 0 0 79.079550793411727 -46.045845362545151 0 -46.045845362545151 12.812144462666765 0 0 0 0 34.067251887687043 -5.4567568289257444 0 -5.4567568289257444 -7.4383014844509008 0 0 0 0 34.989308105119562 9.9770047346678439 0 9.9770047346678439 -5.0210064027118051 0 0 0 0 28.995315783158688 14.461655051469011 0 14.461655051469011 2.0489053006862297 0 0 0 0 0.87515703272867995 -0.77372813059417833 0 -0.77372813059417833 -1.0493842068723911 0 0 0 0 35.481945390933532 8.8283279584901706 0 8.8283279584901706 -1.8993084460408438 0 0 0 0 38.628386280291984 14.15821145586666 0 14.15821145586666 3.9845282251834213 0 0 0 0 -0.54012096315273084 -88.409875623035987 0 -88.409875623035987 -47.280760232813464 0 0 0 0 58.41743899188441 -24.353100820062764 0 -24.353100820062764 -8.6172305689938185 0 0 0 0 45.111618663286208 -13.616483275320206 0 -13.616483275320206 -69.558441549017743 0 0 0 0 70.450952355125992 -0.047459883403575986 0 -0.047459883403575986 -30.360800101679615 0 0 0 0 36.648543778318455 -2.8678965261077365 0 -2.8678965261077365 -3.3092529988183648 0 0 0 0 46.778187905291858 9.114976218576734 0 9.114976218576734 -1.585816589080036 0 0 0 0 10.667493336029679 1.7188506328074808 0 1.7188506328074808 0.93956562493738716 0 0 0 0 42.430524729075842 82.564648881040853 0 82.564648881040853 -95.731711286641939 0 0 0 0 -2.6479929583947523 89.132916794450807 0 89.132916794450807 34.299148041275885 0 0 0 0 -94.993131929921219 125.44368098238351 0 125.44368098238351 27.196985658152414 0 0 0 0 65.955903515568934 9.5051141045605618 0 9.5051141045605618 25.557622045685093 0 0 0 0 65.955903515481623 9.5051141045817076 0 9.5051141045817076 25.557622045681683 0 0 0 0 47.633097599409666 29.044283737218279 0 29.044283737218279 67.611308154441303 0 0 0 0 34.53903526852082 1.3421921492802085 0 1.3421921492802085 6.9637261948093965 0 0 0 0 33.403700769074476 8.1602537635094095 0 8.1602537635094095 -6.0315045661113889 0 0 0 0 35.902788669045549 12.344785745854097 0 12.344785745854097 2.0136696625454533 0 0 0 0 93.185465899965493 -2.6836920354953691 0 -2.6836920354953691 -57.736187718494875 0 0 0 0 44.504689802379417 -2.6988017007064791 0 -2.6988017007064791 -6.1114299201374074 0 0 0 0 91.064581907514366 155.90908617915602 0 155.90908617915602 79.460657872280535 0 0 0 0 40.656191266968747 16.377352949490366 0 16.377352949490366 3.2432107208191727 0 0 0 0 25.114776038906712 28.208813818041563 0 28.208813818041563 16.904725685506264 0 0 0 0 65.955903515568934 9.5051141046051271 0 9.5051141046051271 25.557622045678727 0 0 0 0 23.607423102047257 10.323864820561283 0 10.323864820561283 1.918189008518925 0 0 0 0 33.110057517804762 -1.7657082346697877 0 -1.7657082346697877 -6.7496701126250276 0 0 0 0 50.832722641425789 -18.01448055605465 0 -18.01448055605465 -10.847676681208782 0 0 0 0 67.505545089661609 -11.09585920196696 0 -11.09585920196696 -19.054190920415721 0 0 0 0 36.615038738036674 15.830099891175337 0 15.830099891175337 -0.41752110610752879 0 0 0 0 51.462185460099136 8.0026152117018228 0 8.0026152117018228 0.40119822917790771 0 0 0 0 45.540305521004484 -5.8035241498425876 0 -5.8035241498425876 -4.4175696910190254 0 0 0 0 79.894995697643026 37.158220681782268 0 37.158220681782268 18.056044875809221 0 0 0 0 36.789496061575562 8.1550325535591952 0 8.1550325535591952 -5.9390495922083915 0 0 0 0 42.510860247377423 -7.521818460209488 0 -7.521818460209488 2.6314892062086983 0 0 0 0 70.367752663543797 10.217165119921106 0 10.217165119921106 4.8524062097658316 0 0 0 0 24.765049691080861 -5.9464005441445664 0 -5.9464005441445664 -8.7124095777359134 0 0 0 0 64.227966588965501 22.70482898458738 0 22.70482898458738 6.6918347377270493 0 0 0 0 31.101302041381132 -22.185319410664079 0 -22.185319410664079 -9.5357054413939295 0 0 0 0 29.718374743053573 -30.805521984506868 0 -30.805521984506868 -12.392756699873644 0 0 0 0 35.526676785812015 6.8692729873553162 0 6.8692729873553162 -28.719911687751846 0 0 0 0 34.393817165589041 12.59016816807566 0 12.59016816807566 -10.969444186293948 0 0 0 0 44.302160252860631 14.702862929749699 0 14.702862929749699 -36.615746635571895 0 0 0 0 51.434516074568279 20.023001693515944 0 20.023001693515944 -3.0624158976052738 0 0 0 0 41.180642976670015 -8.8178372767118596 0 -8.8178372767118596 -2.2082941044811366 0 0 0 0 116.78049293045842 40.735242001097049 0 40.735242001097049 33.364354221575013 0 0 0 0 105.12941804654474 -62.861280587914734 0 -62.861280587914734 29.153018524929848 0 0 0 0 60.284864469851527 2.4543380658351452 0 2.4543380658351452 31.619049253944468 0 0 0 0 41.608544363210967 17.232239430741629 0 17.232239430741629 -31.881822320189713 0 0 0 0 2.8434767976830102 12.466990549648017 0 12.466990549648017 1.6705436884898517 0 0 0 0 90.507465944101568 147.61704581222511 0 147.61704581222511 53.991587208955025 0 0 0 0 79.612051449977685 13.388306162700252 0 13.388306162700252 -6.9173474138576729 0 0 0 0 29.430595658355742 -31.322913757306196 0 -31.322913757306196 -21.328831839401118 0 0 0 0 268.04598249596529 -151.27567809498032 0 -151.27567809498032 -108.88589114632487 0 0 0 0 188.01443830149947 123.79355174071225 0 123.79355174071225 66.506281722927724 0 0 0 0 69.840405734412087 -6.7524064421818899 0 -6.7524064421818899 -18.716711373056249 0 0 0 0 20.544284575524216 -31.369790446886668 0 -31.369790446886668 -12.610450743989531 0 0 0 0 22.585645066035795 -36.079489974371427 0 -36.079489974371427 -18.035285998805193 0 0 0 0 58.092784005533545 -20.890748164855541 0 -20.890748164855541 -14.029448290054933 0 0 0 0 29.430595658399398 -31.322913757298011 0 -31.322913757298011 -21.328831839397935 0 0 0 0 29.430595658355742 -31.322913757291644 0 -31.322913757291644 -21.328831839391569 0 0 0 0 24.686211386688228 -26.689426381423004 0 -26.689426381423004 -11.880156249535958 0 0 0 0 30.240982057483961 -26.411964090713397 0 -26.411964090713397 -13.786335357737698 0 0 0 0 10.058046225623897 -3.1491791165629763 0 -3.1491791165629763 6.790974261879513 0 0 0 0 82.100621589150251 -23.867440803558424 0 -23.867440803558424 25.181435180635049 0 0 0 0 87.640622656170308 -20.546489893820421 0 -20.546489893820421 18.223181586937166 0 0 0 0 170.43930182832992 -133.48475986377667 0 -133.48475986377667 118.47042745408436 0 0 0 0 253.85111726218611 -102.56110882542131 0 -102.56110882542131 -120.59544630362137 0 0 0 0 239.98821789028261 -32.74145074872861 0 -32.74145074872861 22.469008083109429 0 0 0 0 -21.861949122467195 -70.052196579074959 0 -70.052196579074959 -40.888493239680535 0 0 0 0 369.9564523446461 138.68082709360365 0 138.68082709360365 -57.48031780396397 0 0 0 0 256.64905578826074 -211.51221126135562 0 -211.51221126135562 207.09318338467938 0 0 0 0 290.77877499885653 -274.16386527638804 0 -274.16386527638804 42.807388922064803 0 0 0 0 198.33157818300606 -167.08374781471687 0 -167.08374781471687 -79.250439626678315 0 0 0 0 87.927032482366485 -36.385384783758639 0 -36.385384783758639 -165.94662616363519 0 0 0 0 158.0105151871212 252.47105194245455 0 252.47105194245455 -337.99117935764866 0 0 0 0 5.6222374538247095 114.78925639724594 0 114.78925639724594 -42.418298000176264 0 0 0 0 241.78120588785532 143.6097974376425 0 143.6097974376425 -362.22697376935457 0 0 0 0 -70.54053636934259 -73.292370294433169 0 -73.292370294433169 -58.001842187169842 0 0 0 0 147.15348780592947 20.774784198963882 0 20.774784198963882 -3.6616905944742029 0 0 0 0 38.309041657348644 147.32196697096265 0 147.32196697096265 -35.137932238832491 0 0 0 0 118.07977114510959 57.442588308942391 0 57.442588308942391 -176.65374050984747 0 0 0 0 132.70744023008956 107.78855430816407 0 107.78855430816407 -20.854079752715393 0 0 0 0 235.12246157864774 0.10473347068261774 0 0.10473347068261774 -52.986287496557907 0 0 0 0 103.63193028537535 178.48759697988578 0 178.48759697988578 28.769897699361991 0 0 0 0 -0.79994090269505591 -1.3107298798305749 0 -1.3107298798305749 3.9058355675485448 0 0 0 0 -48.943290996196083 14.683209457943249 0 14.683209457943249 5.6122282356436699 0 0 0 0 161.92197382036284 34.327156052037026 0 34.327156052037026 21.740826588304117 0 0 0 0 573.6883565384851 45.563996902913061 0 45.563996902913061 -127.37933487025214 0 0 0 0 -175.48096464389528 -14.496292382977572 0 -14.496292382977572 61.275998979262795 0 0 0 0 77.08797437152667 -27.10199440082296 0 -27.10199440082296 -9.2686983870942328 0 0 0 0 -139.12057579400425 -112.62641275306055 0 -112.62641275306055 -15.407703069387424 0 0 0 0 145.92822278820236 18.544249469646228 0 18.544249469646228 -6.3198628519511182 0 0 0 0 629.83187091148284 138.75284836222636 0 138.75284836222636 -87.957876152764356 0 0 0 0 308.34883875374362 -229.71777091448911 0 -229.71777091448911 -173.11246034622877 0 0 0 0 106.26551434970679 152.34827189580926 0 152.34827189580926 -54.331950252469284 0 0 0 0 92.576005142798749 186.30109621510536 0 186.30109621510536 -74.415831848946027 0 0 0 0 -11.16378173737227 24.289766729177416 0 24.289766729177416 -8.8235350805423032 0 0 0 0 81.368072309906751 48.4647646360118 0 48.4647646360118 -15.567719713835089 0 0 0 0 96.983422676692498 101.11236863874137 0 101.11236863874137 109.09228177250179 0 0 0 0 7.7733513449669243 -10.030815334054443 0 -10.030815334054443 -6.4393204560272599 0 0 0 0 138.50863238265174 -13.94551010938244 0 -13.94551010938244 19.796943230422357 0 0 0 0 52.746343069165164 -6.9743928064764731 0 -6.9743928064764731 -22.900803611998072 0 0 0 0 67.695387071531528 70.925229198490428 0 70.925229198490428 -33.281080658372673 0 0 0 0 123.04566314239219 91.230000263329771 0 91.230000263329771 53.151749401840334 0 0 0 0 15.573228830780863 147.19529982725814 0 147.19529982725814 -211.09719784442916 0 0 0 0 45.485810250186269 9.6282955554016212 0 9.6282955554016212 -1.2715677677311841 0 0 0 0 130.28358757053502 -131.37296897271153 0 -131.37296897271153 45.667660168212478 0 0 0 0 4.7402882114541853 0.62665823342649585 0 0.62665823342649585 0.492482519487913 0 0 0 0 -127.15050624206742 -23.089947918014694 0 -23.089947918014694 163.41973693807304 0 0 0 0 -220.01357284064761 126.37377264907923 0 126.37377264907923 79.575034332034051 0 0 0 0 14.456740272039198 3.0950292466093234 0 3.0950292466093234 -2.3455624482553787 0 0 0 0 1.8328977646860949 64.042899703771553 0 64.042899703771553 -25.801565286932732 0 0 0 0 94.249316521840228 7.3383720941907598 0 7.3383720941907598 -129.8611184925291 0 0 0 0 301.74247888193713 -56.670907327077202 0 -56.670907327077202 165.53307236606167 0 0 0 0 253.1084578340699 140.43970053711317 0 140.43970053711317 117.58575580795048 0 0 0 0 135.95192114437668 69.354655461577295 0 69.354655461577295 76.411116455725249 0 0 0 0 122.76753171599921 115.17176007705683 0 115.17176007705683 160.20938769479821 0 0 0 0 64.266878324888239 116.63587540475669 0 116.63587540475669 160.31421865844624 0 0 0 0 78.654774022081256 143.70488326885123 0 143.70488326885123 115.83009777850134 0 0 0 0 94.636562595398573 85.371854129822395 0 85.371854129822395 117.19308905225262 0 0 0 0 90.644742804126508 146.82614095174733 0 146.82614095174733 63.763280271392887 0 0 0 0 8.2386736901570572 -1.9192709250422997 0 -1.9192709250422997 1.3920218718121387 0 0 0 0 336.01674965940401 -412.48492012589281 0 -412.48492012589281 53.590550518561599 0 0 0 0 397.33332737271735 -103.09865198142526 0 -103.09865198142526 -294.47878817261198 0 0 0 0 339.97633376685371 212.68177801603781 0 212.68177801603781 -519.23695343805002 0 0 0 0 452.21287404068062 198.81274226992878 0 198.81274226992878 100.20065670006602 0 0 0 0 125.25771740625169 101.88322067616443 0 101.88322067616443 177.64660857101745 0 0 0 0 -76.520355177846795 -356.3683255886499 0 -356.3683255886499 -49.447503114560277 0 0 0 0 -250.48740908289619 -326.86406947696798 0 -326.86406947696798 -46.738332606520316 0 0 0 0 897.18782462623312 162.59469746894337 0 162.59469746894337 102.06859946857514 0 0 0 0 2.2375833285982836 -2.2219583682781359 0 -2.2219583682781359 1.6637183520509842 0 0 0 0 288.54908116885053 -87.047388440573741 0 -87.047388440573741 -178.20135310667069 0 0 0 0 -305.11758968965796 58.824805527085196 0 58.824805527085196 -206.9139757391597 0 0 0 0 223.00478540934182 22.250488948700649 0 22.250488948700649 -226.94494952736704 0 0 0 0 153.35515099676923 -99.415905851906246 0 -99.415905851906246 9.4376528247134956 0 0 0 0 165.1089524969866 -197.85136050705114 0 -197.85136050705114 -111.15179065227085 0 0 0 0 683.5332750027801 -292.76145855789548 0 -292.76145855789548 83.163367727045937 0 0 0 0 561.59378257833851 -437.45485945944296 0 -437.45485945944296 -87.863320654669224 0 0 0 0 25.361850201443303 33.901519118510009 0 33.901519118510009 -41.118873561773739 0 0 0 0 108.82769942887899 -217.48904349024565 0 -217.48904349024565 -709.80075941825521 0 0 0 0 76.247070674027555 89.133537337516216 0 89.133537337516216 -414.61134074224265 0 0 0 0 -2.0248311834545802 0.15285300832878335 0 0.15285300832878335 -0.31411894085457237 0 0 0 0 5.5841339167291153 62.664907593799967 0 62.664907593799967 59.931833506601834 0 0 0 0 47.908453169358836 53.663257516176827 0 53.663257516176827 -113.93074245120533 0 0 0 0 259.22418668864339 14.148737054394815 0 14.148737054394815 -339.07183603091073 0 0 0 0 272.66412199897877 19.793623979249219 0 19.793623979249219 -534.42416957858222 0 0 0 0 177.50913362765095 -214.33030967571335 0 -214.33030967571335 -315.23548217335224 0 0 0 0 -45.106343108003784 5.3014681230141036 0 5.3014681230141036 -23.681411926459532 0 0 0 0 461.68492223970679 -33.554475546529375 0 -33.554475546529375 -116.41626521682247 0 0 0 0 -43.734470260420494 59.112291805688074 0 59.112291805688074 -118.90788306203308 0 0 0 0 95.100501860761142 4.0009424889483398 0 4.0009424889483398 30.929235325218997 0 0 0 0 27.502514710891774 455.17770303781958 0 455.17770303781958 729.16621882364245 0 0 0 0 226.21456574550029 135.81490023752463 0 135.81490023752463 -603.16427855223174 0 0 0 0 -120.90066576790196 177.60829517593447 0 177.60829517593447 2.4309788957893943 0 0 0 0 -3.4682325905232574 -32.827662011775828 0 -32.827662011775828 -35.37718385535436 0 0 0 0 -2.2802871417232993 -1.4069351143559512 0 -1.4069351143559512 -4.4951075516301611 0 0 0 0 33.473273841922492 -134.02818900732768 0 -134.02818900732768 -393.5699567364868 0 0 0 0 -4.1898355157911453 4.5480506208411571 0 4.5480506208411571 -2.3224194153245734 0 0 0 0 120.29874458000995 -147.78819079881077 0 -147.78819079881077 -719.76549816359943 0 0 0 0 45.841897675723885 24.445540245963002 0 24.445540245963002 -106.26882058646805 0 0 0 0 38.114919732941416 51.00197763864918 0 51.00197763864918 -90.293700907607729 0 0 0 0 5.9231909517475287 17.908855666183953 0 17.908855666183953 2.2403101783691923 0 0 0 0 35.063679513259558 10.577137186813957 0 10.577137186813957 -68.422603297643477 0 0 0 0 25.093985976111071 18.881501802059802 0 18.881501802059802 -63.013869681753476 0 0 0 0 -103.62625188302991 -52.136277880554189 0 -52.136277880554189 -23.561659340169626 0 0 0 0 19.443203947676466 -9.7255271457331283 0 -9.7255271457331283 -55.742866557342936 0 0 0 0 2.061881894626822 -13.262312821761199 0 -13.262312821761199 -55.311028718460356 0 0 0 0 35.728370818491385 1.8894773136141083 0 1.8894773136141083 -55.907846271174861 0 0 0 0 2.3692040466363764 -14.489598970390388 0 -14.489598970390388 -6.3674603702167687 0 0 0 0 15.082207527693583 8.1450230874826524 0 8.1450230874826524 -6.5565828748037216 0 0 0 0 30.366430663640131 11.318682905538566 0 11.318682905538566 -52.193687848007698 0 0 0 0 -15.212520426863421 27.673132545789258 0 27.673132545789258 -18.694326091319454 0 0 0 0 36.98779769488101 4.8273805559890093 0 4.8273805559890093 -58.252918117935707 0 0 0 0 32.61053326000183 3.9161679101572417 0 3.9161679101572417 -56.658878379829275 0 0 0 0 9.3494517181504548 2.9610562861145944 0 2.9610562861145944 -8.0707482385279796 0 0 0 0 50.711355495661351 -7.1075533139400893 0 -7.1075533139400893 -14.771679836981312 0 0 0 0 52.922176918131299 2.6274851956177372 0 2.6274851956177372 -55.044451764437667 0 0 0 0 58.02653303456718 -22.877139558650345 0 -22.877139558650345 -52.825721745700434 0 0 0 0 -146.27311256183748 -58.143130133437808 0 -58.143130133437808 -18.480602490079036 0 0 0 0 53.969895458089596 5.4174956224748207 0 5.4174956224748207 -3.6715093748901446 0 0 0 0 89.36604972175337 -5.7055885469571876 0 -5.7055885469571876 -80.018362027619503 0 0 0 0 58.421032553176417 -7.4344063194630454 0 -7.4344063194630454 -36.40329226201743 0 0 0 0 -320.78531205522813 -43.097972772836329 0 -43.097972772836329 -158.77783331015235 0 0 0 0 1.7790188151019581 3.0493975093566235 0 3.0493975093566235 6.9134459680548979 0 0 0 0 379.49867723377611 -233.68599007720695 0 -233.68599007720695 87.040510312823244 0 0 0 0 816.04117303238854 -267.78801218416174 0 -267.78801218416174 -234.08624664040872 0 0 0 0 856.08618596314045 39.674694144930982 0 39.674694144930982 150.58821365621407 0 0 0 0 -373.1883586550648 -114.38011990759333 0 -114.38011990759333 -249.91826044677873 0 0 0 0 767.26544425018767 50.631499213314555 0 50.631499213314555 -319.1329193569054 0 0 0 0 -111.54565819323761 163.47032927297005 0 163.47032927297005 -78.771672568056601 0 0 0 0 -9.8848352606182743 -21.375931218199185 0 -21.375931218199185 -26.545444227528606 0 0 0 0 -208.78671379167281 1.7024656930461788 0 1.7024656930461788 -21.530295983819087 0 0 0 0 55.941523258332381 136.20161914483015 0 136.20161914483015 -87.736326335671947 0 0 0 0 10.65303424914633 7.6011638830467918 0 7.6011638830467918 -9.556354107361166 0 0 0 0 68.3433656102643 -40.705138772462305 0 -40.705138772462305 -83.335900646260598 0 0 0 0 -20.111248749435617 4.3962528896895492 0 4.3962528896895492 -5.7434470010621226 0 0 0 0 138.31468843185939 180.26345777753158 0 180.26345777753158 85.923639446081779 0 0 0 0 430.34837977489042 148.11134900166508 0 148.11134900166508 -83.301417046472125 0 0 0 0 4.4706472576523026 0.21490847902952126 0 0.21490847902952126 -3.7695002843498662 0 0 0 0 539.50775273383988 140.96303524128598 0 140.96303524128598 21.198790565417767 0 0 0 0 0.3264845712481943 1.1167809677111453 0 1.1167809677111453 -2.5355366488043143 0 0 0 0 652.3734219025082 -68.785006741524739 0 -68.785006741524739 51.680400970381015 0 0 0 0 42.914711276178423 -556.49085628288412 0 -556.49085628288412 319.45838129228423 0 0 0 0 462.63455197592339 22.532613455041883 0 22.532613455041883 -79.724117411198677 0 0 0 0 271.84266655378815 -101.45669695849483 0 -101.45669695849483 49.14254445308336 0 0 0 0 293.91020477282291 40.182390513774862 0 40.182390513774862 -70.231196597352664 0 0 0 0 217.13307975987482 94.023574524741889 0 94.023574524741889 -155.29732266727024 0 0 0 0 276.47275856983833 165.8503820965434 0 165.8503820965434 -73.111153396409463 0 0 0 0 233.48663060032413 55.498226375719469 0 55.498226375719469 -36.502538307726354 0 0 0 0 -1.0949174258355043 1.1601133002799493 0 1.1601133002799493 0.07187523988296185 0 0 0 0 38.018815349638317 -36.464609850105262 0 -36.464609850105262 27.361090454325222 0 0 0 0 143.33990958648792 60.374597315598749 0 60.374597315598749 1.5942972938805724 0 0 0 0 153.2833603499821 210.9226675499151 0 210.9226675499151 -108.45203784310741 0 0 0 0 66.415798223404636 86.941408364636118 0 86.941408364636118 -82.869546121819894 0 0 0 0 114.67162293249567 256.15678085795616 0 256.15678085795616 -510.45696243255622 0 0 0 0 195.46765067983324 265.80441687319359 0 265.80441687319359 -15.930620537138111 0 0 0 0 65.505926519259447 254.76418130741558 0 254.76418130741558 271.9617263321843 0 0 0 0 15.44757662329247 1.7465242701954706 0 1.7465242701954706 -0.57603364743427843 0 0 0 0 148.73270310193038 118.71061885062176 0 118.71061885062176 68.7921092753528 0 0 0 0 107.54452932155436 39.276881832917297 0 39.276881832917297 -36.569031202275255 0 0 0 0 76.0054038498929 23.153817753436329 0 23.153817753436329 11.520404559926874 0 0 0 0 44.219920608426037 25.714607083510828 0 25.714607083510828 -60.890778840202984 0 0 0 0 118.32338246233485 15.765824851312118 0 15.765824851312118 -2.9692390600121144 0 0 0 0 27.188983504109796 3.6118253889405101 0 3.6118253889405101 0.082099121548615539 0 0 0 0 43.955733316382975 18.907790467168979 0 18.907790467168979 14.077014617605982 0 0 0 0 -130.33942697439511 171.65994710535625 0 171.65994710535625 -25.221452365923881 0 0 0 0 10.402466328821184 6.4067866974212917 0 6.4067866974212917 8.1663307837480943 0 0 0 0 59.856197475244244 -14.041019825045026 0 -14.041019825045026 -73.738726176088676 0 0 0 0 1.8690153320311396 7.6660808829938389 0 7.6660808829938389 -0.130211099503661 0 0 0 0 -43.687876882198907 14.12804561792143 0 14.12804561792143 -329.54121114042624 0 0 0 0 -37.737264495026466 52.793831578247023 0 52.793831578247023 -103.72504648951622 0 0 0 0 64.244226300889352 -47.542572548402759 0 -47.542572548402759 -73.127257722816353 0 0 0 0 -101.49789415329451 -28.001401983905794 0 -28.001401983905794 -137.36264636946112 0 0 0 0 -101.19915859051798 -8.6980243600288532 0 -8.6980243600288532 -55.933914917467916 0 0 0 0 56.851988754846388 29.756754973652505 0 29.756754973652505 -55.218636809913562 0 0 0 0 10.095974056862683 8.8227221273089835 0 8.8227221273089835 3.9727188763247767 0 0 0 0 10.87198135223025 42.13909864247961 0 42.13909864247961 -29.2276747306164 0 0 0 0 21.292995174708466 220.46342204271372 0 220.46342204271372 -115.98839107315183 0 0 0 0 155.38461333583996 -190.11935035636367 0 -190.11935035636367 116.20997805045386 0 0 0 0 44.656331987855992 -32.845436462372788 0 -32.845436462372788 16.817261931693565 0 0 0 0 33.111785021832929 -0.90588168662549151 0 -0.90588168662549151 110.73252490934436 0 0 0 0 407.29635869753906 64.102588919042589 0 64.102588919042589 -291.13823666142719 0 0 0 0 156.02900946884074 -55.805703116001041 0 -55.805703116001041 -31.354786509901714 0 0 0 0 250.38215795694191 -18.071474790404068 0 -18.071474790404068 -19.21339805923526 0 0 0 0 53.841859696037318 -21.295470358350713 0 -21.295470358350713 -12.534430292721481 0 0 0 0 9.8821999458414211 13.724273840961757 0 13.724273840961757 10.50436676478404 0 0 0 0 16.957505024125442 9.3781823189529625 0 9.3781823189529625 3.1741314485146823 0 0 0 0 21.935936889748064 16.95866835144335 0 16.95866835144335 -8.6083490631931454 0 0 0 0 14.608248425985039 16.178520203776884 0 16.178520203776884 -7.9695701442285554 0 0 0 0 3.3994132988003445 1.1658334403811583 0 1.1658334403811583 -0.12658109834662618 0 0 0 0 7.3786251340865698 8.2998292148223776 0 8.2998292148223776 1.6714665941235047 0 0 0 0 10.776348706576471 10.829785727136922 0 10.829785727136922 -7.3465810065381447 0 0 0 0 142.82549054107403 -35.722756871463901 0 -35.722756871463901 -50.916599620189686 0 0 0 0 0.58199704769208438 11.01653276200858 0 11.01653276200858 5.26304245670201 0 0 0 0 92.863069999660183 -44.205232686881232 0 -44.205232686881232 -3.6188581309935444 0 0 0 0 96.869314777562977 9.6482247443265692 0 9.6482247443265692 -73.31568770929141 0 0 0 0 125.81865350793805 19.085030474426304 0 19.085030474426304 -1.1124624814860908 0 0 0 0 12.806347608039687 19.417050071274247 0 19.417050071274247 -21.901588686915318 0 0 0 0 2.549685765563936 15.906591216607666 0 15.906591216607666 -6.9138212661619605 0 0 0 0 0.69173301741576765 11.748751898938698 0 11.748751898938698 8.9086517841890327 0 0 0 0 11.902820172294014 20.334617780897133 0 20.334617780897133 -7.7300172687569955 0 0 0 0 0.78934734686255048 6.6751504330929183 0 6.6751504330929183 -10.061722532831176 0 0 0 0 12.479899246645886 12.219406062079745 0 12.219406062079745 -9.5070829294667192 0 0 0 0 18.420974440717146 11.45151408505177 0 11.45151408505177 -9.4883246565663057 0 0 0 0 11.250493591858685 16.839722325971366 0 16.839722325971366 -1.1668385910528514 0 0 0 0 14.103656179127483 14.985475905523117 0 14.985475905523117 -0.0051917263999712304 0 0 0 0 17.585634652185036 23.35137863279715 0 23.35137863279715 12.894055361521168 0 0 0 0 14.410624939456739 9.9209767199591852 0 9.9209767199591852 4.4342257816779238 0 0 0 0 26.298059222559459 19.577015871811227 0 19.577015871811227 -6.4404326299559216 0 0 0 0 6.5536562633550375 24.429892279882893 0 24.429892279882893 27.043334565792065 0 0 0 0 72.219428406521615 55.525285353528716 0 55.525285353528716 19.991049359202407 0 0 0 0 35.241871241626541 23.071184378960879 0 23.071184378960879 14.273640809620701 0 0 0 0 33.556095634020039 27.297266217187143 0 27.297266217187143 5.2650215161138476 0 0 0 0 16.951791180923465 20.006229343150153 0 20.006229343150153 11.466536949201327 0 0 0 0 11.838868439112048 28.153991567565754 0 28.153991567565754 4.7089091739180731 0 0 0 0 4.2568643318987629 7.7521985473065591 0 7.7521985473065591 12.849207142143268 0 0 0 0 4.2316872196993245 132.35718022593301 0 132.35718022593301 433.04640622128863 0 0 0 0 1.4954510430223351 2.9571932621093988 0 2.9571932621093988 3.6212336488458274 0 0 0 0 -389.73601866975832 -296.43365836020723 0 -296.43365836020723 362.17572941990773 0 0 0 0 304.0460873616903 478.64557055612022 0 478.64557055612022 621.82443743215117 0 0 0 0 121.99726508579727 -12.060844975592204 0 -12.060844975592204 131.82818682704419 0 0 0 0 285.30484900579359 512.15839050406066 0 512.15839050406066 236.00326870021399 0 0 0 0 684.75735730890665 271.69910724739657 0 271.69910724739657 -562.56328373596716 0 0 0 0 21.296135554068542 14.31540065404829 0 14.31540065404829 -15.701683727837462 0 0 0 0 -25.204712779053693 30.831889459144236 0 30.831889459144236 113.86054830797502 0 0 0 0 138.57239733097799 187.29720679833827 0 187.29720679833827 101.24307346139022 0 0 0 0 176.56932437105002 33.297299600880251 0 33.297299600880251 -14.298128088436897 0 0 0 0 60.751831702221239 81.522171547275093 0 81.522171547275093 -33.374533579672061 0 0 0 0 172.66800390204094 69.538725667995095 0 69.538725667995095 -158.8181962730655 0 0 0 0 155.43152659460338 178.67951291961003 0 178.67951291961003 -140.32994250304728 0 0 0 0 164.93610684235864 136.98957796226114 0 136.98957796226114 -101.82754434687286 0 0 0 0 141.28027513946199 33.781638611443668 0 33.781638611443668 -216.06247769284892 0 0 0 0 -310.82180243751299 -239.83612840477159 0 -239.83612840477159 -348.5354240423967 0 0 0 0 -326.01631627617371 3.4392458539721247 0 3.4392458539721247 -140.75928198327347 0 0 0 0 161.59895374727068 -34.385441188765071 0 -34.385441188765071 -19.034665222993226 0 0 0 0 75.951792958320766 54.339542256033383 0 54.339542256033383 -179.08430466887512 0 0 0 0 65.319076072768326 48.604974379459918 0 48.604974379459918 -21.789942910805621 0 0 0 0 46.022670658744303 13.148562412666081 0 13.148562412666081 -20.484487893474579 0 0 0 0 8.5448197873316065 -3.9524708650992135 0 -3.9524708650992135 -0.59687586575865126 0 0 0 0 44.522355228356901 -1.1242378380957234 0 -1.1242378380957234 -3.6753294458831078 0 0 0 0 47.36130859530806 -3.4569613306986753 0 -3.4569613306986753 -9.9541549792165043 0 0 0 0 63.672013783188959 22.059885136602134 0 22.059885136602134 -8.8915545873896917 0 0 0 0 104.28653045086253 -26.273174918710538 0 -26.273174918710538 -19.870179358423684 0 0 0 0 78.307695194027119 37.784362574968526 0 37.784362574968526 27.404737257213128 0 0 0 0 148.91408233958674 24.638081905426588 0 24.638081905426588 -10.348572234599033 0 0 0 0 77.795855055547463 31.939891698915318 0 31.939891698915318 1.5371536692127847 0 0 0 0 35.668203234973589 37.678590029091538 0 37.678590029091538 19.349058205420533 0 0 0 0 23.987188217211951 25.703176479244576 0 25.703176479244576 12.77690028725101 0 0 0 0 23.057993527514554 13.251674262459119 0 13.251674262459119 1.5326576595234656 0 0 0 0 18.36139749387803 20.236367520250496 0 20.236367520250496 11.496955247286678 0 0 0 0 37.4347243222619 28.637188023270028 0 28.637188023270028 5.5717765936587966 0 0 0 0 38.36531810316319 27.987648797362453 0 27.987648797362453 5.8253469267683613 0 0 0 0 36.791971562248541 16.341373780758278 0 16.341373780758278 4.4981060342976864 0 0 0 0 33.187888385808037 22.734816905575826 0 22.734816905575826 0.72427760753453185 0 0 0 0 69.680025678976108 32.66833581019182 0 32.66833581019182 -23.959346876099517 0 0 0 0 39.725403207045929 24.028433452698664 0 24.028433452698664 5.6943763694216614 0 0 0 0 51.121979174665697 13.3889965970384 0 13.3889965970384 -1.0964331415666981 0 0 0 0 54.383832369082484 25.76044602507136 0 25.76044602507136 -18.760692455678509 0 0 0 0 34.341089236934593 8.8433779650009612 0 8.8433779650009612 -6.0033272506695781 0 0 0 0 70.740519617815153 26.108832232579061 0 26.108832232579061 -39.393083604810727 0 0 0 0 39.954826152386886 3.2564850515618673 0 3.2564850515618673 -0.20095118979497784 0 0 0 0 53.034813792193745 13.286535100460696 0 13.286535100460696 -22.447718740137134 0 0 0 0 29.748041560600029 -0.34562395680394786 0 -0.34562395680394786 -5.4201608793329292 0 0 0 0 26.061894010130345 11.394269370310212 0 11.394269370310212 4.1467862023177986 0 0 0 0 43.597302289919298 16.067360602834924 0 16.067360602834924 14.228409035584264 0 0 0 0 50.600060961209238 5.4081154784335013 0 5.4081154784335013 -4.5791628660590504 0 0 0 0 1.8877697035497647 -6.3347311419307628 0 -6.3347311419307628 -3.2259916211558792 0 0 0 0 1.2082633550553368 6.3399209990923318 0 6.3399209990923318 0.6918253349835255 0 0 0 0 60.81764148385264 8.1359428991654568 0 8.1359428991654568 -9.02976292805306 0 0 0 0 32.184613216156905 2.1270002461455135 0 2.1270002461455135 -3.7381484056370637 0 0 0 0 14.105251137778396 -81.141463755642292 0 -81.141463755642292 -164.57858359288565 0 0 0 0 49.09077656447613 -2.36345687274705 0 -2.36345687274705 -4.8965533868227498 0 0 0 0 -36.610498358175391 -138.38290223169042 0 -138.38290223169042 -201.97225425339082 0 0 0 0 -98.042597230618412 -64.997474205600255 0 -64.997474205600255 -53.467910996555474 0 0 0 0 -188.7192707332506 -140.66122215185959 0 -140.66122215185959 -62.585836227255641 0 0 0 0 542.76035171882904 64.802943277375675 0 64.802943277375675 -424.29221521694194 0 0 0 0 49.535781617116442 0.88612456850422205 0 0.88612456850422205 -0.79425808921484276 0 0 0 0 -54.555162745862617 -18.405403717438617 0 -18.405403717438617 72.26975298324885 0 0 0 0 56.758574962048442 15.50481899870374 0 15.50481899870374 -64.16377639379516 0 0 0 0 53.718365306683211 16.398752457860851 0 16.398752457860851 -20.12354125571801 0 0 0 0 49.652606722034221 -1.3735471079664388 0 -1.3735471079664388 -5.5634453214623996 0 0 0 0 48.10305508995225 -28.143962669740176 0 -28.143962669740176 -26.833934356582176 0 0 0 0 23.553179750968411 -1.5279606613553369 0 -1.5279606613553369 -6.6028730543669099 0 0 0 0 17.939345616883486 -7.4811822227144518 0 -7.4811822227144518 -3.9693730345688643 0 0 0 0 23.647029012932762 -0.70026973185895258 0 -0.70026973185895258 -1.6049570158702409 0 0 0 0 21.790079185561311 -4.7883883295418439 0 -4.7883883295418439 -0.9065727579100944 0 0 0 0 27.454790662795858 -8.4585437713030842 0 -8.4585437713030842 -4.7385581665948848 0 0 0 0 25.266860286968949 -3.1181016833133981 0 -3.1181016833133981 -5.0718758836446796 0 0 0 0 33.529196129400589 3.0733659641882696 0 3.0733659641882696 -20.084728168691072 0 0 0 0 192.89088035838358 81.271176008753173 0 81.271176008753173 81.003201082605301 0 0 0 0 17.684369060647668 -27.565292098928182 0 -27.565292098928182 -30.920973910247994 0 0 0 0 6.8956485646061552 1.1355837688437305 0 1.1355837688437305 0.21241439058552203 0 0 0 0 19.706387350106752 6.8332334664449945 0 6.8332334664449945 -5.113033817626274 0 0 0 0 -30.342209618647757 -28.338133547626057 0 -28.338133547626057 -10.488591119047442 0 0 0 0 30.31143827377673 -18.098759515929487 0 -18.098759515929487 -31.035044594632438 0 0 0 0 24.149037235983997 -16.614386755383748 0 -16.614386755383748 -12.953123362683982 0 0 0 0 34.10305032596807 -15.391990363497825 0 -15.391990363497825 -39.473401703653508 0 0 0 0 31.805418129852157 -0.794762372101669 0 -0.794762372101669 -5.5292556434030216 0 0 0 0 46.792519616756181 7.9204560455689261 0 7.9204560455689261 -27.978700841182217 0 0 0 0 8.1985160183755497 6.9272386047256163 0 6.9272386047256163 -23.583446800907275 0 0 0 0 67.088280862029933 7.4416452221466898 0 7.4416452221466898 -37.28176127565348 0 0 0 0 81.669217314651178 42.797560986020073 0 42.797560986020073 -14.073935318463782 0 0 0 0 18.570906802172772 17.567474085694748 0 17.567474085694748 4.3704623610653801 0 0 0 0 50.193300539031043 27.696818853220407 0 27.696818853220407 1.6333601370270117 0 0 0 0 28.716311280531954 17.311687415482993 0 17.311687415482993 -0.94718162957497043 0 0 0 0 34.218760176969226 5.2337712968856067 0 5.2337712968856067 -6.0662300502156086 0 0 0 0 38.803130113863915 10.493814183319508 0 10.493814183319508 -6.32358352101725 0 0 0 0 60.171699476992217 19.148454475625385 0 19.148454475625385 1.263814147319863 0 0 0 0 40.812637311656545 6.502358283595413 0 6.502358283595413 18.768570661519334 0 0 0 0 29.018468235189175 13.074316407169079 0 13.074316407169079 0.059420669852761954 0 0 0 0 39.153249630355276 14.270662659029767 0 14.270662659029767 -3.7082905596871569 0 0 0 0 50.097828043875779 8.2312595927969596 0 8.2312595927969596 -7.2355228870233077 0 0 0 0 42.969984686344105 16.054312197034051 0 16.054312197034051 -6.3262064262908098 0 0 0 0 16.846973896403341 7.6106569145885388 0 7.6106569145885388 -2.6144413513185469 0 0 0 0 50.288398896591389 6.8990761468485289 0 6.8990761468485289 -1.2639221209246898 0 0 0 0 15.864468854819648 1.8077289488217332 0 1.8077289488217332 -4.5881072293233238 0 0 0 0 33.478861958115885 -1.7549135264143843 0 -1.7549135264143843 -10.388521098657748 0 0 0 0 39.023235093158291 4.3762628805184249 0 4.3762628805184249 -6.3946895657354617 0 0 0 0 18.148478062985305 1.0190959487435975 0 1.0190959487435975 0.78715832975103694 0 0 0 0 29.03250118510914 2.8507404870606479 0 2.8507404870606479 -0.39520750990413944 0 0 0 0 13.163534506136784 -1.0797795764592593 0 -1.0797795764592593 2.2035147206079273 0 0 0 0 19.536472023088422 2.5336509334989099 0 2.5336509334989099 0.85327284240100365 0 0 0 0 24.716228736233461 0.14303057038614497 0 0.14303057038614497 0.36879463008517632 0 0 0 0 30.758159150418578 20.54889798126942 0 20.54889798126942 5.5005996229292577 0 0 0 0 37.560285087864031 17.027641027776554 0 17.027641027776554 7.3182854702681652 0 0 0 0 14.114134020215715 1.2592088641795272 0 1.2592088641795272 6.3928310111150495 0 0 0 0 20.036773179206371 9.774620857021624 0 9.774620857021624 6.4696441593394667 0 0 0 0 20.765068234491778 14.029202158692531 0 14.029202158692531 -0.6057529138297264 0 0 0 0 13.201321384534822 3.928461863190023 0 3.928461863190023 -0.56248142911681498 0 0 0 0 29.411446316927801 3.587291125927166 0 3.587291125927166 0.70073595276582523 0 0 0 0 6.414215290295882 4.1414390203242597 0 4.1414390203242597 4.7185964802604374 0 0 0 0 9.576429998599929 -0.9755631388394157 0 -0.9755631388394157 -1.2329408129461186 0 0 0 0 66.057322788817601 20.623852649402352 0 20.623852649402352 -6.8397106411630375 0 0 0 0 29.983815782330566 19.435092365243236 0 19.435092365243236 4.0558978723693144 0 0 0 0 4.654860630082112 7.9929991004005387 0 7.9929991004005387 25.166392764335342 0 0 0 0 2.3401765240050736 -10.247383056237368 0 -10.247383056237368 3.5846776219186722 0 0 0 0 19.120383396062607 3.5130992032991344 0 3.5130992032991344 2.2204170495533617 0 0 0 0 9.3991346317361391 -4.4844401140889794 0 -4.4844401140889794 -1.5411590380815952 0 0 0 0 22.929011397431168 -3.0683075174615624 0 -3.0683075174615624 1.4508204548750427 0 0 0 0 2.5284877520464963 3.2392575572704416 0 3.2392575572704416 0.92287866110763872 0 0 0 0 28.353592867006228 -2.5289186348481962 0 -2.5289186348481962 -9.7528351706787362 0 0 0 0 27.302478875546512 -2.1000352487517375 0 -2.1000352487517375 6.5586021123544924 0 0 0 0 39.427969820684666 -5.4638655777907843 0 -5.4638655777907843 -2.9206490681208379 0 0 0 0 18.846955891414837 -14.882130211386539 0 -14.882130211386539 -4.7850816545897032 0 0 0 0 11.415321813412447 -3.3583414305197294 0 -3.3583414305197294 -1.8943015946984509 0 0 0 0 23.233965363293464 -4.7978468358255668 0 -4.7978468358255668 2.0164360243616102 0 0 0 0 29.630151041419595 -7.9299889335743501 0 -7.9299889335743501 0.12457695676675939 0 0 0 0 21.981211852809793 -1.9977536474889348 0 -1.9977536474889348 -0.60149669091333635 0 0 0 0 32.340569077354303 -9.2945737687632572 0 -9.2945737687632572 -2.6211856809895835 0 0 0 0 29.49201666409499 -5.4998456768607866 0 -5.4998456768607866 -6.7540270917634189 0 0 0 0 23.368380059320771 -2.8304491371673066 0 -2.8304491371673066 -4.0211677896259062 0 0 0 0 31.346885181657854 -8.779189739303547 0 -8.779189739303547 -5.6562661512543855 0 0 0 0 35.27046094131947 -6.1788064150186983 0 -6.1788064150186983 -1.6300498151649663 0 0 0 0 34.171314780607645 -3.8713615821725398 0 -3.8713615821725398 -5.0609744184945669 0 0 0 0 29.644798890294624 -8.8197197486351797 0 -8.8197197486351797 -3.0848279010569968 0 0 0 0 33.032248405213977 -3.0124066480339025 0 -3.0124066480339025 3.1209367402134376 0 0 0 0 36.675310529179114 -5.6804383087164751 0 -5.6804383087164751 -2.8794267652543795 0 0 0 0 47.921375413512578 1.8781213476495395 0 1.8781213476495395 0.42139067888319914 0 0 0 0 41.21723018926059 5.2280556421474103 0 5.2280556421474103 8.7008861373642503 0 0 0 0 52.074482560212346 2.7117386783702386 0 2.7117386783702386 5.3383059866937401 0 0 0 0 60.885860047805181 12.430241860865863 0 12.430241860865863 8.1021921049832599 0 0 0 0 44.836686067639675 -1.5463190092473269 0 -1.5463190092473269 17.99576021176108 0 0 0 0 63.254361221865565 11.142891779625927 0 11.142891779625927 17.245412159706575 0 0 0 0 64.02438236242233 8.3166916392656276 0 8.3166916392656276 10.063562739908548 0 0 0 0 44.860008015071799 1.5568921029675948 0 1.5568921029675948 12.022562911903151 0 0 0 0 45.401245979143823 2.0685151374232191 0 2.0685151374232191 2.1793418121778814 0 0 0 0 25.957286488097452 7.165139240521512 0 7.165139240521512 15.634493161017417 0 0 0 0 41.215939978053029 17.737586051097537 0 17.737586051097537 24.787873703452988 0 0 0 0 29.294654984630142 0.27503992636007979 0 0.27503992636007979 10.659653197965781 0 0 0 0 58.074574683003448 14.30476696997664 0 14.30476696997664 42.792380367778605 0 0 0 0 55.928463429658223 8.3291468329496752 0 8.3291468329496752 29.765403403224468 0 0 0 0 -12.292597499797921 10.832596048693858 0 10.832596048693858 13.212811264773109 0 0 0 0 10.583110151230358 8.5678874467942592 0 8.5678874467942592 11.18194360314925 0 0 0 0 61.23175018492384 17.746911221114146 0 17.746911221114146 -13.867429162336521 0 0 0 0 1.3767142496544782 -2.890160904124599 0 -2.890160904124599 -1.7789579489504987 0 0 0 0 25.195559913894442 -3.2537078911571342 0 -3.2537078911571342 -0.85311286489741178 0 0 0 0 11.64510713798154 7.3236122604514549 0 7.3236122604514549 13.420778506816418 0 0 0 0 0.1630336611504406 -1.8819973022179788 0 -1.8819973022179788 1.9183486231712692 0 0 0 0 0.92054824021283821 10.714192579872332 0 10.714192579872332 0.70469775099081744 0 0 0 0 1.7607093280565991 2.2596452647774505 0 2.2596452647774505 -7.1409066215272539 0 0 0 0 -2.8431337018864724 2.4708387544593791 0 2.4708387544593791 -2.6398145160901336 0 0 0 0 91.533350898967001 31.974169755377297 0 31.974169755377297 -1.2336134150685325 0 0 0 0 -28.077672838198851 12.174483827914401 0 12.174483827914401 2.7318693818720021 0 0 0 0 -0.77983321204994738 -2.0486192260981042 0 -2.0486192260981042 1.1987211736621646 0 0 0 0 -6.5810059256782552 18.450817673497795 0 18.450817673497795 0.34530195867546354 0 0 0 0 -6.5426381809465965 18.547261883651345 0 18.547261883651345 -6.3560942013352815 0 0 0 0 25.237293859874626 24.328616676389544 0 24.328616676389544 49.801534777905545 0 0 0 0 58.718215531571332 22.814746360805003 0 22.814746360805003 9.8836002954871063 0 0 0 0 32.603632328927233 35.902291957406732 0 35.902291957406732 19.079764726513758 0 0 0 0 26.950734970367193 47.484119068303244 0 47.484119068303244 5.6065798782733509 0 0 0 0 45.469969314042828 33.253883221951128 0 33.253883221951128 16.247721203938113 0 0 0 0 58.129737137844131 56.457231855492068 0 56.457231855492068 9.1455339445483332 0 0 0 0 38.194030822818604 31.508233610590992 0 31.508233610590992 13.307396791895826 0 0 0 0 39.797874604959134 18.412221316532893 0 18.412221316532893 -20.130599919833458 0 0 0 0 27.445464303607878 48.843693274062957 0 48.843693274062957 19.147484630746931 0 0 0 0 31.854602369996883 24.732565854334283 0 24.732565854334283 -25.373849101834367 0 0 0 0 113.90811420169121 -92.415676029507381 0 -92.415676029507381 -143.38000723193807 0 0 0 0 -4.0611659221576701 38.020291099906615 0 38.020291099906615 2.9494531674381506 0 0 0 0 43.81607966005231 -5.7169639845977542 0 -5.7169639845977542 27.591911548589678 0 0 0 0 87.200526166878262 -22.66484521484449 0 -22.66484521484449 76.850851486282323 0 0 0 0 100.00596263663647 53.111333585974904 0 53.111333585974904 84.092271861045731 0 0 0 0 -59.774467461220411 10.477621067071425 0 10.477621067071425 79.269712091364454 0 0 0 0 -3.1936193502186825 -1.7921298195052202 0 -1.7921298195052202 3.9822335748319486 0 0 0 0 326.30499912647019 -48.848616806645012 0 -48.848616806645012 -52.07149711412967 0 0 0 0 321.09157309652073 -2.2190221552971252 0 -2.2190221552971252 -64.754223497106523 0 0 0 0 238.21978352228871 -41.35536458717047 0 -41.35536458717047 -23.614961570715877 0 0 0 0 270.77360285619216 20.791709104746815 0 20.791709104746815 -63.051535649219886 0 0 0 0 65.864775060566899 -65.815059835619195 0 -65.815059835619195 127.03265210824793 0 0 0 0 160.57690009235375 12.281248240409582 0 12.281248240409582 -27.327674512807249 0 0 0 0 87.623194943247654 -27.310041255827457 0 -27.310041255827457 44.034664079113099 0 0 0 0 66.570754518907052 2.2644955226086267 0 2.2644955226086267 5.4749199341677013 0 0 0 0 28.861987568256154 8.654454911117341 0 8.654454911117341 37.865009765193463 0 0 0 0 50.726780428160055 32.838482056024688 0 32.838482056024688 7.8925070079492343 0 0 0 0 1.6717430475403141 -2.0701220710616184 0 -2.0701220710616184 -0.69522355881318987 0 0 0 0 120.21538796540699 22.350104250301797 0 22.350104250301797 47.806457706640458 0 0 0 0 119.1596610622546 17.408979504451509 0 17.408979504451509 28.416663070519007 0 0 0 0 133.73865910158202 36.620294771170109 0 36.620294771170109 1.4724525778578936 0 0 0 0 96.51087262598594 24.917096176905716 0 24.917096176905716 -0.47163468133567221 0 0 0 0 -6.6692819943691575 6.124962497023489 0 6.124962497023489 22.625214564626731 0 0 0 0 2.1233683002233086 -2.9024019011436408 0 -2.9024019011436408 0.29053901782168268 0 0 0 0 50.469345219720708 24.715566784113435 0 24.715566784113435 -0.64566642632848925 0 0 0 0 131.44568566309681 31.751606415287824 0 31.751606415287824 -22.424531818890046 0 0 0 0 131.03792334637183 37.791947560718199 0 37.791947560718199 -5.6146886041187827 0 0 0 0 120.22105752302377 35.103283148099536 0 35.103283148099536 -0.16185274727604337 0 0 0 0 90.156636195788451 22.228933120435613 0 22.228933120435613 2.2170062756895277 0 0 0 0 72.53510259790346 3.4587919667383176 0 3.4587919667383176 9.9794027380812622 0 0 0 0 89.409160781444371 22.332105446170772 0 22.332105446170772 5.9598626171646174 0 0 0 0 127.58819726697038 18.136863308033298 0 18.136863308033298 1.7220709388589057 0 0 0 0 154.57270238843557 -14.158479488914281 0 -14.158479488914281 23.558074152174868 0 0 0 0 91.972561001813347 9.6712484404267514 0 9.6712484404267514 14.493133488977037 0 0 0 0 93.034205605446914 -0.21244854947781278 0 -0.21244854947781278 19.235102215280222 0 0 0 0 165.70205706425622 27.36150444202076 0 27.36150444202076 0.73973120495065814 0 0 0 0 134.58947660677222 41.970865299571187 0 41.970865299571187 33.284201254313302 0 0 0 0 106.82098486779239 -48.411457248480701 0 -48.411457248480701 -62.280754665984205 0 0 0 0 118.90448343280025 -55.644438941366843 0 -55.644438941366843 -115.50338112828467 0 0 0 0 55.324558066828558 -50.407703018394841 0 -50.407703018394841 -30.404991839434956 0 0 0 0 194.5806709856879 -28.824993326634967 0 -28.824993326634967 -118.08221350833276 0 0 0 0 100.60665580651163 -13.894299916919545 0 -13.894299916919545 -9.335168282388933 0 0 0 0 112.87796161109145 40.68466656214423 0 40.68466656214423 -8.0510648194901933 0 0 0 0 70.674290624085643 -65.171763453271979 0 -65.171763453271979 -110.96018555018327 0 0 0 0 87.273679899062984 -6.6378474989603067 0 -6.6378474989603067 -12.510776269897054 0 0 0 0 81.309397317785624 19.187381891113347 0 19.187381891113347 -21.871664503223769 0 0 0 0 80.664589638738107 16.847444012170385 0 16.847444012170385 15.780179894258424 0 0 0 0 61.845971796627055 53.660891000466222 0 53.660891000466222 28.930864887495318 0 0 0 0 39.264712980824697 40.882225578179941 0 40.882225578179941 15.7913930707291 0 0 0 0 63.461274239438353 17.864240523270723 0 17.864240523270723 18.545939805343096 0 0 0 0 93.656952973760781 -38.865640944155984 0 -38.865640944155984 60.262779705079538 0 0 0 0 88.188126593988272 65.77350755917837 0 65.77350755917837 107.70927537533601 0 0 0 0 164.38692504494975 29.485401118580626 0 29.485401118580626 6.528174449088965 0 0 0 0 109.80604082565696 37.720936894005092 0 37.720936894005092 5.4466934866863994 0 0 0 0 254.7308234101838 131.42619669184683 0 131.42619669184683 121.52408951797679 0 0 0 0 367.31496750508813 -138.02457481709098 0 -138.02457481709098 70.246134312562617 0 0 0 0 27.179050058936809 -73.845342270663195 0 -73.845342270663195 196.36867695637739 0 0 0 0 -2.853124902611043 3.9328927438945591 0 3.9328927438945591 6.3274050570006644 0 0 0 0 68.676372096319028 -40.374409974334355 0 -40.374409974334355 39.112959053203213 0 0 0 0 -66.877313850182873 63.105200838239625 0 63.105200838239625 -135.24921474278835 0 0 0 0 224.59376393425919 240.75569080187324 0 240.75569080187324 -32.735328748029588 0 0 0 0 98.928603024083714 -4.103093562478989 0 -4.103093562478989 282.70648196965931 0 0 0 0 256.9150420723447 -177.91028877389539 0 -177.91028877389539 62.145268433027923 0 0 0 0 154.13932074582772 -30.67476768432698 0 -30.67476768432698 -89.625094585255965 0 0 0 0 13.630677339278918 31.577359403565424 0 31.577359403565424 -49.677950457934003 0 0 0 0 144.65350785235205 -91.285118915255651 0 -91.285118915255651 2.4568253261068094 0 0 0 0 23.502053420732409 -44.893647516218607 0 -44.893647516218607 30.810741403880115 0 0 0 0 50.748011060521094 -14.22641272318333 0 -14.22641272318333 50.349348433530395 0 0 0 0 1.7372637740673156 -2.3698983806472285 0 -2.3698983806472285 -0.16205095836960481 0 0 0 0 217.93018789263078 -84.559996578353093 0 -84.559996578353093 -19.729949704432329 0 0 0 0 104.30590954732361 -10.517346515987583 0 -10.517346515987583 -15.160061161039266 0 0 0 0 156.01593007975134 97.568436795216712 0 97.568436795216712 -158.22628100886504 0 0 0 0 0.8363183795590885 144.20761574650351 0 144.20761574650351 -133.8369101393323 0 0 0 0 27.740307626372669 169.87302111199006 0 169.87302111199006 -144.44548482730897 0 0 0 0 -1.651389750863018 102.30969847650704 0 102.30969847650704 -246.71148769798674 0 0 0 0 20.104049173321982 70.611998960966957 0 70.611998960966957 -141.34939826954508 0 0 0 0 50.877041167939751 159.11205411917535 0 159.11205411917535 -2.8787274940732459 0 0 0 0 70.258758776959439 -41.284037685421026 0 -41.284037685421026 91.102753840809783 0 0 0 0 30.109157317732752 31.234335214862313 0 31.234335214862313 -131.61631748705986 0 0 0 0 55.906552406835544 43.204017018410013 0 43.204017018410013 -180.19422524210404 0 0 0 0 25.268508140243284 86.981533383599299 0 86.981533383599299 -118.81163538890905 0 0 0 0 44.488334831046814 31.648497104437958 0 31.648497104437958 20.614831610903835 0 0 0 0 42.021978078047596 194.90311310186718 0 194.90311310186718 -232.61386010284332 0 0 0 0 -22.702288323649555 204.55977379805222 0 204.55977379805222 75.465807428508924 0 0 0 0 -66.422849356677034 221.5512375422586 0 221.5512375422586 -204.07866235895108 0 0 0 0 -40.09070096645155 131.72158461345316 0 131.72158461345316 -64.216940627440636 0 0 0 0 359.25011768778495 -96.345553727010156 0 -96.345553727010156 -69.757267027184525 0 0 0 0 -41.076924290107854 187.69648187555276 0 187.69648187555276 235.16645288962354 0 0 0 0 -68.14836785199077 315.48517886125865 0 315.48517886125865 -262.88077078574088 0 0 0 0 34.694223293342944 25.366617908745614 0 25.366617908745614 16.771496829282647 0 0 0 0 113.09208049877998 74.412313412819458 0 74.412313412819458 18.784867233016485 0 0 0 0 36.34998483225354 23.786623339277867 0 23.786623339277867 31.033662371875835 0 0 0 0 30.114542368632101 72.973560581658603 0 72.973560581658603 95.343016419574269 0 0 0 0 24.111450035434245 9.3290885668520787 0 9.3290885668520787 16.280293166862975 0 0 0 0 38.193729255093785 7.0987596259437851 0 7.0987596259437851 11.412981464873155 0 0 0 0 33.402184615471924 -6.5743358888103103 0 -6.5743358888103103 -2.9765554770128801 0 0 0 0 37.973249482628489 5.9883501608624101 0 5.9883501608624101 10.429042480809585 0 0 0 0 47.649807552850689 7.4361131979630954 0 7.4361131979630954 4.2567593193152788 0 0 0 0 52.67891002487886 32.875282242374851 0 32.875282242374851 28.609750500526388 0 0 0 0 81.167722226204205 33.674363301334779 0 33.674363301334779 5.3418065508631116 0 0 0 0 65.938444421364693 18.585145084249234 0 18.585145084249234 8.7527910622500258 0 0 0 0 45.146623534145874 10.557244698972454 0 10.557244698972454 11.114553321591302 0 0 0 0 70.941386031478032 16.009054906763595 0 16.009054906763595 4.9884281029662816 0 0 0 0 82.258611887411462 34.167304879498715 0 34.167304879498715 5.561433197970473 0 0 0 0 108.98819767167879 28.527615847612651 0 28.527615847612651 -0.96928477740220842 0 0 0 0 85.360198221452265 54.400791646784114 0 54.400791646784114 4.5044626728849835 0 0 0 0 110.23102427513254 43.719138089135072 0 43.719138089135072 -5.2112446680384892 0 0 0 0 116.32952864609251 45.720613734078142 0 45.720613734078142 -4.6864808683158117 0 0 0 0 161.24209611675542 39.26470545621396 0 39.26470545621396 -20.536030405361998 0 0 0 0 127.41412990388562 60.763982874177145 0 60.763982874177145 -7.8830741677702463 0 0 0 0 2.2606924908086086 -3.2837255257614331 0 -3.2837255257614331 0.75732372057957065 0 0 0 0 64.744987979664074 -44.897744868995233 0 -44.897744868995233 -43.070671178295015 0 0 0 0 -57.891688555911969 -84.289072290371678 0 -84.289072290371678 259.83387543668869 0 0 0 0 286.46134687138692 -3.7187579703058873 0 -3.7187579703058873 -52.288477419037918 0 0 0 0 222.86442142091619 151.13398005883073 0 151.13398005883073 53.048140420437448 0 0 0 0 112.17386578051355 66.544383400526499 0 66.544383400526499 -8.1562854719450115 0 0 0 0 4.6164611802736886 2.1961140279999789 0 2.1961140279999789 1.0467897863451707 0 0 0 0 428.16479077098302 -95.522035117769519 0 -95.522035117769519 -34.34062169754543 0 0 0 0 58.444442590329345 -150.46777300520944 0 -150.46777300520944 338.00612606467985 0 0 0 0 150.00283370788384 148.88561917138759 0 148.88561917138759 213.11202459226183 0 0 0 0 99.381888256117236 135.78841783782809 0 135.78841783782809 -123.50613254613563 0 0 0 0 88.612446654355153 -44.272726438468453 0 -44.272726438468453 -95.688698516779368 0 0 0 0 172.99965886081191 6.3876544770591863 0 6.3876544770591863 -72.462209607790101 0 0 0 0 257.54544140897815 -187.99407640193749 0 -187.99407640193749 -56.803162800915743 0 0 0 0 107.18880941206589 -110.13363802989079 0 -110.13363802989079 -97.106542165854989 0 0 0 0 96.833131688406866 -182.22769505867473 0 -182.22769505867473 21.966248309234288 0 0 0 0 14.211678200035749 -118.74994913775208 0 -118.74994913775208 43.067086289142026 0 0 0 0 65.886916263320018 -144.74753968220102 0 -144.74753968220102 -9.4987512372608762 0 0 0 0 4.5789210520379129 -143.93084527991778 0 -143.93084527991778 58.939773944974149 0 0 0 0 16.206709387886804 -164.83486695189822 0 -164.83486695189822 66.821306870771878 0 0 0 0 -12.339502820941561 88.131751093761522 0 88.131751093761522 169.71772741834775 0 0 0 0 51.313440222689678 83.180263374993956 0 83.180263374993956 125.30767896064935 0 0 0 0 -0.41677634879306424 445.57427178135185 0 445.57427178135185 -660.49089471249681 0 0 0 0 473.53152801760007 -505.85081296148201 0 -505.85081296148201 -682.1073809354566 0 0 0 0 -17.282402131590061 12.773375081997074 0 12.773375081997074 59.140032551189506 0 0 0 0 -18.529514807328269 -32.603897167283037 0 -32.603897167283037 18.073729683208512 0 0 0 0 21.430654592365357 1.8065129578039638 0 1.8065129578039638 -0.72320765953517885 0 0 0 0 41.290940417820821 -8.0487564211507561 0 -8.0487564211507561 -35.954431686220232 0 0 0 0 -23.195268451177981 -212.81588056847977 0 -212.81588056847977 154.27884557552807 0 0 0 0 18.202070550309145 -35.211203709157417 0 -35.211203709157417 -20.375094706962045 0 0 0 0 20.889340907509904 -15.049663950103422 0 -15.049663950103422 -12.685298290947685 0 0 0 0 11.597657259000698 6.7499082075155457 0 6.7499082075155457 48.794328104213491 0 0 0 0 69.829637941278634 -446.48088545424253 0 -446.48088545424253 -108.5779073304584 0 0 0 0 62.664710394616122 -91.011900490131666 0 -91.011900490131666 -139.05330405251152 0 0 0 0 215.30308107171004 118.14785429931726 0 118.14785429931726 -130.56185270692367 0 0 0 0 -199.03250984909391 311.05183322518315 0 311.05183322518315 -315.23513686604929 0 0 0 0 -1.9760958036681302 -2.3065508139809623 0 -2.3065508139809623 -3.5106033894827533 0 0 0 0 184.39558994803519 48.611420708064543 0 48.611420708064543 -685.77371937917667 0 0 0 0 -90.783510709938128 27.007859608322178 0 27.007859608322178 -75.36299359132704 0 0 0 0 -261.08599316525488 -23.764306771786551 0 -23.764306771786551 60.491030390265223 0 0 0 0 2.6743312340119658 -8.6807363296010749 0 -8.6807363296010749 -13.826020283216671 0 0 0 0 -4.2227620143239619 45.893816748246536 0 45.893816748246536 -152.70332284264987 0 0 0 0 89.459791670011327 -18.817873747533667 0 -18.817873747533667 -26.137062193600286 0 0 0 0 53.070145572877664 -70.862018272093337 0 -70.862018272093337 67.529640227785421 0 0 0 0 108.56872869940344 -63.827002411456533 0 -63.827002411456533 -38.554283463985485 0 0 0 0 44.969192236116214 16.658044232204702 0 16.658044232204702 -17.203683010962322 0 0 0 0 39.30688849192385 -2.3631207949188706 0 -2.3631207949188706 -14.443611228413253 0 0 0 0 55.696502701011923 0.14891595460358076 0 0.14891595460358076 -27.11911950297872 0 0 0 0 55.062900832308898 10.807962692490237 0 10.807962692490237 -1.4672380530093339 0 0 0 0 98.042871884870692 -8.8645874278427073 0 -8.8645874278427073 -131.03986777635873 0 0 0 0 49.796441308979411 -15.234751213849677 0 -15.234751213849677 10.72331181766549 0 0 0 0 34.916356996098145 1.9616780070224138 0 1.9616780070224138 -5.1260756594427868 0 0 0 0 37.321324551049813 13.530460930250612 0 13.530460930250612 2.1530732511251678 0 0 0 0 41.58018579147938 15.989286403620781 0 15.989286403620781 -14.895657758077505 0 0 0 0 42.733806251943633 27.694651897858932 0 27.694651897858932 -187.78866169710454 0 0 0 0 37.187700819988095 -44.357986204678127 0 -44.357986204678127 -42.963960135559319 0 0 0 0 68.405620130244642 -55.67625062841762 0 -55.67625062841762 -85.608539555676543 0 0 0 0 53.160788959092883 -69.559528383550457 0 -69.559528383550457 -73.456310416513588 0 0 0 0 122.73252209229031 28.069426715439477 0 28.069426715439477 -281.36927962992741 0 0 0 0 127.49428784485644 -92.869110529594764 0 -92.869110529594764 -85.82223614438044 0 0 0 0 55.839829654571076 6.824930030712494 0 6.824930030712494 -219.9055042686914 0 0 0 0 155.90058766614857 2.3091765244023463 0 2.3091765244023463 -234.04581027875247 0 0 0 0 118.2871310707269 17.132532386849562 0 17.132532386849562 -159.70497855232179 0 0 0 0 161.60345812892774 32.64390435687892 0 32.64390435687892 -351.39604697004324 0 0 0 0 200.14343479499439 21.183247348896657 0 21.183247348896657 -295.44179186560723 0 0 0 0 66.203750382439921 20.816933700352102 0 20.816933700352102 4.5833233222812524 0 0 0 0 27.857647018245189 208.76688648437084 0 208.76688648437084 -415.90714694725284 0 0 0 0 12.747661289834127 -8.544239671667281 0 -8.544239671667281 -10.846449329273803 0 0 0 0 95.749599992166623 -75.516539200545594 0 -75.516539200545594 -93.884237753694833 0 0 0 0 6.4975314597395482 -5.7778070387028038 0 -5.7778070387028038 -13.439186278467787 0 0 0 0 169.84742829100287 -82.30970835264543 0 -82.30970835264543 -68.275086174770422 0 0 0 0 79.657114491288667 0.36534101409233699 0 0.36534101409233699 27.080017324446999 0 0 0 0 74.522667375484161 -154.57737061393186 0 -154.57737061393186 152.99244699498558 0 0 0 0 34.149363086216908 30.723881298014248 0 30.723881298014248 -43.794513741475384 0 0 0 0 207.57506173783622 182.78429157350638 0 182.78429157350638 -364.15276768283638 0 0 0 0 48.366739877196622 10.989531127846636 0 10.989531127846636 -1.0988514437038148 0 0 0 0 34.724587714387326 16.165369046651769 0 16.165369046651769 5.8395529796193983 0 0 0 0 371.9415492691769 -182.3321627716 0 -182.3321627716 -168.91698932350505 0 0 0 0 167.47058837264922 -265.1014071884124 0 -265.1014071884124 351.7761739522175 0 0 0 0 -39.122781355355983 109.10738398727881 0 109.10738398727881 274.92613153711318 0 0 0 0 4.190535217450531 1.0601481536262298 0 1.0601481536262298 0.41022115795960001 0 0 0 0 92.390441352694324 -21.90816503149415 0 -21.90816503149415 -62.782896113230436 0 0 0 0 11.070770620928357 4.5999691496036945 0 4.5999691496036945 0.79495287782429713 0 0 0 0 3.2773696618970405 -0.54879508246222031 0 -0.54879508246222031 -2.182711736424948 0 0 0 0 -93.53879192093882 140.70170186580754 0 140.70170186580754 -19.18411362572806 0 0 0 0 -45.744900082223467 85.336046640594986 0 85.336046640594986 156.72818362607541 0 0 0 0 -43.554508741217433 69.804854897699215 0 69.804854897699215 118.15075855448595 0 0 0 0 -18.757306641211471 87.220520523004097 0 87.220520523004097 -5.9793213186558205 0 0 0 0 -16.814545743814961 131.17959175926035 0 131.17959175926035 72.375007009443834 0 0 0 0 47.279538483962824 202.18876985926545 0 202.18876985926545 126.52758729894686 0 0 0 0 194.29311626094386 61.594781921872595 0 61.594781921872595 -116.71950922531823 0 0 0 0 427.28234620381409 222.7665236540538 0 222.7665236540538 -8.6327660407398525 0 0 0 0 -0.11795033355215878 5.4907702205121325 0 5.4907702205121325 -2.1631043559475653 0 0 0 0 37.698033439330175 25.686997959100381 0 25.686997959100381 -3.0474974149897207 0 0 0 0 12.715247447224101 7.354330281911416 0 7.354330281911416 19.126912305821861 0 0 0 0 3.8683072802808454 -0.81730890007787593 0 -0.81730890007787593 -2.0227366539067111 0 0 0 0 19.336383548306912 25.226600463604086 0 25.226600463604086 42.394575588656608 0 0 0 0 31.252040544686679 327.92464158982921 0 327.92464158982921 -50.21689018578536 0 0 0 0 -212.57308249001289 -150.93564847969856 0 -150.93564847969856 280.79746131446745 0 0 0 0 311.76518352457788 -90.840698705380873 0 -90.840698705380873 -83.805079907268919 0 0 0 0 208.47957868325466 -110.97662885889667 0 -110.97662885889667 -75.598469204986941 0 0 0 0 322.14617202547015 -56.385485852044667 0 -56.385485852044667 -111.4312652819608 0 0 0 0 308.61875851565128 -48.889068062581828 0 -48.889068062581828 -30.385451426317559 0 0 0 0 -30.399660453185788 12.888959584876829 0 12.888959584876829 239.22597376427422 0 0 0 0 300.26573415792154 -85.835392755809039 0 -85.835392755809039 -69.187897188338866 0 0 0 0 2.374335414028792 1.290639381908214 0 1.290639381908214 0.82217214905114844 0 0 0 0 388.13307161653938 60.506204126274952 0 60.506204126274952 17.28551674565847 0 0 0 0 129.07975917993463 -116.658135918683 0 -116.658135918683 -56.998849712767196 0 0 0 0 30.810717841268342 -38.745035014826044 0 -38.745035014826044 -15.830742299031044 0 0 0 0 -51.685585574174183 19.889858666835153 0 19.889858666835153 6.8835493028309429 0 0 0 0 -7.8021401046379992 15.810256807440432 0 15.810256807440432 10.828975506372686 0 0 0 0 20.171543084739824 82.378121694398033 0 82.378121694398033 10.095109611967928 0 0 0 0 102.90853938064538 48.665965138548017 0 48.665965138548017 -206.52670140849114 0 0 0 0 -44.337334069045028 108.51776989561586 0 108.51776989561586 -115.55843208452279 0 0 0 0 31.424367619722034 -47.759155940324945 0 -47.759155940324945 -43.818406692495046 0 0 0 0 -61.095122895261738 38.895790354392375 0 38.895790354392375 -88.00343320812317 0 0 0 0 189.37730111393466 -26.031016963781326 0 -26.031016963781326 -94.348621218911831 0 0 0 0 51.734957738502999 130.52492670874744 0 130.52492670874744 -247.45410757403261 0 0 0 0 36.205196806549793 66.090901872008544 0 66.090901872008544 -85.593590600404241 0 0 0 0 7.6683504371467279 -0.71779951388316476 0 -0.71779951388316476 -209.73909466656278 0 0 0 0 -95.804697540173947 124.88455521949959 0 124.88455521949959 -74.249539123798968 0 0 0 0 -44.501570100881509 -2.3460300684764661 0 -2.3460300684764661 22.009994213382924 0 0 0 0 45.61086436858362 19.470477250466274 0 19.470477250466274 8.9562066478959252 0 0 0 0 3.3256366528949002 31.824268851324632 0 31.824268851324632 3.9163476507757196 0 0 0 0 42.814966102945618 24.045454886694642 0 24.045454886694642 -7.3178846117698413 0 0 0 0 6.0874062054401463 3.8353605590350455 0 3.8353605590350455 2.0596427735551126 0 0 0 0 -13.385058619751362 23.236823162347719 0 23.236823162347719 3.3087121628122986 0 0 0 0 0.25202047216589563 -1.6301577220356194 0 -1.6301577220356194 12.105820231628968 0 0 0 0 54.34362278682238 6.8253779745173233 0 6.8253779745173233 -30.120621487834796 0 0 0 0 79.961495835472306 155.90226278844784 0 155.90226278844784 -308.29718168506406 0 0 0 0 22.115824305277101 8.6851951073207445 0 8.6851951073207445 2.2086267252829828 0 0 0 0 70.898727149335173 175.09943769501751 0 175.09943769501751 -275.07135984289198 0 0 0 0 7.7345699160869117 7.6312357974934457 0 7.6312357974934457 14.568831626370411 0 0 0 0 75.144209950620279 48.276143458193474 0 48.276143458193474 -353.92638745423756 0 0 0 0 -7.6292512287909631 171.45838560371476 0 171.45838560371476 -193.26802142064298 0 0 0 0 91.543145195319084 -64.280338904116434 0 -64.280338904116434 -7.7508539351522359 0 0 0 0 36.168470015836647 18.534286127848191 0 18.534286127848191 -41.395791923320758 0 0 0 0 7.1646231734206083 6.1282922163625315 0 6.1282922163625315 3.246494975055044 0 0 0 0 11.465326260655701 3.688530614879582 0 3.688530614879582 -0.59425266248379138 0 0 0 0 -68.191575402350281 49.281638426929931 0 49.281638426929931 -107.64221100094437 0 0 0 0 -39.822479634545743 138.39859870405144 0 138.39859870405144 33.019593522302785 0 0 0 0 -13.897540559446497 11.428169196631188 0 11.428169196631188 139.38387147782078 0 0 0 0 -58.707442436170822 131.26916581531486 0 131.26916581531486 88.569599293628016 0 0 0 0 16.28863222648215 141.63569331238477 0 141.63569331238477 121.50355544824424 0 0 0 0 -50.758540320667635 69.955809156195585 0 69.955809156195585 45.460915962729814 0 0 0 0 328.50788055729208 180.6502250975268 0 180.6502250975268 148.25679716445893 0 0 0 0 48.667668327963838 58.862067723462019 0 58.862067723462019 98.260911264088463 0 0 0 0 188.59114776976639 105.42280905079997 0 105.42280905079997 4.6377130005698746 0 0 0 0 39.331240640123724 78.709364226079288 0 78.709364226079288 -98.290536071877796 0 0 0 0 150.3905793838785 18.268991839393493 0 18.268991839393493 -118.36552337494891 0 0 0 0 8.6392906691253302 74.27654641006211 0 74.27654641006211 3.1448519459945601 0 0 0 0 123.61338957373664 7.8204517152682911 0 7.8204517152682911 -28.06271304566144 0 0 0 0 217.27856837974105 -85.766478465126511 0 -85.766478465126511 -77.830839705020026 0 0 0 0 239.93455769719731 -50.879010760715119 0 -50.879010760715119 -27.340988095766143 0 0 0 0 481.3629700284655 -97.931685446185838 0 -97.931685446185838 65.621791376100418 0 0 0 0 241.29669648281561 -23.286745910408399 0 -23.286745910408399 48.841036411260575 0 0 0 0 370.56206519153784 -105.30990387385873 0 -105.30990387385873 72.860243973877914 0 0 0 0 302.68423201874975 -146.76207762485319 0 -146.76207762485319 49.229957635161099 0 0 0 0 348.28918363887351 -96.144585448878161 0 -96.144585448878161 -40.918383082106629 0 0 0 0 207.43687879218487 -77.795465636112112 0 -77.795465636112112 -25.469057510608764 0 0 0 0 407.23845627154878 -47.556616761689384 0 -47.556616761689384 107.95454325114133 0 0 0 0 641.95419708874397 -124.87274222439646 0 -124.87274222439646 130.90369390875026 0 0 0 0 322.22579363763725 -100.15031112018141 0 -100.15031112018141 236.20506931096043 0 0 0 0 493.97834780711128 49.706073248742086 0 49.706073248742086 213.21162928115081 0 0 0 0 509.14077313246526 74.184838419138259 0 74.184838419138259 74.635750814034509 0 0 0 0 245.8722217255272 19.792453472663965 0 19.792453472663965 101.92382216207784 0 0 0 0 627.90859653397638 169.00476930473997 0 169.00476930473997 54.638548356869705 0 0 0 0 -23.202144628136011 -39.586287137877662 0 -39.586287137877662 161.48173681668231 0 0 0 0 257.47750005299167 -3.6953621790312354 0 -3.6953621790312354 91.510644646921719 0 0 0 0 310.88958855381134 -94.518993928800683 0 -94.518993928800683 123.44442479824193 0 0 0 0 29.094781553525536 111.19112751818011 0 111.19112751818011 320.05844426165913 0 0 0 0 2.7280594162538421 0.84023755725094773 0 0.84023755725094773 0.54523792715879527 0 0 0 0 -10.510585950956738 49.219256442771666 0 49.219256442771666 32.461057186436392 0 0 0 0 7.3830199413746413 2.0808512575908864 0 2.0808512575908864 0.87166048087094161 0 0 0 0 24.155266389294411 -23.84848866744278 0 -23.84848866744278 87.243047830716478 0 0 0 0 -19.961430726591061 -32.760296958051754 0 -32.760296958051754 116.82632178661061 0 0 0 0 -40.803071715450642 -66.317945987647363 0 -66.317945987647363 81.767520991437323 0 0 0 0 32.601062778729101 -59.11976073092319 0 -59.11976073092319 -83.206617423926218 0 0 0 0 62.794128782206826 -62.364178188069559 0 -62.364178188069559 -292.83078347261062 0 0 0 0 46.507622108785768 5.0105950904323242 0 5.0105950904323242 -0.19774277865261719 0 0 0 0 -70.091619727398211 -47.305355639304253 0 -47.305355639304253 -83.890180241095095 0 0 0 0 130.59139302100812 -104.2576189495453 0 -104.2576189495453 -651.5104096377645 0 0 0 0 36.197786253637247 -10.795937741098548 0 -10.795937741098548 -6.6975674448855234 0 0 0 0 59.404944731897558 -30.074231866186544 0 -30.074231866186544 -120.86822740010513 0 0 0 0 39.117425592439645 9.5443258168972722 0 9.5443258168972722 -1.4108682167574849 0 0 0 0 -57.100153097002476 -54.240967149640028 0 -54.240967149640028 127.55807227155856 0 0 0 0 1145.7480277855575 549.20566994021101 0 549.20566994021101 -106.26286822421116 0 0 0 0 204.25121086313447 54.174296924850296 0 54.174296924850296 145.40758489729637 0 0 0 0 228.70268910440063 79.045602404651618 0 79.045602404651618 -51.287614825460878 0 0 0 0 -196.4192110968288 -377.04848069171021 0 -377.04848069171021 -63.635519689315885 0 0 0 0 -765.39983686569758 979.00901907235993 0 979.00901907235993 488.7554334419583 0 0 0 0 633.10279360195273 -1530.8033218634714 0 -1530.8033218634714 1724.6917711406825 0 0 0 0 527.63561902469155 -585.92885205034406 0 -585.92885205034406 1375.7425723354245 0 0 0 0 28.871012993127408 1.9704593476658978 0 1.9704593476658978 -2.6332411804187519 0 0 0 0 382.86556060152361 658.9973731300571 0 658.9973731300571 -579.60839954232733 0 0 0 0 1032.9053898918792 596.52149365139849 0 596.52149365139849 -613.90695011959542 0 0 0 0 -692.24914773271121 724.22560586498798 0 724.22560586498798 88.742723429496891 0 0 0 0 3.7489576469969847 4.5665250282194592 0 4.5665250282194592 4.2182957551750313 0 0 0 0 1461.3445091398171 -204.09083489367504 0 -204.09083489367504 -117.37105315419649 0 0 0 0 24.04346663267097 22.076239503097554 0 22.076239503097554 -4.0021673993846889 0 0 0 0 24.243426242779606 20.317624848917319 0 20.317624848917319 -16.060974742096732 0 0 0 0 45.441522825571155 2.5959233383310334 0 2.5959233383310334 -34.165567360163323 0 0 0 0 22.13390953626822 0.79593738468635422 0 0.79593738468635422 -1.456480548826717 0 0 0 0 12.533966757924645 -24.11354271665823 0 -24.11354271665823 13.927783003391141 0 0 0 0 -0.96807833215636663 5.1024732150200123 0 5.1024732150200123 -4.9318238913463119 0 0 0 0 26.21338624258351 -37.316429520198653 0 -37.316429520198653 -108.43320355531489 0 0 0 0 -24.098159170127474 -52.462818303127733 0 -52.462818303127733 -71.5396579772937 0 0 0 0 5.1578155687820981 71.726122410067546 0 71.726122410067546 40.899910440289432 0 0 0 0 91.314126944147574 19.488100667308117 0 19.488100667308117 -82.902272763874862 0 0 0 0 11.464410882534139 -56.355332957850578 0 -56.355332957850578 70.973848466810978 0 0 0 0 10.822882759245772 3.7033964804307828 0 3.7033964804307828 -0.41273386832310877 0 0 0 0 9.7318184021060006 3.5715179214043928 0 3.5715179214043928 -49.070462379803757 0 0 0 0 93.997255974885775 -71.087309558533889 0 -71.087309558533889 70.433849847146575 0 0 0 0 18.875837910891278 5.3040559072010183 0 5.3040559072010183 77.600063618715012 0 0 0 0 5.7021912049963959 0.28692421243874833 0 0.28692421243874833 -0.89412926502201628 0 0 0 0 56.262033849627187 -80.937483708690365 0 -80.937483708690365 24.427623699370088 0 0 0 0 105.73825690973172 -17.57394297698545 0 -17.57394297698545 -71.47488374499062 0 0 0 0 27.661914976284606 -54.398207377277004 0 -54.398207377277004 -83.0864131872504 0 0 0 0 25.59941342388629 -20.842275522305044 0 -20.842275522305044 89.768201826161999 0 0 0 0 25.5300416001337 27.479203941449668 0 27.479203941449668 -102.29611306791207 0 0 0 0 14.921147323657351 -45.293078242696765 0 -45.293078242696765 -79.77646923281327 0 0 0 0 148.86903169122525 -1.3770957794820333 0 -1.3770957794820333 -139.22432119785736 0 0 0 0 50.241496315927947 5.6045574443261508 0 5.6045574443261508 0.69263561131667983 0 0 0 0 82.100061634220765 -44.418921306721018 0 -44.418921306721018 -172.88320252435869 0 0 0 0 40.842065047399956 -10.213999049164386 0 -10.213999049164386 -90.855165340119129 0 0 0 0 30.371669578606088 -26.417030828299801 0 -26.417030828299801 -34.976236369871003 0 0 0 0 27.258108364989312 -10.796717300449814 0 -10.796717300449814 -29.082070334646232 0 0 0 0 25.510582688029416 0.48239320255480322 0 0.48239320255480322 -7.9015829426120314 0 0 0 0 36.527740066463593 2.3762974135941022 0 2.3762974135941022 -12.629176017856707 0 0 0 0 51.418366356693895 5.6958344220490869 0 5.6958344220490869 -6.1033961029396275 0 0 0 0 46.605618728135596 -9.9787911431313887 0 -9.9787911431313887 -75.569239872566186 0 0 0 0 41.312426116197457 -1.0380783190555576 0 -1.0380783190555576 -40.347026753087448 0 0 0 0 36.892248616633879 33.127583239901696 0 33.127583239901696 -66.401565445513924 0 0 0 0 13.677254819004474 7.4804142648785614 0 7.4804142648785614 -31.247397239497793 0 0 0 0 4.5957552540348843 39.545100821686219 0 39.545100821686219 14.713026304993036 0 0 0 0 36.866974389749089 1.7925685406947736 0 1.7925685406947736 -8.3948899313479153 0 0 0 0 4.0741141713953368 -3.8826539723777387 0 -3.8826539723777387 -7.6285940450766514 0 0 0 0 110.40287375531625 -47.784318582544529 0 -47.784318582544529 -14.099445146115613 0 0 0 0 40.022751223936211 -3.6456816086557637 0 -3.6456816086557637 -32.485187954798675 0 0 0 0 8.2108871440748672 -9.4897527388114042 0 -9.4897527388114042 -16.397039377131101 0 0 0 0 83.053375209070509 -41.919622179865883 0 -41.919622179865883 -15.34654568648682 0 0 0 0 18.961196545569692 -15.239355910061246 0 -15.239355910061246 -7.5704958516079444 0 0 0 0 114.0981028155511 -40.904528526009472 0 -40.904528526009472 -25.09958584788842 0 0 0 0 93.939248337694153 10.722971328417145 0 10.722971328417145 -52.093443607007771 0 0 0 0 4.8265022763735033 53.835236268368476 0 53.835236268368476 -17.845357290092124 0 0 0 0 4.9730058300192468 49.59563296080114 0 49.59563296080114 -12.853186378885198 0 0 0 0 -5.5047619433607906 28.833188740845458 0 28.833188740845458 -23.727266674208096 0 0 0 0 12.039591658289169 23.258041497358963 0 23.258041497358963 -4.3633027696345774 0 0 0 0 110.38038874350605 -54.923169701531606 0 -54.923169701531606 -0.48173729450900282 0 0 0 0 95.275200762116583 -35.34735804737943 0 -35.34735804737943 -18.932757885987542 0 0 0 0 98.88617076603623 -8.1076626810245855 0 -8.1076626810245855 11.640188512633244 0 0 0 0 64.854375504975906 52.885471163655239 0 52.885471163655239 4.8388354120498889 0 0 0 0 -0.39291173107341137 1.893336449024428 0 1.893336449024428 -1.4709699632331084 0 0 0 0 24.789904202885495 5.7481456196727976 0 5.7481456196727976 -5.5137950282698718 0 0 0 0 32.699288024262614 17.689820396122521 0 17.689820396122521 -3.5205354358744585 0 0 0 0 92.242214069468901 -42.243120933875616 0 -42.243120933875616 -41.243399083866166 0 0 0 0 0.98593799672380555 -12.949317015261386 0 -12.949317015261386 -22.012186244484383 0 0 0 0 130.98995161418861 9.0336133646442249 0 9.0336133646442249 -50.313368255131081 0 0 0 0 97.770861420605797 -2.9841364731787507 0 -2.9841364731787507 -49.108645866684753 0 0 0 0 93.795959991510244 3.6004682998527073 0 3.6004682998527073 -36.017962835257094 0 0 0 0 97.100568023146479 18.191373047408433 0 18.191373047408433 -27.404673859867671 0 0 0 0 6.1633930133582737 -0.52338131402004251 0 -0.52338131402004251 -1.9165505272118937 0 0 0 0 42.769175980996806 -32.219011421855157 0 -32.219011421855157 6.5976727057906146 0 0 0 0 8.3373494342604317 61.928883440213795 0 61.928883440213795 -13.483356351809562 0 0 0 0 57.481945093037211 70.12876839753153 0 70.12876839753153 -20.520239308764758 0 0 0 0 82.123717220551043 72.70898178407424 0 72.70898178407424 -34.087735281241294 0 0 0 0 79.665730410313699 66.924572119903132 0 66.924572119903132 -22.079255732231104 0 0 0 0 46.922700863178761 28.490652430104092 0 28.490652430104092 -20.013188834911489 0 0 0 0 122.05133258240676 29.175654454923915 0 29.175654454923915 -27.664946041157236 0 0 0 0 150.08425577968592 -4.7977790867571457 0 -4.7977790867571457 -34.957518110646106 0 0 0 0 103.10161135658564 22.069485706070964 0 22.069485706070964 1.400349291463499 0 0 0 0 222.77304686195566 -98.137770110954079 0 -98.137770110954079 -80.321281974208432 0 0 0 0 12.750545181947643 0.42326038375176012 0 0.42326038375176012 0.84621634095166498 0 0 0 0 117.94169230385887 -109.67035495960181 0 -109.67035495960181 -42.717553150783715 0 0 0 0 216.20937249736744 -42.603250798340014 0 -42.603250798340014 -87.066170173755381 0 0 0 0 176.03341153683141 -56.5855415985543 0 -56.5855415985543 -12.14316103581541 0 0 0 0 351.25397196732229 -58.882539598873336 0 -58.882539598873336 -85.520695489627997 0 0 0 0 75.570723954821005 64.969062336222123 0 64.969062336222123 -35.668517544945644 0 0 0 0 -233.41037325258367 66.344131629065487 0 66.344131629065487 52.348469292091067 0 0 0 0 191.01984330243613 117.52033843609786 0 117.52033843609786 -122.97143879970827 0 0 0 0 1063.3350702120624 -1554.3811231252648 0 -1554.3811231252648 152.55079938226481 0 0 0 0 459.63249621086288 92.113400427602755 0 92.113400427602755 -121.25142936884561 0 0 0 0 -4.5260387865653229 -1.0320947758582868 0 -1.0320947758582868 -1.6907963467160307 0 0 0 0 155.83478979520441 363.62506796195248 0 363.62506796195248 33.465904831922671 0 0 0 0 27.497007311496418 -95.273142792773797 0 -95.273142792773797 -126.01856368520657 0 0 0 0 52.219730149068823 10.034539650854303 0 10.034539650854303 -17.660006844229944 0 0 0 0 19.783159669867018 127.72971475442864 0 127.72971475442864 -10.34932595895134 0 0 0 0 60.641767911172792 48.97325788452622 0 48.97325788452622 -65.58426671633606 0 0 0 0 -5.183484774822972 13.456512407474008 0 13.456512407474008 9.7363719794540664 0 0 0 0 -75.634623938498407 15.942704441353271 0 15.942704441353271 -132.88946302141812 0 0 0 0 6.8350604176059733 0.59532766903963363 0 0.59532766903963363 0.25879081145896876 0 0 0 0 -19.065505085276527 183.9868241175551 0 183.9868241175551 184.25003831823051 0 0 0 0 115.43651020233665 -188.6984080865933 0 -188.6984080865933 204.42317280504358 0 0 0 0 181.86944328076424 86.818861046476968 0 86.818861046476968 1.6748898288351484 0 0 0 0 -3.6355664481281451 2.8902669334601541 0 2.8902669334601541 1.9708252037361458 0 0 0 0 225.65821040534865 -35.159251783552918 0 -35.159251783552918 -22.127986096682434 0 0 0 0 196.41815139263053 -71.446268109186803 0 -71.446268109186803 22.902377139429518 0 0 0 0 1.5777882193760888 -33.338625548962909 0 -33.338625548962909 -25.512248248759533 0 0 0 0 -8.2606995657638151 13.875967203667315 0 13.875967203667315 -3.1713609134028324 0 0 0 0 -4.7001622784446226 23.410251818433608 0 23.410251818433608 73.714006173651796 0 0 0 0 -19.069456545606954 4.8745318549636067 0 4.8745318549636067 151.38738951060986 0 0 0 0 -38.317276128713274 73.037322328436858 0 73.037322328436858 84.897436826853664 0 0 0 0 -22.194777379379957 43.462256257804256 0 43.462256257804256 139.03602452461928 0 0 0 0 -50.613061248819577 237.83344620166645 0 237.83344620166645 72.787287948503945 0 0 0 0 53.842420730910391 11.636434664819863 0 11.636434664819863 -14.698296455700403 0 0 0 0 350.82177504665742 -243.96879451241693 0 -243.96879451241693 -226.2071079954585 0 0 0 0 -123.32644352686475 202.31760255448353 0 202.31760255448353 287.52232057128367 0 0 0 0 -89.26003536189819 5.1433457524972255 0 5.1433457524972255 365.46605849426487 0 0 0 0 221.02966219210066 -101.8606394352355 0 -101.8606394352355 131.37870210125766 0 0 0 0 4.3730119976971764 35.048304486232155 0 35.048304486232155 18.711046259339582 0 0 0 0 104.63433393054584 -59.717944327677742 0 -59.717944327677742 -47.32524881912741 0 0 0 0 78.029325927156606 -3.4321497645510135 0 -3.4321497645510135 -66.828249513780065 0 0 0 0 40.860213549451146 105.23057470988078 0 105.23057470988078 -111.05154171118193 0 0 0 0 12.435558890654647 49.217345600793124 0 49.217345600793124 -36.637803993985017 0 0 0 0 41.568111019572825 24.649873699107275 0 24.649873699107275 -17.542903396431939 0 0 0 0 51.778546666622447 17.121739359214139 0 17.121739359214139 -14.382551868131285 0 0 0 0 11.152213267624617 -1.4821070422083267 0 -1.4821070422083267 -4.4783457897385679 0 0 0 0 53.968414976890728 14.534088907155969 0 14.534088907155969 2.6820529035389855 0 0 0 0 67.936348290691967 -60.873059079549364 0 -60.873059079549364 -94.142828154972904 0 0 0 0 -28.042095204036741 203.76772010894044 0 203.76772010894044 207.27564628876951 0 0 0 0 78.859224260562769 -112.6975991832156 0 -112.6975991832156 32.913585028312582 0 0 0 0 105.92782162778167 -93.690060473647151 0 -93.690060473647151 -45.612468111141254 0 0 0 0 96.664687146490905 -180.69305375847216 0 -180.69305375847216 -182.31356015214806 0 0 0 0 15.108630549511872 3.5582559062709151 0 3.5582559062709151 -30.511764146407586 0 0 0 0 47.95001716854307 17.133172283491895 0 17.133172283491895 1.8223554226496574 0 0 0 0 28.399899453826521 5.4829307496069646 0 5.4829307496069646 -11.362786818641837 0 0 0 0 128.78354428931925 51.479590081277138 0 51.479590081277138 -6.9866970849197969 0 0 0 0 131.92792932564043 -16.879585285487337 0 -16.879585285487337 16.607898146388038 0 0 0 0 6.7667048568238215 0.7432665528989304 0 0.7432665528989304 0.31037902785405436 0 0 0 0 167.74797396235226 20.763990850866321 0 20.763990850866321 -46.598758805591387 0 0 0 0 -86.969484352128347 169.70470821021081 0 169.70470821021081 337.31128405423806 0 0 0 0 138.48918260485516 122.37357560734654 0 122.37357560734654 -154.66404537141352 0 0 0 0 55.061918021042629 13.25504563294092 0 13.25504563294092 3.1903578399189758 0 0 0 0 -1.0372949568227341 186.21552289132276 0 186.21552289132276 92.505767230784386 0 0 0 0 282.37952398919151 43.999402716289126 0 43.999402716289126 -251.75858306961248 0 0 0 0 51.23371735875844 146.02640697035406 0 146.02640697035406 -143.84763841058702 0 0 0 0 -22.736813237463139 56.684525493292341 0 56.684525493292341 7.3331376133235153 0 0 0 0 -13.702674857674992 3.9385646034853607 0 3.9385646034853607 207.51556138841374 0 0 0 0 267.07540299655375 -76.198199011427164 0 -76.198199011427164 14.700088072206739 0 0 0 0 3.1344163988357252 1.3207586597906342 0 1.3207586597906342 0.74333705484058821 0 0 0 0 234.07497861432785 79.43689745060999 0 79.43689745060999 46.283693858332526 0 0 0 0 35.91291375898254 36.199466726354061 0 36.199466726354061 21.890039229072016 0 0 0 0 30.439028611617687 -22.853568383754492 0 -22.853568383754492 17.979768919571256 0 0 0 0 -15.398194585664896 11.565797048542382 0 11.565797048542382 68.616857856864826 0 0 0 0 -52.202716236781271 -25.157012039160136 0 -25.157012039160136 2.4080657393625415 0 0 0 0 42.771777037569336 -22.606088415099308 0 -22.606088415099308 -76.718836154238431 0 0 0 0 -32.64417016205698 40.656977844463043 0 40.656977844463043 190.32804115472015 0 0 0 0 315.50257211017197 2.3491351176595714 0 2.3491351176595714 -89.943584300435163 0 0 0 0 246.23700043038843 39.373509591816912 0 39.373509591816912 -92.405037777372286 0 0 0 0 -18.588322317981692 -60.00262537893024 0 -60.00262537893024 -63.685961762282886 0 0 0 0 37.848961087489442 -40.811759133765946 0 -40.811759133765946 -83.139855017342313 0 0 0 0 -1.1076460508349442 0.5165818438898242 0 0.5165818438898242 -0.59103001939271393 0 0 0 0 47.89244633330236 85.833860177037195 0 85.833860177037195 25.650775901367183 0 0 0 0 1.8466494346188824 -0.51186042957714761 0 -0.51186042957714761 0.26342639109297528 0 0 0 0 45.693685778383383 -42.189591114568898 0 -42.189591114568898 -87.406936907264594 0 0 0 0 204.43350784214613 151.58374722619251 0 151.58374722619251 49.244964987100957 0 0 0 0 3.7595198922704753 -1.7735688797924425 0 -1.7735688797924425 0.73859999099567364 0 0 0 0 220.76222089350631 -50.252932399136228 0 -50.252932399136228 63.185869153608259 0 0 0 0 3.7738076694256364 -2.0659988921532531 0 -2.0659988921532531 0.75508291038943021 0 0 0 0 72.287364552619692 60.073399228436358 0 60.073399228436358 106.62118462731479 0 0 0 0 39.079037483598313 -51.167353281839127 0 -51.167353281839127 -53.742109782312923 0 0 0 0 46.512305318310609 -38.849842855827973 0 -38.849842855827973 92.923161745660821 0 0 0 0 41.531075150182005 -12.523088936276196 0 -12.523088936276196 -42.01680030825392 0 0 0 0 17.970562958769733 14.876844004745521 0 14.876844004745521 -65.56945467145465 0 0 0 0 6.2761117784611997 -28.389462904979098 0 -28.389462904979098 21.628371460913399 0 0 0 0 245.57697968794673 254.19762705471751 0 254.19762705471751 132.29479433862275 0 0 0 0 92.203953474519949 -95.159874869738246 0 -95.159874869738246 -14.683510015790148 0 0 0 0 88.590212719907868 -66.650366116128453 0 -66.650366116128453 -70.915061662165726 0 0 0 0 22.791632103851953 -55.369871826887049 0 -55.369871826887049 -130.27896701664315 0 0 0 0 -53.840764600230614 -135.53181499661628 0 -135.53181499661628 -126.93491500967103 0 0 0 0 10.43712182227604 -4.2234372079220108 0 -4.2234372079220108 2.1481770866881975 0 0 0 0 -201.89424240530934 92.438836320887731 0 92.438836320887731 -274.08798347539368 0 0 0 0 34.190861005277839 34.969675446655572 0 34.969675446655572 19.344148218441205 0 0 0 0 -9.584588052923209 -51.623201201585402 0 -51.623201201585402 -45.521995867524311 0 0 0 0 2.0449076845832366 2.3131157120831318 0 2.3131157120831318 1.5076889951082129 0 0 0 0 797.32506659592036 -363.50347427635688 0 -363.50347427635688 -740.72373687772847 0 0 0 0 5.6301237551271157 3.524313148593933 0 3.524313148593933 -3.0717543794267659 0 0 0 0 -18.688454323550104 115.7526188682757 0 115.7526188682757 -325.11863316212691 0 0 0 0 -43.144633970980067 14.802021573338834 0 14.802021573338834 -23.14146678122296 0 0 0 0 -68.652210879932682 -31.084227034477536 0 -31.084227034477536 -9.3949226560654324 0 0 0 0 -19.627321920706891 6.5242747549909836 0 6.5242747549909836 -24.479843484147324 0 0 0 0 -1.407073273207061 -23.472494145480368 0 -23.472494145480368 -12.018000797651553 0 0 0 0 -20.925788730313798 -13.365797592679115 0 -13.365797592679115 14.364223496609156 0 0 0 0 -34.475464059767546 -35.55349366628883 0 -35.55349366628883 6.6342278347742081 0 0 0 0 -14.875004755565897 -12.139785769664387 0 -12.139785769664387 12.523030187874152 0 0 0 0 18.003886205697128 -10.111247802017843 0 -10.111247802017843 -0.44856358531841956 0 0 0 0 -16.680120856377471 -43.496060771596419 0 -43.496060771596419 -24.243509060633926 0 0 0 0 -14.330590150217176 -42.874909561901916 0 -42.874909561901916 -24.697811870089708 0 0 0 0 38.958202708585304 -17.730528908796941 0 -17.730528908796941 -45.947442626811949 0 0 0 0 -0.43606337062192324 -32.775576074162558 0 -32.775576074162558 -26.399958639702106 0 0 0 0 77.538176997230039 -16.635617704734841 0 -16.635617704734841 -80.94787183874837 0 0 0 0 23.981712680862984 0.48230414196811466 0 0.48230414196811466 -11.868017956337397 0 0 0 0 89.900439784185437 28.608016127277097 0 28.608016127277097 -32.598155226402014 0 0 0 0 3.7532986164388191 6.6444772679146951 0 6.6444772679146951 -27.159650529165461 0 0 0 0 -0.90523521793511463 -16.587571239877576 0 -16.587571239877576 -4.6770394296175937 0 0 0 0 29.118352274985035 -5.8673914272315102 0 -5.8673914272315102 -18.834087817999652 0 0 0 0 68.434312522869732 -31.438061017389259 0 -31.438061017389259 -105.01488567697402 0 0 0 0 46.370295054704911 66.184189338242902 0 66.184189338242902 -29.566796948678075 0 0 0 0 51.309267342618114 2.828264302549087 0 2.828264302549087 -24.393169806047808 0 0 0 0 55.929797823380795 2.6288667026228723 0 2.6288667026228723 -36.937397693656067 0 0 0 0 48.031943107824191 -18.941820290419855 0 -18.941820290419855 -89.487172167187964 0 0 0 0 52.812782583780063 24.180903630356624 0 24.180903630356624 -42.418873145984435 0 0 0 0 42.415445372978866 27.850198354350141 0 27.850198354350141 -43.577410433314981 0 0 0 0 74.273150584231189 38.455109668562727 0 38.455109668562727 -35.571755838702757 0 0 0 0 6.8801234711863799 -64.846051067734606 0 -64.846051067734606 -124.29460917856341 0 0 0 0 45.272777195757953 31.316434216296329 0 31.316434216296329 -131.13863890401012 0 0 0 0 31.039357558678603 7.6633465432878438 0 7.6633465432878438 -22.360816916217118 0 0 0 0 5.3385382418934597 -1.0462148463488674 0 -1.0462148463488674 -3.4837891029304835 0 0 0 0 8.7362446268743952 38.857944417865838 0 38.857944417865838 -19.546163930450348 0 0 0 0 48.887610157176766 6.0317472088539787 0 6.0317472088539787 -7.2625016548316808 0 0 0 0 27.454416078922804 8.8337927387183299 0 8.8337927387183299 -14.094737687228189 0 0 0 0 95.437242346102721 -8.4229672169240075 0 -8.4229672169240075 -93.235640125358714 0 0 0 0 36.922551740051858 5.8693978652063379 0 5.8693978652063379 -14.906375825485156 0 0 0 0 32.545672356307023 9.3602955952136284 0 9.3602955952136284 -8.7291913367045524 0 0 0 0 44.492667273254483 12.427166442352245 0 12.427166442352245 -21.227823065781195 0 0 0 0 29.400826381692696 29.069701828211919 0 29.069701828211919 -15.760759235570731 0 0 0 0 37.389622098344262 26.110682601351073 0 26.110682601351073 -16.017072391777447 0 0 0 0 36.508901623630663 28.674062211889122 0 28.674062211889122 -10.102894546336756 0 0 0 0 30.231356192397485 10.680588044280084 0 10.680588044280084 -5.4288390890039899 0 0 0 0 1.9091479761409573 34.342019245361371 0 34.342019245361371 -65.436201015279948 0 0 0 0 34.097402914718259 23.739645489789837 0 23.739645489789837 -7.6260215586407867 0 0 0 0 7.8311009715852435 14.58375099497923 0 14.58375099497923 2.1759148350077355 0 0 0 0 52.843737275102995 -11.217842878472865 0 -11.217842878472865 -26.440484303475706 0 0 0 0 61.213634020867175 26.166850248700939 0 26.166850248700939 -22.335899236446039 0 0 0 0 57.554222636794293 14.539465549792567 0 14.539465549792567 -23.329991214392066 0 0 0 0 42.348418683206546 19.126139755988333 0 19.126139755988333 -13.06900316392057 0 0 0 0 62.132899528471171 8.1436072614569639 0 8.1436072614569639 -23.554181487039386 0 0 0 0 29.130794909084216 15.358522316528251 0 15.358522316528251 -13.929528606000986 0 0 0 0 95.254993348848075 52.47989028448319 0 52.47989028448319 11.491710195403357 0 0 0 0 28.110079790639858 7.1172882071352825 0 7.1172882071352825 -7.217722718771423 0 0 0 0 86.235287404386327 36.311705425661785 0 36.311705425661785 -23.659088306659925 0 0 0 0 83.159956899136887 11.979614377203688 0 11.979614377203688 -30.748053488279766 0 0 0 0 -21.824498016896541 -22.73917666496709 0 -22.73917666496709 -47.897970520380113 0 0 0 0 -3.6570744737301908 -5.5120543973699192 0 -5.5120543973699192 -4.5351748729859036 0 0 0 0 37.715390603232663 -1.501714909406985 0 -1.501714909406985 -5.3946907950999901 0 0 0 0 26.112817561022482 5.9825730620554651 0 5.9825730620554651 -6.510144960550222 0 0 0 0 9.2073997159895953 6.03274720358786 0 6.03274720358786 -28.275576892356639 0 0 0 0 23.626319593002933 -0.13723374642129116 0 -0.13723374642129116 -11.59326249774395 0 0 0 0 76.458671367719944 123.84101169207497 0 123.84101169207497 15.017410930136975 0 0 0 0 40.52487660383769 12.064110939897446 0 12.064110939897446 -6.5121621031660633 0 0 0 0 43.452003764388792 2.6198427243359674 0 2.6198427243359674 -14.455068549528107 0 0 0 0 24.636003794215881 4.2961228442215429 0 4.2961228442215429 -14.810166345978498 0 0 0 0 70.468019481369993 -77.855855999406231 0 -77.855855999406231 31.026564473095277 0 0 0 0 111.89909918094418 -62.408974267455221 0 -62.408974267455221 -33.625504140234625 0 0 0 0 48.269098537390164 46.963017946604168 0 46.963017946604168 26.158074326859605 0 0 0 0 100.61087194035645 22.364695505965983 0 22.364695505965983 -21.710893125541816 0 0 0 0 22.103650198459945 -86.818834684456988 0 -86.818834684456988 12.365553806369462 0 0 0 0 9.4158545070240507 32.307723362909655 0 32.307723362909655 86.748397249908521 0 0 0 0 13.972048390374205 -13.913115169641699 0 -13.913115169641699 -5.3763702800007946 0 0 0 0 40.714640369552697 17.720532101166498 0 17.720532101166498 -12.790893154297661 0 0 0 0 28.92910405992734 21.229177534056703 0 21.229177534056703 -24.97608554411454 0 0 0 0 -8.8928990309209155 5.6194562812484889 0 5.6194562812484889 -0.98008340655825599 0 0 0 0 79.924358223652234 129.81634479952208 0 129.81634479952208 -25.685981010859905 0 0 0 0 24.755267038679449 21.35259348465479 0 21.35259348465479 -24.501616420693836 0 0 0 0 24.826704855622665 38.684617778448512 0 38.684617778448512 -9.9613204876832242 0 0 0 0 8.3403189748824218 4.2860699884937716 0 4.2860699884937716 2.4326503221816309 0 0 0 0 -4.2811215213732794 26.637961645614496 0 26.637961645614496 29.379746614295186 0 0 0 0 -1.9254224961405271 26.462103599122202 0 26.462103599122202 -14.661362696849892 0 0 0 0 18.964578960454674 17.307125491354242 0 17.307125491354242 3.3811356399548895 0 0 0 0 -2.5592703250085833 5.8761535983768889 0 5.8761535983768889 29.488335780556856 0 0 0 0 14.465919734592035 6.3308447779520414 0 6.3308447779520414 -0.0082056013375644277 0 0 0 0 -7.0851247396421968 -19.790542062012022 0 -19.790542062012022 -4.295015036895677 0 0 0 0 17.405303776147775 -5.0686305401212621 0 -5.0686305401212621 3.8438573091434591 0 0 0 0 24.675026675511617 20.698527590220692 0 20.698527590220692 -24.02986795592733 0 0 0 0 1.9684393374443516 -3.9232676725211437 0 -3.9232676725211437 -3.4008296899610171 0 0 0 0 12.765873248994467 4.0540908725624831 0 4.0540908725624831 -0.36266486845124746 0 0 0 0 25.602975740657712 21.202466116920732 0 21.202466116920732 -24.483490728106062 0 0 0 0 23.907634854083881 20.717419751326815 0 20.717419751326815 -24.030200372517811 0 0 0 0 
</DataArray>
<DataArray type="Float64" Name="cross_section_updated" format="ascii">
1 1 1 1 0.0099991676553442405 1 0.011028966374664537 1 0.021866890631597677 0.0095507979678637854 1 1 0.006370849399549937 1 0.019559461384423139 1 1 1 1 1 1 1 1 1 1 1 1 1 1 1 1 0.010455797569969963 1 1 0.010237937668795646 1 1 1 1 1 1 1 1 1 1 1 1 1 1 1 1 1 1 1 1 1 1 0.01049324358443119 0.011310132802047804 1 1 1 1 1 1 1 1 1 1 1 1 1 1 1 0.011300366975571605 1 1 1 0.010147721704964328 1 1 0.010001057021329831 1 0.011079498113417879 1 0.010221466545134297 1 1 1 1 1 1 1 1 1 1 1 1 1 1 1 1 1 1 1 1 1 1 1 1 1 1 1 1 1 1 1 1 1 1 1 1 1 1 1 1 1 1 1 1 1 1 1 1 1 1 1 1 1 1 1 1 1 1 1 1 0.010767251680546944 1 1 1 1 1 1 1 1 1 1 1 1 1 1 0.010082122685117819 1 1 1 1 1 0.011004238963886737 1 1 1 1 1 1 1 1 1 1 1 1 1 1 1 1 1 1 1 1 1 1 1 1 1 1 0.010288148956732593 1 1 1 1 1 0.010297451036733286 1 1 0.016158715314085685 1 1 1 1 1 1 1 1 1 1 1 1 1 1 1 1 1 1 1 1 1 1 0.015292654300702896 0.01088123255202625 1 0.010111152250188792 1 0.015121509968721409 1 1 1 1 1 0.010015545740677523 1 1 1 1 1 1 1 1 1 1 1 1 1 1 1 1 1 1 1 1 1 1 1 1 1 1 1 1 1 1 1 1 1 0.0094370284533291052 1 1 1 1 1 1 0.007965474611566898 1 1 1 1 1 1 1 1 1 1 1 1 1 1 1 1 1 1 1 0.0096889266914433145 1 1 1 1 0.010010779790612401 1 1 1 1 1 0.010054203048530018 1 1 0.010174536624844485 0.0097601252715207899 1 1 1 1 1 1 1 1 1 1 0.009929784968957564 1 1 1 1 1 1 1 1 1 1 1 1 1 1 1 1 1 1 1 1 1 1 1 1 1 1 1 1 1 1 1 1 1 1 1 1 1 1 1 1 0.010242415571103985 1 1 1 1 0.01046578228086804 1 1 1 1 1 1 0.010049546745413633 0.010436805248293872 1 1 1 1 1 1 1 1 1 1 0.010223614065298703 1 1 1 1 1 0.010287094529177181 1 1 1 1 1 1 1 1 1 1 1 1 1 1 1 1 1 1 1 0.013735495201163473 1 1 1 1 1 1 0.011401036959445894 1 1 1 1 1 1 1 1 1 1 1 1 1 1 0.012226427171267595 1 0.010903496224869545 1 1 1 1 1 1 1 1 1 0.012802390019230128 1 1 1 1 1 1 1 1 1 1 0.010410663697896637 1 1 1 1 1 1 1 1 0.0099840677494029174 1 1 1 0.012868032254583738 1 1 0.0098281559334663787 1 1 1 1 1 1 1 1 1 1 1 1 1 1 1 1 1 1 1 1 1 0.010995334010735779 1 0.010414880773676066 1 1 1 1 1 1 1 1 1 1 0.011268753445422417 1 1 1 1 1 1 1 1 1 1 1 1 1 1 1 1 1 1 1 0.0090029863047692005 1 1 1 1 1 1 1 1 1 1 1 0.013376599536929889 1 0.0071616156747504791 1 1 1 0.010791759408100871 0.011651672335665143 0.0087894458026200988 1 1 1 1 1 0.008566389410202482 0.010717595270279687 1 1 1 1 0.011046007942165028 1 1 0.007990261516283112 1 1 1 1 1 0.010317818393546081 1 1 0.0092743796631820259 0.019666232926875752 1 0.020080530184654326 1 1 1 1 1 1 1 0.010027131932261003 1 1 1 0.010768367071973723 1 1 1 0.011019753791018393 1 1 1 0.010338253488665669 1 1 0.010244306763851772 1 1 1 1 1 1 1 1 1 1 1 1 1 1 0.021510987955441655 1 1 1 1 1 1 1 1 1 1 1 1 1 0.021785746001834375 1 1 1 0.022056851092223703 1 1 1 1 1 1 1 1 1 1 1 1 0.013255548781617147 1 1 1 1 1 1 1 0.010583176202829879 1 1 0.011251933147090961 1 1 1 1 0.010677095489505064 1 1 1 1 1 0.010723651001985508 1 0.010239821825075383 1 1 1 1 1 1 1 1 1 1 1 1 1 1 1 1 1 1 0.01077581763479148 1 1 1 1 1 0.012177545923301832 1 1 0.011169788520568436 1 1 1 1 1 1 1 0.011536698822120217 1 0.010018066579526613 1 0.010447708229840019 1 0.013263180760232196 1 1 1 1 1 1 1 1 1 0.01027999079531082 1 1 1 0.019100441870778299 1 1 1 0.020792532379357694 1 1 0.015496658015590695 1 1 0.015156621464931269 1 0.013891001670422171 1 1 0.019585809326241037 1 1 1 1 0.0096594335590202383 1 0.01840389167875435 1 0.013048184946693978 1 1 0.010950319445053324 0.01000757285627267 1 1 1 1 0.017109321440577439 1 1 1 1 0.014089947278232005 1 1 1 1 1 1 1 1 1 1 0.012856753776271036 1 1 1 1 1 1 1 1 1 1 1 1 1 1 0.011298839818145542 0.01089271872471987 1 1 1 1 1 1 1 1 1 1 1 1 1 0.0094214056539702953 1 0.013708863435703895 0.015345594863530654 1 1 1 1 0.0099907440852326918 1 1 1 1 0.011746227684843369 1 1 1 1 0.011538458549317293 1 1 0.013905481603266982 1 1 1 1 1 1 1 1 1 1 1 1 1 1 1 1 0.01023778767513254 1 0.010408690424982431 1 1 1 1 1 1 1 1 1 1 1 0.010675042665214603 1 1 1 0.015723812008673975 1 1 1 1 1 0.016093687057391174 1 1 1 1 1 0.010740928434237487 1 0.008885333229550145 0.019399869929908244 1 1 0.018743383048537645 1 1 1 1 1 1 1 1 1 1 1 1 1 1 0.01544143827562838 1 0.013612495270829618 1 0.010259457754103902 1 1 1 1 1 1 0.011266505331662919 1 1 1 1 1 0.010721650453347331 1 1 1 1 1 1 1 0.010213746438084923 1 1 1 1 1 1 1 1 1 1 1 0.016978998028138483 0.009652132174021567 1 1 0.011100234926745018 0.01764535532344302 1 1 1 1 1 1 1 1 1 1 1 1 1 1 1 1 1 1 1 1 1 1 1 1 1 1 1 1 1 1 1 1 1 0.014916113779770156 0.010538351328237654 1 1 1 1 1 1 1 1 1 1 0.0096434594699568513 1 1 1 1 1 1 1 1 1 1 1 1 1 1 1 1 1 1 1 1 1 1 1 1 1 1 1 1 1 1 1 1 1 1 1 1 1 1 1 1 1 1 1 1 1 1 1 1 1 1 1 1 1 1 1 1 1 1 1 1 1 1 1 1 1 1 1 1 1 1 1 1 1 1 1 1 1 0.010169941983782174 1 1 1 1 1 1 1 1 1 1 1 1 1 1 1 1 1 1 1 1 1 1 1 1 1 0.010404512302003019 0.01029938026029362 1 1 1 1 1 1 1 1 1 0.010139402455362644 1 1 0.010247592541559556 1 1 1 1 1 1 1 1 1 1 0.010345884996539365 1 1 1 1 0.010148758267177911 1 1 1 1 1 1 1 0.01045194052574425 1 1 1 1 1 1 1 1 1 0.010051977513939627 1 1 1 1 1 1 1 1 1 1 1 1 1 1 0.010175694385130418 1 1 1 1 1 1 1 1 1 1 1 1 1 1 1 1 1 1 1 1 1 1 1 1 1 1 1 1 1 1 1 1 1 1 0.010080931183131402 1 1 1 1 1 1 0.010163534493026032 1 1 1 1 1 1 1 1 1 1 1 1 1 1 1 1 0.0086821757503346888 1 1 1 1 1 1 1 1 1 1 1 1 1 1 1 1 1 1 1 1 1 0.0092325693237292512 1 1 1 1 1 1 1 1 1 1 1 1 0.011780406978227157 1 1 1 0.013518372095799416 1 1 1 1 1 1 1 1 1 1 1 1 1 0.011739819251550279 1 1 1 1 1 1 1 1 0.010269434750639198 1 1 1 1 1 1 1 1 1 1 1 1 1 1 1 1 1 1 1 1 1 1 1 1 1 1 1 1 1 1 1 1 1 1 1 1 1 1 1 1 1 1 1 1 1 1 0.009704386270023662 1 1 1 1 1 1 1 1 1 1 1 1 1 0.0099486323816672991 1 1 1 0.010778058573733682 1 1 1 1 1 1 0.010252321704590027 1 1 1 0.01411509125946054 1 1 1 1 1 1 1 1 1 0.013233324838161212 1 1 1 0.011328189261425703 1 1 1 1 0.013283589981840819 1 1 1 0.010267982931853985 1 1 1 0.013733096268206893 1 1 1 1 1 1 1 1 1 0.011703493617316678 1 1 1 0.010652973471120566 1 0.0099830824545677471 1 1 1 1 1 0.012773534832140627 1 1 0.01204336530919688 1 1 1 1 1 1 1 1 1 1 1 1 1 1 1 1 1 1 1 1 1 1 1 1 1 1 1 1 1 1 1 1 1 0.015643196948377274 1 1 1 0.01021674859206889 1 0.0099207366125946116 1 1 0.010073526214589019 1 1 1 0.010201667416615387 0.010022826871555545 1 1 0.01127702080275963 0.012141870393033763 1 1 0.014369079623940632 1 1 1 1 1 1 1 1 0.0091922865854262466 0.012798316979113806 1 1 1 1 1 1 1 1 1 0.010257753320433088 1 1 1 0.010778341409470812 1 1 0.013537753067496772 1 0.016222856877025644 1 0.010002410230763956 1 1 1 0.014245639084242525 0.015760854320590448 1 1 1 1 1 1 0.010133285371552513 1 1 1 0.013217634651267397 1 0.010328536435611246 1 1 1 1 0.012492907212287539 1 1 0.012238262990782942 1 0.012329866640304502 1 0.012485198153025514 1 1 1 0.010010255137689068 0.012354187927195226 1 1 0.012808401557569758 1 1 0.011634722851146289 1 1 0.011460513885834514 1 1 1 0.012002131503829328 1 0.011903856397916322 1 0.012021558459544337 1 1 1 1 0.0099779666980829591 1 1 0.010197024338538703 1 1 1 1 1 1 0.011829820073986471 1 1 1 1 1 1 1 0.012922914173518868 1 1 1 1 1 1 1 1 0.012845544236592992 1 1 1 1 1 1 0.011490303566093612 1 1 1 1 0.010302500845258449 0.01000619787413721 1 0.010295708777560338 1 0.012027938566737929 1 0.010669569104491195 1 1 1 0.011258876868154938 0.01039792940922549 1 0.0095366333674061828 1 1 0.0099981171656308484 1 1 1 1 0.010281998779994982 1 1 1 1 1 1 1 1 1 0.010100247382641005 1 1 1 0.0099671929013994374 1 1 0.010576805318711219 1 1 1 1 1 1 1 1 0.010001366521387264 1 1 0.010202092134295387 1 1 1 1 0.0099983352205933046 0.0096902055955515772 0.010756984348611283 1 0.010869458556835495 1 0.010419909076121425 1 1 1 1 1 0.0086403600951344001 1 1 0.010395032474787572 1 1 1 1 1 0.010298503408619927 1 0.01117865471278807 1 0.010856621605979479 1 0.010060432803060015 0.010654380765482079 1 0.0098345429608052044 1 0.010847774465840711 1 1 1 0.0092558999387914939 1 0.010220057768820078 1 0.0098198701415033555 0.010001584790457681 1 0.011090218271374909 1 0.009690620267222453 1 1 0.01089919794265742 1 0.009306881504449957 0.010992169612426619 0.0095113331828852541 1 1 0.01186697693139319 1 1 0.0099959970902696801 1 1 1 0.011299744129290235 1 1 0.010575053635975232 1 0.010021982340702455 1 1 1 0.010635479959070496 1 0.010393113336862417 1 1 1 1 0.010298385587305815 0.010309932175296421 1 1 1 1 1 0.010843600317807124 0.011109363152553082 1 1 1 0.010001924944199802 1 1 0.012580860909098884 1 1 0.011987741512790244 1 1 1 0.010448657995946242 0.012263109604368733 0.011555712836343856 1 1 1 1 1 1 1 1 1 1 0.014417741842138527 0.01030368852260994 1 1 1 0.010542911003113817 1 1 1 1 1 1 0.010046194166103559 1 1 1 1 1 1 1 1 0.010056426220721205 1 1 1 1 0.011259153676728476 1 1 1 0.012676207701861933 1 1 1 1 0.0099798234211534061 0.015040995548781896 1 1 1 1 0.014809326198369659 1 1 1 1 1 0.010130624987939299 1 1 1 1 1 1 1 1 0.010231801325671017 1 1 1 0.010199503657015486 1 1 0.013895388405238695 1 1 1 1 1 1 1 1 1 1 1 1 1 1 1 1 1 1 1 1 1 0.010116455850879611 1 1 1 1 1 1 1 1 1 1 1 1 1 0.0101372622053144 1 1 1 1 1 1 1 1 1 1 1 1 1 1 1 1 1 1 1 0.010145860037491634 1 1 1 1 1 1 1 1 1 1 1 1 1 0.010097461564814305 1 1 1 1 0.010341488998776655 1 1 1 1 0.010125341639302041 1 1 1 1 1 1 1 1 1 1 1 1 1 1 1 1 1 1 1 0.010558351950453494 1 1 1 1 1 1 1 0.010794920764225764 0.0098365265860526803 1 1 0.0099515770131613016 1 1 1 1 1 1 0.01024146894012083 1 1 1 1 1 1 1 1 1 1 1 1 1 1 1 1 1 1 1 1 1 1 1 1 1 1 1 1 1 1 1 1 1 1 1 1 1 1 1 1 1 1 1 1 1 1 1 1 1 1 1 1 1 1 1 1 1 1 1 1 1 1 1 1 1 1 1 0.00994531779194739 1 1 1 1 0.010846261108248087 1 1 1 0.010294560819000906 1 1 0.009973475441104409 1 1 1 1 1 1 1 1 1 1 0.010032015973612855 1 1 1 1 1 1 1 1 1 1 1 1 1 1 1 1 1 1 1 1 1 1 1 1 1 0.01005771338845734 1 1 0.010025697414844485 1 1 1 1 1 1 1 1 1 1 1 1 1 1 1 1 1 1 1 1 0.011150197142207916 1 1 1 1 1 1 1 1 1 1 1 1 0.010171233454059594 1 1 1 1 1 1 1 1 1 1 1 1 1 1 1 1 1 1 1 1 1 1 1 1 1 1 1 1 1 0.023574696324682547 1 1 1 0.0099938519273986837 1 1 1 1 0.022521939097277222 1 1 1 1 0.010166039383329821 1 1 1 1 1 1 1 1 1 1 1 1 1 1 1 1 1 1 1 1 1 1 1 1 1 1 1 1 1 1 1 1 1 1 1 1 1 0.021152055750926647 1 1 0.011509811206007536 1 1 1 1 1 0.017998800041281841 0.017703714746677555 1 1 1 0.0086353143731544187 1 1 0.0051896683641268031 0.021065827109445233 1 0.022126532985771032 1 1 0.010003039519748992 1 1 1 0.010103354322526939 1 0.010676365098992875 1 1 1 1 1 1 0.018793166300847992 0.0096468676468506598 1 1 1 0.021337003487463729 0.0097617566137710044 1 0.02157393024657632 1 0.012272673426698558 1 0.011576931754498554 1 1 1 0.01506358623303517 1 1 1 1 1 1 1 1 1 0.0092800019550809999 1 1 1 1 1 0.0097471662574789095 1 1 1 1 1 1 0.011074612581296075 1 1 1 1 1 1 1 1 1 1 1 1 0.010360220916992968 1 1 1 1 1 0.02176765497859745 1 1 1 1 1 1 0.021828473490194886 1 1 1 1 1 1 0.010097620745536558 1 1 1 1 1 0.021112613940811563 1 0.010318825843989268 1 1 1 1 0.016842546105498686 1 1 1 1 1 1 1 1 1 0.014854345992513071 0.01794027858870096 0.015894730142983496 1 1 1 1 0.015409356218359122 1 0.011443901300790756 1 1 1 1 0.010140100236834067 1 0.017758668882650888 1 1 1 0.012831263383500453 0.0099970212544747417 1 1 1 1 0.013963553162556859 1 0.01200021811595137 0.018361622515877422 0.010736202742946956 1 1 1 1 0.011929545456581519 0.01004594778255837 1 0.018327337271743221 1 1 1 1 0.011354419633088746 1 0.0099524674024986798 1 1 1 1 1 1 1 1 1 1 0.02109793685109914 0.019851760259923194 1 1 1 1 1 1 1 0.021348898377327827 1 1 1 1 1 1 1 1 1 1 1 1 0.010029049022113058 1 1 1 1 1 1 1 1 1 1 1 1 1 1 0.010210827053322321 1 0.010461957988302139 1 1 1 1 1 1 1 1 1 0.011274175094634509 1 1 1 1 1 1 1 1 0.010985701398646887 1 1 1 1 0.011183068288658709 1 1 1 1 0.011475402077023251 1 1 1 1 1 1 0.011083413727509588 1 1 1 1 1 1 1 1 0.010251130934979834 1 1 1 1 0.010870523491557919 1 1 1 0.010371510557258719 1 1 1 1 1 1 1 1 1 1 1 1 1 1 1 1 1 1 1 1 1 1 0.0097340637990354657 1 1 0.011402887886405998 1 1 1 1 0.011691578587078316 1 1 1 1 1 1 1 1 1 1 1 1 1 1 0.01049518065823862 1 1 1 1 1 0.010576218569634357 1 1 1 1 1 1 0.011182529253425957 1 1 1 1 1 1 1 1 1 1 0.011425568140612297 1 1 1 1 1 1 1 1 1 1 1 1 1 1 1 1 1 1 1 1 1 1 1 1 1 1 1 1 1 1 1 1 1 1 0.010408296841816897 1 1 1 1 1 1 1 1 1 1 0.010633459554344905 1 1 1 1 1 1 1 1 1 1 0.010001746385725324 1 1 1 1 1 1 1 0.0091903408496968233 1 0.010011883616440566 1 1 1 1 1 0.011894429770297353 1 1 1 1 0.0091823140328610459 1 1 1 1 1 1 1 1 1 0.010019540331656546 1 1 0.010240595282887326 1 1 1 1 0.0089950587479912403 0.01306769788466176 0.0097899590072820473 1 0.010083506212660732 1 0.009959700157860062 1 1 1 1 1 1 1 1 1 0.010015257644085444 1 1 1 1 0.013319469172823263 1 1 1 1 1 1 1 1 1 1 1 0.010467034187248732 0.0099667217834544311 1 1 1 1 1 0.013863473912892686 1 0.010054521311461104 0.010840625875310263 1 0.010153819609815741 1 1 1 1 1 1 1 0.011050387448490134 1 1 1 1 1 0.0099963175173737526 0.0099998487966518126 1 0.011059196705640765 1 1 1 1 1 1 0.011293138052798288 1 1 0.01000774477414351 1 1 0.010046244807254735 1 1 1 1 1 1 1 1 1 0.010196284827558834 1 0.0098481529916155178 1 1 1 1 1 0.0099698597362628052 1 1 0.013424290753851369 1 1 1 1 0.0099816971746718441 1 1 0.010054409999734185 1 1 1 1 1 0.010766662990657603 1 1 1 1 1 1 1 0.0098621918173858354 1 0.012854476205498191 1 1 1 1 0.0087807764567829506 0.01104257955836826 1 1 0.011699852288948131 0.011332621583008963 1 1 1 0.012394327113502968 0.0096668062067302649 1 1 1 0.011650682132352159 1 1 0.0091531030147616252 0.0099803446682714837 1 1 1 1 1 1 1 1 1 1 1 1 1 0.010286679477893568 1 1 0.013389895714278541 1 1 0.0099395322757911062 1 0.016481587346359666 1 1 1 1 0.015577708510164327 1 0.012642110310932739 1 0.010011472664029925 1 1 1 0.011756300513984042 1 1 1 1 1 1 1 1 1 1 1 1 1 1 1 0.0100927046105805 1 1 1 1 1 1 1 1 0.017841007827811287 1 1 1 1 1 0.01420933378873045 0.013570463108367278 1 1 1 1 0.012907723165248831 1 0.014465181766363758 0.01127212325888388 1 1 1 1 1 1 0.0094958524697743227 1 1 1 0.0098314467346182835 1 1 1 1 1 1 0.01035037041294825 1 1 1 1 1 1 1 1 1 1 1 1 0.01097718469121773 1 1 1 1 1 1 1 1 1 1 0.01037755357568231 1 1 1 1 1 1 1 1 1 1 0.011634208746855459 1 1 1 1 1 1 1 1 0.01065254895849866 1 1 1 1 1 1 1 1 1 1 1 1 1 1 1 1 0.018277770393350913 1 0.0094484687079481339 1 1 0.010337216270404213 1 1 1 1 1 1 1 1 1 1 1 1 1 1 1 1 0.0098452645478245802 1 1 1 1 1 0.010253789384669533 1 1 0.0095465235661877333 1 1 1 0.0099443143467173537 0.011220198706286343 1 1 0.0099346540316085849 1 1 1 1 1 1 0.011850281560649446 1 1 1 1 1 1 1 1 0.011832738671080267 1 1 1 1 1 1 0.013608611318442522 1 1 0.014496047633269999 1 1 1 1 0.016418959083351357 0.016416174428580274 1 1 0.0098621315850056859 1 0.011180969149538682 1 1 1 1 1 0.018402989694121494 1 1 1 1 1 1 0.017158917503515288 1 1 1 1 1 1 1 0.016692985172567745 1 1 1 0.010292310438607923 1 1 1 0.0099723284264198672 1 1 1 0.015936430654329523 1 0.0093300389151819013 1 1 1 1 1 1 1 1 1 1 1 1 1 0.0094571128029461698 1 1 0.017820502171411175 1 0.01001077105748914 1 0.017061910115531514 1 1 1 1 0.017176523422467102 1 1 0.018575226198894831 1 1 1 0.0088949416240886141 1 1 1 1 1 1 1 1 1 1 1 1 1 1 1 1 1 1 1 1 1 1 1 1 0.011046220668724016 1 1 1 1 1 1 0.009971823856591509 1 1 0.0097339563152728792 1 1 1 1 0.018369140522448119 1 0.017352720425904588 1 1 1 1 1 1 1 1 1 0.0099892107215315395 1 0.012279886413821566 1 0.011468286128689388 1 1 1 1 1 1 0.0095389982681591268 1 1 0.0098583812902078884 1 1 1 0.010379039340651345 1 1 1 1 1 1 1 1 0.026288136560675808 1 1 0.0055174775664783519 1 1 0.017319052021240237 1 0.018304181944868401 1 1 1 1 0.011559115083051817 1 0.014877598652195083 0.008123896518909773 1 1 0.010349214426033209 1 1 1 1 1 0.010728253766684558 1 1 1 0.025172665286825973 1 1 1 1 1 1 0.023694691916730182 1 1 1 1 0.022421093774849198 1 1 1 0.011708062395526721 1 1 1 1 1 0.010702409652193537 1 1 1 1 1 0.0090571987732902155 1 1 0.0098124157951918686 1 1 1 1 1 1 1 1 1 1 1 1 1 0.0037399746881307408 1 1 1 1 1 1 1 0.0038342030553898355 1 1 1 1 0.0075360837369113278 1 1 1 1 1 1 1 1 1 1 0.010495956010887337 1 1 1 1 0.011527162939171146 1 1 0.0076309428903857997 1 0.0074382181081323511 1 1 0.010008779901289152 1 1 1 1 1 1 1 1 1 1 1 1 1 1 1 1 1 1 1 0.009813926756299423 1 1 1 1 1 1 1 1 1 1 1 1 1 1 1 1 1 1 1 1 0.018531468222621042 1 1 1 1 1 1 1 1 0.018629624618595714 1 1 1 1 1 0.0099253018563790554 1 1 1 1 1 0.012337066820699809 1 1 1 0.013075525880522083 1 1 0.020898487530987803 1 1 1 0.011053288279550273 1 0.018257258196447662 1 1 1 0.013398047250618989 0.01177938343695052 1 0.014074086671801527 1 1 0.011520827926536453 1 0.014059252635902006 1 0.011148968229731748 0.0074271371903295268 1 1 0.0099978340151322884 1 1 1 1 0.009418499904519163 1 1 0.014292154930357025 1 1 0.015285190027980955 0.014351163791049389 1 1 1 1 0.01419746146691362 1 0.013771062702985316 1 1 1 0.0091463810382182032 0.012108019964695516 1 1 1 0.014464255341518632 0.0095792991979123665 1 0.0098184668755160274 1 1 1 1 1 1 0.014539569432105773 0.011021000239231582 1 1 1 0.014314992624202447 1 1 1 1 0.010191443689107909 1 1 1 1 0.014448676793486879 0.010137709041498829 1 0.0092719646996345228 0.011994145322304875 1 0.0086921687720638869 1 1 0.015148674839091918 0.015793285309789129 1 0.010060205237572187 1 1 0.011954663195293801 1 1 0.0089923080509378452 1 0.010599692578988278 1 1 1 0.010007103546065994 1 1 0.014278667459324356 1 1 1 1 1 1 1 1 1 1 1 0.017868877607100944 1 1 1 0.017417256544248694 1 0.0085837524385393733 1 1 1 0.018570459916483713 0.010127516181781111 1 1 0.014012102705514479 0.0093896058185231092 1 1 0.01313017764050553 1 1 1 1 0.013129707958228178 1 1 0.0111443372748295 1 0.010011321533000234 1 1 1 1 1 1 0.0090566226159404916 1 1 1 1 1 1 1 1 1 1 1 0.018551304320819403 1 1 1 1 1 0.019464553503372756 1 1 0.009570932862700542 1 0.010549533698131046 1 0.012868982496289571 1 0.0081078599830002266 1 1 0.011349951436741314 1 1 0.01087883818927337 1 1 1 0.0099376006472986621 1 0.0099441385924880776 1 0.010236998254757133 1 0.010193152571474733 1 1 1 0.0099509508254418295 1 1 1 0.0098633809743423548 1 1 1 1 1 0.0097203980755055826 0.0098305049037025923 0.009138559629744681 1 1 1 1 1 1 1 1 1 1 1 1 1 1 1 1 1 1 1 1 1 1 1 1 1 1 1 1 1 1 1 1 1 1 1 0.012176014885531005 1 0.011942378148671606 1 1 1 1 0.014564463195579545 1 1 1 1 1 1 1 1 1 0.017362418034525293 1 0.0095624122890248311 1 1 1 1 1 1 1 0.011065637207144393 1 0.010217194559233011 1 1 1 1 1 1 1 1 1 1 1 1 1 1 0.010451094310009552 1 1 1 1 1 1 1 0.011209526649991803 1 1 1 1 0.0093144776062473872 1 1 1 1 0.010138337223731394 1 1 1 1 1 1 0.0147867468223273 1 1 1 1 1 1 1 1 0.010019481332902402 1 1 1 1 1 1 1 1 1 1 1 1 1 1 1 0.013169569225163019 1 1 1 1 1 0.013638480103329159 1 1 1 1 0.011135172594988576 1 1 1 1 1 1 1 1 1 1 1 1 0.011002093265273821 1 1 1 1 1 1 1 1 1 1 1 1 1 1 1 1 1 1 1 1 1 1 1 1 1 1 1 1 1 1 1 1 1 1 1 1 1 1 1 1 1 1 1 0.0098964976103805783 1 1 1 1 1 1 1 1 1 1 1 1 0.011118816115319365 1 0.012866408409759569 1 1 1 0.0098647453198378171 1 1 1 1 1 1 0.018479444504886144 1 1 1 1 1 1 0.010097857678363506 1 1 0.011345238308081254 0.018946465887511844 1 1 0.015653088626118212 1 1 0.019758154112427581 0.015562778535953732 0.012513415233752436 1 1 1 1 1 1 1 1 1 1 0.017788095191674465 1 1 1 1 0.016470865365034781 1 1 1 1 0.019091615510959316 1 0.012360528607719105 1 1 1 1 0.010851366414224831 1 1 1 1 0.02107705288168139 1 1 1 1 0.011963521759426003 1 1 1 0.01095786901609282 1 1 1 1 1 1 1 1 1 1 1 1 1 1 1 1 1 1 1 1 1 1 1 1 1 1 1 1 1 1 1 1 1 1 1 1 1 1 1 1 0.01603754258870848 1 1 1 1 1 1 1 1 0.010001277963644398 1 1 1 1 0.0098360452636249047 1 1 1 1 1 1 0.014401168571802882 1 1 1 0.01549422458730125 1 1 1 1 1 1 1 1 1 1 0.020811119324635911 1 1 1 1 1 1 1 1 1 1 0.016177012747931523 1 1 1 0.014782171900386699 0.021639768112904821 1 0.017387051174496754 0.024804829936295181 1 1 1 1 1 0.010179321675273526 1 1 1 1 1 1 1 1 0.010678828241098271 1 1 1 1 1 1 1 1 1 0.012884457668652566 1 1 1 0.022648592513817525 1 0.011828477979272367 1 0.011064239392975791 1 1 1 1 1 1 1 1 1 1 1 1 1 1 0.015709893709736956 0.01886058764127186 1 1 1 1 1 0.011518951244665685 1 1 1 1 1 1 1 1 1 1 1 1 1 1 1 1 1 1 0.014455278638719798 1 1 1 0.011906072106039415 1 1 1 1 1 1 1 0.016301703628130021 1 1 1 1 0.015799951789848644 1 1 1 1 0.011516276314385428 1 1 1 0.011462921496605098 1 0.013533036859757997 1 1 1 0.011634326868674336 1 1 1 1 1 1 1 1 1 1 1 1 1 1 1 1 1 1 1 1 1 1 1 1 1 0.0096694505760674451 1 1 1 1 1 1 1 0.011579118158111853 1 1 1 1 1 0.013619590311488039 1 1 1 0.012275946864802281 1 0.012356173225273801 1 1 1 1 1 1 0.011082004447130044 1 1 1 1 1 1 0.010849447425711102 1 1 1 1 1 1 1 0.011179887449297779 1 1 0.010413055930972529 1 1 1 0.01168688686615609 1 1 1 1 1 1 1 1 1 1 1 1 1 1 1 1 0.012953513485889802 1 1 1 1 1 1 1 1 1 0.011082214636707584 1 1 1 0.0089168473803456338 1 1 1 1 1 1 1 1 1 1 0.010154262919343392 1 1 1 1 1 1 0.013558377613162633 1 1 0.010035742995551367 1 0.012871808271838734 1 1 1 1 1 1 1 1 0.010591673950285837 1 1 1 0.011228787403647284 1 1 1 0.011992627469358379 1 1 1 1 0.010695619458502059 1 1 0.015300050931741504 1 0.010007815472380175 0.011778074356461042 0.014460232663294551 1 1 0.0095151388030146004 0.012348213381725554 1 1 1 0.010475646088534945 1 1 1 0.013234101055511593 1 1 1 1 1 1 1 1 1 0.010005797784455192 1 1 0.0099502698650182023 0.010474231567301822 0.0121378142865696 0.013343716801540891 0.011501706105150535 1 1 0.011417092058786592 1 1 1 1 1 1 1 1 1 1 1 1 1 1 1 1 1 1 0.010705338712615141 1 1 1 1 1 1 1 1 0.010568269794953978 1 1 1 1 1 0.011132414894283398 1 0.01079156036957649 0.0099996416586913845 1 1 1 1 0.012749055709136469 1 1 1 0.0097993458780368439 1 1 1 0.011463843369618932 1 0.013083436982995278 1 1 1 0.0100593146083895 0.011081249028734095 0.0099694825071591619 1 1 0.011050111193620758 1 0.010971487394070389 0.010943035622737187 1 0.0097944156841594729 1 1 1 0.013758904835138008 1 0.011386287469847819 1 1 1 1 1 1 1 1 1 1 1 1 1 1 1 1 1 1 1 1 1 1 1 1 1 0.010003206881253637 1 1 1 1 1 1 0.010004484844898038 1 1 1 1 1 1 0.0096674172979519732 0.0099771682840546633 1 1 1 1 0.010043270113626364 1 1 1 0.010000027805513215 1 1 1 1 0.0099534358344845874 1 0.010185903592105749 1 0.010012398222100038 1 1 0.011065373404005431 0.012103815108438993 1 1 0.011626758264510442 1 1 0.014379303053873995 0.010024220936917797 0.013169740462819574 1 1 0.012212333171298254 1 1 1 1 1 1 1 1 1 1 1 1 1 1 1 1 1 1 1 1 1 1 1 1 1 1 1 1 1 1 1 1 0.0099663605384128322 0.011973887351936864 1 1 1 1 1 0.011420252900287151 1 1 0.012501638413304764 1 1 0.01011496957526622 1 1 1 1 1 1 1 1 1 1 1 1 1 1 1 0.0097991048869412317 1 1 0.010002774984411156 0.010039947393988721 1 1 1 1 0.012210780125365568 0.010984383608845631 1 0.010000831549277552 0.0081543049022437947 1 0.013510544556773753 1 1 1 1 0.010000406345692964 1 0.0096120581868034648 1 1 0.01167254451612674 0.0088199893581824441 1 0.010006483188199579 0.0095918431790002617 1 1 0.008841383004607975 0.011555030742755594 0.011989578108670709 1 0.010073851894761187 1 1 1 1 1 1 0.011313060109042395 1 1 1 1 1 1 1 0.009938030081642792 0.010135479432043014 1 1 1 0.010307075662507964 1 1 1 1 0.010586177694556371 0.0096445038143825462 1 1 1 0.013576246111304939 1 1 1 1 1 1 1 1 1 1 1 1 1 1 1 1 1 1 1 1 1 1 1 1 1 1 1 1 1 1 1 1 1 1 0.010401744854504534 1 1 1 1 1 1 1 1 1 0.011029699676682313 1 1 1 1 1 1 1 1 0.0116748050875875 1 1 1 1 1 1 1 1 1 1 0.009871428669288352 0.012893614273786581 1 0.012088227176726767 1 1 0.01220864114794102 1 1 1 1 1 1 1 1 0.011463830365895916 1 1 1 1 1 1 0.012027448148496604 1 1 1 1 1 1 1 1 1 1 1 1 1 1 1 1 1 0.0106411907224606 1 1 0.01034248684223104 1 1 0.0097200683678427442 1 0.012229096433874102 1 1 1 1 0.014297218324551378 1 1 1 1 0.0099580536972748868 1 1 1 1 1 0.011023101386701491 1 1 1 1 1 1 1 1 1 0.01200895556108789 1 1 1 1 1 1 1 0.010071472879156541 1 1 1 0.010613414217834573 1 1 1 1 1 1 1 0.011804205270814858 1 1 1 0.010003381752704732 1 1 1 1 1 1 1 1 1 1 0.011317171960423134 1 1 1 0.012135486902263251 1 1 0.0099737604819014457 1 1 1 0.012977057774142663 1 1 1 1 1 0.013502124545564605 1 1 1 1 0.010000225353990512 1 1 1 1 1 1 1 1 1 1 1 1 1 1 1 1 1 0.010098497588172455 1 1 1 1 0.0101294418148021 1 1 1 1 1 0.010708203247848993 1 1 1 1 1 1 0.010147852749650445 1 1 1 1 1 1 1 1 1 1 1 1 1 0.011994733260608483 1 1 1 0.010614948306984541 1 0.0069480019664686296 1 0.013083345060382312 1 1 0.010363153536915441 1 1 1 0.0085255757877204432 1 1 1 1 1 1 1 1 0.0096282284834473698 1 1 1 1 1 0.011276679894174347 1 1 1 1 1 1 1 1 1 0.010360792030432324 1 1 1 0.011624659547356911 1 1 1 1 1 1 1 1 1 1 1 1 1 1 1 0.0098952349517806414 1 1 1 1 1 1 1 1 1 1 0.01048238966684137 1 1 1 0.011232297504927323 1 1 1 1 1 1 1 1 1 1 1 1 1 1 1 1 1 1 1 1 1 0.010344937834676621 1 0.010173704380617026 1 1 1 1 1 1 1 1 1 1 1 1 1 0.010306609690105528 1 1 1 1 1 1 1 1 1 1 1 1 0.010533734659457256 1 0.010159019639424798 1 1 1 1 1 1 1 0.010492009027236572 1 1 1 1 1 0.0085816005620309426 0.010330581125060918 0.0068863844008995546 1 1 1 0.0079874227632976483 1 1 1 1 1 1 1 1 1 1 1 1 1 1 1 1 1 1 1 1 1 1 1 1 1 1 1 1 1 1 1 1 1 0.0094980057377160969 1 0.01022712496935173 1 1 1 1 1 1 1 1 1 1 1 1 1 1 1 1 1 1 1 1 1 0.0093121264043186554 1 1 1 1 1 1 0.011716756889924023 1 1 1 1 1 1 1 0.011158207090553493 0.010556635987743991 1 1 1 1 1 1 1 1 1 1 0.010205724506655741 1 1 1 1 1 1 1 1 1 1 0.010596437519873379 1 1 1 1 1 1 1 1 1 1 1 1 1 1 1 1 1 1 1 1 1 1 1 1 1 1 1 1 1 1 1 0.010840834913862818 1 1 1 0.010812081682398226 1 1 1 1 1 0.011014123278944764 1 1 0.010205667125377973 1 0.0092907975150417939 0.011980203046681093 1 1 1 1 1 0.010629510704929743 1 1 1 0.0098802484271593993 1 1 1 1 1 1 1 1 1 1 1 1 1 1 1 0.01036053733731478 1 1 1 1 0.011232223517385124 1 1 1 1 1 1 0.010602712812455381 1 1 1 1 1 1 1 1 1 1 1 1 1 1 1 1 1 1 1 1 1 1 0.010722911146784437 1 1 1 1 1 1 1 1 1 1 1 1 1 1 1 1 1 1 1 1 1 1 1 1 1 1 1 1 1 1 1 1 1 1 1 1 1 1 1 0.011732578056986975 1 1 1 1 1 1 1 1 1 1 1 1 1 1 1 1 0.010271228881175994 1 1 1 1 1 1 0.011679688872395703 0.010584122111746582 1 1 1 1 0.0097649451418558644 1 0.010315408362003018 1 1 0.010897995775195613 1 1 1 1 1 1 0.010299172625318221 1 1 1 0.010785007655923062 1 1 1 1 1 0.0099279363222061039 1 1 1 1 0.012038493530500422 0.010359954299942081 1 0.0096401796791782297 1 1 1 1 1 1 1 1 1 1 1 0.010108722150244234 1 1 1 0.010802998083929276 1 1 1 1 1 0.011975184509855614 1 1 0.011235507436111743 1 1 1 1 1 1 0.013167020341013948 1 0.012192322877151449 1 1 1 1 1 1 1 1 1 1 1 1 1 0.010578205017839213 1 1 1 1 1 1 1 1 1 1 1 1 1 1 1 1 1 1 1 1 0.0098823239854065933 0.0096305048929654358 1 1 1 1 1 1 1 1 1 1 1 1 0.020700712086124104 1 1 0.015333457034715739 1 0.015855955845125891 1 1 1 1 1 1 1 1 1 1 0.01782532124603832 1 0.011235780863567317 1 0.015425786482114312 0.016319603465601948 1 1 1 1 0.013296799559445958 1 1 0.011124426260407024 1 1 1 1 1 0.010315284739214819 1 1 1 1 1 1 1 1 1 1 0.0095655172467347099 1 1 1 1 1 1 1 1 1 1 1 1 1 1 1 1 0.0088253672170886428 1 1 1 1 0.023516208426884976 1 1 0.023980336878294841 1 1 1 1 1 0.0088026489295287367 1 0.022259814546551973 1 0.0098390622261879303 1 1 1 1 1 1 1 0.010552330418313166 1 0.011729013977185941 0.0097167030968911983 1 1 0.010479290025434141 1 1 1 1 0.019372610462089726 1 1 0.010680898327867784 1 1 1 1 1 1 0.013848354496580083 1 1 1 1 1 0.010064734629760855 1 1 1 1 1 0.011071085346321494 1 1 1 1 0.011270274695081484 0.011311126715502893 1 0.012524720020848458 1 1 1 1 0.010774635190613042 1 0.012168977063823801 1 1 1 1 1 1 0.010186972298591227 1 1 1 1 1 1 1 1 1 0.0098233591350234094 1 0.0094274030238463459 1 1 1 1 1 1 1 1 0.011348111726931972 1 0.011293401276092446 1 1 1 0.012038380013270395 1 0.010116983720703746 1 1 1 1 1 1 1 1 1 0.010090238970562914 1 1 0.010473384511668528 1 1 1 1 1 1 1 1 0.01000739099765776 0.011273412383944871 0.010106844489298477 1 1 1 1 1 1 1 1 1 1 1 1 1 1 1 1 1 1 1 0.010127490799739165 1 1 1 0.0098896281934866791 0.01071336642720442 1 1 1 1 1 1 1 0.013921371944828766 1 1 1 1 1 1 1 1 1 1 1 0.010754778076515184 1 1 1 1 1 1 1 1 1 1 0.016692512141545442 1 1 1 1 1 1 0.019486722075425695 1 1 1 1 1 1 1 1 1 1 1 1 1 1 1 0.010354453549972848 1 1 1 1 0.010989135232885541 1 1 1 1 1 1 1 0.012120792186066534 1 0.011540929358030047 1 1 0.009912711549311214 1 1 1 0.012408624361497277 1 0.010739336893581884 1 0.014143094077637324 0.013259979495943474 1 1 1 0.016023440556807926 0.010170546748506671 1 1 1 1 1 1 1 1 1 1 1 1 1 1 1 1 1 1 1 1 1 1 0.011273047352987467 1 1 1 1 1 1 1 1 1 1 0.0099845485487751948 0.0096684822383793501 1 1 1 1 1 1 1 0.018011165341421175 1 1 1 0.019007238117893167 1 1 1 1 1 1 0.009711910280108536 0.012390261347010854 1 1 1 1 0.013033073660187935 1 1 1 1 1 0.020368390752417326 1 1 1 1 1 0.006818438595531464 1 1 1 1 1 1 1 1 1 1 1 0.010363014525293755 1 1 1 0.011300099106191501 1 1 1 1 1 1 1 1 1 1 1 1 1 1 1 1 0.010356202275516846 1 1 0.0079552664157609906 1 1 1 0.021880700116242578 0.014774477826060447 1 1 1 0.0082841883878054835 0.013003935808160333 0.0099631963360164322 1 1 1 1 0.010079879512463981 1 1 1 1 1 0.010207636346187265 0.012803713256284956 1 1 0.011864852431660057 1 0.013819218085761682 1 0.017819450349696959 1 1 1 0.0078761641441791284 1 1 0.010183440038385626 1 1 1 1 1 0.016983163792513457 1 1 1 1 1 1 1 1 1 1 1 1 1 1 1 1 1 1 1 1 1 1 1 0.010347579921151387 1 1 1 1 1 1 1 1 1 1 1 1 1 1 1 1 1 1 1 1 1 1 1 1 1 1 1 1 1 1 1 1 1 1 1 0.0097455070420983721 1 1 1 1 1 1 1 0.011828934882103894 1 1 1 1 0.0095592856230568533 1 1 0.0098137785809584745 1 1 1 1 1 0.01208143364389231 1 1 1 1 1 1 1 1 1 1 0.011928601158714766 0.011399144164828399 1 1 1 1 1 1 1 1 1 0.010017828744665539 1 1 1 1 1 0.010658563162373865 1 1 1 1 1 1 1 1 1 1 1 1 1 1 1 1 1 1 1 1 0.011307002060753069 1 0.011839478510751603 1 0.014079309875896411 1 1 1 1 1 1 1 1 0.010900533126016538 1 1 1 1 1 1 1 1 1 1 1 1 1 1 1 0.01064314500743278 1 1 1 1 1 1 1 1 1 1 1 1 1 1 1 1 1 1 1 1 1 1 0.011315948436698104 1 1 1 1 1 0.013268760682303964 1 0.0098235110871112124 1 0.0097189097429377595 1 1 1 0.011560831947727524 0.0092934886020569728 1 1 1 1 1 1 0.010915713371397736 0.0099986305632706642 0.0099787341644446605 1 0.011789706992205147 1 0.013018576433806515 1 1 1 1 1 1 0.014449230769401758 1 1 1 1 1 1 1 1 0.012898857614061263 1 1 1 0.010914965898123269 1 0.013404450607823196 1 1 0.011529482868251296 1 1 1 1 1 1 1 1 1 1 1 1 1 1 1 0.010306091763028803 1 1 1 1 1 1 1 0.010079880950628027 1 1 1 1 1 1 1 0.0063437688491266861 1 0.016652625682688927 1 1 0.013448755942243772 1 1 1 1 1 1 1 1 1 0.01028327324639049 1 1 1 1 0.010049763668911041 1 1 0.014906965098264566 0.0058031458221144035 1 1 1 1 1 1 1 1 0.013470253494109819 1 1 1 1 1 1 1 1 1 1 1 1 1 1 1 1 1 1 1 1 1 1 1 1 1 1 1 1 1 1 0.014274623860799862 1 1 1 1 1 1 1 1 1 1 1 0.010204512175016396 1 1 0.011454220368364604 1 1 1 1 1 1 1 1 1 1 0.010761624299425775 0.011330213807118052 1 1 1 1 0.010002585252783743 0.010020924134576364 1 1 1 1 0.013182865523804429 1 1 1 0.013957881309078584 1 1 1 1 1 1 1 1 1 1 1 1 1 0.01515416366544867 1 0.014267160068445053 1 1 1 1 1 0.010041581301295274 1 1 0.013655706213013543 1 1 1 1 1 1 1 1 1 0.010513856415223229 1 1 1 1 1 1 1 1 1 1 0.015217480602593406 1 1 1 0.0099528149187056297 1 1 1 1 1 1 1 1 1 1 1 1 1 0.013413502856845998 0.011706833417234141 0.010049159068208562 1 1 0.010462261761829711 1 1 1 1 1 1 1 1 1 1 1 1 1 1 0.010875129366173063 1 1 1 1 1 1 1 0.010218612290727864 1 1 1 1 1 1 1 1 1 1 1 1 1 1 1 1 0.01227993324332746 1 1 1 1 1 1 1 0.011558619441607413 1 1 1 0.014701230034160025 1 1 1 1 1 1 1 1 1 1 1 1 1 1 1 1 0.010566187796319423 1 1 1 1 0.014549553367014023 1 0.01376713759390211 1 1 1 1 0.012240877066389669 1 1 1 1 1 1 1 1 1 1 1 1 1 1 1 1 1 0.011600364519382761 0.010129986812989825 1 1 1 1 1 1 1 1 1 1 1 1 1 1 1 1 1 1 0.0095107090700177997 1 0.022237375107957306 1 1 1 1 1 1 1 1 0.0085541713099485679 1 1 0.0093543488426456566 1 0.0098490252210423884 1 1 1 1 1 1 1 1 1 1 1 1 1 1 1 1 1 1 1 1 1 1 1 1 1 1 1 1 1 1 1 1 1 1 1 1 1 1 1 1 1 1 1 1 1 1 1 1 1 1 0.009979670643638432 1 1 1 1 0.0096646586027445552 0.0092833870602231864 1 1 1 1 1 1 1 1 0.0092350878215789692 1 1 1 1 1 1 1 1 0.017294380989976484 1 1 1 1 0.0099263314527342199 1 0.015692568100692153 0.0096483637484169986 0.0073257649803757817 1 1 1 1 1 1 1 1 1 0.010289019729608471 1 1 1 1 1 1 1 1 1 1 1 0.013376580192119404 1 1 1 1 1 1 1 1 1 1 1 1 0.0095033753163549107 1 1 0.0099740362280709149 1 1 1 1 1 0.0091863292555816132 1 0.0093367538492119262 1 1 1 1 1 1 1 1 1 1 1 1 1 1 1 1 1 1 1 1 1 1 1 0.011638002252538476 1 1 1 1 1 1 1 1 1 1 1 1 1 1 1 1 1 1 1 1 0.011904774736364875 1 1 1 1 1 1 1 1 1 1 1 1 1 1 1 1 1 0.015825144407682339 1 1 0.010458735394422859 1 1 1 1 1 1 1 1 1 0.010460914894464551 0.014579897958580924 1 1 1 1 1 1 1 1 1 0.011550882824725165 1 0.01001241473887691 0.012934009352752679 1 1 0.011692418069778247 1 0.0099515031693786105 1 1 1 1 1 1 1 1 1 1 1 1 1 1 1 1 1 1 1 1 1 1 1 1 1 1 1 1 1 1 1 1 1 1 1 1 1 1 1 1 1 1 1 1 1 1 1 1 1 1 1 1 1 1 1 1 0.011256940582335112 1 0.012995518521916034 1 1 1 1 1 1 1 0.010686982389286609 1 1 0.011355381071884628 1 1 1 1 1 1 0.0098342442186489503 1 1 1 1 1 1 1 1 1 1 1 1 1 1 0.011260222394263792 1 1 1 0.01057324000497718 1 1 0.010151293497954888 1 1 1 1 0.010285122476639772 1 1 1 1 1 1 1 1 0.017046721483347377 0.010070947465687825 1 1 1 1 1 0.013920193109585576 1 1 0.010091912810916655 1 1 0.012937119954487056 1 1 1 1 1 0.011214213020563616 1 0.0099906588865166217 1 0.014154598684882468 1 1 1 0.014179344043636792 1 1 1 1 1 0.013561610286202203 1 1 1 0.013135955892749008 1 1 1 1 1 1 1 1 1 1 1 1 0.0088305694046072834 0.0094657106508247001 1 1 1 0.014498550937651081 1 1 1 1 0.014724822543901835 1 1 1 1 1 1 0.013864361983134146 1 1 1 1 1 1 1 1 1 1 1 1 1 0.015858545270653744 1 1 1 0.017683469687537211 1 1 1 1 1 1 1 1 0.0099097068627497665 0.0099276333865793917 1 1 0.015050004057861319 1 1 0.0098075327247251626 1 1 0.0097449863856787014 1 1 0.013759120964626113 1 0.011178555239786574 1 1 1 1 1 1 1 1 1 0.019835523150461096 1 1 1 1 1 1 1 1 1 0.0098432362540379972 1 1 1 1 1 1 1 1 1 1 0.010430973411388185 1 1 1 1 1 1 1 1 0.015158395823697181 1 1 1 1 1 1 1 0.014450614591232135 1 0.012421294210541771 1 0.013550647900873456 0.01008278281472152 0.0099963251849345749 0.010015448932235316 1 0.012035619719693908 1 1 1 1 0.011166363957424839 0.013921379075832709 1 0.012261564743392763 1 1 0.014118786961101901 1 1 1 1 0.014168036675488393 1 1 1 1 1 1 1 1 1 1 1 1 1 1 1 1 1 1 0.010000512704288922 1 1 1 1 0.0098331598709299663 0.010026149245791555 1 1 1 0.011699324715634186 1 0.01041834805568408 1 1 0.013392836230281676 1 1 0.010013561272510524 1 1 1 1 1 1 1 0.010508879414391435 1 1 1 1 1 1 1 0.010451815846642207 0.010050227091723166 0.010117324407451242 0.01054018188696065 1 1 1 1 1 1 1 1 1 1 1 1 1 1 1 1 1 1 1 1 1 1 1 1 1 1 1 1 1 1 1 1 1 1 1 1 1 1 1 1 1 1 1 1 1 1 1 1 1 1 1 1 1 1 1 0.010011322470321233 1 1 1 1 1 1 1 1 1 1 1 1 0.010075504038879406 1 1 1 1 1 1 1 1 1 1 1 1 1 1 1 1 1 1 1 1 1 1 1 1 1 1 1 1 1 1 1 1 0.010148950682803987 1 1 1 0.010127363214459822 1 1 1 1 1 1 1 1 1 1 0.010202803680032348 1 1 1 1 1 1 1 1 1 1 1 1 1 1 1 1 1 0.0099405684658530023 1 1 1 1 0.0098073897930318985 1 1 1 1 1 1 1 0.0096149569503592852 1 1 1 0.010358745482773025 1 1 1 1 1 1 1 1 1 1 1 1 1 1 1 1 1 1 1 1 1 1 1 1 1 1 1 1 1 1 1 1 1 1 1 1 1 1 1 1 1 1 1 1 1 1 1 1 0.009897956647024286 0.011871647032329673 0.01057424536150922 1 1 0.0094097282227206085 0.010445281518841418 1 1 1 1 1 1 1 1 0.012598312779786486 1 1 0.018427322385295576 1 0.010804118217137601 1 1 1 0.019015235105313805 1 0.014044375303950651 1 1 1 1 1 0.0098371739372849158 1 1 1 1 1 1 1 1 1 1 1 1 1 1 1 1 1 1 1 1 1 1 1 1 1 1 1 1 1 1 1 1 0.010043990722567418 1 1 0.011715730458977433 1 0.014486500494367737 1 1 1 1 1 1 0.0099323688115728181 1 1 0.010018320687127456 1 1 1 1 1 1 1 0.012860796002163824 1 0.01346837458177421 1 0.010891146375743489 1 1 1 1 0.016290761667546706 1 0.0098453140901870306 1 1 1 1 1 1 1 0.01239397638011476 0.014110052784996345 0.011711480978939523 1 1 1 1 1 1 1 1 1 1 1 1 1 1 1 1 1 1 1 1 1 1 1 1 1 1 1 0.0099290900890046541 1 1 0.010103633369128458 1 1 1 1 1 1 1 1 1 1 1 1 1 1 1 1 1 1 1 1 1 1 1 1 1 1 1 1 1 1 1 1 1 1 0.010445218763992403 1 0.012599862144287481 1 0.010001172830901066 1 1 1 1 0.010144614676889693 1 1 1 1 0.013350629893576292 0.013104173761138271 1 1 1 1 0.013686547309615864 1 1 0.013250545823910642 0.013539827807688667 1 1 0.013377352094780252 1 1 1 1 1 1 0.010810295705003171 1 1 1 1 1 1 1 0.0098224328164264862 0.0098622341428621779 1 1 1 0.013762440894782395 1 1 0.011509415748573448 1 1 1 1 1 1 1 1 1 1 1 1 0.011077948986194353 1 1 1 0.010389397951990361 1 1 1 1 1 1 1 0.013490746404506739 1 0.011225050308559494 1 1 0.014032689328633703 0.015786339214660432 0.01044283807871705 1 1 1 1 1 1 1 1 1 1 1 1 1 1 0.019623997097332823 1 1 1 1 0.019489138442151901 1 1 1 1 1 1 1 1 0.018893143591767296 1 1 1 0.01806227167408158 1 1 1 1 1 1 1 1 1 1 1 1 1 1 1 1 1 1 1 1 0.0083168323261569796 1 1 1 1 0.010939733281040087 1 0.010327508342764817 1 1 1 1 1 1 1 1 1 1 1 1 1 1 1 1 1 1 1 1 1 1 1 1 1 1 1 1 1 1 1 1 0.010366255799013818 1 1 1 1 1 1 0.015025946707238294 1 1 1 1 0.010741580604325408 1 1 1 0.0087999348561914117 1 0.010000629256252141 1 1 1 1 1 1 1 0.010096079957378695 1 1 1 1 1 1 1 1 0.012347554748079755 1 1 1 0.010954560299418603 1 1 1 0.010072474989293215 1 1 1 1 1 1 1 1 1 1 0.011016104425290062 1 1 0.011117642354456107 1 1 1 1 1 1 1 1 1 1 1 1 1 1 1 1 1 1 1 1 1 1 1 1 1 0.010082960367338894 1 1 1 1 1 0.013116347944723064 0.010019144602913047 1 0.0092648255763914909 0.01121520717779928 1 0.011674424117029063 1 0.0096975804765631925 1 1 1 1 1 0.0097844860294714082 1 0.011467448671985105 0.011099521387686301 0.0093764037970570594 1 1 0.0098332649378277195 1 1 1 0.0099850979868537498 1 1 1 1 1 1 0.0087495869642848396 1 1 1 1 1 1 1 1 1 1 1 1 0.0096136053198487975 1 1 1 1 1 1 1 1 1 1 1 1 1 1 1 1 1 1 1 1 0.010780617767473433 1 0.010839323763276442 1 1 1 0.010413916231419941 1 1 0.010496988939621124 1 1 1 1 1 1 1 1 1 1 1 1 1 1 1 1 1 1 1 0.0099329482991771731 0.010338150180421453 1 1 1 1 1 1 0.010323925392921573 1 0.010152735017862327 1 1 0.010537382615526973 1 1 1 0.010157657799858069 1 0.010252355496020236 1 1 1 1 1 1 0.0099460949850782125 1 0.0099628080645401407 1 1 1 1 1 1 1 1 1 1 1 1 1 1 1 1 1 1 1 1 1 1 1 1 1 1 1 1 1 1 1 1 1 1 1 1 1 1 1 1 1 1 1 1 1 1 1 1 1 1 1 0.011085280294497207 1 1 1 1 1 1 1 1 1 0.010522578937292144 1 1 0.010460116056182672 1 1 1 1 1 0.011648647427785278 1 1 1 1 0.011035434461079005 1 1 1 1 1 0.0096441735160785105 1 1 1 1 1 1 0.0097929037913382366 1 0.0095482568025783421 1 1 0.0095803495185252264 1 0.010957540960535497 1 1 1 1 1 1 0.010791981664199223 1 1 1 1 1 1 1 1 0.010127154196429983 1 1 1 1 1 0.010421332528086649 1 1 1 0.0094670744746872901 1 1 0.0098582002714587835 1 1 1 1 1 1 1 1 1 1 1 0.010400549509660241 1 1 1 1 1 1 1 1 1 1 1 1 1 1 0.01031195763512557 1 1 1 1 1 1 1 1 1 1 1 1 0.0099800344077229514 1 1 1 1 1 1 1 1 1 0.010765013979862254 1 1 1 1 1 0.0098945931269306293 1 1 1 0.011105888700200989 1 1 0.0098862446137469376 1 0.0097768472450036961 1 0.010453056344736679 1 1 1 1 1 1 1 1 1 1 1 1 1 1 1 1 1 1 1 1 1 1 1 0.010591090577426932 1 1 1 1 1 1 1 1 1 1 1 1 1 1 0.010199658422887965 1 1 1 1 0.0089541885085317376 1 1 0.0083137397445204944 0.0090303566113514207 1 1 1 1 0.0086584786401958241 1 0.010138441915751641 0.0087786261910862869 1 1 0.014133034431944552 1 0.013213600513580094 0.011821594487471554 0.010689901010121138 1 0.0089102319191144402 1 1 1 1 1 0.013866017971837792 1 1 1 1 1 0.015896147421017873 0.009947642526602074 1 1 1 0.010208960981167404 1 1 0.010122448306860064 1 1 1 1 0.010047339820580762 1 1 1 1 1 0.0096441476855863226 1 1 1 1 1 1 1 1 1 1 1 1 1 1 1 1 1 1 1 0.0098956759004466596 1 1 1 1 1 1 1 1 1 1 1 0.012158835960645244 1 1 1 1 1 1 1 1 1 1 0.0097704228297545437 1 1 1 1 1 1 1 0.0085547571551777626 1 1 1 1 1 1 1 1 0.013288831549384102 1 1 1 0.012882540732766661 0.0090154912624921986 0.0099959389710001754 1 1 0.0118855094395116 1 0.012867256798295475 0.011849818288683197 1 0.0091076746288045116 0.0085075117217284103 0.010023519882969737 1 1 1 1 1 1 1 1 1 0.010878787472707169 1 1 1 1 1 1 0.015931033921673748 1 1 1 0.010288411153179883 1 1 1 0.014570194395990693 1 1 1 1 1 1 1 1 1 1 1 1 1 1 1 1 0.010820864714369466 1 1 1 1 1 1 1 1 1 1 1 1 1 1 1 1 1 1 1 1 1 1 1 1 1 0.0095972279963448572 1 1 0.0088336292365284903 0.011324504787472239 1 0.011241299911238782 0.010011875728555882 1 1 1 1 1 1 1 1 1 1 1 1 1 1 1 1 1 1 0.010519712022200924 1 1 1 1 1 1 1 1 1 1 1 1 1 0.010125352814575082 1 1 1 1 1 1 1 1 1 1 1 1 1 1 1 1 1 1 1 1 1 1 1 1 0.010021627395114967 1 1 1 1 1 1 1 1 1 1 0.010194154283540454 1 1 1 1 1 1 1 1 1 1 1 1 1 0.010264524163895068 1 1 1 1 1 1 1 1 1 1 1 0.0099780699190609549 1 1 1 1 1 1 1 1 1 1 1 1 1 1 1 1 1 1 1 1 1 1 1 1 0.011670669079044722 1 0.0087290445042510784 1 1 1 1 1 1 1 1 1 1 0.016197847265590641 0.011119660688465477 1 1 1 1 0.0090822968388923168 1 1 1 0.0081142023835773566 1 1 1 1 1 1 1 1 1 0.010163439923589859 1 0.010369807808586189 0.016198652607942635 1 1 1 1 0.012617673367767403 1 1 1 1 1 1 1 1 1 1 1 1 0.010248001603912864 1 1 1 1 0.0095640529215076982 1 1 0.009855469613971931 1 1 1 1 1 1 0.010490186680213415 1 1 1 1 1 1 1 0.010167690538281419 1 0.0099974336222283175 1 1 1 1 1 1 1 1 1 1 1 1 1 1 1 1 1 1 1 1 1 1 1 1 1 0.010132703984941187 1 0.010303869348990245 1 1 1 1 1 0.0099823919858319336 1 1 0.010203582352939545 1 1 1 0.010041406935692214 1 0.010376455384354215 1 0.010694730382143186 1 1 1 1 0.0109693933815303 1 1 0.010259516864548389 1 1 1 0.011180376600863238 1 1 1 1 1 1 1 1 1 1 1 1 1 1 1 1 1 1 1 1 0.010790790198150751 1 0.010524085645679764 1 1 0.010409611342447335 0.0099629980114946028 1 1 0.01075756556030171 0.010326645482827863 0.010449169832226143 1 0.010075346828314884 1 1 0.011307545076493345 0.011222999523324017 0.010647194949386573 1 1 1 1 0.011218216442679008 1 0.010640462024991033 1 1 0.010107159898926795 0.011024536573514003 1 1 0.010294637919625965 1 0.010207944236869965 1 1 1 1 1 1 0.010148000469644296 1 1 1 1 1 0.0098954723724739811 1 1 0.010793489006086596 0.011284001800462734 1 1 1 1 1 1 1 0.010937282538340356 1 0.0099961756329219418 1 1 1 0.01150894591894434 1 1 0.01030800313673353 1 1 0.010009364099720031 0.010835707386430667 0.012103320787601537 1 1 0.01113128500708147 1 1 1 1 1 1 1 1 1 1 1 1 1 1 1 1 1 1 1 1 1 1 1 0.013783890824504635 1 0.013267561392954947 1 1 1 1 1 1 1 1 1 1 1 1 1 1 0.014232630819099819 1 1 1 0.010022699523051092 1 0.0095720609715230203 1 1 1 1 0.010113861440235678 1 1 1 1 0.012075670686735998 1 0.011707629237977468 1 1 1 0.0097158487812412965 1 1 1 0.0099814801897046626 1 1 0.010261327396829792 1 1 1 1 0.01096714406844965 1 1 1 1 1 1 1 1 0.01001061491823782 1 0.010525902571161287 1 1 1 0.010957627023622499 1 1 0.010328831662425569 1 1 0.0098767147580341927 1 1 0.0096849844706235113 1 0.010573566909246636 1 1 1 1 1 1 1 1 0.010273055629958448 0.010000345009258664 1 0.010760702149831158 1 1 0.0099055216017863261 1 0.0098910729307062281 1 1 1 1 0.0099999780047675558 1 1 1 1 1 1 1 1 1 1 1 1 1 1 1 1 1 1 1 1 1 1 1 1 1 1 1 1 1 1 1 1 1 1 1 1 1 1 1 1 1 1 1 1 1 1 1 1 1 1 1 1 1 1 1 1 1 0.013024203756424928 1 0.011044993843606285 1 1 1 1 1 1 1 1 1 1 1 1 1 1 1 1 1 1 1 1 1 1 1 1 1 1 1 0.0097680569269736964 1 1 0.014035001092239607 1 1 1 1 1 1 1 1 1 0.010667532627227652 1 1 1 0.010410756271487763 1 1 0.015821046763535046 1 1 1 1 1 1 1 0.015154045653065641 1 1 1 1 1 1 1 1 1 1 1 1 1 1 1 1 1 0.010469730962522617 0.010206358157294296 1 1 0.010757713766059164 1 1 1 1 1 1 0.0097039411898605689 1 1 1 1 1 1 1 0.012539440547425337 1 1 1 1 1 0.0089726691376682231 1 1 0.012469462261048107 1 1 0.01019808098668378 1 1 0.011926284898906538 1 1 1 1 1 1 0.013523805999207689 1 1 1 1 0.010556137327766597 0.013628509275166803 1 1 1 1 0.010074240318825985 1 1 1 1 0.0097714269824509259 1 1 1 1 1 0.0099860240819830484 1 1 0.015997380158754061 1 1 0.014273374186758475 1 1 1 1 1 1 1 1 1 0.015318533009949318 1 1 1 1 1 1 1 1 1 1 0.012199579016485758 1 1 1 1 0.010720448716780864 1 0.014547359788122726 1 1 1 1 1 1 1 0.010971332701311284 1 1 1 1 1 1 1 1 1 1 1 1 1 1 1 1 1 1 1 1 1 1 1 1 1 1 1 1 1 1 1 0.010539559989968425 1 1 1 1 1 1 1 1 0.014753144957519884 1 1 1 1 1 1 1 1 0.013877644741792448 1 0.012682780906814231 1 1 1 1 1 1 1 1 1 1 1 1 1 0.011009592882847197 1 1 1 1 1 1 1 1 1 1 1 1 1 1 1 0.0099057812603059441 1 1 1 0.017772321894142462 1 0.018439945733873857 1 0.0099961631974792194 1 1 1 0.015354524211690493 1 1 1 1 1 1 1 0.010083247454993701 1 1 1 1 1 0.011335897080623563 0.014229079199731749 1 0.014221842931356667 1 1 1 1 0.010371925105279864 0.009996995424813639 1 1 1 1 1 0.012533210767263863 1 1 1 1 0.01035569203510201 0.015523668010054843 1 1 0.011569080121026523 1 1 1 1 1 1 1 1 1 1 1 1 1 1 1 1 1 1 1 1 1 1 1 1 1 1 1 1 1 1 1 1 1 1 1 1 1 1 1 1 1 1 1 1 1 1 1 0.009798580297045504 1 1 1 1 1 1 1 1 0.0099052249384097516 1 1 1 1 1 1 1 1 1 1 1 1 1 1 1 1 1 1 1 1 1 1 1 1 1 1 1 1 1 1 1 1 1 0.0086560747372707424 1 1 1 1 0.014055288698452337 1 0.011669267201825385 1 1 1 1 1 1 0.010751707944342149 1 1 1 1 1 1 1 1 1 1 1 0.0099562047362385941 1 1 1 1 1 1 1 1 1 1 1 0.011303543864463301 1 1 1 0.012987142316142375 1 1 0.011845939695422223 1 1 1 1 1 0.010481832871433875 0.010692913140882649 1 1 1 1 1 1 0.009966309069839939 1 1 1 1 1 1 1 1 1 1 0.010372022662585096 1 1 1 1 1 0.010535066068620605 1 1 1 1 1 0.009835929270389036 1 0.011334547353644668 0.0098638104890453292 1 1 0.0099455953350516251 1 1 0.010220722547573564 0.010311089503925449 1 0.010087418205201324 1 0.010789804139665066 0.010337108974833165 1 1 0.010489514893957547 1 1 1 1 0.010509225627887366 1 1 0.0099859880826555746 1 0.01016116968985019 0.011982305813410209 1 1 1 1 1 1 0.010851162690052919 1 0.010379957900227955 1 1 1 0.010278401772357594 1 1 1 1 1 1 1 1 0.01205870660945854 0.010010272856521132 0.012640763408866135 1 1 1 1 1 1 1 1 1 1 1 1 1 1 1 0.013967087871750132 0.0099926052618852165 1 1 1 1 1 1 1 0.012817893551220082 1 1 0.0099938327687415385 1 1 1 0.011022750597043076 0.010463745024600827 1 0.010595677595213078 1 1 1 1 0.010797512611843854 1 1 1 0.0099409399825531198 0.010837383449634475 1 1 1 0.010003285977641708 0.011024775812337845 1 0.010060008568295729 1 1 1 0.010464116596589476 0.012247305371177724 1 1 1 1 1 1 0.012316677981114259 1 1 1 1 1 0.010700605321281148 0.011243299257181117 1 1 1 1 1 0.010191408423488878 1 0.011948196846982574 1 1 0.0096166752272154477 1 1 0.00972716783463814 0.011080656617005632 0.010059677778961364 1 1 1 1 1 1 1 1 1 1 1 1 0.010186412083571952 1 1 1 1 1 0.010070538792114064 1 0.0099744493122022205 1 1 1 1 1 0.010766641051802023 1 1 1 1 1 1 1 1 1 1 1 1 1 1 1 1 1 1 1 0.010081468737441691 1 1 1 1 1 1 1 1 1 0.010127304752955155 1 1 1 1 0.010021270287493696 0.010393015559903487 1 1 1 1 1 1 0.010328741015211761 0.010659425491185093 1 1 0.010112594841936107 1 1 0.010672856300208991 1 1 0.014153420943997592 1 0.010002344039601751 0.010708318651274765 1 0.014704970188732638 0.0096952935533438801 1 1 1 0.01415372727943528 1 1 1 1 1 1 1 0.010268736737015895 1 1 0.013216184361079129 1 1 1 0.010803250688511059 1 0.010002465463743126 1 1 1 1 0.0098354031846753891 0.013663345531723924 1 1 0.013372918892767668 1 1 1 1 1 1 1 1 1 1 1 0.010150505761390295 1 0.009449328384698457 0.011985363490974675 0.013852100299360407 1 1 1 1 1 1 1 1 0.011432601274216225 1 1 0.010010214671806537 1 1 1 1 1 1 0.011684943236440305 1 1 1 0.011779670537129651 1 1 1 0.011920690648493605 1 1 1 0.012351370978904678 1 1 0.013897823357935652 1 1 0.009997399768156329 1 1 1 1 1 1 0.010948108978591975 1 0.013046551978049237 1 1 0.010044283228289746 1 0.012776993342133622 0.012461002989946266 0.0093925929353084574 1 1 1 1 0.010004184492705331 1 1 0.012901153787852027 0.0093235108589078061 1 1 0.010189588472121145 1 1 1 1 1 1 1 1 1 1 1 0.010041999243478742 1 1 1 0.012514608436669104 0.012329144367938572 1 0.010679840471615914 0.0099856328741166032 1 1 1 0.011932385091852942 1 1 1 1 1 1 1 1 0.0098967246126517548 0.010159467482408355 1 1 1 1 1 1 1 1 0.010426291631194158 1 1 1 0.01121818413046928 0.011159642558285374 1 1 1 1 0.011697860853187058 1 1 1 1 1 1 0.0099719809990101924 1 1 1 1 1 1 1 1 1 1 1 1 0.010109727396088217 1 1 1 1 1 1 1 1 1 1 1 1 1 1 1 1 1 1 1 1 1 1 1 0.0098600120081786501 1 1 0.0096647105172601271 1 1 1 1 1 1 1 1 1 1 1 1 1 1 1 1 1 1 1 1 1 1 1 1 1 1 1 1 1 1 1 1 1 1 1 1 1 1 1 0.0098957912787059413 1 1 1 1 1 0.011329060619405543 1 1 1 1 1 1 1 1 0.013206657613125816 0.0091252477702453514 1 1 1 1 1 1 1 1 1 0.012706628950981243 1 1 1 1 0.0098812772688033172 1 1 1 1 1 0.010070841682411754 1 1 0.01206386581465837 1 1 0.011856635543615074 1 1 1 1 1 1 1 0.010742053792469154 1 1 1 1 1 1 1 1 1 1 1 1 1 0.010406817864586278 1 1 1 0.0099197850037010208 1 0.010115123022813007 0.012160312314784469 1 1 1 1 1 1 1 1 1 1 1 1 1 1 1 1 1 1 1 1 1 1 1 1 1 1 1 1 1 1 1 1 1 1 1 1 1 1 1 1 1 1 1 1 1 1 1 1 1 1 1 1 0.010040005728148105 1 1 1 1 1 1 1 1 0.013403726468344528 1 0.010574632056144824 1 1 1 1 1 1 1 1 1 1 1 1 1 1 1 1 1 1 1 1 1 1 1 1 1 0.010355158707332416 1 1 1 1 1 1 0.010849657050633883 1 1 1 1 1 1 1 1 1 1 1 1 1 1 1 1 1 0.01832466158876837 1 1 1 1 1 1 1 1 1 1 1 1 1 1 0.020927707265665566 1 1 0.02277527761261168 1 1 1 0.023945356448255323 1 1 1 1 1 1 1 1 1 1 1 1 1 1 1 1 0.010285785362318728 1 1 1 1 1 0.010162068491127937 1 1 1 0.010149887035653277 1 1 1 0.010067283725758623 1 1 1 1 1 1 1 1 1 1 1 1 1 1 1 1 1 1 1 1 1 1 1 1 0.0094485511899243708 1 1 1 1 1 1 1 1 1 1 1 1 1 1 1 1 1 1 1 0.010077368075524597 1 1 1 1 1 1 1 1 1 1 1 1 1 1 1 1 1 0.013773636511936343 1 1 1 1 0.0098647741636199316 0.012764242027946314 1 0.0087454611928205073 1 0.012204767750023986 1 0.010387685510263695 1 1 1 1 1 1 1 0.01122629906369303 1 0.00936900255770938 1 0.012543571716405513 0.010053313048886214 0.012863363246323263 0.013565809158158009 1 1 1 1 0.01342861042141252 0.014482539032890802 0.010664541862590474 1 1 1 1 1 1 1 0.011605464530963927 1 1 0.012078709741733026 1 0.011754382910135962 1 1 0.011072602253248185 0.011359617809745043 1 1 1 1 1 1 0.013032752649303432 1 1 0.0099512617506403774 1 1 1 1 0.01240662846036847 1 0.010236888736742774 0.011443757697863859 1 1 1 1 0.010048945270845374 1 0.014273950436512417 1 1 1 0.012930908899895611 1 1 0.014043983914087566 1 1 1 1 0.011078136218977516 1 1 1 1 1 1 1 1 1 1 1 1 1 1 1 0.024409796737253443 1 1 1 1 1 0.010361835531446571 1 1 1 1 0.015803431498643911 1 0.024135786507222021 1 1 1 1 0.0065851016962398517 1 1 0.01001487630597327 1 1 1 1 1 0.014739027636437406 1 0.010480528923689642 1 1 0.011497571462402292 1 1 1 1 1 1 1 1 1 1 0.010649909050482151 1 1 1 1 1 1 1 1 0.010414816418891647 1 1 1 1 1 1 1 1 1 1 0.0098054360600634029 1 1 1 1 1 1 1 1 1 1 1 1 1 0.0097016938869118382 1 0.0093269396573003489 1 1 1 1 1 1 1 1 1 1 0.0096624181752503827 0.010803689447481349 1 1 1 1 0.010000778663839135 0.013322573273203313 1 1 1 0.015390108109485627 1 1 1 0.010827905461533793 1 1 1 1 1 1 1 1 1 0.010407660633607339 1 1 1 1 0.01035188213683411 1 0.010064060552355231 1 1 1 1 1 1 1 1 0.0099453319056293128 1 1 1 1 1 1 1 0.011477580475711553 1 1 1 1 1 0.012589158212590521 1 1 0.01142216980193502 1 0.0099960994028336133 1 1 1 1 1 1 0.011625962091319381 1 1 1 1 1 1 1 1 1 1 0.0121582520487785 1 1 0.0099983634864783833 0.010731103728333741 1 1 1 1 1 1 1 1 0.011325248279390066 1 0.0087340640112453082 1 1 1 1 1 1 1 1 1 1 1 1 1 0.011741211308458498 1 0.010466927238460705 1 1 1 1 1 1 1 1 1 1 1 1 1 1 1 1 1 1 1 1 0.010084540845578853 1 0.012938474068902075 1 1 1 1 1 1 1 1 1 1 1 0.01415831122940517 1 1 1 0.015418844963515414 1 0.01107867293404419 1 1 1 0.011700148133059958 1 1 1 0.010002942994259308 0.010001186941545538 1 0.013146456889516892 1 0.014905383385384705 1 1 1 1 0.01489205765324487 1 1 1 0.014731792275018824 1 1 0.011072255000127835 1 0.012001556664852985 1 1 1 1 1 0.010144310343882277 1 1 1 1 1 0.013085169581207767 1 0.0075148470638196638 1 1 0.011038264790382236 1 1 1 0.014082902008401848 1 1 0.013207795720897688 1 1 1 0.010034204924565665 1 0.0095989544835723747 1 1 1 1 1 0.011982321616842855 1 1 1 1 0.010996464311890794 0.012509019729586793 1 0.010095961697373722 0.010609226136305478 0.010008783954467894 1 1 1 1 1 0.01065075188256959 1 0.010200468668082944 1 1 1 1 0.010590244247395929 1 1 1 1 1 1 1 1 1 1 1 1 1 1 1 1 1 1 1 1 1 1 1 1 1 1 1 1 1 0.0099976774871288997 1 1 0.010126807828078975 1 0.009378759227692374 1 1 1 0.010048908606206091 1 1 1 1 1 1 1 1 1 1 1 1 1 1 1 1 1 1 0.010111329914499013 1 1 1 1 1 1 1 1 1 1 0.010086402573821263 1 1 1 1 1 0.010231256084626571 1 1 1 1 1 1 1 1 1 1 1 1 1 1 1 1 1 0.019191533735400102 1 1 0.01748452064753063 1 1 1 1 1 1 1 1 1 1 1 1 0.0103934196979991 1 1 1 1 1 1 1 1 1 1 0.010153347803631951 1 1 1 1 1 1 1 1 1 1 1 1 0.016534512931310866 1 1 1 1 1 1 1 0.015194884049073038 1 1 1 1 1 1 1 1 1 1 1 1 1 1 1 1 1 1 1 1 0.010298201314437254 1 1 1 1 1 0.01051557921438393 1 1 1 1 1 1 1 1 1 1 1 1 1 1 1 1 1 1 1 0.012149691622239259 1 1 1 1 1 1 1 1 1 0.009482704289090987 1 1 1 0.0083748776225686886 1 1 1 1 1 0.010051701283799156 1 0.015696996962335556 1 1 0.010283644670659455 0.014039747610755467 1 1 1 1 1 1 1 1 1 1 1 1 0.01721464681522035 1 0.0099713297555827467 1 1 1 1 1 1 1 0.014580348849799531 0.014025019825911051 1 1 1 0.010428287570146367 1 0.011269602115243251 0.010031017688851399 1 1 1 1 1 1 1 1 0.0093634269224160717 1 1 0.010174142245459969 1 1 1 1 1 1 1 1 1 0.010309636426482187 1 1 1 1 0.0099853440641400736 1 1 1 1 1 1 1 1 1 1 1 0.015217671118590804 1 1 0.010834991732343154 1 1 1 1 0.012191537126105503 1 1 1 1 1 1 0.011128294492566616 0.010978107190449855 1 1 1 1 1 1 1 1 1 1 1 1 1 1 1 1 1 1 1 1 1 1 1 1 1 1 1 1 1 1 1 1 0.010300973434864021 1 0.010799106115600919 1 1 1 1 1 0.014670459176275852 1 1 0.012748198745983985 1 0.013951583911190354 1 1 1 1 1 1 1 1 0.012762121930818729 1 1 1 0.010784231367225026 1 1 1 1 0.012065789311027858 1 0.0091659455249628752 1 1 1 1 1 0.011193362779994338 1 1 1 0.010044854159492796 1 1 1 1 1 1 1 0.015046310599006581 1 1 1 1 0.012306815850892128 1 0.015164014998687674 1 1 1 0.0068175701591610249 1 0.013692375370105189 0.010100808901981673 1 1 0.0090432422017710339 1 1 1 1 1 1 1 0.012107625855886395 1 1 1 1 0.010035469992692133 0.011081954998032649 0.013332106619354947 1 1 1 1 1 1 0.010046805437523404 1 1 1 1 1 1 1 1 1 1 0.011276336841846323 1 1 1 1 1 1 1 1 1 0.0096410415103002182 1 1 0.013862603262947103 1 1 0.0095896540458247272 1 0.010553654105266774 1 1 1 0.010188674057608533 1 1 1 0.0084643210944228345 1 1 1 1 1 0.013940416877109688 1 1 1 1 1 1 1 1 1 1 0.013421433987176597 0.0098488788451957365 0.015770498680540104 1 1 1 1 1 1 0.015302194525122463 0.011516974975473769 1 1 0.010102089695524175 1 1 1 0.015823228987105684 1 1 1 1 1 1 0.010371947248963183 1 1 1 1 1 1 1 1 1 1 1 0.0098652700396942954 1 0.01018853761517961 1 1 0.01045703350783257 1 0.010480234856622358 1 1 1 1 1 1 1 1 1 1 1 0.011220933411475368 1 1 1 0.0099609123029872002 1 0.0098289123840272132 1 1 1 1 1 1 1 1 0.012244828362375936 1 1 1 1 1 1 1 0.0071656032430257892 1 0.0087834819534638175 1 1 1 1 1 1 1 1 1 1 1 0.0099534699042524832 1 0.014877049516451146 1 1 1 0.011498480596867318 1 1 1 1 0.013243251555859642 1 1 0.011379591680835572 0.0091129521674758879 1 1 1 1 1 1 0.012945710130379 1 1 1 0.010009533144647033 1 0.011087631398795986 1 0.011730930809315792 1 0.0090658238877788112 1 0.0085878155741091061 1 1 1 1 1 1 0.010338629961209721 0.012330399164438219 1 0.010043869181055069 1 1 1 0.011056555106421638 1 1 1 1 0.011673885077948814 1 1 1 0.010003290485490613 1 1 1 
</DataArray>
</CellData>
</Piece>
</UnstructuredGrid>
</VTKFile>
